<?xml version="1.0"?> 
<VTKFile type="UnstructuredGrid"> 
   <UnstructuredGrid> 
      <Piece NumberOfPoints="6000"  NumberOfCells="1500">  
          <Points>  
             <DataArray type="Float64" NumberOfComponents="3" format="ascii">   
-500.0   0.0   0.0
-450.0   0.0   0.0
-500.0   30.0   0.0
-500.0   0.0   16.666666666666668
-450.0   0.0   0.0
-450.0   30.0   0.0
-500.0   30.0   0.0
-450.0   30.0   16.666666666666668
-500.0   0.0   16.666666666666668
-500.0   30.0   16.666666666666668
-450.0   30.0   16.666666666666668
-500.0   30.0   0.0
-500.0   0.0   16.666666666666668
-450.0   30.0   16.666666666666668
-450.0   0.0   16.666666666666668
-450.0   0.0   0.0
-500.0   0.0   16.666666666666668
-450.0   30.0   16.666666666666668
-450.0   0.0   0.0
-500.0   30.0   0.0
-500.0   0.0   16.666666666666668
-450.0   0.0   16.666666666666668
-500.0   30.0   16.666666666666668
-500.0   0.0   33.333333333333336
-450.0   0.0   16.666666666666668
-450.0   30.0   16.666666666666668
-500.0   30.0   16.666666666666668
-450.0   30.0   33.333333333333336
-500.0   0.0   33.333333333333336
-500.0   30.0   33.333333333333336
-450.0   30.0   33.333333333333336
-500.0   30.0   16.666666666666668
-500.0   0.0   33.333333333333336
-450.0   30.0   33.333333333333336
-450.0   0.0   33.333333333333336
-450.0   0.0   16.666666666666668
-500.0   0.0   33.333333333333336
-450.0   30.0   33.333333333333336
-450.0   0.0   16.666666666666668
-500.0   30.0   16.666666666666668
-500.0   0.0   33.333333333333336
-450.0   0.0   33.333333333333336
-500.0   30.0   33.333333333333336
-500.0   0.0   50.0
-450.0   0.0   33.333333333333336
-450.0   30.0   33.333333333333336
-500.0   30.0   33.333333333333336
-450.0   30.0   50.0
-500.0   0.0   50.0
-500.0   30.0   50.0
-450.0   30.0   50.0
-500.0   30.0   33.333333333333336
-500.0   0.0   50.0
-450.0   30.0   50.0
-450.0   0.0   50.0
-450.0   0.0   33.333333333333336
-500.0   0.0   50.0
-450.0   30.0   50.0
-450.0   0.0   33.333333333333336
-500.0   30.0   33.333333333333336
-500.0   30.0   0.0
-450.0   30.0   0.0
-500.0   60.0   0.0
-500.0   30.0   16.666666666666668
-450.0   30.0   0.0
-450.0   60.0   0.0
-500.0   60.0   0.0
-450.0   60.0   16.666666666666668
-500.0   30.0   16.666666666666668
-500.0   60.0   16.666666666666668
-450.0   60.0   16.666666666666668
-500.0   60.0   0.0
-500.0   30.0   16.666666666666668
-450.0   60.0   16.666666666666668
-450.0   30.0   16.666666666666668
-450.0   30.0   0.0
-500.0   30.0   16.666666666666668
-450.0   60.0   16.666666666666668
-450.0   30.0   0.0
-500.0   60.0   0.0
-500.0   30.0   16.666666666666668
-450.0   30.0   16.666666666666668
-500.0   60.0   16.666666666666668
-500.0   30.0   33.333333333333336
-450.0   30.0   16.666666666666668
-450.0   60.0   16.666666666666668
-500.0   60.0   16.666666666666668
-450.0   60.0   33.333333333333336
-500.0   30.0   33.333333333333336
-500.0   60.0   33.333333333333336
-450.0   60.0   33.333333333333336
-500.0   60.0   16.666666666666668
-500.0   30.0   33.333333333333336
-450.0   60.0   33.333333333333336
-450.0   30.0   33.333333333333336
-450.0   30.0   16.666666666666668
-500.0   30.0   33.333333333333336
-450.0   60.0   33.333333333333336
-450.0   30.0   16.666666666666668
-500.0   60.0   16.666666666666668
-500.0   30.0   33.333333333333336
-450.0   30.0   33.333333333333336
-500.0   60.0   33.333333333333336
-500.0   30.0   50.0
-450.0   30.0   33.333333333333336
-450.0   60.0   33.333333333333336
-500.0   60.0   33.333333333333336
-450.0   60.0   50.0
-500.0   30.0   50.0
-500.0   60.0   50.0
-450.0   60.0   50.0
-500.0   60.0   33.333333333333336
-500.0   30.0   50.0
-450.0   60.0   50.0
-450.0   30.0   50.0
-450.0   30.0   33.333333333333336
-500.0   30.0   50.0
-450.0   60.0   50.0
-450.0   30.0   33.333333333333336
-500.0   60.0   33.333333333333336
-500.0   60.0   0.0
-450.0   60.0   0.0
-500.0   90.0   0.0
-500.0   60.0   16.666666666666668
-450.0   60.0   0.0
-450.0   90.0   0.0
-500.0   90.0   0.0
-450.0   90.0   16.666666666666668
-500.0   60.0   16.666666666666668
-500.0   90.0   16.666666666666668
-450.0   90.0   16.666666666666668
-500.0   90.0   0.0
-500.0   60.0   16.666666666666668
-450.0   90.0   16.666666666666668
-450.0   60.0   16.666666666666668
-450.0   60.0   0.0
-500.0   60.0   16.666666666666668
-450.0   90.0   16.666666666666668
-450.0   60.0   0.0
-500.0   90.0   0.0
-500.0   60.0   16.666666666666668
-450.0   60.0   16.666666666666668
-500.0   90.0   16.666666666666668
-500.0   60.0   33.333333333333336
-450.0   60.0   16.666666666666668
-450.0   90.0   16.666666666666668
-500.0   90.0   16.666666666666668
-450.0   90.0   33.333333333333336
-500.0   60.0   33.333333333333336
-500.0   90.0   33.333333333333336
-450.0   90.0   33.333333333333336
-500.0   90.0   16.666666666666668
-500.0   60.0   33.333333333333336
-450.0   90.0   33.333333333333336
-450.0   60.0   33.333333333333336
-450.0   60.0   16.666666666666668
-500.0   60.0   33.333333333333336
-450.0   90.0   33.333333333333336
-450.0   60.0   16.666666666666668
-500.0   90.0   16.666666666666668
-500.0   60.0   33.333333333333336
-450.0   60.0   33.333333333333336
-500.0   90.0   33.333333333333336
-500.0   60.0   50.0
-450.0   60.0   33.333333333333336
-450.0   90.0   33.333333333333336
-500.0   90.0   33.333333333333336
-450.0   90.0   50.0
-500.0   60.0   50.0
-500.0   90.0   50.0
-450.0   90.0   50.0
-500.0   90.0   33.333333333333336
-500.0   60.0   50.0
-450.0   90.0   50.0
-450.0   60.0   50.0
-450.0   60.0   33.333333333333336
-500.0   60.0   50.0
-450.0   90.0   50.0
-450.0   60.0   33.333333333333336
-500.0   90.0   33.333333333333336
-500.0   90.0   0.0
-450.0   90.0   0.0
-500.0   120.0   0.0
-500.0   90.0   16.666666666666668
-450.0   90.0   0.0
-450.0   120.0   0.0
-500.0   120.0   0.0
-450.0   120.0   16.666666666666668
-500.0   90.0   16.666666666666668
-500.0   120.0   16.666666666666668
-450.0   120.0   16.666666666666668
-500.0   120.0   0.0
-500.0   90.0   16.666666666666668
-450.0   120.0   16.666666666666668
-450.0   90.0   16.666666666666668
-450.0   90.0   0.0
-500.0   90.0   16.666666666666668
-450.0   120.0   16.666666666666668
-450.0   90.0   0.0
-500.0   120.0   0.0
-500.0   90.0   16.666666666666668
-450.0   90.0   16.666666666666668
-500.0   120.0   16.666666666666668
-500.0   90.0   33.333333333333336
-450.0   90.0   16.666666666666668
-450.0   120.0   16.666666666666668
-500.0   120.0   16.666666666666668
-450.0   120.0   33.333333333333336
-500.0   90.0   33.333333333333336
-500.0   120.0   33.333333333333336
-450.0   120.0   33.333333333333336
-500.0   120.0   16.666666666666668
-500.0   90.0   33.333333333333336
-450.0   120.0   33.333333333333336
-450.0   90.0   33.333333333333336
-450.0   90.0   16.666666666666668
-500.0   90.0   33.333333333333336
-450.0   120.0   33.333333333333336
-450.0   90.0   16.666666666666668
-500.0   120.0   16.666666666666668
-500.0   90.0   33.333333333333336
-450.0   90.0   33.333333333333336
-500.0   120.0   33.333333333333336
-500.0   90.0   50.0
-450.0   90.0   33.333333333333336
-450.0   120.0   33.333333333333336
-500.0   120.0   33.333333333333336
-450.0   120.0   50.0
-500.0   90.0   50.0
-500.0   120.0   50.0
-450.0   120.0   50.0
-500.0   120.0   33.333333333333336
-500.0   90.0   50.0
-450.0   120.0   50.0
-450.0   90.0   50.0
-450.0   90.0   33.333333333333336
-500.0   90.0   50.0
-450.0   120.0   50.0
-450.0   90.0   33.333333333333336
-500.0   120.0   33.333333333333336
-500.0   120.0   0.0
-450.0   120.0   0.0
-500.0   150.0   0.0
-500.0   120.0   16.666666666666668
-450.0   120.0   0.0
-450.0   150.0   0.0
-500.0   150.0   0.0
-450.0   150.0   16.666666666666668
-500.0   120.0   16.666666666666668
-500.0   150.0   16.666666666666668
-450.0   150.0   16.666666666666668
-500.0   150.0   0.0
-500.0   120.0   16.666666666666668
-450.0   150.0   16.666666666666668
-450.0   120.0   16.666666666666668
-450.0   120.0   0.0
-500.0   120.0   16.666666666666668
-450.0   150.0   16.666666666666668
-450.0   120.0   0.0
-500.0   150.0   0.0
-500.0   120.0   16.666666666666668
-450.0   120.0   16.666666666666668
-500.0   150.0   16.666666666666668
-500.0   120.0   33.333333333333336
-450.0   120.0   16.666666666666668
-450.0   150.0   16.666666666666668
-500.0   150.0   16.666666666666668
-450.0   150.0   33.333333333333336
-500.0   120.0   33.333333333333336
-500.0   150.0   33.333333333333336
-450.0   150.0   33.333333333333336
-500.0   150.0   16.666666666666668
-500.0   120.0   33.333333333333336
-450.0   150.0   33.333333333333336
-450.0   120.0   33.333333333333336
-450.0   120.0   16.666666666666668
-500.0   120.0   33.333333333333336
-450.0   150.0   33.333333333333336
-450.0   120.0   16.666666666666668
-500.0   150.0   16.666666666666668
-500.0   120.0   33.333333333333336
-450.0   120.0   33.333333333333336
-500.0   150.0   33.333333333333336
-500.0   120.0   50.0
-450.0   120.0   33.333333333333336
-450.0   150.0   33.333333333333336
-500.0   150.0   33.333333333333336
-450.0   150.0   50.0
-500.0   120.0   50.0
-500.0   150.0   50.0
-450.0   150.0   50.0
-500.0   150.0   33.333333333333336
-500.0   120.0   50.0
-450.0   150.0   50.0
-450.0   120.0   50.0
-450.0   120.0   33.333333333333336
-500.0   120.0   50.0
-450.0   150.0   50.0
-450.0   120.0   33.333333333333336
-500.0   150.0   33.333333333333336
-450.0   0.0   0.0
-400.0   0.0   0.0
-450.0   30.0   0.0
-450.0   0.0   16.666666666666668
-400.0   0.0   0.0
-400.0   30.0   0.0
-450.0   30.0   0.0
-400.0   30.0   16.666666666666668
-450.0   0.0   16.666666666666668
-450.0   30.0   16.666666666666668
-400.0   30.0   16.666666666666668
-450.0   30.0   0.0
-450.0   0.0   16.666666666666668
-400.0   30.0   16.666666666666668
-400.0   0.0   16.666666666666668
-400.0   0.0   0.0
-450.0   0.0   16.666666666666668
-400.0   30.0   16.666666666666668
-400.0   0.0   0.0
-450.0   30.0   0.0
-450.0   0.0   16.666666666666668
-400.0   0.0   16.666666666666668
-450.0   30.0   16.666666666666668
-450.0   0.0   33.333333333333336
-400.0   0.0   16.666666666666668
-400.0   30.0   16.666666666666668
-450.0   30.0   16.666666666666668
-400.0   30.0   33.333333333333336
-450.0   0.0   33.333333333333336
-450.0   30.0   33.333333333333336
-400.0   30.0   33.333333333333336
-450.0   30.0   16.666666666666668
-450.0   0.0   33.333333333333336
-400.0   30.0   33.333333333333336
-400.0   0.0   33.333333333333336
-400.0   0.0   16.666666666666668
-450.0   0.0   33.333333333333336
-400.0   30.0   33.333333333333336
-400.0   0.0   16.666666666666668
-450.0   30.0   16.666666666666668
-450.0   0.0   33.333333333333336
-400.0   0.0   33.333333333333336
-450.0   30.0   33.333333333333336
-450.0   0.0   50.0
-400.0   0.0   33.333333333333336
-400.0   30.0   33.333333333333336
-450.0   30.0   33.333333333333336
-400.0   30.0   50.0
-450.0   0.0   50.0
-450.0   30.0   50.0
-400.0   30.0   50.0
-450.0   30.0   33.333333333333336
-450.0   0.0   50.0
-400.0   30.0   50.0
-400.0   0.0   50.0
-400.0   0.0   33.333333333333336
-450.0   0.0   50.0
-400.0   30.0   50.0
-400.0   0.0   33.333333333333336
-450.0   30.0   33.333333333333336
-450.0   30.0   0.0
-400.0   30.0   0.0
-450.0   60.0   0.0
-450.0   30.0   16.666666666666668
-400.0   30.0   0.0
-400.0   60.0   0.0
-450.0   60.0   0.0
-400.0   60.0   16.666666666666668
-450.0   30.0   16.666666666666668
-450.0   60.0   16.666666666666668
-400.0   60.0   16.666666666666668
-450.0   60.0   0.0
-450.0   30.0   16.666666666666668
-400.0   60.0   16.666666666666668
-400.0   30.0   16.666666666666668
-400.0   30.0   0.0
-450.0   30.0   16.666666666666668
-400.0   60.0   16.666666666666668
-400.0   30.0   0.0
-450.0   60.0   0.0
-450.0   30.0   16.666666666666668
-400.0   30.0   16.666666666666668
-450.0   60.0   16.666666666666668
-450.0   30.0   33.333333333333336
-400.0   30.0   16.666666666666668
-400.0   60.0   16.666666666666668
-450.0   60.0   16.666666666666668
-400.0   60.0   33.333333333333336
-450.0   30.0   33.333333333333336
-450.0   60.0   33.333333333333336
-400.0   60.0   33.333333333333336
-450.0   60.0   16.666666666666668
-450.0   30.0   33.333333333333336
-400.0   60.0   33.333333333333336
-400.0   30.0   33.333333333333336
-400.0   30.0   16.666666666666668
-450.0   30.0   33.333333333333336
-400.0   60.0   33.333333333333336
-400.0   30.0   16.666666666666668
-450.0   60.0   16.666666666666668
-450.0   30.0   33.333333333333336
-400.0   30.0   33.333333333333336
-450.0   60.0   33.333333333333336
-450.0   30.0   50.0
-400.0   30.0   33.333333333333336
-400.0   60.0   33.333333333333336
-450.0   60.0   33.333333333333336
-400.0   60.0   50.0
-450.0   30.0   50.0
-450.0   60.0   50.0
-400.0   60.0   50.0
-450.0   60.0   33.333333333333336
-450.0   30.0   50.0
-400.0   60.0   50.0
-400.0   30.0   50.0
-400.0   30.0   33.333333333333336
-450.0   30.0   50.0
-400.0   60.0   50.0
-400.0   30.0   33.333333333333336
-450.0   60.0   33.333333333333336
-450.0   60.0   0.0
-400.0   60.0   0.0
-450.0   90.0   0.0
-450.0   60.0   16.666666666666668
-400.0   60.0   0.0
-400.0   90.0   0.0
-450.0   90.0   0.0
-400.0   90.0   16.666666666666668
-450.0   60.0   16.666666666666668
-450.0   90.0   16.666666666666668
-400.0   90.0   16.666666666666668
-450.0   90.0   0.0
-450.0   60.0   16.666666666666668
-400.0   90.0   16.666666666666668
-400.0   60.0   16.666666666666668
-400.0   60.0   0.0
-450.0   60.0   16.666666666666668
-400.0   90.0   16.666666666666668
-400.0   60.0   0.0
-450.0   90.0   0.0
-450.0   60.0   16.666666666666668
-400.0   60.0   16.666666666666668
-450.0   90.0   16.666666666666668
-450.0   60.0   33.333333333333336
-400.0   60.0   16.666666666666668
-400.0   90.0   16.666666666666668
-450.0   90.0   16.666666666666668
-400.0   90.0   33.333333333333336
-450.0   60.0   33.333333333333336
-450.0   90.0   33.333333333333336
-400.0   90.0   33.333333333333336
-450.0   90.0   16.666666666666668
-450.0   60.0   33.333333333333336
-400.0   90.0   33.333333333333336
-400.0   60.0   33.333333333333336
-400.0   60.0   16.666666666666668
-450.0   60.0   33.333333333333336
-400.0   90.0   33.333333333333336
-400.0   60.0   16.666666666666668
-450.0   90.0   16.666666666666668
-450.0   60.0   33.333333333333336
-400.0   60.0   33.333333333333336
-450.0   90.0   33.333333333333336
-450.0   60.0   50.0
-400.0   60.0   33.333333333333336
-400.0   90.0   33.333333333333336
-450.0   90.0   33.333333333333336
-400.0   90.0   50.0
-450.0   60.0   50.0
-450.0   90.0   50.0
-400.0   90.0   50.0
-450.0   90.0   33.333333333333336
-450.0   60.0   50.0
-400.0   90.0   50.0
-400.0   60.0   50.0
-400.0   60.0   33.333333333333336
-450.0   60.0   50.0
-400.0   90.0   50.0
-400.0   60.0   33.333333333333336
-450.0   90.0   33.333333333333336
-450.0   90.0   0.0
-400.0   90.0   0.0
-450.0   120.0   0.0
-450.0   90.0   16.666666666666668
-400.0   90.0   0.0
-400.0   120.0   0.0
-450.0   120.0   0.0
-400.0   120.0   16.666666666666668
-450.0   90.0   16.666666666666668
-450.0   120.0   16.666666666666668
-400.0   120.0   16.666666666666668
-450.0   120.0   0.0
-450.0   90.0   16.666666666666668
-400.0   120.0   16.666666666666668
-400.0   90.0   16.666666666666668
-400.0   90.0   0.0
-450.0   90.0   16.666666666666668
-400.0   120.0   16.666666666666668
-400.0   90.0   0.0
-450.0   120.0   0.0
-450.0   90.0   16.666666666666668
-400.0   90.0   16.666666666666668
-450.0   120.0   16.666666666666668
-450.0   90.0   33.333333333333336
-400.0   90.0   16.666666666666668
-400.0   120.0   16.666666666666668
-450.0   120.0   16.666666666666668
-400.0   120.0   33.333333333333336
-450.0   90.0   33.333333333333336
-450.0   120.0   33.333333333333336
-400.0   120.0   33.333333333333336
-450.0   120.0   16.666666666666668
-450.0   90.0   33.333333333333336
-400.0   120.0   33.333333333333336
-400.0   90.0   33.333333333333336
-400.0   90.0   16.666666666666668
-450.0   90.0   33.333333333333336
-400.0   120.0   33.333333333333336
-400.0   90.0   16.666666666666668
-450.0   120.0   16.666666666666668
-450.0   90.0   33.333333333333336
-400.0   90.0   33.333333333333336
-450.0   120.0   33.333333333333336
-450.0   90.0   50.0
-400.0   90.0   33.333333333333336
-400.0   120.0   33.333333333333336
-450.0   120.0   33.333333333333336
-400.0   120.0   50.0
-450.0   90.0   50.0
-450.0   120.0   50.0
-400.0   120.0   50.0
-450.0   120.0   33.333333333333336
-450.0   90.0   50.0
-400.0   120.0   50.0
-400.0   90.0   50.0
-400.0   90.0   33.333333333333336
-450.0   90.0   50.0
-400.0   120.0   50.0
-400.0   90.0   33.333333333333336
-450.0   120.0   33.333333333333336
-450.0   120.0   0.0
-400.0   120.0   0.0
-450.0   150.0   0.0
-450.0   120.0   16.666666666666668
-400.0   120.0   0.0
-400.0   150.0   0.0
-450.0   150.0   0.0
-400.0   150.0   16.666666666666668
-450.0   120.0   16.666666666666668
-450.0   150.0   16.666666666666668
-400.0   150.0   16.666666666666668
-450.0   150.0   0.0
-450.0   120.0   16.666666666666668
-400.0   150.0   16.666666666666668
-400.0   120.0   16.666666666666668
-400.0   120.0   0.0
-450.0   120.0   16.666666666666668
-400.0   150.0   16.666666666666668
-400.0   120.0   0.0
-450.0   150.0   0.0
-450.0   120.0   16.666666666666668
-400.0   120.0   16.666666666666668
-450.0   150.0   16.666666666666668
-450.0   120.0   33.333333333333336
-400.0   120.0   16.666666666666668
-400.0   150.0   16.666666666666668
-450.0   150.0   16.666666666666668
-400.0   150.0   33.333333333333336
-450.0   120.0   33.333333333333336
-450.0   150.0   33.333333333333336
-400.0   150.0   33.333333333333336
-450.0   150.0   16.666666666666668
-450.0   120.0   33.333333333333336
-400.0   150.0   33.333333333333336
-400.0   120.0   33.333333333333336
-400.0   120.0   16.666666666666668
-450.0   120.0   33.333333333333336
-400.0   150.0   33.333333333333336
-400.0   120.0   16.666666666666668
-450.0   150.0   16.666666666666668
-450.0   120.0   33.333333333333336
-400.0   120.0   33.333333333333336
-450.0   150.0   33.333333333333336
-450.0   120.0   50.0
-400.0   120.0   33.333333333333336
-400.0   150.0   33.333333333333336
-450.0   150.0   33.333333333333336
-400.0   150.0   50.0
-450.0   120.0   50.0
-450.0   150.0   50.0
-400.0   150.0   50.0
-450.0   150.0   33.333333333333336
-450.0   120.0   50.0
-400.0   150.0   50.0
-400.0   120.0   50.0
-400.0   120.0   33.333333333333336
-450.0   120.0   50.0
-400.0   150.0   50.0
-400.0   120.0   33.333333333333336
-450.0   150.0   33.333333333333336
-400.0   0.0   0.0
-350.0   0.0   0.0
-400.0   30.0   0.0
-400.0   0.0   16.666666666666668
-350.0   0.0   0.0
-350.0   30.0   0.0
-400.0   30.0   0.0
-350.0   30.0   16.666666666666668
-400.0   0.0   16.666666666666668
-400.0   30.0   16.666666666666668
-350.0   30.0   16.666666666666668
-400.0   30.0   0.0
-400.0   0.0   16.666666666666668
-350.0   30.0   16.666666666666668
-350.0   0.0   16.666666666666668
-350.0   0.0   0.0
-400.0   0.0   16.666666666666668
-350.0   30.0   16.666666666666668
-350.0   0.0   0.0
-400.0   30.0   0.0
-400.0   0.0   16.666666666666668
-350.0   0.0   16.666666666666668
-400.0   30.0   16.666666666666668
-400.0   0.0   33.333333333333336
-350.0   0.0   16.666666666666668
-350.0   30.0   16.666666666666668
-400.0   30.0   16.666666666666668
-350.0   30.0   33.333333333333336
-400.0   0.0   33.333333333333336
-400.0   30.0   33.333333333333336
-350.0   30.0   33.333333333333336
-400.0   30.0   16.666666666666668
-400.0   0.0   33.333333333333336
-350.0   30.0   33.333333333333336
-350.0   0.0   33.333333333333336
-350.0   0.0   16.666666666666668
-400.0   0.0   33.333333333333336
-350.0   30.0   33.333333333333336
-350.0   0.0   16.666666666666668
-400.0   30.0   16.666666666666668
-400.0   0.0   33.333333333333336
-350.0   0.0   33.333333333333336
-400.0   30.0   33.333333333333336
-400.0   0.0   50.0
-350.0   0.0   33.333333333333336
-350.0   30.0   33.333333333333336
-400.0   30.0   33.333333333333336
-350.0   30.0   50.0
-400.0   0.0   50.0
-400.0   30.0   50.0
-350.0   30.0   50.0
-400.0   30.0   33.333333333333336
-400.0   0.0   50.0
-350.0   30.0   50.0
-350.0   0.0   50.0
-350.0   0.0   33.333333333333336
-400.0   0.0   50.0
-350.0   30.0   50.0
-350.0   0.0   33.333333333333336
-400.0   30.0   33.333333333333336
-400.0   30.0   0.0
-350.0   30.0   0.0
-400.0   60.0   0.0
-400.0   30.0   16.666666666666668
-350.0   30.0   0.0
-350.0   60.0   0.0
-400.0   60.0   0.0
-350.0   60.0   16.666666666666668
-400.0   30.0   16.666666666666668
-400.0   60.0   16.666666666666668
-350.0   60.0   16.666666666666668
-400.0   60.0   0.0
-400.0   30.0   16.666666666666668
-350.0   60.0   16.666666666666668
-350.0   30.0   16.666666666666668
-350.0   30.0   0.0
-400.0   30.0   16.666666666666668
-350.0   60.0   16.666666666666668
-350.0   30.0   0.0
-400.0   60.0   0.0
-400.0   30.0   16.666666666666668
-350.0   30.0   16.666666666666668
-400.0   60.0   16.666666666666668
-400.0   30.0   33.333333333333336
-350.0   30.0   16.666666666666668
-350.0   60.0   16.666666666666668
-400.0   60.0   16.666666666666668
-350.0   60.0   33.333333333333336
-400.0   30.0   33.333333333333336
-400.0   60.0   33.333333333333336
-350.0   60.0   33.333333333333336
-400.0   60.0   16.666666666666668
-400.0   30.0   33.333333333333336
-350.0   60.0   33.333333333333336
-350.0   30.0   33.333333333333336
-350.0   30.0   16.666666666666668
-400.0   30.0   33.333333333333336
-350.0   60.0   33.333333333333336
-350.0   30.0   16.666666666666668
-400.0   60.0   16.666666666666668
-400.0   30.0   33.333333333333336
-350.0   30.0   33.333333333333336
-400.0   60.0   33.333333333333336
-400.0   30.0   50.0
-350.0   30.0   33.333333333333336
-350.0   60.0   33.333333333333336
-400.0   60.0   33.333333333333336
-350.0   60.0   50.0
-400.0   30.0   50.0
-400.0   60.0   50.0
-350.0   60.0   50.0
-400.0   60.0   33.333333333333336
-400.0   30.0   50.0
-350.0   60.0   50.0
-350.0   30.0   50.0
-350.0   30.0   33.333333333333336
-400.0   30.0   50.0
-350.0   60.0   50.0
-350.0   30.0   33.333333333333336
-400.0   60.0   33.333333333333336
-400.0   60.0   0.0
-350.0   60.0   0.0
-400.0   90.0   0.0
-400.0   60.0   16.666666666666668
-350.0   60.0   0.0
-350.0   90.0   0.0
-400.0   90.0   0.0
-350.0   90.0   16.666666666666668
-400.0   60.0   16.666666666666668
-400.0   90.0   16.666666666666668
-350.0   90.0   16.666666666666668
-400.0   90.0   0.0
-400.0   60.0   16.666666666666668
-350.0   90.0   16.666666666666668
-350.0   60.0   16.666666666666668
-350.0   60.0   0.0
-400.0   60.0   16.666666666666668
-350.0   90.0   16.666666666666668
-350.0   60.0   0.0
-400.0   90.0   0.0
-400.0   60.0   16.666666666666668
-350.0   60.0   16.666666666666668
-400.0   90.0   16.666666666666668
-400.0   60.0   33.333333333333336
-350.0   60.0   16.666666666666668
-350.0   90.0   16.666666666666668
-400.0   90.0   16.666666666666668
-350.0   90.0   33.333333333333336
-400.0   60.0   33.333333333333336
-400.0   90.0   33.333333333333336
-350.0   90.0   33.333333333333336
-400.0   90.0   16.666666666666668
-400.0   60.0   33.333333333333336
-350.0   90.0   33.333333333333336
-350.0   60.0   33.333333333333336
-350.0   60.0   16.666666666666668
-400.0   60.0   33.333333333333336
-350.0   90.0   33.333333333333336
-350.0   60.0   16.666666666666668
-400.0   90.0   16.666666666666668
-400.0   60.0   33.333333333333336
-350.0   60.0   33.333333333333336
-400.0   90.0   33.333333333333336
-400.0   60.0   50.0
-350.0   60.0   33.333333333333336
-350.0   90.0   33.333333333333336
-400.0   90.0   33.333333333333336
-350.0   90.0   50.0
-400.0   60.0   50.0
-400.0   90.0   50.0
-350.0   90.0   50.0
-400.0   90.0   33.333333333333336
-400.0   60.0   50.0
-350.0   90.0   50.0
-350.0   60.0   50.0
-350.0   60.0   33.333333333333336
-400.0   60.0   50.0
-350.0   90.0   50.0
-350.0   60.0   33.333333333333336
-400.0   90.0   33.333333333333336
-400.0   90.0   0.0
-350.0   90.0   0.0
-400.0   120.0   0.0
-400.0   90.0   16.666666666666668
-350.0   90.0   0.0
-350.0   120.0   0.0
-400.0   120.0   0.0
-350.0   120.0   16.666666666666668
-400.0   90.0   16.666666666666668
-400.0   120.0   16.666666666666668
-350.0   120.0   16.666666666666668
-400.0   120.0   0.0
-400.0   90.0   16.666666666666668
-350.0   120.0   16.666666666666668
-350.0   90.0   16.666666666666668
-350.0   90.0   0.0
-400.0   90.0   16.666666666666668
-350.0   120.0   16.666666666666668
-350.0   90.0   0.0
-400.0   120.0   0.0
-400.0   90.0   16.666666666666668
-350.0   90.0   16.666666666666668
-400.0   120.0   16.666666666666668
-400.0   90.0   33.333333333333336
-350.0   90.0   16.666666666666668
-350.0   120.0   16.666666666666668
-400.0   120.0   16.666666666666668
-350.0   120.0   33.333333333333336
-400.0   90.0   33.333333333333336
-400.0   120.0   33.333333333333336
-350.0   120.0   33.333333333333336
-400.0   120.0   16.666666666666668
-400.0   90.0   33.333333333333336
-350.0   120.0   33.333333333333336
-350.0   90.0   33.333333333333336
-350.0   90.0   16.666666666666668
-400.0   90.0   33.333333333333336
-350.0   120.0   33.333333333333336
-350.0   90.0   16.666666666666668
-400.0   120.0   16.666666666666668
-400.0   90.0   33.333333333333336
-350.0   90.0   33.333333333333336
-400.0   120.0   33.333333333333336
-400.0   90.0   50.0
-350.0   90.0   33.333333333333336
-350.0   120.0   33.333333333333336
-400.0   120.0   33.333333333333336
-350.0   120.0   50.0
-400.0   90.0   50.0
-400.0   120.0   50.0
-350.0   120.0   50.0
-400.0   120.0   33.333333333333336
-400.0   90.0   50.0
-350.0   120.0   50.0
-350.0   90.0   50.0
-350.0   90.0   33.333333333333336
-400.0   90.0   50.0
-350.0   120.0   50.0
-350.0   90.0   33.333333333333336
-400.0   120.0   33.333333333333336
-400.0   120.0   0.0
-350.0   120.0   0.0
-400.0   150.0   0.0
-400.0   120.0   16.666666666666668
-350.0   120.0   0.0
-350.0   150.0   0.0
-400.0   150.0   0.0
-350.0   150.0   16.666666666666668
-400.0   120.0   16.666666666666668
-400.0   150.0   16.666666666666668
-350.0   150.0   16.666666666666668
-400.0   150.0   0.0
-400.0   120.0   16.666666666666668
-350.0   150.0   16.666666666666668
-350.0   120.0   16.666666666666668
-350.0   120.0   0.0
-400.0   120.0   16.666666666666668
-350.0   150.0   16.666666666666668
-350.0   120.0   0.0
-400.0   150.0   0.0
-400.0   120.0   16.666666666666668
-350.0   120.0   16.666666666666668
-400.0   150.0   16.666666666666668
-400.0   120.0   33.333333333333336
-350.0   120.0   16.666666666666668
-350.0   150.0   16.666666666666668
-400.0   150.0   16.666666666666668
-350.0   150.0   33.333333333333336
-400.0   120.0   33.333333333333336
-400.0   150.0   33.333333333333336
-350.0   150.0   33.333333333333336
-400.0   150.0   16.666666666666668
-400.0   120.0   33.333333333333336
-350.0   150.0   33.333333333333336
-350.0   120.0   33.333333333333336
-350.0   120.0   16.666666666666668
-400.0   120.0   33.333333333333336
-350.0   150.0   33.333333333333336
-350.0   120.0   16.666666666666668
-400.0   150.0   16.666666666666668
-400.0   120.0   33.333333333333336
-350.0   120.0   33.333333333333336
-400.0   150.0   33.333333333333336
-400.0   120.0   50.0
-350.0   120.0   33.333333333333336
-350.0   150.0   33.333333333333336
-400.0   150.0   33.333333333333336
-350.0   150.0   50.0
-400.0   120.0   50.0
-400.0   150.0   50.0
-350.0   150.0   50.0
-400.0   150.0   33.333333333333336
-400.0   120.0   50.0
-350.0   150.0   50.0
-350.0   120.0   50.0
-350.0   120.0   33.333333333333336
-400.0   120.0   50.0
-350.0   150.0   50.0
-350.0   120.0   33.333333333333336
-400.0   150.0   33.333333333333336
-350.0   0.0   0.0
-300.0   0.0   0.0
-350.0   30.0   0.0
-350.0   0.0   16.666666666666668
-300.0   0.0   0.0
-300.0   30.0   0.0
-350.0   30.0   0.0
-300.0   30.0   16.666666666666668
-350.0   0.0   16.666666666666668
-350.0   30.0   16.666666666666668
-300.0   30.0   16.666666666666668
-350.0   30.0   0.0
-350.0   0.0   16.666666666666668
-300.0   30.0   16.666666666666668
-300.0   0.0   16.666666666666668
-300.0   0.0   0.0
-350.0   0.0   16.666666666666668
-300.0   30.0   16.666666666666668
-300.0   0.0   0.0
-350.0   30.0   0.0
-350.0   0.0   16.666666666666668
-300.0   0.0   16.666666666666668
-350.0   30.0   16.666666666666668
-350.0   0.0   33.333333333333336
-300.0   0.0   16.666666666666668
-300.0   30.0   16.666666666666668
-350.0   30.0   16.666666666666668
-300.0   30.0   33.333333333333336
-350.0   0.0   33.333333333333336
-350.0   30.0   33.333333333333336
-300.0   30.0   33.333333333333336
-350.0   30.0   16.666666666666668
-350.0   0.0   33.333333333333336
-300.0   30.0   33.333333333333336
-300.0   0.0   33.333333333333336
-300.0   0.0   16.666666666666668
-350.0   0.0   33.333333333333336
-300.0   30.0   33.333333333333336
-300.0   0.0   16.666666666666668
-350.0   30.0   16.666666666666668
-350.0   0.0   33.333333333333336
-300.0   0.0   33.333333333333336
-350.0   30.0   33.333333333333336
-350.0   0.0   50.0
-300.0   0.0   33.333333333333336
-300.0   30.0   33.333333333333336
-350.0   30.0   33.333333333333336
-300.0   30.0   50.0
-350.0   0.0   50.0
-350.0   30.0   50.0
-300.0   30.0   50.0
-350.0   30.0   33.333333333333336
-350.0   0.0   50.0
-300.0   30.0   50.0
-300.0   0.0   50.0
-300.0   0.0   33.333333333333336
-350.0   0.0   50.0
-300.0   30.0   50.0
-300.0   0.0   33.333333333333336
-350.0   30.0   33.333333333333336
-350.0   30.0   0.0
-300.0   30.0   0.0
-350.0   60.0   0.0
-350.0   30.0   16.666666666666668
-300.0   30.0   0.0
-300.0   60.0   0.0
-350.0   60.0   0.0
-300.0   60.0   16.666666666666668
-350.0   30.0   16.666666666666668
-350.0   60.0   16.666666666666668
-300.0   60.0   16.666666666666668
-350.0   60.0   0.0
-350.0   30.0   16.666666666666668
-300.0   60.0   16.666666666666668
-300.0   30.0   16.666666666666668
-300.0   30.0   0.0
-350.0   30.0   16.666666666666668
-300.0   60.0   16.666666666666668
-300.0   30.0   0.0
-350.0   60.0   0.0
-350.0   30.0   16.666666666666668
-300.0   30.0   16.666666666666668
-350.0   60.0   16.666666666666668
-350.0   30.0   33.333333333333336
-300.0   30.0   16.666666666666668
-300.0   60.0   16.666666666666668
-350.0   60.0   16.666666666666668
-300.0   60.0   33.333333333333336
-350.0   30.0   33.333333333333336
-350.0   60.0   33.333333333333336
-300.0   60.0   33.333333333333336
-350.0   60.0   16.666666666666668
-350.0   30.0   33.333333333333336
-300.0   60.0   33.333333333333336
-300.0   30.0   33.333333333333336
-300.0   30.0   16.666666666666668
-350.0   30.0   33.333333333333336
-300.0   60.0   33.333333333333336
-300.0   30.0   16.666666666666668
-350.0   60.0   16.666666666666668
-350.0   30.0   33.333333333333336
-300.0   30.0   33.333333333333336
-350.0   60.0   33.333333333333336
-350.0   30.0   50.0
-300.0   30.0   33.333333333333336
-300.0   60.0   33.333333333333336
-350.0   60.0   33.333333333333336
-300.0   60.0   50.0
-350.0   30.0   50.0
-350.0   60.0   50.0
-300.0   60.0   50.0
-350.0   60.0   33.333333333333336
-350.0   30.0   50.0
-300.0   60.0   50.0
-300.0   30.0   50.0
-300.0   30.0   33.333333333333336
-350.0   30.0   50.0
-300.0   60.0   50.0
-300.0   30.0   33.333333333333336
-350.0   60.0   33.333333333333336
-350.0   60.0   0.0
-300.0   60.0   0.0
-350.0   90.0   0.0
-350.0   60.0   16.666666666666668
-300.0   60.0   0.0
-300.0   90.0   0.0
-350.0   90.0   0.0
-300.0   90.0   16.666666666666668
-350.0   60.0   16.666666666666668
-350.0   90.0   16.666666666666668
-300.0   90.0   16.666666666666668
-350.0   90.0   0.0
-350.0   60.0   16.666666666666668
-300.0   90.0   16.666666666666668
-300.0   60.0   16.666666666666668
-300.0   60.0   0.0
-350.0   60.0   16.666666666666668
-300.0   90.0   16.666666666666668
-300.0   60.0   0.0
-350.0   90.0   0.0
-350.0   60.0   16.666666666666668
-300.0   60.0   16.666666666666668
-350.0   90.0   16.666666666666668
-350.0   60.0   33.333333333333336
-300.0   60.0   16.666666666666668
-300.0   90.0   16.666666666666668
-350.0   90.0   16.666666666666668
-300.0   90.0   33.333333333333336
-350.0   60.0   33.333333333333336
-350.0   90.0   33.333333333333336
-300.0   90.0   33.333333333333336
-350.0   90.0   16.666666666666668
-350.0   60.0   33.333333333333336
-300.0   90.0   33.333333333333336
-300.0   60.0   33.333333333333336
-300.0   60.0   16.666666666666668
-350.0   60.0   33.333333333333336
-300.0   90.0   33.333333333333336
-300.0   60.0   16.666666666666668
-350.0   90.0   16.666666666666668
-350.0   60.0   33.333333333333336
-300.0   60.0   33.333333333333336
-350.0   90.0   33.333333333333336
-350.0   60.0   50.0
-300.0   60.0   33.333333333333336
-300.0   90.0   33.333333333333336
-350.0   90.0   33.333333333333336
-300.0   90.0   50.0
-350.0   60.0   50.0
-350.0   90.0   50.0
-300.0   90.0   50.0
-350.0   90.0   33.333333333333336
-350.0   60.0   50.0
-300.0   90.0   50.0
-300.0   60.0   50.0
-300.0   60.0   33.333333333333336
-350.0   60.0   50.0
-300.0   90.0   50.0
-300.0   60.0   33.333333333333336
-350.0   90.0   33.333333333333336
-350.0   90.0   0.0
-300.0   90.0   0.0
-350.0   120.0   0.0
-350.0   90.0   16.666666666666668
-300.0   90.0   0.0
-300.0   120.0   0.0
-350.0   120.0   0.0
-300.0   120.0   16.666666666666668
-350.0   90.0   16.666666666666668
-350.0   120.0   16.666666666666668
-300.0   120.0   16.666666666666668
-350.0   120.0   0.0
-350.0   90.0   16.666666666666668
-300.0   120.0   16.666666666666668
-300.0   90.0   16.666666666666668
-300.0   90.0   0.0
-350.0   90.0   16.666666666666668
-300.0   120.0   16.666666666666668
-300.0   90.0   0.0
-350.0   120.0   0.0
-350.0   90.0   16.666666666666668
-300.0   90.0   16.666666666666668
-350.0   120.0   16.666666666666668
-350.0   90.0   33.333333333333336
-300.0   90.0   16.666666666666668
-300.0   120.0   16.666666666666668
-350.0   120.0   16.666666666666668
-300.0   120.0   33.333333333333336
-350.0   90.0   33.333333333333336
-350.0   120.0   33.333333333333336
-300.0   120.0   33.333333333333336
-350.0   120.0   16.666666666666668
-350.0   90.0   33.333333333333336
-300.0   120.0   33.333333333333336
-300.0   90.0   33.333333333333336
-300.0   90.0   16.666666666666668
-350.0   90.0   33.333333333333336
-300.0   120.0   33.333333333333336
-300.0   90.0   16.666666666666668
-350.0   120.0   16.666666666666668
-350.0   90.0   33.333333333333336
-300.0   90.0   33.333333333333336
-350.0   120.0   33.333333333333336
-350.0   90.0   50.0
-300.0   90.0   33.333333333333336
-300.0   120.0   33.333333333333336
-350.0   120.0   33.333333333333336
-300.0   120.0   50.0
-350.0   90.0   50.0
-350.0   120.0   50.0
-300.0   120.0   50.0
-350.0   120.0   33.333333333333336
-350.0   90.0   50.0
-300.0   120.0   50.0
-300.0   90.0   50.0
-300.0   90.0   33.333333333333336
-350.0   90.0   50.0
-300.0   120.0   50.0
-300.0   90.0   33.333333333333336
-350.0   120.0   33.333333333333336
-350.0   120.0   0.0
-300.0   120.0   0.0
-350.0   150.0   0.0
-350.0   120.0   16.666666666666668
-300.0   120.0   0.0
-300.0   150.0   0.0
-350.0   150.0   0.0
-300.0   150.0   16.666666666666668
-350.0   120.0   16.666666666666668
-350.0   150.0   16.666666666666668
-300.0   150.0   16.666666666666668
-350.0   150.0   0.0
-350.0   120.0   16.666666666666668
-300.0   150.0   16.666666666666668
-300.0   120.0   16.666666666666668
-300.0   120.0   0.0
-350.0   120.0   16.666666666666668
-300.0   150.0   16.666666666666668
-300.0   120.0   0.0
-350.0   150.0   0.0
-350.0   120.0   16.666666666666668
-300.0   120.0   16.666666666666668
-350.0   150.0   16.666666666666668
-350.0   120.0   33.333333333333336
-300.0   120.0   16.666666666666668
-300.0   150.0   16.666666666666668
-350.0   150.0   16.666666666666668
-300.0   150.0   33.333333333333336
-350.0   120.0   33.333333333333336
-350.0   150.0   33.333333333333336
-300.0   150.0   33.333333333333336
-350.0   150.0   16.666666666666668
-350.0   120.0   33.333333333333336
-300.0   150.0   33.333333333333336
-300.0   120.0   33.333333333333336
-300.0   120.0   16.666666666666668
-350.0   120.0   33.333333333333336
-300.0   150.0   33.333333333333336
-300.0   120.0   16.666666666666668
-350.0   150.0   16.666666666666668
-350.0   120.0   33.333333333333336
-300.0   120.0   33.333333333333336
-350.0   150.0   33.333333333333336
-350.0   120.0   50.0
-300.0   120.0   33.333333333333336
-300.0   150.0   33.333333333333336
-350.0   150.0   33.333333333333336
-300.0   150.0   50.0
-350.0   120.0   50.0
-350.0   150.0   50.0
-300.0   150.0   50.0
-350.0   150.0   33.333333333333336
-350.0   120.0   50.0
-300.0   150.0   50.0
-300.0   120.0   50.0
-300.0   120.0   33.333333333333336
-350.0   120.0   50.0
-300.0   150.0   50.0
-300.0   120.0   33.333333333333336
-350.0   150.0   33.333333333333336
-300.0   0.0   0.0
-250.0   0.0   0.0
-300.0   30.0   0.0
-300.0   0.0   16.666666666666668
-250.0   0.0   0.0
-250.0   30.0   0.0
-300.0   30.0   0.0
-250.0   30.0   16.666666666666668
-300.0   0.0   16.666666666666668
-300.0   30.0   16.666666666666668
-250.0   30.0   16.666666666666668
-300.0   30.0   0.0
-300.0   0.0   16.666666666666668
-250.0   30.0   16.666666666666668
-250.0   0.0   16.666666666666668
-250.0   0.0   0.0
-300.0   0.0   16.666666666666668
-250.0   30.0   16.666666666666668
-250.0   0.0   0.0
-300.0   30.0   0.0
-300.0   0.0   16.666666666666668
-250.0   0.0   16.666666666666668
-300.0   30.0   16.666666666666668
-300.0   0.0   33.333333333333336
-250.0   0.0   16.666666666666668
-250.0   30.0   16.666666666666668
-300.0   30.0   16.666666666666668
-250.0   30.0   33.333333333333336
-300.0   0.0   33.333333333333336
-300.0   30.0   33.333333333333336
-250.0   30.0   33.333333333333336
-300.0   30.0   16.666666666666668
-300.0   0.0   33.333333333333336
-250.0   30.0   33.333333333333336
-250.0   0.0   33.333333333333336
-250.0   0.0   16.666666666666668
-300.0   0.0   33.333333333333336
-250.0   30.0   33.333333333333336
-250.0   0.0   16.666666666666668
-300.0   30.0   16.666666666666668
-300.0   0.0   33.333333333333336
-250.0   0.0   33.333333333333336
-300.0   30.0   33.333333333333336
-300.0   0.0   50.0
-250.0   0.0   33.333333333333336
-250.0   30.0   33.333333333333336
-300.0   30.0   33.333333333333336
-250.0   30.0   50.0
-300.0   0.0   50.0
-300.0   30.0   50.0
-250.0   30.0   50.0
-300.0   30.0   33.333333333333336
-300.0   0.0   50.0
-250.0   30.0   50.0
-250.0   0.0   50.0
-250.0   0.0   33.333333333333336
-300.0   0.0   50.0
-250.0   30.0   50.0
-250.0   0.0   33.333333333333336
-300.0   30.0   33.333333333333336
-300.0   30.0   0.0
-250.0   30.0   0.0
-300.0   60.0   0.0
-300.0   30.0   16.666666666666668
-250.0   30.0   0.0
-250.0   60.0   0.0
-300.0   60.0   0.0
-250.0   60.0   16.666666666666668
-300.0   30.0   16.666666666666668
-300.0   60.0   16.666666666666668
-250.0   60.0   16.666666666666668
-300.0   60.0   0.0
-300.0   30.0   16.666666666666668
-250.0   60.0   16.666666666666668
-250.0   30.0   16.666666666666668
-250.0   30.0   0.0
-300.0   30.0   16.666666666666668
-250.0   60.0   16.666666666666668
-250.0   30.0   0.0
-300.0   60.0   0.0
-300.0   30.0   16.666666666666668
-250.0   30.0   16.666666666666668
-300.0   60.0   16.666666666666668
-300.0   30.0   33.333333333333336
-250.0   30.0   16.666666666666668
-250.0   60.0   16.666666666666668
-300.0   60.0   16.666666666666668
-250.0   60.0   33.333333333333336
-300.0   30.0   33.333333333333336
-300.0   60.0   33.333333333333336
-250.0   60.0   33.333333333333336
-300.0   60.0   16.666666666666668
-300.0   30.0   33.333333333333336
-250.0   60.0   33.333333333333336
-250.0   30.0   33.333333333333336
-250.0   30.0   16.666666666666668
-300.0   30.0   33.333333333333336
-250.0   60.0   33.333333333333336
-250.0   30.0   16.666666666666668
-300.0   60.0   16.666666666666668
-300.0   30.0   33.333333333333336
-250.0   30.0   33.333333333333336
-300.0   60.0   33.333333333333336
-300.0   30.0   50.0
-250.0   30.0   33.333333333333336
-250.0   60.0   33.333333333333336
-300.0   60.0   33.333333333333336
-250.0   60.0   50.0
-300.0   30.0   50.0
-300.0   60.0   50.0
-250.0   60.0   50.0
-300.0   60.0   33.333333333333336
-300.0   30.0   50.0
-250.0   60.0   50.0
-250.0   30.0   50.0
-250.0   30.0   33.333333333333336
-300.0   30.0   50.0
-250.0   60.0   50.0
-250.0   30.0   33.333333333333336
-300.0   60.0   33.333333333333336
-300.0   60.0   0.0
-250.0   60.0   0.0
-300.0   90.0   0.0
-300.0   60.0   16.666666666666668
-250.0   60.0   0.0
-250.0   90.0   0.0
-300.0   90.0   0.0
-250.0   90.0   16.666666666666668
-300.0   60.0   16.666666666666668
-300.0   90.0   16.666666666666668
-250.0   90.0   16.666666666666668
-300.0   90.0   0.0
-300.0   60.0   16.666666666666668
-250.0   90.0   16.666666666666668
-250.0   60.0   16.666666666666668
-250.0   60.0   0.0
-300.0   60.0   16.666666666666668
-250.0   90.0   16.666666666666668
-250.0   60.0   0.0
-300.0   90.0   0.0
-300.0   60.0   16.666666666666668
-250.0   60.0   16.666666666666668
-300.0   90.0   16.666666666666668
-300.0   60.0   33.333333333333336
-250.0   60.0   16.666666666666668
-250.0   90.0   16.666666666666668
-300.0   90.0   16.666666666666668
-250.0   90.0   33.333333333333336
-300.0   60.0   33.333333333333336
-300.0   90.0   33.333333333333336
-250.0   90.0   33.333333333333336
-300.0   90.0   16.666666666666668
-300.0   60.0   33.333333333333336
-250.0   90.0   33.333333333333336
-250.0   60.0   33.333333333333336
-250.0   60.0   16.666666666666668
-300.0   60.0   33.333333333333336
-250.0   90.0   33.333333333333336
-250.0   60.0   16.666666666666668
-300.0   90.0   16.666666666666668
-300.0   60.0   33.333333333333336
-250.0   60.0   33.333333333333336
-300.0   90.0   33.333333333333336
-300.0   60.0   50.0
-250.0   60.0   33.333333333333336
-250.0   90.0   33.333333333333336
-300.0   90.0   33.333333333333336
-250.0   90.0   50.0
-300.0   60.0   50.0
-300.0   90.0   50.0
-250.0   90.0   50.0
-300.0   90.0   33.333333333333336
-300.0   60.0   50.0
-250.0   90.0   50.0
-250.0   60.0   50.0
-250.0   60.0   33.333333333333336
-300.0   60.0   50.0
-250.0   90.0   50.0
-250.0   60.0   33.333333333333336
-300.0   90.0   33.333333333333336
-300.0   90.0   0.0
-250.0   90.0   0.0
-300.0   120.0   0.0
-300.0   90.0   16.666666666666668
-250.0   90.0   0.0
-250.0   120.0   0.0
-300.0   120.0   0.0
-250.0   120.0   16.666666666666668
-300.0   90.0   16.666666666666668
-300.0   120.0   16.666666666666668
-250.0   120.0   16.666666666666668
-300.0   120.0   0.0
-300.0   90.0   16.666666666666668
-250.0   120.0   16.666666666666668
-250.0   90.0   16.666666666666668
-250.0   90.0   0.0
-300.0   90.0   16.666666666666668
-250.0   120.0   16.666666666666668
-250.0   90.0   0.0
-300.0   120.0   0.0
-300.0   90.0   16.666666666666668
-250.0   90.0   16.666666666666668
-300.0   120.0   16.666666666666668
-300.0   90.0   33.333333333333336
-250.0   90.0   16.666666666666668
-250.0   120.0   16.666666666666668
-300.0   120.0   16.666666666666668
-250.0   120.0   33.333333333333336
-300.0   90.0   33.333333333333336
-300.0   120.0   33.333333333333336
-250.0   120.0   33.333333333333336
-300.0   120.0   16.666666666666668
-300.0   90.0   33.333333333333336
-250.0   120.0   33.333333333333336
-250.0   90.0   33.333333333333336
-250.0   90.0   16.666666666666668
-300.0   90.0   33.333333333333336
-250.0   120.0   33.333333333333336
-250.0   90.0   16.666666666666668
-300.0   120.0   16.666666666666668
-300.0   90.0   33.333333333333336
-250.0   90.0   33.333333333333336
-300.0   120.0   33.333333333333336
-300.0   90.0   50.0
-250.0   90.0   33.333333333333336
-250.0   120.0   33.333333333333336
-300.0   120.0   33.333333333333336
-250.0   120.0   50.0
-300.0   90.0   50.0
-300.0   120.0   50.0
-250.0   120.0   50.0
-300.0   120.0   33.333333333333336
-300.0   90.0   50.0
-250.0   120.0   50.0
-250.0   90.0   50.0
-250.0   90.0   33.333333333333336
-300.0   90.0   50.0
-250.0   120.0   50.0
-250.0   90.0   33.333333333333336
-300.0   120.0   33.333333333333336
-300.0   120.0   0.0
-250.0   120.0   0.0
-300.0   150.0   0.0
-300.0   120.0   16.666666666666668
-250.0   120.0   0.0
-250.0   150.0   0.0
-300.0   150.0   0.0
-250.0   150.0   16.666666666666668
-300.0   120.0   16.666666666666668
-300.0   150.0   16.666666666666668
-250.0   150.0   16.666666666666668
-300.0   150.0   0.0
-300.0   120.0   16.666666666666668
-250.0   150.0   16.666666666666668
-250.0   120.0   16.666666666666668
-250.0   120.0   0.0
-300.0   120.0   16.666666666666668
-250.0   150.0   16.666666666666668
-250.0   120.0   0.0
-300.0   150.0   0.0
-300.0   120.0   16.666666666666668
-250.0   120.0   16.666666666666668
-300.0   150.0   16.666666666666668
-300.0   120.0   33.333333333333336
-250.0   120.0   16.666666666666668
-250.0   150.0   16.666666666666668
-300.0   150.0   16.666666666666668
-250.0   150.0   33.333333333333336
-300.0   120.0   33.333333333333336
-300.0   150.0   33.333333333333336
-250.0   150.0   33.333333333333336
-300.0   150.0   16.666666666666668
-300.0   120.0   33.333333333333336
-250.0   150.0   33.333333333333336
-250.0   120.0   33.333333333333336
-250.0   120.0   16.666666666666668
-300.0   120.0   33.333333333333336
-250.0   150.0   33.333333333333336
-250.0   120.0   16.666666666666668
-300.0   150.0   16.666666666666668
-300.0   120.0   33.333333333333336
-250.0   120.0   33.333333333333336
-300.0   150.0   33.333333333333336
-300.0   120.0   50.0
-250.0   120.0   33.333333333333336
-250.0   150.0   33.333333333333336
-300.0   150.0   33.333333333333336
-250.0   150.0   50.0
-300.0   120.0   50.0
-300.0   150.0   50.0
-250.0   150.0   50.0
-300.0   150.0   33.333333333333336
-300.0   120.0   50.0
-250.0   150.0   50.0
-250.0   120.0   50.0
-250.0   120.0   33.333333333333336
-300.0   120.0   50.0
-250.0   150.0   50.0
-250.0   120.0   33.333333333333336
-300.0   150.0   33.333333333333336
-250.0   0.0   0.0
-200.0   0.0   0.0
-250.0   30.0   0.0
-250.0   0.0   16.666666666666668
-200.0   0.0   0.0
-200.0   30.0   0.0
-250.0   30.0   0.0
-200.0   30.0   16.666666666666668
-250.0   0.0   16.666666666666668
-250.0   30.0   16.666666666666668
-200.0   30.0   16.666666666666668
-250.0   30.0   0.0
-250.0   0.0   16.666666666666668
-200.0   30.0   16.666666666666668
-200.0   0.0   16.666666666666668
-200.0   0.0   0.0
-250.0   0.0   16.666666666666668
-200.0   30.0   16.666666666666668
-200.0   0.0   0.0
-250.0   30.0   0.0
-250.0   0.0   16.666666666666668
-200.0   0.0   16.666666666666668
-250.0   30.0   16.666666666666668
-250.0   0.0   33.333333333333336
-200.0   0.0   16.666666666666668
-200.0   30.0   16.666666666666668
-250.0   30.0   16.666666666666668
-200.0   30.0   33.333333333333336
-250.0   0.0   33.333333333333336
-250.0   30.0   33.333333333333336
-200.0   30.0   33.333333333333336
-250.0   30.0   16.666666666666668
-250.0   0.0   33.333333333333336
-200.0   30.0   33.333333333333336
-200.0   0.0   33.333333333333336
-200.0   0.0   16.666666666666668
-250.0   0.0   33.333333333333336
-200.0   30.0   33.333333333333336
-200.0   0.0   16.666666666666668
-250.0   30.0   16.666666666666668
-250.0   0.0   33.333333333333336
-200.0   0.0   33.333333333333336
-250.0   30.0   33.333333333333336
-250.0   0.0   50.0
-200.0   0.0   33.333333333333336
-200.0   30.0   33.333333333333336
-250.0   30.0   33.333333333333336
-200.0   30.0   50.0
-250.0   0.0   50.0
-250.0   30.0   50.0
-200.0   30.0   50.0
-250.0   30.0   33.333333333333336
-250.0   0.0   50.0
-200.0   30.0   50.0
-200.0   0.0   50.0
-200.0   0.0   33.333333333333336
-250.0   0.0   50.0
-200.0   30.0   50.0
-200.0   0.0   33.333333333333336
-250.0   30.0   33.333333333333336
-250.0   30.0   0.0
-200.0   30.0   0.0
-250.0   60.0   0.0
-250.0   30.0   16.666666666666668
-200.0   30.0   0.0
-200.0   60.0   0.0
-250.0   60.0   0.0
-200.0   60.0   16.666666666666668
-250.0   30.0   16.666666666666668
-250.0   60.0   16.666666666666668
-200.0   60.0   16.666666666666668
-250.0   60.0   0.0
-250.0   30.0   16.666666666666668
-200.0   60.0   16.666666666666668
-200.0   30.0   16.666666666666668
-200.0   30.0   0.0
-250.0   30.0   16.666666666666668
-200.0   60.0   16.666666666666668
-200.0   30.0   0.0
-250.0   60.0   0.0
-250.0   30.0   16.666666666666668
-200.0   30.0   16.666666666666668
-250.0   60.0   16.666666666666668
-250.0   30.0   33.333333333333336
-200.0   30.0   16.666666666666668
-200.0   60.0   16.666666666666668
-250.0   60.0   16.666666666666668
-200.0   60.0   33.333333333333336
-250.0   30.0   33.333333333333336
-250.0   60.0   33.333333333333336
-200.0   60.0   33.333333333333336
-250.0   60.0   16.666666666666668
-250.0   30.0   33.333333333333336
-200.0   60.0   33.333333333333336
-200.0   30.0   33.333333333333336
-200.0   30.0   16.666666666666668
-250.0   30.0   33.333333333333336
-200.0   60.0   33.333333333333336
-200.0   30.0   16.666666666666668
-250.0   60.0   16.666666666666668
-250.0   30.0   33.333333333333336
-200.0   30.0   33.333333333333336
-250.0   60.0   33.333333333333336
-250.0   30.0   50.0
-200.0   30.0   33.333333333333336
-200.0   60.0   33.333333333333336
-250.0   60.0   33.333333333333336
-200.0   60.0   50.0
-250.0   30.0   50.0
-250.0   60.0   50.0
-200.0   60.0   50.0
-250.0   60.0   33.333333333333336
-250.0   30.0   50.0
-200.0   60.0   50.0
-200.0   30.0   50.0
-200.0   30.0   33.333333333333336
-250.0   30.0   50.0
-200.0   60.0   50.0
-200.0   30.0   33.333333333333336
-250.0   60.0   33.333333333333336
-250.0   60.0   0.0
-200.0   60.0   0.0
-250.0   90.0   0.0
-250.0   60.0   16.666666666666668
-200.0   60.0   0.0
-200.0   90.0   0.0
-250.0   90.0   0.0
-200.0   90.0   16.666666666666668
-250.0   60.0   16.666666666666668
-250.0   90.0   16.666666666666668
-200.0   90.0   16.666666666666668
-250.0   90.0   0.0
-250.0   60.0   16.666666666666668
-200.0   90.0   16.666666666666668
-200.0   60.0   16.666666666666668
-200.0   60.0   0.0
-250.0   60.0   16.666666666666668
-200.0   90.0   16.666666666666668
-200.0   60.0   0.0
-250.0   90.0   0.0
-250.0   60.0   16.666666666666668
-200.0   60.0   16.666666666666668
-250.0   90.0   16.666666666666668
-250.0   60.0   33.333333333333336
-200.0   60.0   16.666666666666668
-200.0   90.0   16.666666666666668
-250.0   90.0   16.666666666666668
-200.0   90.0   33.333333333333336
-250.0   60.0   33.333333333333336
-250.0   90.0   33.333333333333336
-200.0   90.0   33.333333333333336
-250.0   90.0   16.666666666666668
-250.0   60.0   33.333333333333336
-200.0   90.0   33.333333333333336
-200.0   60.0   33.333333333333336
-200.0   60.0   16.666666666666668
-250.0   60.0   33.333333333333336
-200.0   90.0   33.333333333333336
-200.0   60.0   16.666666666666668
-250.0   90.0   16.666666666666668
-250.0   60.0   33.333333333333336
-200.0   60.0   33.333333333333336
-250.0   90.0   33.333333333333336
-250.0   60.0   50.0
-200.0   60.0   33.333333333333336
-200.0   90.0   33.333333333333336
-250.0   90.0   33.333333333333336
-200.0   90.0   50.0
-250.0   60.0   50.0
-250.0   90.0   50.0
-200.0   90.0   50.0
-250.0   90.0   33.333333333333336
-250.0   60.0   50.0
-200.0   90.0   50.0
-200.0   60.0   50.0
-200.0   60.0   33.333333333333336
-250.0   60.0   50.0
-200.0   90.0   50.0
-200.0   60.0   33.333333333333336
-250.0   90.0   33.333333333333336
-250.0   90.0   0.0
-200.0   90.0   0.0
-250.0   120.0   0.0
-250.0   90.0   16.666666666666668
-200.0   90.0   0.0
-200.0   120.0   0.0
-250.0   120.0   0.0
-200.0   120.0   16.666666666666668
-250.0   90.0   16.666666666666668
-250.0   120.0   16.666666666666668
-200.0   120.0   16.666666666666668
-250.0   120.0   0.0
-250.0   90.0   16.666666666666668
-200.0   120.0   16.666666666666668
-200.0   90.0   16.666666666666668
-200.0   90.0   0.0
-250.0   90.0   16.666666666666668
-200.0   120.0   16.666666666666668
-200.0   90.0   0.0
-250.0   120.0   0.0
-250.0   90.0   16.666666666666668
-200.0   90.0   16.666666666666668
-250.0   120.0   16.666666666666668
-250.0   90.0   33.333333333333336
-200.0   90.0   16.666666666666668
-200.0   120.0   16.666666666666668
-250.0   120.0   16.666666666666668
-200.0   120.0   33.333333333333336
-250.0   90.0   33.333333333333336
-250.0   120.0   33.333333333333336
-200.0   120.0   33.333333333333336
-250.0   120.0   16.666666666666668
-250.0   90.0   33.333333333333336
-200.0   120.0   33.333333333333336
-200.0   90.0   33.333333333333336
-200.0   90.0   16.666666666666668
-250.0   90.0   33.333333333333336
-200.0   120.0   33.333333333333336
-200.0   90.0   16.666666666666668
-250.0   120.0   16.666666666666668
-250.0   90.0   33.333333333333336
-200.0   90.0   33.333333333333336
-250.0   120.0   33.333333333333336
-250.0   90.0   50.0
-200.0   90.0   33.333333333333336
-200.0   120.0   33.333333333333336
-250.0   120.0   33.333333333333336
-200.0   120.0   50.0
-250.0   90.0   50.0
-250.0   120.0   50.0
-200.0   120.0   50.0
-250.0   120.0   33.333333333333336
-250.0   90.0   50.0
-200.0   120.0   50.0
-200.0   90.0   50.0
-200.0   90.0   33.333333333333336
-250.0   90.0   50.0
-200.0   120.0   50.0
-200.0   90.0   33.333333333333336
-250.0   120.0   33.333333333333336
-250.0   120.0   0.0
-200.0   120.0   0.0
-250.0   150.0   0.0
-250.0   120.0   16.666666666666668
-200.0   120.0   0.0
-200.0   150.0   0.0
-250.0   150.0   0.0
-200.0   150.0   16.666666666666668
-250.0   120.0   16.666666666666668
-250.0   150.0   16.666666666666668
-200.0   150.0   16.666666666666668
-250.0   150.0   0.0
-250.0   120.0   16.666666666666668
-200.0   150.0   16.666666666666668
-200.0   120.0   16.666666666666668
-200.0   120.0   0.0
-250.0   120.0   16.666666666666668
-200.0   150.0   16.666666666666668
-200.0   120.0   0.0
-250.0   150.0   0.0
-250.0   120.0   16.666666666666668
-200.0   120.0   16.666666666666668
-250.0   150.0   16.666666666666668
-250.0   120.0   33.333333333333336
-200.0   120.0   16.666666666666668
-200.0   150.0   16.666666666666668
-250.0   150.0   16.666666666666668
-200.0   150.0   33.333333333333336
-250.0   120.0   33.333333333333336
-250.0   150.0   33.333333333333336
-200.0   150.0   33.333333333333336
-250.0   150.0   16.666666666666668
-250.0   120.0   33.333333333333336
-200.0   150.0   33.333333333333336
-200.0   120.0   33.333333333333336
-200.0   120.0   16.666666666666668
-250.0   120.0   33.333333333333336
-200.0   150.0   33.333333333333336
-200.0   120.0   16.666666666666668
-250.0   150.0   16.666666666666668
-250.0   120.0   33.333333333333336
-200.0   120.0   33.333333333333336
-250.0   150.0   33.333333333333336
-250.0   120.0   50.0
-200.0   120.0   33.333333333333336
-200.0   150.0   33.333333333333336
-250.0   150.0   33.333333333333336
-200.0   150.0   50.0
-250.0   120.0   50.0
-250.0   150.0   50.0
-200.0   150.0   50.0
-250.0   150.0   33.333333333333336
-250.0   120.0   50.0
-200.0   150.0   50.0
-200.0   120.0   50.0
-200.0   120.0   33.333333333333336
-250.0   120.0   50.0
-200.0   150.0   50.0
-200.0   120.0   33.333333333333336
-250.0   150.0   33.333333333333336
-200.0   0.0   0.0
-150.0   0.0   0.0
-200.0   30.0   0.0
-200.0   0.0   16.666666666666668
-150.0   0.0   0.0
-150.0   30.0   0.0
-200.0   30.0   0.0
-150.0   30.0   16.666666666666668
-200.0   0.0   16.666666666666668
-200.0   30.0   16.666666666666668
-150.0   30.0   16.666666666666668
-200.0   30.0   0.0
-200.0   0.0   16.666666666666668
-150.0   30.0   16.666666666666668
-150.0   0.0   16.666666666666668
-150.0   0.0   0.0
-200.0   0.0   16.666666666666668
-150.0   30.0   16.666666666666668
-150.0   0.0   0.0
-200.0   30.0   0.0
-200.0   0.0   16.666666666666668
-150.0   0.0   16.666666666666668
-200.0   30.0   16.666666666666668
-200.0   0.0   33.333333333333336
-150.0   0.0   16.666666666666668
-150.0   30.0   16.666666666666668
-200.0   30.0   16.666666666666668
-150.0   30.0   33.333333333333336
-200.0   0.0   33.333333333333336
-200.0   30.0   33.333333333333336
-150.0   30.0   33.333333333333336
-200.0   30.0   16.666666666666668
-200.0   0.0   33.333333333333336
-150.0   30.0   33.333333333333336
-150.0   0.0   33.333333333333336
-150.0   0.0   16.666666666666668
-200.0   0.0   33.333333333333336
-150.0   30.0   33.333333333333336
-150.0   0.0   16.666666666666668
-200.0   30.0   16.666666666666668
-200.0   0.0   33.333333333333336
-150.0   0.0   33.333333333333336
-200.0   30.0   33.333333333333336
-200.0   0.0   50.0
-150.0   0.0   33.333333333333336
-150.0   30.0   33.333333333333336
-200.0   30.0   33.333333333333336
-150.0   30.0   50.0
-200.0   0.0   50.0
-200.0   30.0   50.0
-150.0   30.0   50.0
-200.0   30.0   33.333333333333336
-200.0   0.0   50.0
-150.0   30.0   50.0
-150.0   0.0   50.0
-150.0   0.0   33.333333333333336
-200.0   0.0   50.0
-150.0   30.0   50.0
-150.0   0.0   33.333333333333336
-200.0   30.0   33.333333333333336
-200.0   30.0   0.0
-150.0   30.0   0.0
-200.0   60.0   0.0
-200.0   30.0   16.666666666666668
-150.0   30.0   0.0
-150.0   60.0   0.0
-200.0   60.0   0.0
-150.0   60.0   16.666666666666668
-200.0   30.0   16.666666666666668
-200.0   60.0   16.666666666666668
-150.0   60.0   16.666666666666668
-200.0   60.0   0.0
-200.0   30.0   16.666666666666668
-150.0   60.0   16.666666666666668
-150.0   30.0   16.666666666666668
-150.0   30.0   0.0
-200.0   30.0   16.666666666666668
-150.0   60.0   16.666666666666668
-150.0   30.0   0.0
-200.0   60.0   0.0
-200.0   30.0   16.666666666666668
-150.0   30.0   16.666666666666668
-200.0   60.0   16.666666666666668
-200.0   30.0   33.333333333333336
-150.0   30.0   16.666666666666668
-150.0   60.0   16.666666666666668
-200.0   60.0   16.666666666666668
-150.0   60.0   33.333333333333336
-200.0   30.0   33.333333333333336
-200.0   60.0   33.333333333333336
-150.0   60.0   33.333333333333336
-200.0   60.0   16.666666666666668
-200.0   30.0   33.333333333333336
-150.0   60.0   33.333333333333336
-150.0   30.0   33.333333333333336
-150.0   30.0   16.666666666666668
-200.0   30.0   33.333333333333336
-150.0   60.0   33.333333333333336
-150.0   30.0   16.666666666666668
-200.0   60.0   16.666666666666668
-200.0   30.0   33.333333333333336
-150.0   30.0   33.333333333333336
-200.0   60.0   33.333333333333336
-200.0   30.0   50.0
-150.0   30.0   33.333333333333336
-150.0   60.0   33.333333333333336
-200.0   60.0   33.333333333333336
-150.0   60.0   50.0
-200.0   30.0   50.0
-200.0   60.0   50.0
-150.0   60.0   50.0
-200.0   60.0   33.333333333333336
-200.0   30.0   50.0
-150.0   60.0   50.0
-150.0   30.0   50.0
-150.0   30.0   33.333333333333336
-200.0   30.0   50.0
-150.0   60.0   50.0
-150.0   30.0   33.333333333333336
-200.0   60.0   33.333333333333336
-200.0   60.0   0.0
-150.0   60.0   0.0
-200.0   90.0   0.0
-200.0   60.0   16.666666666666668
-150.0   60.0   0.0
-150.0   90.0   0.0
-200.0   90.0   0.0
-150.0   90.0   16.666666666666668
-200.0   60.0   16.666666666666668
-200.0   90.0   16.666666666666668
-150.0   90.0   16.666666666666668
-200.0   90.0   0.0
-200.0   60.0   16.666666666666668
-150.0   90.0   16.666666666666668
-150.0   60.0   16.666666666666668
-150.0   60.0   0.0
-200.0   60.0   16.666666666666668
-150.0   90.0   16.666666666666668
-150.0   60.0   0.0
-200.0   90.0   0.0
-200.0   60.0   16.666666666666668
-150.0   60.0   16.666666666666668
-200.0   90.0   16.666666666666668
-200.0   60.0   33.333333333333336
-150.0   60.0   16.666666666666668
-150.0   90.0   16.666666666666668
-200.0   90.0   16.666666666666668
-150.0   90.0   33.333333333333336
-200.0   60.0   33.333333333333336
-200.0   90.0   33.333333333333336
-150.0   90.0   33.333333333333336
-200.0   90.0   16.666666666666668
-200.0   60.0   33.333333333333336
-150.0   90.0   33.333333333333336
-150.0   60.0   33.333333333333336
-150.0   60.0   16.666666666666668
-200.0   60.0   33.333333333333336
-150.0   90.0   33.333333333333336
-150.0   60.0   16.666666666666668
-200.0   90.0   16.666666666666668
-200.0   60.0   33.333333333333336
-150.0   60.0   33.333333333333336
-200.0   90.0   33.333333333333336
-200.0   60.0   50.0
-150.0   60.0   33.333333333333336
-150.0   90.0   33.333333333333336
-200.0   90.0   33.333333333333336
-150.0   90.0   50.0
-200.0   60.0   50.0
-200.0   90.0   50.0
-150.0   90.0   50.0
-200.0   90.0   33.333333333333336
-200.0   60.0   50.0
-150.0   90.0   50.0
-150.0   60.0   50.0
-150.0   60.0   33.333333333333336
-200.0   60.0   50.0
-150.0   90.0   50.0
-150.0   60.0   33.333333333333336
-200.0   90.0   33.333333333333336
-200.0   90.0   0.0
-150.0   90.0   0.0
-200.0   120.0   0.0
-200.0   90.0   16.666666666666668
-150.0   90.0   0.0
-150.0   120.0   0.0
-200.0   120.0   0.0
-150.0   120.0   16.666666666666668
-200.0   90.0   16.666666666666668
-200.0   120.0   16.666666666666668
-150.0   120.0   16.666666666666668
-200.0   120.0   0.0
-200.0   90.0   16.666666666666668
-150.0   120.0   16.666666666666668
-150.0   90.0   16.666666666666668
-150.0   90.0   0.0
-200.0   90.0   16.666666666666668
-150.0   120.0   16.666666666666668
-150.0   90.0   0.0
-200.0   120.0   0.0
-200.0   90.0   16.666666666666668
-150.0   90.0   16.666666666666668
-200.0   120.0   16.666666666666668
-200.0   90.0   33.333333333333336
-150.0   90.0   16.666666666666668
-150.0   120.0   16.666666666666668
-200.0   120.0   16.666666666666668
-150.0   120.0   33.333333333333336
-200.0   90.0   33.333333333333336
-200.0   120.0   33.333333333333336
-150.0   120.0   33.333333333333336
-200.0   120.0   16.666666666666668
-200.0   90.0   33.333333333333336
-150.0   120.0   33.333333333333336
-150.0   90.0   33.333333333333336
-150.0   90.0   16.666666666666668
-200.0   90.0   33.333333333333336
-150.0   120.0   33.333333333333336
-150.0   90.0   16.666666666666668
-200.0   120.0   16.666666666666668
-200.0   90.0   33.333333333333336
-150.0   90.0   33.333333333333336
-200.0   120.0   33.333333333333336
-200.0   90.0   50.0
-150.0   90.0   33.333333333333336
-150.0   120.0   33.333333333333336
-200.0   120.0   33.333333333333336
-150.0   120.0   50.0
-200.0   90.0   50.0
-200.0   120.0   50.0
-150.0   120.0   50.0
-200.0   120.0   33.333333333333336
-200.0   90.0   50.0
-150.0   120.0   50.0
-150.0   90.0   50.0
-150.0   90.0   33.333333333333336
-200.0   90.0   50.0
-150.0   120.0   50.0
-150.0   90.0   33.333333333333336
-200.0   120.0   33.333333333333336
-200.0   120.0   0.0
-150.0   120.0   0.0
-200.0   150.0   0.0
-200.0   120.0   16.666666666666668
-150.0   120.0   0.0
-150.0   150.0   0.0
-200.0   150.0   0.0
-150.0   150.0   16.666666666666668
-200.0   120.0   16.666666666666668
-200.0   150.0   16.666666666666668
-150.0   150.0   16.666666666666668
-200.0   150.0   0.0
-200.0   120.0   16.666666666666668
-150.0   150.0   16.666666666666668
-150.0   120.0   16.666666666666668
-150.0   120.0   0.0
-200.0   120.0   16.666666666666668
-150.0   150.0   16.666666666666668
-150.0   120.0   0.0
-200.0   150.0   0.0
-200.0   120.0   16.666666666666668
-150.0   120.0   16.666666666666668
-200.0   150.0   16.666666666666668
-200.0   120.0   33.333333333333336
-150.0   120.0   16.666666666666668
-150.0   150.0   16.666666666666668
-200.0   150.0   16.666666666666668
-150.0   150.0   33.333333333333336
-200.0   120.0   33.333333333333336
-200.0   150.0   33.333333333333336
-150.0   150.0   33.333333333333336
-200.0   150.0   16.666666666666668
-200.0   120.0   33.333333333333336
-150.0   150.0   33.333333333333336
-150.0   120.0   33.333333333333336
-150.0   120.0   16.666666666666668
-200.0   120.0   33.333333333333336
-150.0   150.0   33.333333333333336
-150.0   120.0   16.666666666666668
-200.0   150.0   16.666666666666668
-200.0   120.0   33.333333333333336
-150.0   120.0   33.333333333333336
-200.0   150.0   33.333333333333336
-200.0   120.0   50.0
-150.0   120.0   33.333333333333336
-150.0   150.0   33.333333333333336
-200.0   150.0   33.333333333333336
-150.0   150.0   50.0
-200.0   120.0   50.0
-200.0   150.0   50.0
-150.0   150.0   50.0
-200.0   150.0   33.333333333333336
-200.0   120.0   50.0
-150.0   150.0   50.0
-150.0   120.0   50.0
-150.0   120.0   33.333333333333336
-200.0   120.0   50.0
-150.0   150.0   50.0
-150.0   120.0   33.333333333333336
-200.0   150.0   33.333333333333336
-150.0   0.0   0.0
-100.0   0.0   0.0
-150.0   30.0   0.0
-150.0   0.0   16.666666666666668
-100.0   0.0   0.0
-100.0   30.0   0.0
-150.0   30.0   0.0
-100.0   30.0   16.666666666666668
-150.0   0.0   16.666666666666668
-150.0   30.0   16.666666666666668
-100.0   30.0   16.666666666666668
-150.0   30.0   0.0
-150.0   0.0   16.666666666666668
-100.0   30.0   16.666666666666668
-100.0   0.0   16.666666666666668
-100.0   0.0   0.0
-150.0   0.0   16.666666666666668
-100.0   30.0   16.666666666666668
-100.0   0.0   0.0
-150.0   30.0   0.0
-150.0   0.0   16.666666666666668
-100.0   0.0   16.666666666666668
-150.0   30.0   16.666666666666668
-150.0   0.0   33.333333333333336
-100.0   0.0   16.666666666666668
-100.0   30.0   16.666666666666668
-150.0   30.0   16.666666666666668
-100.0   30.0   33.333333333333336
-150.0   0.0   33.333333333333336
-150.0   30.0   33.333333333333336
-100.0   30.0   33.333333333333336
-150.0   30.0   16.666666666666668
-150.0   0.0   33.333333333333336
-100.0   30.0   33.333333333333336
-100.0   0.0   33.333333333333336
-100.0   0.0   16.666666666666668
-150.0   0.0   33.333333333333336
-100.0   30.0   33.333333333333336
-100.0   0.0   16.666666666666668
-150.0   30.0   16.666666666666668
-150.0   0.0   33.333333333333336
-100.0   0.0   33.333333333333336
-150.0   30.0   33.333333333333336
-150.0   0.0   50.0
-100.0   0.0   33.333333333333336
-100.0   30.0   33.333333333333336
-150.0   30.0   33.333333333333336
-100.0   30.0   50.0
-150.0   0.0   50.0
-150.0   30.0   50.0
-100.0   30.0   50.0
-150.0   30.0   33.333333333333336
-150.0   0.0   50.0
-100.0   30.0   50.0
-100.0   0.0   50.0
-100.0   0.0   33.333333333333336
-150.0   0.0   50.0
-100.0   30.0   50.0
-100.0   0.0   33.333333333333336
-150.0   30.0   33.333333333333336
-150.0   30.0   0.0
-100.0   30.0   0.0
-150.0   60.0   0.0
-150.0   30.0   16.666666666666668
-100.0   30.0   0.0
-100.0   60.0   0.0
-150.0   60.0   0.0
-100.0   60.0   16.666666666666668
-150.0   30.0   16.666666666666668
-150.0   60.0   16.666666666666668
-100.0   60.0   16.666666666666668
-150.0   60.0   0.0
-150.0   30.0   16.666666666666668
-100.0   60.0   16.666666666666668
-100.0   30.0   16.666666666666668
-100.0   30.0   0.0
-150.0   30.0   16.666666666666668
-100.0   60.0   16.666666666666668
-100.0   30.0   0.0
-150.0   60.0   0.0
-150.0   30.0   16.666666666666668
-100.0   30.0   16.666666666666668
-150.0   60.0   16.666666666666668
-150.0   30.0   33.333333333333336
-100.0   30.0   16.666666666666668
-100.0   60.0   16.666666666666668
-150.0   60.0   16.666666666666668
-100.0   60.0   33.333333333333336
-150.0   30.0   33.333333333333336
-150.0   60.0   33.333333333333336
-100.0   60.0   33.333333333333336
-150.0   60.0   16.666666666666668
-150.0   30.0   33.333333333333336
-100.0   60.0   33.333333333333336
-100.0   30.0   33.333333333333336
-100.0   30.0   16.666666666666668
-150.0   30.0   33.333333333333336
-100.0   60.0   33.333333333333336
-100.0   30.0   16.666666666666668
-150.0   60.0   16.666666666666668
-150.0   30.0   33.333333333333336
-100.0   30.0   33.333333333333336
-150.0   60.0   33.333333333333336
-150.0   30.0   50.0
-100.0   30.0   33.333333333333336
-100.0   60.0   33.333333333333336
-150.0   60.0   33.333333333333336
-100.0   60.0   50.0
-150.0   30.0   50.0
-150.0   60.0   50.0
-100.0   60.0   50.0
-150.0   60.0   33.333333333333336
-150.0   30.0   50.0
-100.0   60.0   50.0
-100.0   30.0   50.0
-100.0   30.0   33.333333333333336
-150.0   30.0   50.0
-100.0   60.0   50.0
-100.0   30.0   33.333333333333336
-150.0   60.0   33.333333333333336
-150.0   60.0   0.0
-100.0   60.0   0.0
-150.0   90.0   0.0
-150.0   60.0   16.666666666666668
-100.0   60.0   0.0
-100.0   90.0   0.0
-150.0   90.0   0.0
-100.0   90.0   16.666666666666668
-150.0   60.0   16.666666666666668
-150.0   90.0   16.666666666666668
-100.0   90.0   16.666666666666668
-150.0   90.0   0.0
-150.0   60.0   16.666666666666668
-100.0   90.0   16.666666666666668
-100.0   60.0   16.666666666666668
-100.0   60.0   0.0
-150.0   60.0   16.666666666666668
-100.0   90.0   16.666666666666668
-100.0   60.0   0.0
-150.0   90.0   0.0
-150.0   60.0   16.666666666666668
-100.0   60.0   16.666666666666668
-150.0   90.0   16.666666666666668
-150.0   60.0   33.333333333333336
-100.0   60.0   16.666666666666668
-100.0   90.0   16.666666666666668
-150.0   90.0   16.666666666666668
-100.0   90.0   33.333333333333336
-150.0   60.0   33.333333333333336
-150.0   90.0   33.333333333333336
-100.0   90.0   33.333333333333336
-150.0   90.0   16.666666666666668
-150.0   60.0   33.333333333333336
-100.0   90.0   33.333333333333336
-100.0   60.0   33.333333333333336
-100.0   60.0   16.666666666666668
-150.0   60.0   33.333333333333336
-100.0   90.0   33.333333333333336
-100.0   60.0   16.666666666666668
-150.0   90.0   16.666666666666668
-150.0   60.0   33.333333333333336
-100.0   60.0   33.333333333333336
-150.0   90.0   33.333333333333336
-150.0   60.0   50.0
-100.0   60.0   33.333333333333336
-100.0   90.0   33.333333333333336
-150.0   90.0   33.333333333333336
-100.0   90.0   50.0
-150.0   60.0   50.0
-150.0   90.0   50.0
-100.0   90.0   50.0
-150.0   90.0   33.333333333333336
-150.0   60.0   50.0
-100.0   90.0   50.0
-100.0   60.0   50.0
-100.0   60.0   33.333333333333336
-150.0   60.0   50.0
-100.0   90.0   50.0
-100.0   60.0   33.333333333333336
-150.0   90.0   33.333333333333336
-150.0   90.0   0.0
-100.0   90.0   0.0
-150.0   120.0   0.0
-150.0   90.0   16.666666666666668
-100.0   90.0   0.0
-100.0   120.0   0.0
-150.0   120.0   0.0
-100.0   120.0   16.666666666666668
-150.0   90.0   16.666666666666668
-150.0   120.0   16.666666666666668
-100.0   120.0   16.666666666666668
-150.0   120.0   0.0
-150.0   90.0   16.666666666666668
-100.0   120.0   16.666666666666668
-100.0   90.0   16.666666666666668
-100.0   90.0   0.0
-150.0   90.0   16.666666666666668
-100.0   120.0   16.666666666666668
-100.0   90.0   0.0
-150.0   120.0   0.0
-150.0   90.0   16.666666666666668
-100.0   90.0   16.666666666666668
-150.0   120.0   16.666666666666668
-150.0   90.0   33.333333333333336
-100.0   90.0   16.666666666666668
-100.0   120.0   16.666666666666668
-150.0   120.0   16.666666666666668
-100.0   120.0   33.333333333333336
-150.0   90.0   33.333333333333336
-150.0   120.0   33.333333333333336
-100.0   120.0   33.333333333333336
-150.0   120.0   16.666666666666668
-150.0   90.0   33.333333333333336
-100.0   120.0   33.333333333333336
-100.0   90.0   33.333333333333336
-100.0   90.0   16.666666666666668
-150.0   90.0   33.333333333333336
-100.0   120.0   33.333333333333336
-100.0   90.0   16.666666666666668
-150.0   120.0   16.666666666666668
-150.0   90.0   33.333333333333336
-100.0   90.0   33.333333333333336
-150.0   120.0   33.333333333333336
-150.0   90.0   50.0
-100.0   90.0   33.333333333333336
-100.0   120.0   33.333333333333336
-150.0   120.0   33.333333333333336
-100.0   120.0   50.0
-150.0   90.0   50.0
-150.0   120.0   50.0
-100.0   120.0   50.0
-150.0   120.0   33.333333333333336
-150.0   90.0   50.0
-100.0   120.0   50.0
-100.0   90.0   50.0
-100.0   90.0   33.333333333333336
-150.0   90.0   50.0
-100.0   120.0   50.0
-100.0   90.0   33.333333333333336
-150.0   120.0   33.333333333333336
-150.0   120.0   0.0
-100.0   120.0   0.0
-150.0   150.0   0.0
-150.0   120.0   16.666666666666668
-100.0   120.0   0.0
-100.0   150.0   0.0
-150.0   150.0   0.0
-100.0   150.0   16.666666666666668
-150.0   120.0   16.666666666666668
-150.0   150.0   16.666666666666668
-100.0   150.0   16.666666666666668
-150.0   150.0   0.0
-150.0   120.0   16.666666666666668
-100.0   150.0   16.666666666666668
-100.0   120.0   16.666666666666668
-100.0   120.0   0.0
-150.0   120.0   16.666666666666668
-100.0   150.0   16.666666666666668
-100.0   120.0   0.0
-150.0   150.0   0.0
-150.0   120.0   16.666666666666668
-100.0   120.0   16.666666666666668
-150.0   150.0   16.666666666666668
-150.0   120.0   33.333333333333336
-100.0   120.0   16.666666666666668
-100.0   150.0   16.666666666666668
-150.0   150.0   16.666666666666668
-100.0   150.0   33.333333333333336
-150.0   120.0   33.333333333333336
-150.0   150.0   33.333333333333336
-100.0   150.0   33.333333333333336
-150.0   150.0   16.666666666666668
-150.0   120.0   33.333333333333336
-100.0   150.0   33.333333333333336
-100.0   120.0   33.333333333333336
-100.0   120.0   16.666666666666668
-150.0   120.0   33.333333333333336
-100.0   150.0   33.333333333333336
-100.0   120.0   16.666666666666668
-150.0   150.0   16.666666666666668
-150.0   120.0   33.333333333333336
-100.0   120.0   33.333333333333336
-150.0   150.0   33.333333333333336
-150.0   120.0   50.0
-100.0   120.0   33.333333333333336
-100.0   150.0   33.333333333333336
-150.0   150.0   33.333333333333336
-100.0   150.0   50.0
-150.0   120.0   50.0
-150.0   150.0   50.0
-100.0   150.0   50.0
-150.0   150.0   33.333333333333336
-150.0   120.0   50.0
-100.0   150.0   50.0
-100.0   120.0   50.0
-100.0   120.0   33.333333333333336
-150.0   120.0   50.0
-100.0   150.0   50.0
-100.0   120.0   33.333333333333336
-150.0   150.0   33.333333333333336
-100.0   0.0   0.0
-50.0   0.0   0.0
-100.0   30.0   0.0
-100.0   0.0   16.666666666666668
-50.0   0.0   0.0
-50.0   30.0   0.0
-100.0   30.0   0.0
-50.0   30.0   16.666666666666668
-100.0   0.0   16.666666666666668
-100.0   30.0   16.666666666666668
-50.0   30.0   16.666666666666668
-100.0   30.0   0.0
-100.0   0.0   16.666666666666668
-50.0   30.0   16.666666666666668
-50.0   0.0   16.666666666666668
-50.0   0.0   0.0
-100.0   0.0   16.666666666666668
-50.0   30.0   16.666666666666668
-50.0   0.0   0.0
-100.0   30.0   0.0
-100.0   0.0   16.666666666666668
-50.0   0.0   16.666666666666668
-100.0   30.0   16.666666666666668
-100.0   0.0   33.333333333333336
-50.0   0.0   16.666666666666668
-50.0   30.0   16.666666666666668
-100.0   30.0   16.666666666666668
-50.0   30.0   33.333333333333336
-100.0   0.0   33.333333333333336
-100.0   30.0   33.333333333333336
-50.0   30.0   33.333333333333336
-100.0   30.0   16.666666666666668
-100.0   0.0   33.333333333333336
-50.0   30.0   33.333333333333336
-50.0   0.0   33.333333333333336
-50.0   0.0   16.666666666666668
-100.0   0.0   33.333333333333336
-50.0   30.0   33.333333333333336
-50.0   0.0   16.666666666666668
-100.0   30.0   16.666666666666668
-100.0   0.0   33.333333333333336
-50.0   0.0   33.333333333333336
-100.0   30.0   33.333333333333336
-100.0   0.0   50.0
-50.0   0.0   33.333333333333336
-50.0   30.0   33.333333333333336
-100.0   30.0   33.333333333333336
-50.0   30.0   50.0
-100.0   0.0   50.0
-100.0   30.0   50.0
-50.0   30.0   50.0
-100.0   30.0   33.333333333333336
-100.0   0.0   50.0
-50.0   30.0   50.0
-50.0   0.0   50.0
-50.0   0.0   33.333333333333336
-100.0   0.0   50.0
-50.0   30.0   50.0
-50.0   0.0   33.333333333333336
-100.0   30.0   33.333333333333336
-100.0   30.0   0.0
-50.0   30.0   0.0
-100.0   60.0   0.0
-100.0   30.0   16.666666666666668
-50.0   30.0   0.0
-50.0   60.0   0.0
-100.0   60.0   0.0
-50.0   60.0   16.666666666666668
-100.0   30.0   16.666666666666668
-100.0   60.0   16.666666666666668
-50.0   60.0   16.666666666666668
-100.0   60.0   0.0
-100.0   30.0   16.666666666666668
-50.0   60.0   16.666666666666668
-50.0   30.0   16.666666666666668
-50.0   30.0   0.0
-100.0   30.0   16.666666666666668
-50.0   60.0   16.666666666666668
-50.0   30.0   0.0
-100.0   60.0   0.0
-100.0   30.0   16.666666666666668
-50.0   30.0   16.666666666666668
-100.0   60.0   16.666666666666668
-100.0   30.0   33.333333333333336
-50.0   30.0   16.666666666666668
-50.0   60.0   16.666666666666668
-100.0   60.0   16.666666666666668
-50.0   60.0   33.333333333333336
-100.0   30.0   33.333333333333336
-100.0   60.0   33.333333333333336
-50.0   60.0   33.333333333333336
-100.0   60.0   16.666666666666668
-100.0   30.0   33.333333333333336
-50.0   60.0   33.333333333333336
-50.0   30.0   33.333333333333336
-50.0   30.0   16.666666666666668
-100.0   30.0   33.333333333333336
-50.0   60.0   33.333333333333336
-50.0   30.0   16.666666666666668
-100.0   60.0   16.666666666666668
-100.0   30.0   33.333333333333336
-50.0   30.0   33.333333333333336
-100.0   60.0   33.333333333333336
-100.0   30.0   50.0
-50.0   30.0   33.333333333333336
-50.0   60.0   33.333333333333336
-100.0   60.0   33.333333333333336
-50.0   60.0   50.0
-100.0   30.0   50.0
-100.0   60.0   50.0
-50.0   60.0   50.0
-100.0   60.0   33.333333333333336
-100.0   30.0   50.0
-50.0   60.0   50.0
-50.0   30.0   50.0
-50.0   30.0   33.333333333333336
-100.0   30.0   50.0
-50.0   60.0   50.0
-50.0   30.0   33.333333333333336
-100.0   60.0   33.333333333333336
-100.0   60.0   0.0
-50.0   60.0   0.0
-100.0   90.0   0.0
-100.0   60.0   16.666666666666668
-50.0   60.0   0.0
-50.0   90.0   0.0
-100.0   90.0   0.0
-50.0   90.0   16.666666666666668
-100.0   60.0   16.666666666666668
-100.0   90.0   16.666666666666668
-50.0   90.0   16.666666666666668
-100.0   90.0   0.0
-100.0   60.0   16.666666666666668
-50.0   90.0   16.666666666666668
-50.0   60.0   16.666666666666668
-50.0   60.0   0.0
-100.0   60.0   16.666666666666668
-50.0   90.0   16.666666666666668
-50.0   60.0   0.0
-100.0   90.0   0.0
-100.0   60.0   16.666666666666668
-50.0   60.0   16.666666666666668
-100.0   90.0   16.666666666666668
-100.0   60.0   33.333333333333336
-50.0   60.0   16.666666666666668
-50.0   90.0   16.666666666666668
-100.0   90.0   16.666666666666668
-50.0   90.0   33.333333333333336
-100.0   60.0   33.333333333333336
-100.0   90.0   33.333333333333336
-50.0   90.0   33.333333333333336
-100.0   90.0   16.666666666666668
-100.0   60.0   33.333333333333336
-50.0   90.0   33.333333333333336
-50.0   60.0   33.333333333333336
-50.0   60.0   16.666666666666668
-100.0   60.0   33.333333333333336
-50.0   90.0   33.333333333333336
-50.0   60.0   16.666666666666668
-100.0   90.0   16.666666666666668
-100.0   60.0   33.333333333333336
-50.0   60.0   33.333333333333336
-100.0   90.0   33.333333333333336
-100.0   60.0   50.0
-50.0   60.0   33.333333333333336
-50.0   90.0   33.333333333333336
-100.0   90.0   33.333333333333336
-50.0   90.0   50.0
-100.0   60.0   50.0
-100.0   90.0   50.0
-50.0   90.0   50.0
-100.0   90.0   33.333333333333336
-100.0   60.0   50.0
-50.0   90.0   50.0
-50.0   60.0   50.0
-50.0   60.0   33.333333333333336
-100.0   60.0   50.0
-50.0   90.0   50.0
-50.0   60.0   33.333333333333336
-100.0   90.0   33.333333333333336
-100.0   90.0   0.0
-50.0   90.0   0.0
-100.0   120.0   0.0
-100.0   90.0   16.666666666666668
-50.0   90.0   0.0
-50.0   120.0   0.0
-100.0   120.0   0.0
-50.0   120.0   16.666666666666668
-100.0   90.0   16.666666666666668
-100.0   120.0   16.666666666666668
-50.0   120.0   16.666666666666668
-100.0   120.0   0.0
-100.0   90.0   16.666666666666668
-50.0   120.0   16.666666666666668
-50.0   90.0   16.666666666666668
-50.0   90.0   0.0
-100.0   90.0   16.666666666666668
-50.0   120.0   16.666666666666668
-50.0   90.0   0.0
-100.0   120.0   0.0
-100.0   90.0   16.666666666666668
-50.0   90.0   16.666666666666668
-100.0   120.0   16.666666666666668
-100.0   90.0   33.333333333333336
-50.0   90.0   16.666666666666668
-50.0   120.0   16.666666666666668
-100.0   120.0   16.666666666666668
-50.0   120.0   33.333333333333336
-100.0   90.0   33.333333333333336
-100.0   120.0   33.333333333333336
-50.0   120.0   33.333333333333336
-100.0   120.0   16.666666666666668
-100.0   90.0   33.333333333333336
-50.0   120.0   33.333333333333336
-50.0   90.0   33.333333333333336
-50.0   90.0   16.666666666666668
-100.0   90.0   33.333333333333336
-50.0   120.0   33.333333333333336
-50.0   90.0   16.666666666666668
-100.0   120.0   16.666666666666668
-100.0   90.0   33.333333333333336
-50.0   90.0   33.333333333333336
-100.0   120.0   33.333333333333336
-100.0   90.0   50.0
-50.0   90.0   33.333333333333336
-50.0   120.0   33.333333333333336
-100.0   120.0   33.333333333333336
-50.0   120.0   50.0
-100.0   90.0   50.0
-100.0   120.0   50.0
-50.0   120.0   50.0
-100.0   120.0   33.333333333333336
-100.0   90.0   50.0
-50.0   120.0   50.0
-50.0   90.0   50.0
-50.0   90.0   33.333333333333336
-100.0   90.0   50.0
-50.0   120.0   50.0
-50.0   90.0   33.333333333333336
-100.0   120.0   33.333333333333336
-100.0   120.0   0.0
-50.0   120.0   0.0
-100.0   150.0   0.0
-100.0   120.0   16.666666666666668
-50.0   120.0   0.0
-50.0   150.0   0.0
-100.0   150.0   0.0
-50.0   150.0   16.666666666666668
-100.0   120.0   16.666666666666668
-100.0   150.0   16.666666666666668
-50.0   150.0   16.666666666666668
-100.0   150.0   0.0
-100.0   120.0   16.666666666666668
-50.0   150.0   16.666666666666668
-50.0   120.0   16.666666666666668
-50.0   120.0   0.0
-100.0   120.0   16.666666666666668
-50.0   150.0   16.666666666666668
-50.0   120.0   0.0
-100.0   150.0   0.0
-100.0   120.0   16.666666666666668
-50.0   120.0   16.666666666666668
-100.0   150.0   16.666666666666668
-100.0   120.0   33.333333333333336
-50.0   120.0   16.666666666666668
-50.0   150.0   16.666666666666668
-100.0   150.0   16.666666666666668
-50.0   150.0   33.333333333333336
-100.0   120.0   33.333333333333336
-100.0   150.0   33.333333333333336
-50.0   150.0   33.333333333333336
-100.0   150.0   16.666666666666668
-100.0   120.0   33.333333333333336
-50.0   150.0   33.333333333333336
-50.0   120.0   33.333333333333336
-50.0   120.0   16.666666666666668
-100.0   120.0   33.333333333333336
-50.0   150.0   33.333333333333336
-50.0   120.0   16.666666666666668
-100.0   150.0   16.666666666666668
-100.0   120.0   33.333333333333336
-50.0   120.0   33.333333333333336
-100.0   150.0   33.333333333333336
-100.0   120.0   50.0
-50.0   120.0   33.333333333333336
-50.0   150.0   33.333333333333336
-100.0   150.0   33.333333333333336
-50.0   150.0   50.0
-100.0   120.0   50.0
-100.0   150.0   50.0
-50.0   150.0   50.0
-100.0   150.0   33.333333333333336
-100.0   120.0   50.0
-50.0   150.0   50.0
-50.0   120.0   50.0
-50.0   120.0   33.333333333333336
-100.0   120.0   50.0
-50.0   150.0   50.0
-50.0   120.0   33.333333333333336
-100.0   150.0   33.333333333333336
-50.0   0.0   0.0
0.0   0.0   0.0
-50.0   30.0   0.0
-50.0   0.0   16.666666666666668
0.0   0.0   0.0
0.0   30.0   0.0
-50.0   30.0   0.0
0.0   30.0   16.666666666666668
-50.0   0.0   16.666666666666668
-50.0   30.0   16.666666666666668
0.0   30.0   16.666666666666668
-50.0   30.0   0.0
-50.0   0.0   16.666666666666668
0.0   30.0   16.666666666666668
0.0   0.0   16.666666666666668
0.0   0.0   0.0
-50.0   0.0   16.666666666666668
0.0   30.0   16.666666666666668
0.0   0.0   0.0
-50.0   30.0   0.0
-50.0   0.0   16.666666666666668
0.0   0.0   16.666666666666668
-50.0   30.0   16.666666666666668
-50.0   0.0   33.333333333333336
0.0   0.0   16.666666666666668
0.0   30.0   16.666666666666668
-50.0   30.0   16.666666666666668
0.0   30.0   33.333333333333336
-50.0   0.0   33.333333333333336
-50.0   30.0   33.333333333333336
0.0   30.0   33.333333333333336
-50.0   30.0   16.666666666666668
-50.0   0.0   33.333333333333336
0.0   30.0   33.333333333333336
0.0   0.0   33.333333333333336
0.0   0.0   16.666666666666668
-50.0   0.0   33.333333333333336
0.0   30.0   33.333333333333336
0.0   0.0   16.666666666666668
-50.0   30.0   16.666666666666668
-50.0   0.0   33.333333333333336
0.0   0.0   33.333333333333336
-50.0   30.0   33.333333333333336
-50.0   0.0   50.0
0.0   0.0   33.333333333333336
0.0   30.0   33.333333333333336
-50.0   30.0   33.333333333333336
0.0   30.0   50.0
-50.0   0.0   50.0
-50.0   30.0   50.0
0.0   30.0   50.0
-50.0   30.0   33.333333333333336
-50.0   0.0   50.0
0.0   30.0   50.0
0.0   0.0   50.0
0.0   0.0   33.333333333333336
-50.0   0.0   50.0
0.0   30.0   50.0
0.0   0.0   33.333333333333336
-50.0   30.0   33.333333333333336
-50.0   30.0   0.0
0.0   30.0   0.0
-50.0   60.0   0.0
-50.0   30.0   16.666666666666668
0.0   30.0   0.0
0.0   60.0   0.0
-50.0   60.0   0.0
0.0   60.0   16.666666666666668
-50.0   30.0   16.666666666666668
-50.0   60.0   16.666666666666668
0.0   60.0   16.666666666666668
-50.0   60.0   0.0
-50.0   30.0   16.666666666666668
0.0   60.0   16.666666666666668
0.0   30.0   16.666666666666668
0.0   30.0   0.0
-50.0   30.0   16.666666666666668
0.0   60.0   16.666666666666668
0.0   30.0   0.0
-50.0   60.0   0.0
-50.0   30.0   16.666666666666668
0.0   30.0   16.666666666666668
-50.0   60.0   16.666666666666668
-50.0   30.0   33.333333333333336
0.0   30.0   16.666666666666668
0.0   60.0   16.666666666666668
-50.0   60.0   16.666666666666668
0.0   60.0   33.333333333333336
-50.0   30.0   33.333333333333336
-50.0   60.0   33.333333333333336
0.0   60.0   33.333333333333336
-50.0   60.0   16.666666666666668
-50.0   30.0   33.333333333333336
0.0   60.0   33.333333333333336
0.0   30.0   33.333333333333336
0.0   30.0   16.666666666666668
-50.0   30.0   33.333333333333336
0.0   60.0   33.333333333333336
0.0   30.0   16.666666666666668
-50.0   60.0   16.666666666666668
-50.0   30.0   33.333333333333336
0.0   30.0   33.333333333333336
-50.0   60.0   33.333333333333336
-50.0   30.0   50.0
0.0   30.0   33.333333333333336
0.0   60.0   33.333333333333336
-50.0   60.0   33.333333333333336
0.0   60.0   50.0
-50.0   30.0   50.0
-50.0   60.0   50.0
0.0   60.0   50.0
-50.0   60.0   33.333333333333336
-50.0   30.0   50.0
0.0   60.0   50.0
0.0   30.0   50.0
0.0   30.0   33.333333333333336
-50.0   30.0   50.0
0.0   60.0   50.0
0.0   30.0   33.333333333333336
-50.0   60.0   33.333333333333336
-50.0   60.0   0.0
0.0   60.0   0.0
-50.0   90.0   0.0
-50.0   60.0   16.666666666666668
0.0   60.0   0.0
0.0   90.0   0.0
-50.0   90.0   0.0
0.0   90.0   16.666666666666668
-50.0   60.0   16.666666666666668
-50.0   90.0   16.666666666666668
0.0   90.0   16.666666666666668
-50.0   90.0   0.0
-50.0   60.0   16.666666666666668
0.0   90.0   16.666666666666668
0.0   60.0   16.666666666666668
0.0   60.0   0.0
-50.0   60.0   16.666666666666668
0.0   90.0   16.666666666666668
0.0   60.0   0.0
-50.0   90.0   0.0
-50.0   60.0   16.666666666666668
0.0   60.0   16.666666666666668
-50.0   90.0   16.666666666666668
-50.0   60.0   33.333333333333336
0.0   60.0   16.666666666666668
0.0   90.0   16.666666666666668
-50.0   90.0   16.666666666666668
0.0   90.0   33.333333333333336
-50.0   60.0   33.333333333333336
-50.0   90.0   33.333333333333336
0.0   90.0   33.333333333333336
-50.0   90.0   16.666666666666668
-50.0   60.0   33.333333333333336
0.0   90.0   33.333333333333336
0.0   60.0   33.333333333333336
0.0   60.0   16.666666666666668
-50.0   60.0   33.333333333333336
0.0   90.0   33.333333333333336
0.0   60.0   16.666666666666668
-50.0   90.0   16.666666666666668
-50.0   60.0   33.333333333333336
0.0   60.0   33.333333333333336
-50.0   90.0   33.333333333333336
-50.0   60.0   50.0
0.0   60.0   33.333333333333336
0.0   90.0   33.333333333333336
-50.0   90.0   33.333333333333336
0.0   90.0   50.0
-50.0   60.0   50.0
-50.0   90.0   50.0
0.0   90.0   50.0
-50.0   90.0   33.333333333333336
-50.0   60.0   50.0
0.0   90.0   50.0
0.0   60.0   50.0
0.0   60.0   33.333333333333336
-50.0   60.0   50.0
0.0   90.0   50.0
0.0   60.0   33.333333333333336
-50.0   90.0   33.333333333333336
-50.0   90.0   0.0
0.0   90.0   0.0
-50.0   120.0   0.0
-50.0   90.0   16.666666666666668
0.0   90.0   0.0
0.0   120.0   0.0
-50.0   120.0   0.0
0.0   120.0   16.666666666666668
-50.0   90.0   16.666666666666668
-50.0   120.0   16.666666666666668
0.0   120.0   16.666666666666668
-50.0   120.0   0.0
-50.0   90.0   16.666666666666668
0.0   120.0   16.666666666666668
0.0   90.0   16.666666666666668
0.0   90.0   0.0
-50.0   90.0   16.666666666666668
0.0   120.0   16.666666666666668
0.0   90.0   0.0
-50.0   120.0   0.0
-50.0   90.0   16.666666666666668
0.0   90.0   16.666666666666668
-50.0   120.0   16.666666666666668
-50.0   90.0   33.333333333333336
0.0   90.0   16.666666666666668
0.0   120.0   16.666666666666668
-50.0   120.0   16.666666666666668
0.0   120.0   33.333333333333336
-50.0   90.0   33.333333333333336
-50.0   120.0   33.333333333333336
0.0   120.0   33.333333333333336
-50.0   120.0   16.666666666666668
-50.0   90.0   33.333333333333336
0.0   120.0   33.333333333333336
0.0   90.0   33.333333333333336
0.0   90.0   16.666666666666668
-50.0   90.0   33.333333333333336
0.0   120.0   33.333333333333336
0.0   90.0   16.666666666666668
-50.0   120.0   16.666666666666668
-50.0   90.0   33.333333333333336
0.0   90.0   33.333333333333336
-50.0   120.0   33.333333333333336
-50.0   90.0   50.0
0.0   90.0   33.333333333333336
0.0   120.0   33.333333333333336
-50.0   120.0   33.333333333333336
0.0   120.0   50.0
-50.0   90.0   50.0
-50.0   120.0   50.0
0.0   120.0   50.0
-50.0   120.0   33.333333333333336
-50.0   90.0   50.0
0.0   120.0   50.0
0.0   90.0   50.0
0.0   90.0   33.333333333333336
-50.0   90.0   50.0
0.0   120.0   50.0
0.0   90.0   33.333333333333336
-50.0   120.0   33.333333333333336
-50.0   120.0   0.0
0.0   120.0   0.0
-50.0   150.0   0.0
-50.0   120.0   16.666666666666668
0.0   120.0   0.0
0.0   150.0   0.0
-50.0   150.0   0.0
0.0   150.0   16.666666666666668
-50.0   120.0   16.666666666666668
-50.0   150.0   16.666666666666668
0.0   150.0   16.666666666666668
-50.0   150.0   0.0
-50.0   120.0   16.666666666666668
0.0   150.0   16.666666666666668
0.0   120.0   16.666666666666668
0.0   120.0   0.0
-50.0   120.0   16.666666666666668
0.0   150.0   16.666666666666668
0.0   120.0   0.0
-50.0   150.0   0.0
-50.0   120.0   16.666666666666668
0.0   120.0   16.666666666666668
-50.0   150.0   16.666666666666668
-50.0   120.0   33.333333333333336
0.0   120.0   16.666666666666668
0.0   150.0   16.666666666666668
-50.0   150.0   16.666666666666668
0.0   150.0   33.333333333333336
-50.0   120.0   33.333333333333336
-50.0   150.0   33.333333333333336
0.0   150.0   33.333333333333336
-50.0   150.0   16.666666666666668
-50.0   120.0   33.333333333333336
0.0   150.0   33.333333333333336
0.0   120.0   33.333333333333336
0.0   120.0   16.666666666666668
-50.0   120.0   33.333333333333336
0.0   150.0   33.333333333333336
0.0   120.0   16.666666666666668
-50.0   150.0   16.666666666666668
-50.0   120.0   33.333333333333336
0.0   120.0   33.333333333333336
-50.0   150.0   33.333333333333336
-50.0   120.0   50.0
0.0   120.0   33.333333333333336
0.0   150.0   33.333333333333336
-50.0   150.0   33.333333333333336
0.0   150.0   50.0
-50.0   120.0   50.0
-50.0   150.0   50.0
0.0   150.0   50.0
-50.0   150.0   33.333333333333336
-50.0   120.0   50.0
0.0   150.0   50.0
0.0   120.0   50.0
0.0   120.0   33.333333333333336
-50.0   120.0   50.0
0.0   150.0   50.0
0.0   120.0   33.333333333333336
-50.0   150.0   33.333333333333336
0.0   0.0   0.0
50.0   0.0   0.0
0.0   30.0   0.0
0.0   0.0   16.666666666666668
50.0   0.0   0.0
50.0   30.0   0.0
0.0   30.0   0.0
50.0   30.0   16.666666666666668
0.0   0.0   16.666666666666668
0.0   30.0   16.666666666666668
50.0   30.0   16.666666666666668
0.0   30.0   0.0
0.0   0.0   16.666666666666668
50.0   30.0   16.666666666666668
50.0   0.0   16.666666666666668
50.0   0.0   0.0
0.0   0.0   16.666666666666668
50.0   30.0   16.666666666666668
50.0   0.0   0.0
0.0   30.0   0.0
0.0   0.0   16.666666666666668
50.0   0.0   16.666666666666668
0.0   30.0   16.666666666666668
0.0   0.0   33.333333333333336
50.0   0.0   16.666666666666668
50.0   30.0   16.666666666666668
0.0   30.0   16.666666666666668
50.0   30.0   33.333333333333336
0.0   0.0   33.333333333333336
0.0   30.0   33.333333333333336
50.0   30.0   33.333333333333336
0.0   30.0   16.666666666666668
0.0   0.0   33.333333333333336
50.0   30.0   33.333333333333336
50.0   0.0   33.333333333333336
50.0   0.0   16.666666666666668
0.0   0.0   33.333333333333336
50.0   30.0   33.333333333333336
50.0   0.0   16.666666666666668
0.0   30.0   16.666666666666668
0.0   0.0   33.333333333333336
50.0   0.0   33.333333333333336
0.0   30.0   33.333333333333336
0.0   0.0   50.0
50.0   0.0   33.333333333333336
50.0   30.0   33.333333333333336
0.0   30.0   33.333333333333336
50.0   30.0   50.0
0.0   0.0   50.0
0.0   30.0   50.0
50.0   30.0   50.0
0.0   30.0   33.333333333333336
0.0   0.0   50.0
50.0   30.0   50.0
50.0   0.0   50.0
50.0   0.0   33.333333333333336
0.0   0.0   50.0
50.0   30.0   50.0
50.0   0.0   33.333333333333336
0.0   30.0   33.333333333333336
0.0   30.0   0.0
50.0   30.0   0.0
0.0   60.0   0.0
0.0   30.0   16.666666666666668
50.0   30.0   0.0
50.0   60.0   0.0
0.0   60.0   0.0
50.0   60.0   16.666666666666668
0.0   30.0   16.666666666666668
0.0   60.0   16.666666666666668
50.0   60.0   16.666666666666668
0.0   60.0   0.0
0.0   30.0   16.666666666666668
50.0   60.0   16.666666666666668
50.0   30.0   16.666666666666668
50.0   30.0   0.0
0.0   30.0   16.666666666666668
50.0   60.0   16.666666666666668
50.0   30.0   0.0
0.0   60.0   0.0
0.0   30.0   16.666666666666668
50.0   30.0   16.666666666666668
0.0   60.0   16.666666666666668
0.0   30.0   33.333333333333336
50.0   30.0   16.666666666666668
50.0   60.0   16.666666666666668
0.0   60.0   16.666666666666668
50.0   60.0   33.333333333333336
0.0   30.0   33.333333333333336
0.0   60.0   33.333333333333336
50.0   60.0   33.333333333333336
0.0   60.0   16.666666666666668
0.0   30.0   33.333333333333336
50.0   60.0   33.333333333333336
50.0   30.0   33.333333333333336
50.0   30.0   16.666666666666668
0.0   30.0   33.333333333333336
50.0   60.0   33.333333333333336
50.0   30.0   16.666666666666668
0.0   60.0   16.666666666666668
0.0   30.0   33.333333333333336
50.0   30.0   33.333333333333336
0.0   60.0   33.333333333333336
0.0   30.0   50.0
50.0   30.0   33.333333333333336
50.0   60.0   33.333333333333336
0.0   60.0   33.333333333333336
50.0   60.0   50.0
0.0   30.0   50.0
0.0   60.0   50.0
50.0   60.0   50.0
0.0   60.0   33.333333333333336
0.0   30.0   50.0
50.0   60.0   50.0
50.0   30.0   50.0
50.0   30.0   33.333333333333336
0.0   30.0   50.0
50.0   60.0   50.0
50.0   30.0   33.333333333333336
0.0   60.0   33.333333333333336
0.0   60.0   0.0
50.0   60.0   0.0
0.0   90.0   0.0
0.0   60.0   16.666666666666668
50.0   60.0   0.0
50.0   90.0   0.0
0.0   90.0   0.0
50.0   90.0   16.666666666666668
0.0   60.0   16.666666666666668
0.0   90.0   16.666666666666668
50.0   90.0   16.666666666666668
0.0   90.0   0.0
0.0   60.0   16.666666666666668
50.0   90.0   16.666666666666668
50.0   60.0   16.666666666666668
50.0   60.0   0.0
0.0   60.0   16.666666666666668
50.0   90.0   16.666666666666668
50.0   60.0   0.0
0.0   90.0   0.0
0.0   60.0   16.666666666666668
50.0   60.0   16.666666666666668
0.0   90.0   16.666666666666668
0.0   60.0   33.333333333333336
50.0   60.0   16.666666666666668
50.0   90.0   16.666666666666668
0.0   90.0   16.666666666666668
50.0   90.0   33.333333333333336
0.0   60.0   33.333333333333336
0.0   90.0   33.333333333333336
50.0   90.0   33.333333333333336
0.0   90.0   16.666666666666668
0.0   60.0   33.333333333333336
50.0   90.0   33.333333333333336
50.0   60.0   33.333333333333336
50.0   60.0   16.666666666666668
0.0   60.0   33.333333333333336
50.0   90.0   33.333333333333336
50.0   60.0   16.666666666666668
0.0   90.0   16.666666666666668
0.0   60.0   33.333333333333336
50.0   60.0   33.333333333333336
0.0   90.0   33.333333333333336
0.0   60.0   50.0
50.0   60.0   33.333333333333336
50.0   90.0   33.333333333333336
0.0   90.0   33.333333333333336
50.0   90.0   50.0
0.0   60.0   50.0
0.0   90.0   50.0
50.0   90.0   50.0
0.0   90.0   33.333333333333336
0.0   60.0   50.0
50.0   90.0   50.0
50.0   60.0   50.0
50.0   60.0   33.333333333333336
0.0   60.0   50.0
50.0   90.0   50.0
50.0   60.0   33.333333333333336
0.0   90.0   33.333333333333336
0.0   90.0   0.0
50.0   90.0   0.0
0.0   120.0   0.0
0.0   90.0   16.666666666666668
50.0   90.0   0.0
50.0   120.0   0.0
0.0   120.0   0.0
50.0   120.0   16.666666666666668
0.0   90.0   16.666666666666668
0.0   120.0   16.666666666666668
50.0   120.0   16.666666666666668
0.0   120.0   0.0
0.0   90.0   16.666666666666668
50.0   120.0   16.666666666666668
50.0   90.0   16.666666666666668
50.0   90.0   0.0
0.0   90.0   16.666666666666668
50.0   120.0   16.666666666666668
50.0   90.0   0.0
0.0   120.0   0.0
0.0   90.0   16.666666666666668
50.0   90.0   16.666666666666668
0.0   120.0   16.666666666666668
0.0   90.0   33.333333333333336
50.0   90.0   16.666666666666668
50.0   120.0   16.666666666666668
0.0   120.0   16.666666666666668
50.0   120.0   33.333333333333336
0.0   90.0   33.333333333333336
0.0   120.0   33.333333333333336
50.0   120.0   33.333333333333336
0.0   120.0   16.666666666666668
0.0   90.0   33.333333333333336
50.0   120.0   33.333333333333336
50.0   90.0   33.333333333333336
50.0   90.0   16.666666666666668
0.0   90.0   33.333333333333336
50.0   120.0   33.333333333333336
50.0   90.0   16.666666666666668
0.0   120.0   16.666666666666668
0.0   90.0   33.333333333333336
50.0   90.0   33.333333333333336
0.0   120.0   33.333333333333336
0.0   90.0   50.0
50.0   90.0   33.333333333333336
50.0   120.0   33.333333333333336
0.0   120.0   33.333333333333336
50.0   120.0   50.0
0.0   90.0   50.0
0.0   120.0   50.0
50.0   120.0   50.0
0.0   120.0   33.333333333333336
0.0   90.0   50.0
50.0   120.0   50.0
50.0   90.0   50.0
50.0   90.0   33.333333333333336
0.0   90.0   50.0
50.0   120.0   50.0
50.0   90.0   33.333333333333336
0.0   120.0   33.333333333333336
0.0   120.0   0.0
50.0   120.0   0.0
0.0   150.0   0.0
0.0   120.0   16.666666666666668
50.0   120.0   0.0
50.0   150.0   0.0
0.0   150.0   0.0
50.0   150.0   16.666666666666668
0.0   120.0   16.666666666666668
0.0   150.0   16.666666666666668
50.0   150.0   16.666666666666668
0.0   150.0   0.0
0.0   120.0   16.666666666666668
50.0   150.0   16.666666666666668
50.0   120.0   16.666666666666668
50.0   120.0   0.0
0.0   120.0   16.666666666666668
50.0   150.0   16.666666666666668
50.0   120.0   0.0
0.0   150.0   0.0
0.0   120.0   16.666666666666668
50.0   120.0   16.666666666666668
0.0   150.0   16.666666666666668
0.0   120.0   33.333333333333336
50.0   120.0   16.666666666666668
50.0   150.0   16.666666666666668
0.0   150.0   16.666666666666668
50.0   150.0   33.333333333333336
0.0   120.0   33.333333333333336
0.0   150.0   33.333333333333336
50.0   150.0   33.333333333333336
0.0   150.0   16.666666666666668
0.0   120.0   33.333333333333336
50.0   150.0   33.333333333333336
50.0   120.0   33.333333333333336
50.0   120.0   16.666666666666668
0.0   120.0   33.333333333333336
50.0   150.0   33.333333333333336
50.0   120.0   16.666666666666668
0.0   150.0   16.666666666666668
0.0   120.0   33.333333333333336
50.0   120.0   33.333333333333336
0.0   150.0   33.333333333333336
0.0   120.0   50.0
50.0   120.0   33.333333333333336
50.0   150.0   33.333333333333336
0.0   150.0   33.333333333333336
50.0   150.0   50.0
0.0   120.0   50.0
0.0   150.0   50.0
50.0   150.0   50.0
0.0   150.0   33.333333333333336
0.0   120.0   50.0
50.0   150.0   50.0
50.0   120.0   50.0
50.0   120.0   33.333333333333336
0.0   120.0   50.0
50.0   150.0   50.0
50.0   120.0   33.333333333333336
0.0   150.0   33.333333333333336
50.0   0.0   0.0
100.0   0.0   0.0
50.0   30.0   0.0
50.0   0.0   16.666666666666668
100.0   0.0   0.0
100.0   30.0   0.0
50.0   30.0   0.0
100.0   30.0   16.666666666666668
50.0   0.0   16.666666666666668
50.0   30.0   16.666666666666668
100.0   30.0   16.666666666666668
50.0   30.0   0.0
50.0   0.0   16.666666666666668
100.0   30.0   16.666666666666668
100.0   0.0   16.666666666666668
100.0   0.0   0.0
50.0   0.0   16.666666666666668
100.0   30.0   16.666666666666668
100.0   0.0   0.0
50.0   30.0   0.0
50.0   0.0   16.666666666666668
100.0   0.0   16.666666666666668
50.0   30.0   16.666666666666668
50.0   0.0   33.333333333333336
100.0   0.0   16.666666666666668
100.0   30.0   16.666666666666668
50.0   30.0   16.666666666666668
100.0   30.0   33.333333333333336
50.0   0.0   33.333333333333336
50.0   30.0   33.333333333333336
100.0   30.0   33.333333333333336
50.0   30.0   16.666666666666668
50.0   0.0   33.333333333333336
100.0   30.0   33.333333333333336
100.0   0.0   33.333333333333336
100.0   0.0   16.666666666666668
50.0   0.0   33.333333333333336
100.0   30.0   33.333333333333336
100.0   0.0   16.666666666666668
50.0   30.0   16.666666666666668
50.0   0.0   33.333333333333336
100.0   0.0   33.333333333333336
50.0   30.0   33.333333333333336
50.0   0.0   50.0
100.0   0.0   33.333333333333336
100.0   30.0   33.333333333333336
50.0   30.0   33.333333333333336
100.0   30.0   50.0
50.0   0.0   50.0
50.0   30.0   50.0
100.0   30.0   50.0
50.0   30.0   33.333333333333336
50.0   0.0   50.0
100.0   30.0   50.0
100.0   0.0   50.0
100.0   0.0   33.333333333333336
50.0   0.0   50.0
100.0   30.0   50.0
100.0   0.0   33.333333333333336
50.0   30.0   33.333333333333336
50.0   30.0   0.0
100.0   30.0   0.0
50.0   60.0   0.0
50.0   30.0   16.666666666666668
100.0   30.0   0.0
100.0   60.0   0.0
50.0   60.0   0.0
100.0   60.0   16.666666666666668
50.0   30.0   16.666666666666668
50.0   60.0   16.666666666666668
100.0   60.0   16.666666666666668
50.0   60.0   0.0
50.0   30.0   16.666666666666668
100.0   60.0   16.666666666666668
100.0   30.0   16.666666666666668
100.0   30.0   0.0
50.0   30.0   16.666666666666668
100.0   60.0   16.666666666666668
100.0   30.0   0.0
50.0   60.0   0.0
50.0   30.0   16.666666666666668
100.0   30.0   16.666666666666668
50.0   60.0   16.666666666666668
50.0   30.0   33.333333333333336
100.0   30.0   16.666666666666668
100.0   60.0   16.666666666666668
50.0   60.0   16.666666666666668
100.0   60.0   33.333333333333336
50.0   30.0   33.333333333333336
50.0   60.0   33.333333333333336
100.0   60.0   33.333333333333336
50.0   60.0   16.666666666666668
50.0   30.0   33.333333333333336
100.0   60.0   33.333333333333336
100.0   30.0   33.333333333333336
100.0   30.0   16.666666666666668
50.0   30.0   33.333333333333336
100.0   60.0   33.333333333333336
100.0   30.0   16.666666666666668
50.0   60.0   16.666666666666668
50.0   30.0   33.333333333333336
100.0   30.0   33.333333333333336
50.0   60.0   33.333333333333336
50.0   30.0   50.0
100.0   30.0   33.333333333333336
100.0   60.0   33.333333333333336
50.0   60.0   33.333333333333336
100.0   60.0   50.0
50.0   30.0   50.0
50.0   60.0   50.0
100.0   60.0   50.0
50.0   60.0   33.333333333333336
50.0   30.0   50.0
100.0   60.0   50.0
100.0   30.0   50.0
100.0   30.0   33.333333333333336
50.0   30.0   50.0
100.0   60.0   50.0
100.0   30.0   33.333333333333336
50.0   60.0   33.333333333333336
50.0   60.0   0.0
100.0   60.0   0.0
50.0   90.0   0.0
50.0   60.0   16.666666666666668
100.0   60.0   0.0
100.0   90.0   0.0
50.0   90.0   0.0
100.0   90.0   16.666666666666668
50.0   60.0   16.666666666666668
50.0   90.0   16.666666666666668
100.0   90.0   16.666666666666668
50.0   90.0   0.0
50.0   60.0   16.666666666666668
100.0   90.0   16.666666666666668
100.0   60.0   16.666666666666668
100.0   60.0   0.0
50.0   60.0   16.666666666666668
100.0   90.0   16.666666666666668
100.0   60.0   0.0
50.0   90.0   0.0
50.0   60.0   16.666666666666668
100.0   60.0   16.666666666666668
50.0   90.0   16.666666666666668
50.0   60.0   33.333333333333336
100.0   60.0   16.666666666666668
100.0   90.0   16.666666666666668
50.0   90.0   16.666666666666668
100.0   90.0   33.333333333333336
50.0   60.0   33.333333333333336
50.0   90.0   33.333333333333336
100.0   90.0   33.333333333333336
50.0   90.0   16.666666666666668
50.0   60.0   33.333333333333336
100.0   90.0   33.333333333333336
100.0   60.0   33.333333333333336
100.0   60.0   16.666666666666668
50.0   60.0   33.333333333333336
100.0   90.0   33.333333333333336
100.0   60.0   16.666666666666668
50.0   90.0   16.666666666666668
50.0   60.0   33.333333333333336
100.0   60.0   33.333333333333336
50.0   90.0   33.333333333333336
50.0   60.0   50.0
100.0   60.0   33.333333333333336
100.0   90.0   33.333333333333336
50.0   90.0   33.333333333333336
100.0   90.0   50.0
50.0   60.0   50.0
50.0   90.0   50.0
100.0   90.0   50.0
50.0   90.0   33.333333333333336
50.0   60.0   50.0
100.0   90.0   50.0
100.0   60.0   50.0
100.0   60.0   33.333333333333336
50.0   60.0   50.0
100.0   90.0   50.0
100.0   60.0   33.333333333333336
50.0   90.0   33.333333333333336
50.0   90.0   0.0
100.0   90.0   0.0
50.0   120.0   0.0
50.0   90.0   16.666666666666668
100.0   90.0   0.0
100.0   120.0   0.0
50.0   120.0   0.0
100.0   120.0   16.666666666666668
50.0   90.0   16.666666666666668
50.0   120.0   16.666666666666668
100.0   120.0   16.666666666666668
50.0   120.0   0.0
50.0   90.0   16.666666666666668
100.0   120.0   16.666666666666668
100.0   90.0   16.666666666666668
100.0   90.0   0.0
50.0   90.0   16.666666666666668
100.0   120.0   16.666666666666668
100.0   90.0   0.0
50.0   120.0   0.0
50.0   90.0   16.666666666666668
100.0   90.0   16.666666666666668
50.0   120.0   16.666666666666668
50.0   90.0   33.333333333333336
100.0   90.0   16.666666666666668
100.0   120.0   16.666666666666668
50.0   120.0   16.666666666666668
100.0   120.0   33.333333333333336
50.0   90.0   33.333333333333336
50.0   120.0   33.333333333333336
100.0   120.0   33.333333333333336
50.0   120.0   16.666666666666668
50.0   90.0   33.333333333333336
100.0   120.0   33.333333333333336
100.0   90.0   33.333333333333336
100.0   90.0   16.666666666666668
50.0   90.0   33.333333333333336
100.0   120.0   33.333333333333336
100.0   90.0   16.666666666666668
50.0   120.0   16.666666666666668
50.0   90.0   33.333333333333336
100.0   90.0   33.333333333333336
50.0   120.0   33.333333333333336
50.0   90.0   50.0
100.0   90.0   33.333333333333336
100.0   120.0   33.333333333333336
50.0   120.0   33.333333333333336
100.0   120.0   50.0
50.0   90.0   50.0
50.0   120.0   50.0
100.0   120.0   50.0
50.0   120.0   33.333333333333336
50.0   90.0   50.0
100.0   120.0   50.0
100.0   90.0   50.0
100.0   90.0   33.333333333333336
50.0   90.0   50.0
100.0   120.0   50.0
100.0   90.0   33.333333333333336
50.0   120.0   33.333333333333336
50.0   120.0   0.0
100.0   120.0   0.0
50.0   150.0   0.0
50.0   120.0   16.666666666666668
100.0   120.0   0.0
100.0   150.0   0.0
50.0   150.0   0.0
100.0   150.0   16.666666666666668
50.0   120.0   16.666666666666668
50.0   150.0   16.666666666666668
100.0   150.0   16.666666666666668
50.0   150.0   0.0
50.0   120.0   16.666666666666668
100.0   150.0   16.666666666666668
100.0   120.0   16.666666666666668
100.0   120.0   0.0
50.0   120.0   16.666666666666668
100.0   150.0   16.666666666666668
100.0   120.0   0.0
50.0   150.0   0.0
50.0   120.0   16.666666666666668
100.0   120.0   16.666666666666668
50.0   150.0   16.666666666666668
50.0   120.0   33.333333333333336
100.0   120.0   16.666666666666668
100.0   150.0   16.666666666666668
50.0   150.0   16.666666666666668
100.0   150.0   33.333333333333336
50.0   120.0   33.333333333333336
50.0   150.0   33.333333333333336
100.0   150.0   33.333333333333336
50.0   150.0   16.666666666666668
50.0   120.0   33.333333333333336
100.0   150.0   33.333333333333336
100.0   120.0   33.333333333333336
100.0   120.0   16.666666666666668
50.0   120.0   33.333333333333336
100.0   150.0   33.333333333333336
100.0   120.0   16.666666666666668
50.0   150.0   16.666666666666668
50.0   120.0   33.333333333333336
100.0   120.0   33.333333333333336
50.0   150.0   33.333333333333336
50.0   120.0   50.0
100.0   120.0   33.333333333333336
100.0   150.0   33.333333333333336
50.0   150.0   33.333333333333336
100.0   150.0   50.0
50.0   120.0   50.0
50.0   150.0   50.0
100.0   150.0   50.0
50.0   150.0   33.333333333333336
50.0   120.0   50.0
100.0   150.0   50.0
100.0   120.0   50.0
100.0   120.0   33.333333333333336
50.0   120.0   50.0
100.0   150.0   50.0
100.0   120.0   33.333333333333336
50.0   150.0   33.333333333333336
100.0   0.0   0.0
150.0   0.0   0.0
100.0   30.0   0.0
100.0   0.0   16.666666666666668
150.0   0.0   0.0
150.0   30.0   0.0
100.0   30.0   0.0
150.0   30.0   16.666666666666668
100.0   0.0   16.666666666666668
100.0   30.0   16.666666666666668
150.0   30.0   16.666666666666668
100.0   30.0   0.0
100.0   0.0   16.666666666666668
150.0   30.0   16.666666666666668
150.0   0.0   16.666666666666668
150.0   0.0   0.0
100.0   0.0   16.666666666666668
150.0   30.0   16.666666666666668
150.0   0.0   0.0
100.0   30.0   0.0
100.0   0.0   16.666666666666668
150.0   0.0   16.666666666666668
100.0   30.0   16.666666666666668
100.0   0.0   33.333333333333336
150.0   0.0   16.666666666666668
150.0   30.0   16.666666666666668
100.0   30.0   16.666666666666668
150.0   30.0   33.333333333333336
100.0   0.0   33.333333333333336
100.0   30.0   33.333333333333336
150.0   30.0   33.333333333333336
100.0   30.0   16.666666666666668
100.0   0.0   33.333333333333336
150.0   30.0   33.333333333333336
150.0   0.0   33.333333333333336
150.0   0.0   16.666666666666668
100.0   0.0   33.333333333333336
150.0   30.0   33.333333333333336
150.0   0.0   16.666666666666668
100.0   30.0   16.666666666666668
100.0   0.0   33.333333333333336
150.0   0.0   33.333333333333336
100.0   30.0   33.333333333333336
100.0   0.0   50.0
150.0   0.0   33.333333333333336
150.0   30.0   33.333333333333336
100.0   30.0   33.333333333333336
150.0   30.0   50.0
100.0   0.0   50.0
100.0   30.0   50.0
150.0   30.0   50.0
100.0   30.0   33.333333333333336
100.0   0.0   50.0
150.0   30.0   50.0
150.0   0.0   50.0
150.0   0.0   33.333333333333336
100.0   0.0   50.0
150.0   30.0   50.0
150.0   0.0   33.333333333333336
100.0   30.0   33.333333333333336
100.0   30.0   0.0
150.0   30.0   0.0
100.0   60.0   0.0
100.0   30.0   16.666666666666668
150.0   30.0   0.0
150.0   60.0   0.0
100.0   60.0   0.0
150.0   60.0   16.666666666666668
100.0   30.0   16.666666666666668
100.0   60.0   16.666666666666668
150.0   60.0   16.666666666666668
100.0   60.0   0.0
100.0   30.0   16.666666666666668
150.0   60.0   16.666666666666668
150.0   30.0   16.666666666666668
150.0   30.0   0.0
100.0   30.0   16.666666666666668
150.0   60.0   16.666666666666668
150.0   30.0   0.0
100.0   60.0   0.0
100.0   30.0   16.666666666666668
150.0   30.0   16.666666666666668
100.0   60.0   16.666666666666668
100.0   30.0   33.333333333333336
150.0   30.0   16.666666666666668
150.0   60.0   16.666666666666668
100.0   60.0   16.666666666666668
150.0   60.0   33.333333333333336
100.0   30.0   33.333333333333336
100.0   60.0   33.333333333333336
150.0   60.0   33.333333333333336
100.0   60.0   16.666666666666668
100.0   30.0   33.333333333333336
150.0   60.0   33.333333333333336
150.0   30.0   33.333333333333336
150.0   30.0   16.666666666666668
100.0   30.0   33.333333333333336
150.0   60.0   33.333333333333336
150.0   30.0   16.666666666666668
100.0   60.0   16.666666666666668
100.0   30.0   33.333333333333336
150.0   30.0   33.333333333333336
100.0   60.0   33.333333333333336
100.0   30.0   50.0
150.0   30.0   33.333333333333336
150.0   60.0   33.333333333333336
100.0   60.0   33.333333333333336
150.0   60.0   50.0
100.0   30.0   50.0
100.0   60.0   50.0
150.0   60.0   50.0
100.0   60.0   33.333333333333336
100.0   30.0   50.0
150.0   60.0   50.0
150.0   30.0   50.0
150.0   30.0   33.333333333333336
100.0   30.0   50.0
150.0   60.0   50.0
150.0   30.0   33.333333333333336
100.0   60.0   33.333333333333336
100.0   60.0   0.0
150.0   60.0   0.0
100.0   90.0   0.0
100.0   60.0   16.666666666666668
150.0   60.0   0.0
150.0   90.0   0.0
100.0   90.0   0.0
150.0   90.0   16.666666666666668
100.0   60.0   16.666666666666668
100.0   90.0   16.666666666666668
150.0   90.0   16.666666666666668
100.0   90.0   0.0
100.0   60.0   16.666666666666668
150.0   90.0   16.666666666666668
150.0   60.0   16.666666666666668
150.0   60.0   0.0
100.0   60.0   16.666666666666668
150.0   90.0   16.666666666666668
150.0   60.0   0.0
100.0   90.0   0.0
100.0   60.0   16.666666666666668
150.0   60.0   16.666666666666668
100.0   90.0   16.666666666666668
100.0   60.0   33.333333333333336
150.0   60.0   16.666666666666668
150.0   90.0   16.666666666666668
100.0   90.0   16.666666666666668
150.0   90.0   33.333333333333336
100.0   60.0   33.333333333333336
100.0   90.0   33.333333333333336
150.0   90.0   33.333333333333336
100.0   90.0   16.666666666666668
100.0   60.0   33.333333333333336
150.0   90.0   33.333333333333336
150.0   60.0   33.333333333333336
150.0   60.0   16.666666666666668
100.0   60.0   33.333333333333336
150.0   90.0   33.333333333333336
150.0   60.0   16.666666666666668
100.0   90.0   16.666666666666668
100.0   60.0   33.333333333333336
150.0   60.0   33.333333333333336
100.0   90.0   33.333333333333336
100.0   60.0   50.0
150.0   60.0   33.333333333333336
150.0   90.0   33.333333333333336
100.0   90.0   33.333333333333336
150.0   90.0   50.0
100.0   60.0   50.0
100.0   90.0   50.0
150.0   90.0   50.0
100.0   90.0   33.333333333333336
100.0   60.0   50.0
150.0   90.0   50.0
150.0   60.0   50.0
150.0   60.0   33.333333333333336
100.0   60.0   50.0
150.0   90.0   50.0
150.0   60.0   33.333333333333336
100.0   90.0   33.333333333333336
100.0   90.0   0.0
150.0   90.0   0.0
100.0   120.0   0.0
100.0   90.0   16.666666666666668
150.0   90.0   0.0
150.0   120.0   0.0
100.0   120.0   0.0
150.0   120.0   16.666666666666668
100.0   90.0   16.666666666666668
100.0   120.0   16.666666666666668
150.0   120.0   16.666666666666668
100.0   120.0   0.0
100.0   90.0   16.666666666666668
150.0   120.0   16.666666666666668
150.0   90.0   16.666666666666668
150.0   90.0   0.0
100.0   90.0   16.666666666666668
150.0   120.0   16.666666666666668
150.0   90.0   0.0
100.0   120.0   0.0
100.0   90.0   16.666666666666668
150.0   90.0   16.666666666666668
100.0   120.0   16.666666666666668
100.0   90.0   33.333333333333336
150.0   90.0   16.666666666666668
150.0   120.0   16.666666666666668
100.0   120.0   16.666666666666668
150.0   120.0   33.333333333333336
100.0   90.0   33.333333333333336
100.0   120.0   33.333333333333336
150.0   120.0   33.333333333333336
100.0   120.0   16.666666666666668
100.0   90.0   33.333333333333336
150.0   120.0   33.333333333333336
150.0   90.0   33.333333333333336
150.0   90.0   16.666666666666668
100.0   90.0   33.333333333333336
150.0   120.0   33.333333333333336
150.0   90.0   16.666666666666668
100.0   120.0   16.666666666666668
100.0   90.0   33.333333333333336
150.0   90.0   33.333333333333336
100.0   120.0   33.333333333333336
100.0   90.0   50.0
150.0   90.0   33.333333333333336
150.0   120.0   33.333333333333336
100.0   120.0   33.333333333333336
150.0   120.0   50.0
100.0   90.0   50.0
100.0   120.0   50.0
150.0   120.0   50.0
100.0   120.0   33.333333333333336
100.0   90.0   50.0
150.0   120.0   50.0
150.0   90.0   50.0
150.0   90.0   33.333333333333336
100.0   90.0   50.0
150.0   120.0   50.0
150.0   90.0   33.333333333333336
100.0   120.0   33.333333333333336
100.0   120.0   0.0
150.0   120.0   0.0
100.0   150.0   0.0
100.0   120.0   16.666666666666668
150.0   120.0   0.0
150.0   150.0   0.0
100.0   150.0   0.0
150.0   150.0   16.666666666666668
100.0   120.0   16.666666666666668
100.0   150.0   16.666666666666668
150.0   150.0   16.666666666666668
100.0   150.0   0.0
100.0   120.0   16.666666666666668
150.0   150.0   16.666666666666668
150.0   120.0   16.666666666666668
150.0   120.0   0.0
100.0   120.0   16.666666666666668
150.0   150.0   16.666666666666668
150.0   120.0   0.0
100.0   150.0   0.0
100.0   120.0   16.666666666666668
150.0   120.0   16.666666666666668
100.0   150.0   16.666666666666668
100.0   120.0   33.333333333333336
150.0   120.0   16.666666666666668
150.0   150.0   16.666666666666668
100.0   150.0   16.666666666666668
150.0   150.0   33.333333333333336
100.0   120.0   33.333333333333336
100.0   150.0   33.333333333333336
150.0   150.0   33.333333333333336
100.0   150.0   16.666666666666668
100.0   120.0   33.333333333333336
150.0   150.0   33.333333333333336
150.0   120.0   33.333333333333336
150.0   120.0   16.666666666666668
100.0   120.0   33.333333333333336
150.0   150.0   33.333333333333336
150.0   120.0   16.666666666666668
100.0   150.0   16.666666666666668
100.0   120.0   33.333333333333336
150.0   120.0   33.333333333333336
100.0   150.0   33.333333333333336
100.0   120.0   50.0
150.0   120.0   33.333333333333336
150.0   150.0   33.333333333333336
100.0   150.0   33.333333333333336
150.0   150.0   50.0
100.0   120.0   50.0
100.0   150.0   50.0
150.0   150.0   50.0
100.0   150.0   33.333333333333336
100.0   120.0   50.0
150.0   150.0   50.0
150.0   120.0   50.0
150.0   120.0   33.333333333333336
100.0   120.0   50.0
150.0   150.0   50.0
150.0   120.0   33.333333333333336
100.0   150.0   33.333333333333336
150.0   0.0   0.0
200.0   0.0   0.0
150.0   30.0   0.0
150.0   0.0   16.666666666666668
200.0   0.0   0.0
200.0   30.0   0.0
150.0   30.0   0.0
200.0   30.0   16.666666666666668
150.0   0.0   16.666666666666668
150.0   30.0   16.666666666666668
200.0   30.0   16.666666666666668
150.0   30.0   0.0
150.0   0.0   16.666666666666668
200.0   30.0   16.666666666666668
200.0   0.0   16.666666666666668
200.0   0.0   0.0
150.0   0.0   16.666666666666668
200.0   30.0   16.666666666666668
200.0   0.0   0.0
150.0   30.0   0.0
150.0   0.0   16.666666666666668
200.0   0.0   16.666666666666668
150.0   30.0   16.666666666666668
150.0   0.0   33.333333333333336
200.0   0.0   16.666666666666668
200.0   30.0   16.666666666666668
150.0   30.0   16.666666666666668
200.0   30.0   33.333333333333336
150.0   0.0   33.333333333333336
150.0   30.0   33.333333333333336
200.0   30.0   33.333333333333336
150.0   30.0   16.666666666666668
150.0   0.0   33.333333333333336
200.0   30.0   33.333333333333336
200.0   0.0   33.333333333333336
200.0   0.0   16.666666666666668
150.0   0.0   33.333333333333336
200.0   30.0   33.333333333333336
200.0   0.0   16.666666666666668
150.0   30.0   16.666666666666668
150.0   0.0   33.333333333333336
200.0   0.0   33.333333333333336
150.0   30.0   33.333333333333336
150.0   0.0   50.0
200.0   0.0   33.333333333333336
200.0   30.0   33.333333333333336
150.0   30.0   33.333333333333336
200.0   30.0   50.0
150.0   0.0   50.0
150.0   30.0   50.0
200.0   30.0   50.0
150.0   30.0   33.333333333333336
150.0   0.0   50.0
200.0   30.0   50.0
200.0   0.0   50.0
200.0   0.0   33.333333333333336
150.0   0.0   50.0
200.0   30.0   50.0
200.0   0.0   33.333333333333336
150.0   30.0   33.333333333333336
150.0   30.0   0.0
200.0   30.0   0.0
150.0   60.0   0.0
150.0   30.0   16.666666666666668
200.0   30.0   0.0
200.0   60.0   0.0
150.0   60.0   0.0
200.0   60.0   16.666666666666668
150.0   30.0   16.666666666666668
150.0   60.0   16.666666666666668
200.0   60.0   16.666666666666668
150.0   60.0   0.0
150.0   30.0   16.666666666666668
200.0   60.0   16.666666666666668
200.0   30.0   16.666666666666668
200.0   30.0   0.0
150.0   30.0   16.666666666666668
200.0   60.0   16.666666666666668
200.0   30.0   0.0
150.0   60.0   0.0
150.0   30.0   16.666666666666668
200.0   30.0   16.666666666666668
150.0   60.0   16.666666666666668
150.0   30.0   33.333333333333336
200.0   30.0   16.666666666666668
200.0   60.0   16.666666666666668
150.0   60.0   16.666666666666668
200.0   60.0   33.333333333333336
150.0   30.0   33.333333333333336
150.0   60.0   33.333333333333336
200.0   60.0   33.333333333333336
150.0   60.0   16.666666666666668
150.0   30.0   33.333333333333336
200.0   60.0   33.333333333333336
200.0   30.0   33.333333333333336
200.0   30.0   16.666666666666668
150.0   30.0   33.333333333333336
200.0   60.0   33.333333333333336
200.0   30.0   16.666666666666668
150.0   60.0   16.666666666666668
150.0   30.0   33.333333333333336
200.0   30.0   33.333333333333336
150.0   60.0   33.333333333333336
150.0   30.0   50.0
200.0   30.0   33.333333333333336
200.0   60.0   33.333333333333336
150.0   60.0   33.333333333333336
200.0   60.0   50.0
150.0   30.0   50.0
150.0   60.0   50.0
200.0   60.0   50.0
150.0   60.0   33.333333333333336
150.0   30.0   50.0
200.0   60.0   50.0
200.0   30.0   50.0
200.0   30.0   33.333333333333336
150.0   30.0   50.0
200.0   60.0   50.0
200.0   30.0   33.333333333333336
150.0   60.0   33.333333333333336
150.0   60.0   0.0
200.0   60.0   0.0
150.0   90.0   0.0
150.0   60.0   16.666666666666668
200.0   60.0   0.0
200.0   90.0   0.0
150.0   90.0   0.0
200.0   90.0   16.666666666666668
150.0   60.0   16.666666666666668
150.0   90.0   16.666666666666668
200.0   90.0   16.666666666666668
150.0   90.0   0.0
150.0   60.0   16.666666666666668
200.0   90.0   16.666666666666668
200.0   60.0   16.666666666666668
200.0   60.0   0.0
150.0   60.0   16.666666666666668
200.0   90.0   16.666666666666668
200.0   60.0   0.0
150.0   90.0   0.0
150.0   60.0   16.666666666666668
200.0   60.0   16.666666666666668
150.0   90.0   16.666666666666668
150.0   60.0   33.333333333333336
200.0   60.0   16.666666666666668
200.0   90.0   16.666666666666668
150.0   90.0   16.666666666666668
200.0   90.0   33.333333333333336
150.0   60.0   33.333333333333336
150.0   90.0   33.333333333333336
200.0   90.0   33.333333333333336
150.0   90.0   16.666666666666668
150.0   60.0   33.333333333333336
200.0   90.0   33.333333333333336
200.0   60.0   33.333333333333336
200.0   60.0   16.666666666666668
150.0   60.0   33.333333333333336
200.0   90.0   33.333333333333336
200.0   60.0   16.666666666666668
150.0   90.0   16.666666666666668
150.0   60.0   33.333333333333336
200.0   60.0   33.333333333333336
150.0   90.0   33.333333333333336
150.0   60.0   50.0
200.0   60.0   33.333333333333336
200.0   90.0   33.333333333333336
150.0   90.0   33.333333333333336
200.0   90.0   50.0
150.0   60.0   50.0
150.0   90.0   50.0
200.0   90.0   50.0
150.0   90.0   33.333333333333336
150.0   60.0   50.0
200.0   90.0   50.0
200.0   60.0   50.0
200.0   60.0   33.333333333333336
150.0   60.0   50.0
200.0   90.0   50.0
200.0   60.0   33.333333333333336
150.0   90.0   33.333333333333336
150.0   90.0   0.0
200.0   90.0   0.0
150.0   120.0   0.0
150.0   90.0   16.666666666666668
200.0   90.0   0.0
200.0   120.0   0.0
150.0   120.0   0.0
200.0   120.0   16.666666666666668
150.0   90.0   16.666666666666668
150.0   120.0   16.666666666666668
200.0   120.0   16.666666666666668
150.0   120.0   0.0
150.0   90.0   16.666666666666668
200.0   120.0   16.666666666666668
200.0   90.0   16.666666666666668
200.0   90.0   0.0
150.0   90.0   16.666666666666668
200.0   120.0   16.666666666666668
200.0   90.0   0.0
150.0   120.0   0.0
150.0   90.0   16.666666666666668
200.0   90.0   16.666666666666668
150.0   120.0   16.666666666666668
150.0   90.0   33.333333333333336
200.0   90.0   16.666666666666668
200.0   120.0   16.666666666666668
150.0   120.0   16.666666666666668
200.0   120.0   33.333333333333336
150.0   90.0   33.333333333333336
150.0   120.0   33.333333333333336
200.0   120.0   33.333333333333336
150.0   120.0   16.666666666666668
150.0   90.0   33.333333333333336
200.0   120.0   33.333333333333336
200.0   90.0   33.333333333333336
200.0   90.0   16.666666666666668
150.0   90.0   33.333333333333336
200.0   120.0   33.333333333333336
200.0   90.0   16.666666666666668
150.0   120.0   16.666666666666668
150.0   90.0   33.333333333333336
200.0   90.0   33.333333333333336
150.0   120.0   33.333333333333336
150.0   90.0   50.0
200.0   90.0   33.333333333333336
200.0   120.0   33.333333333333336
150.0   120.0   33.333333333333336
200.0   120.0   50.0
150.0   90.0   50.0
150.0   120.0   50.0
200.0   120.0   50.0
150.0   120.0   33.333333333333336
150.0   90.0   50.0
200.0   120.0   50.0
200.0   90.0   50.0
200.0   90.0   33.333333333333336
150.0   90.0   50.0
200.0   120.0   50.0
200.0   90.0   33.333333333333336
150.0   120.0   33.333333333333336
150.0   120.0   0.0
200.0   120.0   0.0
150.0   150.0   0.0
150.0   120.0   16.666666666666668
200.0   120.0   0.0
200.0   150.0   0.0
150.0   150.0   0.0
200.0   150.0   16.666666666666668
150.0   120.0   16.666666666666668
150.0   150.0   16.666666666666668
200.0   150.0   16.666666666666668
150.0   150.0   0.0
150.0   120.0   16.666666666666668
200.0   150.0   16.666666666666668
200.0   120.0   16.666666666666668
200.0   120.0   0.0
150.0   120.0   16.666666666666668
200.0   150.0   16.666666666666668
200.0   120.0   0.0
150.0   150.0   0.0
150.0   120.0   16.666666666666668
200.0   120.0   16.666666666666668
150.0   150.0   16.666666666666668
150.0   120.0   33.333333333333336
200.0   120.0   16.666666666666668
200.0   150.0   16.666666666666668
150.0   150.0   16.666666666666668
200.0   150.0   33.333333333333336
150.0   120.0   33.333333333333336
150.0   150.0   33.333333333333336
200.0   150.0   33.333333333333336
150.0   150.0   16.666666666666668
150.0   120.0   33.333333333333336
200.0   150.0   33.333333333333336
200.0   120.0   33.333333333333336
200.0   120.0   16.666666666666668
150.0   120.0   33.333333333333336
200.0   150.0   33.333333333333336
200.0   120.0   16.666666666666668
150.0   150.0   16.666666666666668
150.0   120.0   33.333333333333336
200.0   120.0   33.333333333333336
150.0   150.0   33.333333333333336
150.0   120.0   50.0
200.0   120.0   33.333333333333336
200.0   150.0   33.333333333333336
150.0   150.0   33.333333333333336
200.0   150.0   50.0
150.0   120.0   50.0
150.0   150.0   50.0
200.0   150.0   50.0
150.0   150.0   33.333333333333336
150.0   120.0   50.0
200.0   150.0   50.0
200.0   120.0   50.0
200.0   120.0   33.333333333333336
150.0   120.0   50.0
200.0   150.0   50.0
200.0   120.0   33.333333333333336
150.0   150.0   33.333333333333336
200.0   0.0   0.0
250.0   0.0   0.0
200.0   30.0   0.0
200.0   0.0   16.666666666666668
250.0   0.0   0.0
250.0   30.0   0.0
200.0   30.0   0.0
250.0   30.0   16.666666666666668
200.0   0.0   16.666666666666668
200.0   30.0   16.666666666666668
250.0   30.0   16.666666666666668
200.0   30.0   0.0
200.0   0.0   16.666666666666668
250.0   30.0   16.666666666666668
250.0   0.0   16.666666666666668
250.0   0.0   0.0
200.0   0.0   16.666666666666668
250.0   30.0   16.666666666666668
250.0   0.0   0.0
200.0   30.0   0.0
200.0   0.0   16.666666666666668
250.0   0.0   16.666666666666668
200.0   30.0   16.666666666666668
200.0   0.0   33.333333333333336
250.0   0.0   16.666666666666668
250.0   30.0   16.666666666666668
200.0   30.0   16.666666666666668
250.0   30.0   33.333333333333336
200.0   0.0   33.333333333333336
200.0   30.0   33.333333333333336
250.0   30.0   33.333333333333336
200.0   30.0   16.666666666666668
200.0   0.0   33.333333333333336
250.0   30.0   33.333333333333336
250.0   0.0   33.333333333333336
250.0   0.0   16.666666666666668
200.0   0.0   33.333333333333336
250.0   30.0   33.333333333333336
250.0   0.0   16.666666666666668
200.0   30.0   16.666666666666668
200.0   0.0   33.333333333333336
250.0   0.0   33.333333333333336
200.0   30.0   33.333333333333336
200.0   0.0   50.0
250.0   0.0   33.333333333333336
250.0   30.0   33.333333333333336
200.0   30.0   33.333333333333336
250.0   30.0   50.0
200.0   0.0   50.0
200.0   30.0   50.0
250.0   30.0   50.0
200.0   30.0   33.333333333333336
200.0   0.0   50.0
250.0   30.0   50.0
250.0   0.0   50.0
250.0   0.0   33.333333333333336
200.0   0.0   50.0
250.0   30.0   50.0
250.0   0.0   33.333333333333336
200.0   30.0   33.333333333333336
200.0   30.0   0.0
250.0   30.0   0.0
200.0   60.0   0.0
200.0   30.0   16.666666666666668
250.0   30.0   0.0
250.0   60.0   0.0
200.0   60.0   0.0
250.0   60.0   16.666666666666668
200.0   30.0   16.666666666666668
200.0   60.0   16.666666666666668
250.0   60.0   16.666666666666668
200.0   60.0   0.0
200.0   30.0   16.666666666666668
250.0   60.0   16.666666666666668
250.0   30.0   16.666666666666668
250.0   30.0   0.0
200.0   30.0   16.666666666666668
250.0   60.0   16.666666666666668
250.0   30.0   0.0
200.0   60.0   0.0
200.0   30.0   16.666666666666668
250.0   30.0   16.666666666666668
200.0   60.0   16.666666666666668
200.0   30.0   33.333333333333336
250.0   30.0   16.666666666666668
250.0   60.0   16.666666666666668
200.0   60.0   16.666666666666668
250.0   60.0   33.333333333333336
200.0   30.0   33.333333333333336
200.0   60.0   33.333333333333336
250.0   60.0   33.333333333333336
200.0   60.0   16.666666666666668
200.0   30.0   33.333333333333336
250.0   60.0   33.333333333333336
250.0   30.0   33.333333333333336
250.0   30.0   16.666666666666668
200.0   30.0   33.333333333333336
250.0   60.0   33.333333333333336
250.0   30.0   16.666666666666668
200.0   60.0   16.666666666666668
200.0   30.0   33.333333333333336
250.0   30.0   33.333333333333336
200.0   60.0   33.333333333333336
200.0   30.0   50.0
250.0   30.0   33.333333333333336
250.0   60.0   33.333333333333336
200.0   60.0   33.333333333333336
250.0   60.0   50.0
200.0   30.0   50.0
200.0   60.0   50.0
250.0   60.0   50.0
200.0   60.0   33.333333333333336
200.0   30.0   50.0
250.0   60.0   50.0
250.0   30.0   50.0
250.0   30.0   33.333333333333336
200.0   30.0   50.0
250.0   60.0   50.0
250.0   30.0   33.333333333333336
200.0   60.0   33.333333333333336
200.0   60.0   0.0
250.0   60.0   0.0
200.0   90.0   0.0
200.0   60.0   16.666666666666668
250.0   60.0   0.0
250.0   90.0   0.0
200.0   90.0   0.0
250.0   90.0   16.666666666666668
200.0   60.0   16.666666666666668
200.0   90.0   16.666666666666668
250.0   90.0   16.666666666666668
200.0   90.0   0.0
200.0   60.0   16.666666666666668
250.0   90.0   16.666666666666668
250.0   60.0   16.666666666666668
250.0   60.0   0.0
200.0   60.0   16.666666666666668
250.0   90.0   16.666666666666668
250.0   60.0   0.0
200.0   90.0   0.0
200.0   60.0   16.666666666666668
250.0   60.0   16.666666666666668
200.0   90.0   16.666666666666668
200.0   60.0   33.333333333333336
250.0   60.0   16.666666666666668
250.0   90.0   16.666666666666668
200.0   90.0   16.666666666666668
250.0   90.0   33.333333333333336
200.0   60.0   33.333333333333336
200.0   90.0   33.333333333333336
250.0   90.0   33.333333333333336
200.0   90.0   16.666666666666668
200.0   60.0   33.333333333333336
250.0   90.0   33.333333333333336
250.0   60.0   33.333333333333336
250.0   60.0   16.666666666666668
200.0   60.0   33.333333333333336
250.0   90.0   33.333333333333336
250.0   60.0   16.666666666666668
200.0   90.0   16.666666666666668
200.0   60.0   33.333333333333336
250.0   60.0   33.333333333333336
200.0   90.0   33.333333333333336
200.0   60.0   50.0
250.0   60.0   33.333333333333336
250.0   90.0   33.333333333333336
200.0   90.0   33.333333333333336
250.0   90.0   50.0
200.0   60.0   50.0
200.0   90.0   50.0
250.0   90.0   50.0
200.0   90.0   33.333333333333336
200.0   60.0   50.0
250.0   90.0   50.0
250.0   60.0   50.0
250.0   60.0   33.333333333333336
200.0   60.0   50.0
250.0   90.0   50.0
250.0   60.0   33.333333333333336
200.0   90.0   33.333333333333336
200.0   90.0   0.0
250.0   90.0   0.0
200.0   120.0   0.0
200.0   90.0   16.666666666666668
250.0   90.0   0.0
250.0   120.0   0.0
200.0   120.0   0.0
250.0   120.0   16.666666666666668
200.0   90.0   16.666666666666668
200.0   120.0   16.666666666666668
250.0   120.0   16.666666666666668
200.0   120.0   0.0
200.0   90.0   16.666666666666668
250.0   120.0   16.666666666666668
250.0   90.0   16.666666666666668
250.0   90.0   0.0
200.0   90.0   16.666666666666668
250.0   120.0   16.666666666666668
250.0   90.0   0.0
200.0   120.0   0.0
200.0   90.0   16.666666666666668
250.0   90.0   16.666666666666668
200.0   120.0   16.666666666666668
200.0   90.0   33.333333333333336
250.0   90.0   16.666666666666668
250.0   120.0   16.666666666666668
200.0   120.0   16.666666666666668
250.0   120.0   33.333333333333336
200.0   90.0   33.333333333333336
200.0   120.0   33.333333333333336
250.0   120.0   33.333333333333336
200.0   120.0   16.666666666666668
200.0   90.0   33.333333333333336
250.0   120.0   33.333333333333336
250.0   90.0   33.333333333333336
250.0   90.0   16.666666666666668
200.0   90.0   33.333333333333336
250.0   120.0   33.333333333333336
250.0   90.0   16.666666666666668
200.0   120.0   16.666666666666668
200.0   90.0   33.333333333333336
250.0   90.0   33.333333333333336
200.0   120.0   33.333333333333336
200.0   90.0   50.0
250.0   90.0   33.333333333333336
250.0   120.0   33.333333333333336
200.0   120.0   33.333333333333336
250.0   120.0   50.0
200.0   90.0   50.0
200.0   120.0   50.0
250.0   120.0   50.0
200.0   120.0   33.333333333333336
200.0   90.0   50.0
250.0   120.0   50.0
250.0   90.0   50.0
250.0   90.0   33.333333333333336
200.0   90.0   50.0
250.0   120.0   50.0
250.0   90.0   33.333333333333336
200.0   120.0   33.333333333333336
200.0   120.0   0.0
250.0   120.0   0.0
200.0   150.0   0.0
200.0   120.0   16.666666666666668
250.0   120.0   0.0
250.0   150.0   0.0
200.0   150.0   0.0
250.0   150.0   16.666666666666668
200.0   120.0   16.666666666666668
200.0   150.0   16.666666666666668
250.0   150.0   16.666666666666668
200.0   150.0   0.0
200.0   120.0   16.666666666666668
250.0   150.0   16.666666666666668
250.0   120.0   16.666666666666668
250.0   120.0   0.0
200.0   120.0   16.666666666666668
250.0   150.0   16.666666666666668
250.0   120.0   0.0
200.0   150.0   0.0
200.0   120.0   16.666666666666668
250.0   120.0   16.666666666666668
200.0   150.0   16.666666666666668
200.0   120.0   33.333333333333336
250.0   120.0   16.666666666666668
250.0   150.0   16.666666666666668
200.0   150.0   16.666666666666668
250.0   150.0   33.333333333333336
200.0   120.0   33.333333333333336
200.0   150.0   33.333333333333336
250.0   150.0   33.333333333333336
200.0   150.0   16.666666666666668
200.0   120.0   33.333333333333336
250.0   150.0   33.333333333333336
250.0   120.0   33.333333333333336
250.0   120.0   16.666666666666668
200.0   120.0   33.333333333333336
250.0   150.0   33.333333333333336
250.0   120.0   16.666666666666668
200.0   150.0   16.666666666666668
200.0   120.0   33.333333333333336
250.0   120.0   33.333333333333336
200.0   150.0   33.333333333333336
200.0   120.0   50.0
250.0   120.0   33.333333333333336
250.0   150.0   33.333333333333336
200.0   150.0   33.333333333333336
250.0   150.0   50.0
200.0   120.0   50.0
200.0   150.0   50.0
250.0   150.0   50.0
200.0   150.0   33.333333333333336
200.0   120.0   50.0
250.0   150.0   50.0
250.0   120.0   50.0
250.0   120.0   33.333333333333336
200.0   120.0   50.0
250.0   150.0   50.0
250.0   120.0   33.333333333333336
200.0   150.0   33.333333333333336
250.0   0.0   0.0
300.0   0.0   0.0
250.0   30.0   0.0
250.0   0.0   16.666666666666668
300.0   0.0   0.0
300.0   30.0   0.0
250.0   30.0   0.0
300.0   30.0   16.666666666666668
250.0   0.0   16.666666666666668
250.0   30.0   16.666666666666668
300.0   30.0   16.666666666666668
250.0   30.0   0.0
250.0   0.0   16.666666666666668
300.0   30.0   16.666666666666668
300.0   0.0   16.666666666666668
300.0   0.0   0.0
250.0   0.0   16.666666666666668
300.0   30.0   16.666666666666668
300.0   0.0   0.0
250.0   30.0   0.0
250.0   0.0   16.666666666666668
300.0   0.0   16.666666666666668
250.0   30.0   16.666666666666668
250.0   0.0   33.333333333333336
300.0   0.0   16.666666666666668
300.0   30.0   16.666666666666668
250.0   30.0   16.666666666666668
300.0   30.0   33.333333333333336
250.0   0.0   33.333333333333336
250.0   30.0   33.333333333333336
300.0   30.0   33.333333333333336
250.0   30.0   16.666666666666668
250.0   0.0   33.333333333333336
300.0   30.0   33.333333333333336
300.0   0.0   33.333333333333336
300.0   0.0   16.666666666666668
250.0   0.0   33.333333333333336
300.0   30.0   33.333333333333336
300.0   0.0   16.666666666666668
250.0   30.0   16.666666666666668
250.0   0.0   33.333333333333336
300.0   0.0   33.333333333333336
250.0   30.0   33.333333333333336
250.0   0.0   50.0
300.0   0.0   33.333333333333336
300.0   30.0   33.333333333333336
250.0   30.0   33.333333333333336
300.0   30.0   50.0
250.0   0.0   50.0
250.0   30.0   50.0
300.0   30.0   50.0
250.0   30.0   33.333333333333336
250.0   0.0   50.0
300.0   30.0   50.0
300.0   0.0   50.0
300.0   0.0   33.333333333333336
250.0   0.0   50.0
300.0   30.0   50.0
300.0   0.0   33.333333333333336
250.0   30.0   33.333333333333336
250.0   30.0   0.0
300.0   30.0   0.0
250.0   60.0   0.0
250.0   30.0   16.666666666666668
300.0   30.0   0.0
300.0   60.0   0.0
250.0   60.0   0.0
300.0   60.0   16.666666666666668
250.0   30.0   16.666666666666668
250.0   60.0   16.666666666666668
300.0   60.0   16.666666666666668
250.0   60.0   0.0
250.0   30.0   16.666666666666668
300.0   60.0   16.666666666666668
300.0   30.0   16.666666666666668
300.0   30.0   0.0
250.0   30.0   16.666666666666668
300.0   60.0   16.666666666666668
300.0   30.0   0.0
250.0   60.0   0.0
250.0   30.0   16.666666666666668
300.0   30.0   16.666666666666668
250.0   60.0   16.666666666666668
250.0   30.0   33.333333333333336
300.0   30.0   16.666666666666668
300.0   60.0   16.666666666666668
250.0   60.0   16.666666666666668
300.0   60.0   33.333333333333336
250.0   30.0   33.333333333333336
250.0   60.0   33.333333333333336
300.0   60.0   33.333333333333336
250.0   60.0   16.666666666666668
250.0   30.0   33.333333333333336
300.0   60.0   33.333333333333336
300.0   30.0   33.333333333333336
300.0   30.0   16.666666666666668
250.0   30.0   33.333333333333336
300.0   60.0   33.333333333333336
300.0   30.0   16.666666666666668
250.0   60.0   16.666666666666668
250.0   30.0   33.333333333333336
300.0   30.0   33.333333333333336
250.0   60.0   33.333333333333336
250.0   30.0   50.0
300.0   30.0   33.333333333333336
300.0   60.0   33.333333333333336
250.0   60.0   33.333333333333336
300.0   60.0   50.0
250.0   30.0   50.0
250.0   60.0   50.0
300.0   60.0   50.0
250.0   60.0   33.333333333333336
250.0   30.0   50.0
300.0   60.0   50.0
300.0   30.0   50.0
300.0   30.0   33.333333333333336
250.0   30.0   50.0
300.0   60.0   50.0
300.0   30.0   33.333333333333336
250.0   60.0   33.333333333333336
250.0   60.0   0.0
300.0   60.0   0.0
250.0   90.0   0.0
250.0   60.0   16.666666666666668
300.0   60.0   0.0
300.0   90.0   0.0
250.0   90.0   0.0
300.0   90.0   16.666666666666668
250.0   60.0   16.666666666666668
250.0   90.0   16.666666666666668
300.0   90.0   16.666666666666668
250.0   90.0   0.0
250.0   60.0   16.666666666666668
300.0   90.0   16.666666666666668
300.0   60.0   16.666666666666668
300.0   60.0   0.0
250.0   60.0   16.666666666666668
300.0   90.0   16.666666666666668
300.0   60.0   0.0
250.0   90.0   0.0
250.0   60.0   16.666666666666668
300.0   60.0   16.666666666666668
250.0   90.0   16.666666666666668
250.0   60.0   33.333333333333336
300.0   60.0   16.666666666666668
300.0   90.0   16.666666666666668
250.0   90.0   16.666666666666668
300.0   90.0   33.333333333333336
250.0   60.0   33.333333333333336
250.0   90.0   33.333333333333336
300.0   90.0   33.333333333333336
250.0   90.0   16.666666666666668
250.0   60.0   33.333333333333336
300.0   90.0   33.333333333333336
300.0   60.0   33.333333333333336
300.0   60.0   16.666666666666668
250.0   60.0   33.333333333333336
300.0   90.0   33.333333333333336
300.0   60.0   16.666666666666668
250.0   90.0   16.666666666666668
250.0   60.0   33.333333333333336
300.0   60.0   33.333333333333336
250.0   90.0   33.333333333333336
250.0   60.0   50.0
300.0   60.0   33.333333333333336
300.0   90.0   33.333333333333336
250.0   90.0   33.333333333333336
300.0   90.0   50.0
250.0   60.0   50.0
250.0   90.0   50.0
300.0   90.0   50.0
250.0   90.0   33.333333333333336
250.0   60.0   50.0
300.0   90.0   50.0
300.0   60.0   50.0
300.0   60.0   33.333333333333336
250.0   60.0   50.0
300.0   90.0   50.0
300.0   60.0   33.333333333333336
250.0   90.0   33.333333333333336
250.0   90.0   0.0
300.0   90.0   0.0
250.0   120.0   0.0
250.0   90.0   16.666666666666668
300.0   90.0   0.0
300.0   120.0   0.0
250.0   120.0   0.0
300.0   120.0   16.666666666666668
250.0   90.0   16.666666666666668
250.0   120.0   16.666666666666668
300.0   120.0   16.666666666666668
250.0   120.0   0.0
250.0   90.0   16.666666666666668
300.0   120.0   16.666666666666668
300.0   90.0   16.666666666666668
300.0   90.0   0.0
250.0   90.0   16.666666666666668
300.0   120.0   16.666666666666668
300.0   90.0   0.0
250.0   120.0   0.0
250.0   90.0   16.666666666666668
300.0   90.0   16.666666666666668
250.0   120.0   16.666666666666668
250.0   90.0   33.333333333333336
300.0   90.0   16.666666666666668
300.0   120.0   16.666666666666668
250.0   120.0   16.666666666666668
300.0   120.0   33.333333333333336
250.0   90.0   33.333333333333336
250.0   120.0   33.333333333333336
300.0   120.0   33.333333333333336
250.0   120.0   16.666666666666668
250.0   90.0   33.333333333333336
300.0   120.0   33.333333333333336
300.0   90.0   33.333333333333336
300.0   90.0   16.666666666666668
250.0   90.0   33.333333333333336
300.0   120.0   33.333333333333336
300.0   90.0   16.666666666666668
250.0   120.0   16.666666666666668
250.0   90.0   33.333333333333336
300.0   90.0   33.333333333333336
250.0   120.0   33.333333333333336
250.0   90.0   50.0
300.0   90.0   33.333333333333336
300.0   120.0   33.333333333333336
250.0   120.0   33.333333333333336
300.0   120.0   50.0
250.0   90.0   50.0
250.0   120.0   50.0
300.0   120.0   50.0
250.0   120.0   33.333333333333336
250.0   90.0   50.0
300.0   120.0   50.0
300.0   90.0   50.0
300.0   90.0   33.333333333333336
250.0   90.0   50.0
300.0   120.0   50.0
300.0   90.0   33.333333333333336
250.0   120.0   33.333333333333336
250.0   120.0   0.0
300.0   120.0   0.0
250.0   150.0   0.0
250.0   120.0   16.666666666666668
300.0   120.0   0.0
300.0   150.0   0.0
250.0   150.0   0.0
300.0   150.0   16.666666666666668
250.0   120.0   16.666666666666668
250.0   150.0   16.666666666666668
300.0   150.0   16.666666666666668
250.0   150.0   0.0
250.0   120.0   16.666666666666668
300.0   150.0   16.666666666666668
300.0   120.0   16.666666666666668
300.0   120.0   0.0
250.0   120.0   16.666666666666668
300.0   150.0   16.666666666666668
300.0   120.0   0.0
250.0   150.0   0.0
250.0   120.0   16.666666666666668
300.0   120.0   16.666666666666668
250.0   150.0   16.666666666666668
250.0   120.0   33.333333333333336
300.0   120.0   16.666666666666668
300.0   150.0   16.666666666666668
250.0   150.0   16.666666666666668
300.0   150.0   33.333333333333336
250.0   120.0   33.333333333333336
250.0   150.0   33.333333333333336
300.0   150.0   33.333333333333336
250.0   150.0   16.666666666666668
250.0   120.0   33.333333333333336
300.0   150.0   33.333333333333336
300.0   120.0   33.333333333333336
300.0   120.0   16.666666666666668
250.0   120.0   33.333333333333336
300.0   150.0   33.333333333333336
300.0   120.0   16.666666666666668
250.0   150.0   16.666666666666668
250.0   120.0   33.333333333333336
300.0   120.0   33.333333333333336
250.0   150.0   33.333333333333336
250.0   120.0   50.0
300.0   120.0   33.333333333333336
300.0   150.0   33.333333333333336
250.0   150.0   33.333333333333336
300.0   150.0   50.0
250.0   120.0   50.0
250.0   150.0   50.0
300.0   150.0   50.0
250.0   150.0   33.333333333333336
250.0   120.0   50.0
300.0   150.0   50.0
300.0   120.0   50.0
300.0   120.0   33.333333333333336
250.0   120.0   50.0
300.0   150.0   50.0
300.0   120.0   33.333333333333336
250.0   150.0   33.333333333333336
300.0   0.0   0.0
350.0   0.0   0.0
300.0   30.0   0.0
300.0   0.0   16.666666666666668
350.0   0.0   0.0
350.0   30.0   0.0
300.0   30.0   0.0
350.0   30.0   16.666666666666668
300.0   0.0   16.666666666666668
300.0   30.0   16.666666666666668
350.0   30.0   16.666666666666668
300.0   30.0   0.0
300.0   0.0   16.666666666666668
350.0   30.0   16.666666666666668
350.0   0.0   16.666666666666668
350.0   0.0   0.0
300.0   0.0   16.666666666666668
350.0   30.0   16.666666666666668
350.0   0.0   0.0
300.0   30.0   0.0
300.0   0.0   16.666666666666668
350.0   0.0   16.666666666666668
300.0   30.0   16.666666666666668
300.0   0.0   33.333333333333336
350.0   0.0   16.666666666666668
350.0   30.0   16.666666666666668
300.0   30.0   16.666666666666668
350.0   30.0   33.333333333333336
300.0   0.0   33.333333333333336
300.0   30.0   33.333333333333336
350.0   30.0   33.333333333333336
300.0   30.0   16.666666666666668
300.0   0.0   33.333333333333336
350.0   30.0   33.333333333333336
350.0   0.0   33.333333333333336
350.0   0.0   16.666666666666668
300.0   0.0   33.333333333333336
350.0   30.0   33.333333333333336
350.0   0.0   16.666666666666668
300.0   30.0   16.666666666666668
300.0   0.0   33.333333333333336
350.0   0.0   33.333333333333336
300.0   30.0   33.333333333333336
300.0   0.0   50.0
350.0   0.0   33.333333333333336
350.0   30.0   33.333333333333336
300.0   30.0   33.333333333333336
350.0   30.0   50.0
300.0   0.0   50.0
300.0   30.0   50.0
350.0   30.0   50.0
300.0   30.0   33.333333333333336
300.0   0.0   50.0
350.0   30.0   50.0
350.0   0.0   50.0
350.0   0.0   33.333333333333336
300.0   0.0   50.0
350.0   30.0   50.0
350.0   0.0   33.333333333333336
300.0   30.0   33.333333333333336
300.0   30.0   0.0
350.0   30.0   0.0
300.0   60.0   0.0
300.0   30.0   16.666666666666668
350.0   30.0   0.0
350.0   60.0   0.0
300.0   60.0   0.0
350.0   60.0   16.666666666666668
300.0   30.0   16.666666666666668
300.0   60.0   16.666666666666668
350.0   60.0   16.666666666666668
300.0   60.0   0.0
300.0   30.0   16.666666666666668
350.0   60.0   16.666666666666668
350.0   30.0   16.666666666666668
350.0   30.0   0.0
300.0   30.0   16.666666666666668
350.0   60.0   16.666666666666668
350.0   30.0   0.0
300.0   60.0   0.0
300.0   30.0   16.666666666666668
350.0   30.0   16.666666666666668
300.0   60.0   16.666666666666668
300.0   30.0   33.333333333333336
350.0   30.0   16.666666666666668
350.0   60.0   16.666666666666668
300.0   60.0   16.666666666666668
350.0   60.0   33.333333333333336
300.0   30.0   33.333333333333336
300.0   60.0   33.333333333333336
350.0   60.0   33.333333333333336
300.0   60.0   16.666666666666668
300.0   30.0   33.333333333333336
350.0   60.0   33.333333333333336
350.0   30.0   33.333333333333336
350.0   30.0   16.666666666666668
300.0   30.0   33.333333333333336
350.0   60.0   33.333333333333336
350.0   30.0   16.666666666666668
300.0   60.0   16.666666666666668
300.0   30.0   33.333333333333336
350.0   30.0   33.333333333333336
300.0   60.0   33.333333333333336
300.0   30.0   50.0
350.0   30.0   33.333333333333336
350.0   60.0   33.333333333333336
300.0   60.0   33.333333333333336
350.0   60.0   50.0
300.0   30.0   50.0
300.0   60.0   50.0
350.0   60.0   50.0
300.0   60.0   33.333333333333336
300.0   30.0   50.0
350.0   60.0   50.0
350.0   30.0   50.0
350.0   30.0   33.333333333333336
300.0   30.0   50.0
350.0   60.0   50.0
350.0   30.0   33.333333333333336
300.0   60.0   33.333333333333336
300.0   60.0   0.0
350.0   60.0   0.0
300.0   90.0   0.0
300.0   60.0   16.666666666666668
350.0   60.0   0.0
350.0   90.0   0.0
300.0   90.0   0.0
350.0   90.0   16.666666666666668
300.0   60.0   16.666666666666668
300.0   90.0   16.666666666666668
350.0   90.0   16.666666666666668
300.0   90.0   0.0
300.0   60.0   16.666666666666668
350.0   90.0   16.666666666666668
350.0   60.0   16.666666666666668
350.0   60.0   0.0
300.0   60.0   16.666666666666668
350.0   90.0   16.666666666666668
350.0   60.0   0.0
300.0   90.0   0.0
300.0   60.0   16.666666666666668
350.0   60.0   16.666666666666668
300.0   90.0   16.666666666666668
300.0   60.0   33.333333333333336
350.0   60.0   16.666666666666668
350.0   90.0   16.666666666666668
300.0   90.0   16.666666666666668
350.0   90.0   33.333333333333336
300.0   60.0   33.333333333333336
300.0   90.0   33.333333333333336
350.0   90.0   33.333333333333336
300.0   90.0   16.666666666666668
300.0   60.0   33.333333333333336
350.0   90.0   33.333333333333336
350.0   60.0   33.333333333333336
350.0   60.0   16.666666666666668
300.0   60.0   33.333333333333336
350.0   90.0   33.333333333333336
350.0   60.0   16.666666666666668
300.0   90.0   16.666666666666668
300.0   60.0   33.333333333333336
350.0   60.0   33.333333333333336
300.0   90.0   33.333333333333336
300.0   60.0   50.0
350.0   60.0   33.333333333333336
350.0   90.0   33.333333333333336
300.0   90.0   33.333333333333336
350.0   90.0   50.0
300.0   60.0   50.0
300.0   90.0   50.0
350.0   90.0   50.0
300.0   90.0   33.333333333333336
300.0   60.0   50.0
350.0   90.0   50.0
350.0   60.0   50.0
350.0   60.0   33.333333333333336
300.0   60.0   50.0
350.0   90.0   50.0
350.0   60.0   33.333333333333336
300.0   90.0   33.333333333333336
300.0   90.0   0.0
350.0   90.0   0.0
300.0   120.0   0.0
300.0   90.0   16.666666666666668
350.0   90.0   0.0
350.0   120.0   0.0
300.0   120.0   0.0
350.0   120.0   16.666666666666668
300.0   90.0   16.666666666666668
300.0   120.0   16.666666666666668
350.0   120.0   16.666666666666668
300.0   120.0   0.0
300.0   90.0   16.666666666666668
350.0   120.0   16.666666666666668
350.0   90.0   16.666666666666668
350.0   90.0   0.0
300.0   90.0   16.666666666666668
350.0   120.0   16.666666666666668
350.0   90.0   0.0
300.0   120.0   0.0
300.0   90.0   16.666666666666668
350.0   90.0   16.666666666666668
300.0   120.0   16.666666666666668
300.0   90.0   33.333333333333336
350.0   90.0   16.666666666666668
350.0   120.0   16.666666666666668
300.0   120.0   16.666666666666668
350.0   120.0   33.333333333333336
300.0   90.0   33.333333333333336
300.0   120.0   33.333333333333336
350.0   120.0   33.333333333333336
300.0   120.0   16.666666666666668
300.0   90.0   33.333333333333336
350.0   120.0   33.333333333333336
350.0   90.0   33.333333333333336
350.0   90.0   16.666666666666668
300.0   90.0   33.333333333333336
350.0   120.0   33.333333333333336
350.0   90.0   16.666666666666668
300.0   120.0   16.666666666666668
300.0   90.0   33.333333333333336
350.0   90.0   33.333333333333336
300.0   120.0   33.333333333333336
300.0   90.0   50.0
350.0   90.0   33.333333333333336
350.0   120.0   33.333333333333336
300.0   120.0   33.333333333333336
350.0   120.0   50.0
300.0   90.0   50.0
300.0   120.0   50.0
350.0   120.0   50.0
300.0   120.0   33.333333333333336
300.0   90.0   50.0
350.0   120.0   50.0
350.0   90.0   50.0
350.0   90.0   33.333333333333336
300.0   90.0   50.0
350.0   120.0   50.0
350.0   90.0   33.333333333333336
300.0   120.0   33.333333333333336
300.0   120.0   0.0
350.0   120.0   0.0
300.0   150.0   0.0
300.0   120.0   16.666666666666668
350.0   120.0   0.0
350.0   150.0   0.0
300.0   150.0   0.0
350.0   150.0   16.666666666666668
300.0   120.0   16.666666666666668
300.0   150.0   16.666666666666668
350.0   150.0   16.666666666666668
300.0   150.0   0.0
300.0   120.0   16.666666666666668
350.0   150.0   16.666666666666668
350.0   120.0   16.666666666666668
350.0   120.0   0.0
300.0   120.0   16.666666666666668
350.0   150.0   16.666666666666668
350.0   120.0   0.0
300.0   150.0   0.0
300.0   120.0   16.666666666666668
350.0   120.0   16.666666666666668
300.0   150.0   16.666666666666668
300.0   120.0   33.333333333333336
350.0   120.0   16.666666666666668
350.0   150.0   16.666666666666668
300.0   150.0   16.666666666666668
350.0   150.0   33.333333333333336
300.0   120.0   33.333333333333336
300.0   150.0   33.333333333333336
350.0   150.0   33.333333333333336
300.0   150.0   16.666666666666668
300.0   120.0   33.333333333333336
350.0   150.0   33.333333333333336
350.0   120.0   33.333333333333336
350.0   120.0   16.666666666666668
300.0   120.0   33.333333333333336
350.0   150.0   33.333333333333336
350.0   120.0   16.666666666666668
300.0   150.0   16.666666666666668
300.0   120.0   33.333333333333336
350.0   120.0   33.333333333333336
300.0   150.0   33.333333333333336
300.0   120.0   50.0
350.0   120.0   33.333333333333336
350.0   150.0   33.333333333333336
300.0   150.0   33.333333333333336
350.0   150.0   50.0
300.0   120.0   50.0
300.0   150.0   50.0
350.0   150.0   50.0
300.0   150.0   33.333333333333336
300.0   120.0   50.0
350.0   150.0   50.0
350.0   120.0   50.0
350.0   120.0   33.333333333333336
300.0   120.0   50.0
350.0   150.0   50.0
350.0   120.0   33.333333333333336
300.0   150.0   33.333333333333336
350.0   0.0   0.0
400.0   0.0   0.0
350.0   30.0   0.0
350.0   0.0   16.666666666666668
400.0   0.0   0.0
400.0   30.0   0.0
350.0   30.0   0.0
400.0   30.0   16.666666666666668
350.0   0.0   16.666666666666668
350.0   30.0   16.666666666666668
400.0   30.0   16.666666666666668
350.0   30.0   0.0
350.0   0.0   16.666666666666668
400.0   30.0   16.666666666666668
400.0   0.0   16.666666666666668
400.0   0.0   0.0
350.0   0.0   16.666666666666668
400.0   30.0   16.666666666666668
400.0   0.0   0.0
350.0   30.0   0.0
350.0   0.0   16.666666666666668
400.0   0.0   16.666666666666668
350.0   30.0   16.666666666666668
350.0   0.0   33.333333333333336
400.0   0.0   16.666666666666668
400.0   30.0   16.666666666666668
350.0   30.0   16.666666666666668
400.0   30.0   33.333333333333336
350.0   0.0   33.333333333333336
350.0   30.0   33.333333333333336
400.0   30.0   33.333333333333336
350.0   30.0   16.666666666666668
350.0   0.0   33.333333333333336
400.0   30.0   33.333333333333336
400.0   0.0   33.333333333333336
400.0   0.0   16.666666666666668
350.0   0.0   33.333333333333336
400.0   30.0   33.333333333333336
400.0   0.0   16.666666666666668
350.0   30.0   16.666666666666668
350.0   0.0   33.333333333333336
400.0   0.0   33.333333333333336
350.0   30.0   33.333333333333336
350.0   0.0   50.0
400.0   0.0   33.333333333333336
400.0   30.0   33.333333333333336
350.0   30.0   33.333333333333336
400.0   30.0   50.0
350.0   0.0   50.0
350.0   30.0   50.0
400.0   30.0   50.0
350.0   30.0   33.333333333333336
350.0   0.0   50.0
400.0   30.0   50.0
400.0   0.0   50.0
400.0   0.0   33.333333333333336
350.0   0.0   50.0
400.0   30.0   50.0
400.0   0.0   33.333333333333336
350.0   30.0   33.333333333333336
350.0   30.0   0.0
400.0   30.0   0.0
350.0   60.0   0.0
350.0   30.0   16.666666666666668
400.0   30.0   0.0
400.0   60.0   0.0
350.0   60.0   0.0
400.0   60.0   16.666666666666668
350.0   30.0   16.666666666666668
350.0   60.0   16.666666666666668
400.0   60.0   16.666666666666668
350.0   60.0   0.0
350.0   30.0   16.666666666666668
400.0   60.0   16.666666666666668
400.0   30.0   16.666666666666668
400.0   30.0   0.0
350.0   30.0   16.666666666666668
400.0   60.0   16.666666666666668
400.0   30.0   0.0
350.0   60.0   0.0
350.0   30.0   16.666666666666668
400.0   30.0   16.666666666666668
350.0   60.0   16.666666666666668
350.0   30.0   33.333333333333336
400.0   30.0   16.666666666666668
400.0   60.0   16.666666666666668
350.0   60.0   16.666666666666668
400.0   60.0   33.333333333333336
350.0   30.0   33.333333333333336
350.0   60.0   33.333333333333336
400.0   60.0   33.333333333333336
350.0   60.0   16.666666666666668
350.0   30.0   33.333333333333336
400.0   60.0   33.333333333333336
400.0   30.0   33.333333333333336
400.0   30.0   16.666666666666668
350.0   30.0   33.333333333333336
400.0   60.0   33.333333333333336
400.0   30.0   16.666666666666668
350.0   60.0   16.666666666666668
350.0   30.0   33.333333333333336
400.0   30.0   33.333333333333336
350.0   60.0   33.333333333333336
350.0   30.0   50.0
400.0   30.0   33.333333333333336
400.0   60.0   33.333333333333336
350.0   60.0   33.333333333333336
400.0   60.0   50.0
350.0   30.0   50.0
350.0   60.0   50.0
400.0   60.0   50.0
350.0   60.0   33.333333333333336
350.0   30.0   50.0
400.0   60.0   50.0
400.0   30.0   50.0
400.0   30.0   33.333333333333336
350.0   30.0   50.0
400.0   60.0   50.0
400.0   30.0   33.333333333333336
350.0   60.0   33.333333333333336
350.0   60.0   0.0
400.0   60.0   0.0
350.0   90.0   0.0
350.0   60.0   16.666666666666668
400.0   60.0   0.0
400.0   90.0   0.0
350.0   90.0   0.0
400.0   90.0   16.666666666666668
350.0   60.0   16.666666666666668
350.0   90.0   16.666666666666668
400.0   90.0   16.666666666666668
350.0   90.0   0.0
350.0   60.0   16.666666666666668
400.0   90.0   16.666666666666668
400.0   60.0   16.666666666666668
400.0   60.0   0.0
350.0   60.0   16.666666666666668
400.0   90.0   16.666666666666668
400.0   60.0   0.0
350.0   90.0   0.0
350.0   60.0   16.666666666666668
400.0   60.0   16.666666666666668
350.0   90.0   16.666666666666668
350.0   60.0   33.333333333333336
400.0   60.0   16.666666666666668
400.0   90.0   16.666666666666668
350.0   90.0   16.666666666666668
400.0   90.0   33.333333333333336
350.0   60.0   33.333333333333336
350.0   90.0   33.333333333333336
400.0   90.0   33.333333333333336
350.0   90.0   16.666666666666668
350.0   60.0   33.333333333333336
400.0   90.0   33.333333333333336
400.0   60.0   33.333333333333336
400.0   60.0   16.666666666666668
350.0   60.0   33.333333333333336
400.0   90.0   33.333333333333336
400.0   60.0   16.666666666666668
350.0   90.0   16.666666666666668
350.0   60.0   33.333333333333336
400.0   60.0   33.333333333333336
350.0   90.0   33.333333333333336
350.0   60.0   50.0
400.0   60.0   33.333333333333336
400.0   90.0   33.333333333333336
350.0   90.0   33.333333333333336
400.0   90.0   50.0
350.0   60.0   50.0
350.0   90.0   50.0
400.0   90.0   50.0
350.0   90.0   33.333333333333336
350.0   60.0   50.0
400.0   90.0   50.0
400.0   60.0   50.0
400.0   60.0   33.333333333333336
350.0   60.0   50.0
400.0   90.0   50.0
400.0   60.0   33.333333333333336
350.0   90.0   33.333333333333336
350.0   90.0   0.0
400.0   90.0   0.0
350.0   120.0   0.0
350.0   90.0   16.666666666666668
400.0   90.0   0.0
400.0   120.0   0.0
350.0   120.0   0.0
400.0   120.0   16.666666666666668
350.0   90.0   16.666666666666668
350.0   120.0   16.666666666666668
400.0   120.0   16.666666666666668
350.0   120.0   0.0
350.0   90.0   16.666666666666668
400.0   120.0   16.666666666666668
400.0   90.0   16.666666666666668
400.0   90.0   0.0
350.0   90.0   16.666666666666668
400.0   120.0   16.666666666666668
400.0   90.0   0.0
350.0   120.0   0.0
350.0   90.0   16.666666666666668
400.0   90.0   16.666666666666668
350.0   120.0   16.666666666666668
350.0   90.0   33.333333333333336
400.0   90.0   16.666666666666668
400.0   120.0   16.666666666666668
350.0   120.0   16.666666666666668
400.0   120.0   33.333333333333336
350.0   90.0   33.333333333333336
350.0   120.0   33.333333333333336
400.0   120.0   33.333333333333336
350.0   120.0   16.666666666666668
350.0   90.0   33.333333333333336
400.0   120.0   33.333333333333336
400.0   90.0   33.333333333333336
400.0   90.0   16.666666666666668
350.0   90.0   33.333333333333336
400.0   120.0   33.333333333333336
400.0   90.0   16.666666666666668
350.0   120.0   16.666666666666668
350.0   90.0   33.333333333333336
400.0   90.0   33.333333333333336
350.0   120.0   33.333333333333336
350.0   90.0   50.0
400.0   90.0   33.333333333333336
400.0   120.0   33.333333333333336
350.0   120.0   33.333333333333336
400.0   120.0   50.0
350.0   90.0   50.0
350.0   120.0   50.0
400.0   120.0   50.0
350.0   120.0   33.333333333333336
350.0   90.0   50.0
400.0   120.0   50.0
400.0   90.0   50.0
400.0   90.0   33.333333333333336
350.0   90.0   50.0
400.0   120.0   50.0
400.0   90.0   33.333333333333336
350.0   120.0   33.333333333333336
350.0   120.0   0.0
400.0   120.0   0.0
350.0   150.0   0.0
350.0   120.0   16.666666666666668
400.0   120.0   0.0
400.0   150.0   0.0
350.0   150.0   0.0
400.0   150.0   16.666666666666668
350.0   120.0   16.666666666666668
350.0   150.0   16.666666666666668
400.0   150.0   16.666666666666668
350.0   150.0   0.0
350.0   120.0   16.666666666666668
400.0   150.0   16.666666666666668
400.0   120.0   16.666666666666668
400.0   120.0   0.0
350.0   120.0   16.666666666666668
400.0   150.0   16.666666666666668
400.0   120.0   0.0
350.0   150.0   0.0
350.0   120.0   16.666666666666668
400.0   120.0   16.666666666666668
350.0   150.0   16.666666666666668
350.0   120.0   33.333333333333336
400.0   120.0   16.666666666666668
400.0   150.0   16.666666666666668
350.0   150.0   16.666666666666668
400.0   150.0   33.333333333333336
350.0   120.0   33.333333333333336
350.0   150.0   33.333333333333336
400.0   150.0   33.333333333333336
350.0   150.0   16.666666666666668
350.0   120.0   33.333333333333336
400.0   150.0   33.333333333333336
400.0   120.0   33.333333333333336
400.0   120.0   16.666666666666668
350.0   120.0   33.333333333333336
400.0   150.0   33.333333333333336
400.0   120.0   16.666666666666668
350.0   150.0   16.666666666666668
350.0   120.0   33.333333333333336
400.0   120.0   33.333333333333336
350.0   150.0   33.333333333333336
350.0   120.0   50.0
400.0   120.0   33.333333333333336
400.0   150.0   33.333333333333336
350.0   150.0   33.333333333333336
400.0   150.0   50.0
350.0   120.0   50.0
350.0   150.0   50.0
400.0   150.0   50.0
350.0   150.0   33.333333333333336
350.0   120.0   50.0
400.0   150.0   50.0
400.0   120.0   50.0
400.0   120.0   33.333333333333336
350.0   120.0   50.0
400.0   150.0   50.0
400.0   120.0   33.333333333333336
350.0   150.0   33.333333333333336
400.0   0.0   0.0
450.0   0.0   0.0
400.0   30.0   0.0
400.0   0.0   16.666666666666668
450.0   0.0   0.0
450.0   30.0   0.0
400.0   30.0   0.0
450.0   30.0   16.666666666666668
400.0   0.0   16.666666666666668
400.0   30.0   16.666666666666668
450.0   30.0   16.666666666666668
400.0   30.0   0.0
400.0   0.0   16.666666666666668
450.0   30.0   16.666666666666668
450.0   0.0   16.666666666666668
450.0   0.0   0.0
400.0   0.0   16.666666666666668
450.0   30.0   16.666666666666668
450.0   0.0   0.0
400.0   30.0   0.0
400.0   0.0   16.666666666666668
450.0   0.0   16.666666666666668
400.0   30.0   16.666666666666668
400.0   0.0   33.333333333333336
450.0   0.0   16.666666666666668
450.0   30.0   16.666666666666668
400.0   30.0   16.666666666666668
450.0   30.0   33.333333333333336
400.0   0.0   33.333333333333336
400.0   30.0   33.333333333333336
450.0   30.0   33.333333333333336
400.0   30.0   16.666666666666668
400.0   0.0   33.333333333333336
450.0   30.0   33.333333333333336
450.0   0.0   33.333333333333336
450.0   0.0   16.666666666666668
400.0   0.0   33.333333333333336
450.0   30.0   33.333333333333336
450.0   0.0   16.666666666666668
400.0   30.0   16.666666666666668
400.0   0.0   33.333333333333336
450.0   0.0   33.333333333333336
400.0   30.0   33.333333333333336
400.0   0.0   50.0
450.0   0.0   33.333333333333336
450.0   30.0   33.333333333333336
400.0   30.0   33.333333333333336
450.0   30.0   50.0
400.0   0.0   50.0
400.0   30.0   50.0
450.0   30.0   50.0
400.0   30.0   33.333333333333336
400.0   0.0   50.0
450.0   30.0   50.0
450.0   0.0   50.0
450.0   0.0   33.333333333333336
400.0   0.0   50.0
450.0   30.0   50.0
450.0   0.0   33.333333333333336
400.0   30.0   33.333333333333336
400.0   30.0   0.0
450.0   30.0   0.0
400.0   60.0   0.0
400.0   30.0   16.666666666666668
450.0   30.0   0.0
450.0   60.0   0.0
400.0   60.0   0.0
450.0   60.0   16.666666666666668
400.0   30.0   16.666666666666668
400.0   60.0   16.666666666666668
450.0   60.0   16.666666666666668
400.0   60.0   0.0
400.0   30.0   16.666666666666668
450.0   60.0   16.666666666666668
450.0   30.0   16.666666666666668
450.0   30.0   0.0
400.0   30.0   16.666666666666668
450.0   60.0   16.666666666666668
450.0   30.0   0.0
400.0   60.0   0.0
400.0   30.0   16.666666666666668
450.0   30.0   16.666666666666668
400.0   60.0   16.666666666666668
400.0   30.0   33.333333333333336
450.0   30.0   16.666666666666668
450.0   60.0   16.666666666666668
400.0   60.0   16.666666666666668
450.0   60.0   33.333333333333336
400.0   30.0   33.333333333333336
400.0   60.0   33.333333333333336
450.0   60.0   33.333333333333336
400.0   60.0   16.666666666666668
400.0   30.0   33.333333333333336
450.0   60.0   33.333333333333336
450.0   30.0   33.333333333333336
450.0   30.0   16.666666666666668
400.0   30.0   33.333333333333336
450.0   60.0   33.333333333333336
450.0   30.0   16.666666666666668
400.0   60.0   16.666666666666668
400.0   30.0   33.333333333333336
450.0   30.0   33.333333333333336
400.0   60.0   33.333333333333336
400.0   30.0   50.0
450.0   30.0   33.333333333333336
450.0   60.0   33.333333333333336
400.0   60.0   33.333333333333336
450.0   60.0   50.0
400.0   30.0   50.0
400.0   60.0   50.0
450.0   60.0   50.0
400.0   60.0   33.333333333333336
400.0   30.0   50.0
450.0   60.0   50.0
450.0   30.0   50.0
450.0   30.0   33.333333333333336
400.0   30.0   50.0
450.0   60.0   50.0
450.0   30.0   33.333333333333336
400.0   60.0   33.333333333333336
400.0   60.0   0.0
450.0   60.0   0.0
400.0   90.0   0.0
400.0   60.0   16.666666666666668
450.0   60.0   0.0
450.0   90.0   0.0
400.0   90.0   0.0
450.0   90.0   16.666666666666668
400.0   60.0   16.666666666666668
400.0   90.0   16.666666666666668
450.0   90.0   16.666666666666668
400.0   90.0   0.0
400.0   60.0   16.666666666666668
450.0   90.0   16.666666666666668
450.0   60.0   16.666666666666668
450.0   60.0   0.0
400.0   60.0   16.666666666666668
450.0   90.0   16.666666666666668
450.0   60.0   0.0
400.0   90.0   0.0
400.0   60.0   16.666666666666668
450.0   60.0   16.666666666666668
400.0   90.0   16.666666666666668
400.0   60.0   33.333333333333336
450.0   60.0   16.666666666666668
450.0   90.0   16.666666666666668
400.0   90.0   16.666666666666668
450.0   90.0   33.333333333333336
400.0   60.0   33.333333333333336
400.0   90.0   33.333333333333336
450.0   90.0   33.333333333333336
400.0   90.0   16.666666666666668
400.0   60.0   33.333333333333336
450.0   90.0   33.333333333333336
450.0   60.0   33.333333333333336
450.0   60.0   16.666666666666668
400.0   60.0   33.333333333333336
450.0   90.0   33.333333333333336
450.0   60.0   16.666666666666668
400.0   90.0   16.666666666666668
400.0   60.0   33.333333333333336
450.0   60.0   33.333333333333336
400.0   90.0   33.333333333333336
400.0   60.0   50.0
450.0   60.0   33.333333333333336
450.0   90.0   33.333333333333336
400.0   90.0   33.333333333333336
450.0   90.0   50.0
400.0   60.0   50.0
400.0   90.0   50.0
450.0   90.0   50.0
400.0   90.0   33.333333333333336
400.0   60.0   50.0
450.0   90.0   50.0
450.0   60.0   50.0
450.0   60.0   33.333333333333336
400.0   60.0   50.0
450.0   90.0   50.0
450.0   60.0   33.333333333333336
400.0   90.0   33.333333333333336
400.0   90.0   0.0
450.0   90.0   0.0
400.0   120.0   0.0
400.0   90.0   16.666666666666668
450.0   90.0   0.0
450.0   120.0   0.0
400.0   120.0   0.0
450.0   120.0   16.666666666666668
400.0   90.0   16.666666666666668
400.0   120.0   16.666666666666668
450.0   120.0   16.666666666666668
400.0   120.0   0.0
400.0   90.0   16.666666666666668
450.0   120.0   16.666666666666668
450.0   90.0   16.666666666666668
450.0   90.0   0.0
400.0   90.0   16.666666666666668
450.0   120.0   16.666666666666668
450.0   90.0   0.0
400.0   120.0   0.0
400.0   90.0   16.666666666666668
450.0   90.0   16.666666666666668
400.0   120.0   16.666666666666668
400.0   90.0   33.333333333333336
450.0   90.0   16.666666666666668
450.0   120.0   16.666666666666668
400.0   120.0   16.666666666666668
450.0   120.0   33.333333333333336
400.0   90.0   33.333333333333336
400.0   120.0   33.333333333333336
450.0   120.0   33.333333333333336
400.0   120.0   16.666666666666668
400.0   90.0   33.333333333333336
450.0   120.0   33.333333333333336
450.0   90.0   33.333333333333336
450.0   90.0   16.666666666666668
400.0   90.0   33.333333333333336
450.0   120.0   33.333333333333336
450.0   90.0   16.666666666666668
400.0   120.0   16.666666666666668
400.0   90.0   33.333333333333336
450.0   90.0   33.333333333333336
400.0   120.0   33.333333333333336
400.0   90.0   50.0
450.0   90.0   33.333333333333336
450.0   120.0   33.333333333333336
400.0   120.0   33.333333333333336
450.0   120.0   50.0
400.0   90.0   50.0
400.0   120.0   50.0
450.0   120.0   50.0
400.0   120.0   33.333333333333336
400.0   90.0   50.0
450.0   120.0   50.0
450.0   90.0   50.0
450.0   90.0   33.333333333333336
400.0   90.0   50.0
450.0   120.0   50.0
450.0   90.0   33.333333333333336
400.0   120.0   33.333333333333336
400.0   120.0   0.0
450.0   120.0   0.0
400.0   150.0   0.0
400.0   120.0   16.666666666666668
450.0   120.0   0.0
450.0   150.0   0.0
400.0   150.0   0.0
450.0   150.0   16.666666666666668
400.0   120.0   16.666666666666668
400.0   150.0   16.666666666666668
450.0   150.0   16.666666666666668
400.0   150.0   0.0
400.0   120.0   16.666666666666668
450.0   150.0   16.666666666666668
450.0   120.0   16.666666666666668
450.0   120.0   0.0
400.0   120.0   16.666666666666668
450.0   150.0   16.666666666666668
450.0   120.0   0.0
400.0   150.0   0.0
400.0   120.0   16.666666666666668
450.0   120.0   16.666666666666668
400.0   150.0   16.666666666666668
400.0   120.0   33.333333333333336
450.0   120.0   16.666666666666668
450.0   150.0   16.666666666666668
400.0   150.0   16.666666666666668
450.0   150.0   33.333333333333336
400.0   120.0   33.333333333333336
400.0   150.0   33.333333333333336
450.0   150.0   33.333333333333336
400.0   150.0   16.666666666666668
400.0   120.0   33.333333333333336
450.0   150.0   33.333333333333336
450.0   120.0   33.333333333333336
450.0   120.0   16.666666666666668
400.0   120.0   33.333333333333336
450.0   150.0   33.333333333333336
450.0   120.0   16.666666666666668
400.0   150.0   16.666666666666668
400.0   120.0   33.333333333333336
450.0   120.0   33.333333333333336
400.0   150.0   33.333333333333336
400.0   120.0   50.0
450.0   120.0   33.333333333333336
450.0   150.0   33.333333333333336
400.0   150.0   33.333333333333336
450.0   150.0   50.0
400.0   120.0   50.0
400.0   150.0   50.0
450.0   150.0   50.0
400.0   150.0   33.333333333333336
400.0   120.0   50.0
450.0   150.0   50.0
450.0   120.0   50.0
450.0   120.0   33.333333333333336
400.0   120.0   50.0
450.0   150.0   50.0
450.0   120.0   33.333333333333336
400.0   150.0   33.333333333333336
450.0   0.0   0.0
500.0   0.0   0.0
450.0   30.0   0.0
450.0   0.0   16.666666666666668
500.0   0.0   0.0
500.0   30.0   0.0
450.0   30.0   0.0
500.0   30.0   16.666666666666668
450.0   0.0   16.666666666666668
450.0   30.0   16.666666666666668
500.0   30.0   16.666666666666668
450.0   30.0   0.0
450.0   0.0   16.666666666666668
500.0   30.0   16.666666666666668
500.0   0.0   16.666666666666668
500.0   0.0   0.0
450.0   0.0   16.666666666666668
500.0   30.0   16.666666666666668
500.0   0.0   0.0
450.0   30.0   0.0
450.0   0.0   16.666666666666668
500.0   0.0   16.666666666666668
450.0   30.0   16.666666666666668
450.0   0.0   33.333333333333336
500.0   0.0   16.666666666666668
500.0   30.0   16.666666666666668
450.0   30.0   16.666666666666668
500.0   30.0   33.333333333333336
450.0   0.0   33.333333333333336
450.0   30.0   33.333333333333336
500.0   30.0   33.333333333333336
450.0   30.0   16.666666666666668
450.0   0.0   33.333333333333336
500.0   30.0   33.333333333333336
500.0   0.0   33.333333333333336
500.0   0.0   16.666666666666668
450.0   0.0   33.333333333333336
500.0   30.0   33.333333333333336
500.0   0.0   16.666666666666668
450.0   30.0   16.666666666666668
450.0   0.0   33.333333333333336
500.0   0.0   33.333333333333336
450.0   30.0   33.333333333333336
450.0   0.0   50.0
500.0   0.0   33.333333333333336
500.0   30.0   33.333333333333336
450.0   30.0   33.333333333333336
500.0   30.0   50.0
450.0   0.0   50.0
450.0   30.0   50.0
500.0   30.0   50.0
450.0   30.0   33.333333333333336
450.0   0.0   50.0
500.0   30.0   50.0
500.0   0.0   50.0
500.0   0.0   33.333333333333336
450.0   0.0   50.0
500.0   30.0   50.0
500.0   0.0   33.333333333333336
450.0   30.0   33.333333333333336
450.0   30.0   0.0
500.0   30.0   0.0
450.0   60.0   0.0
450.0   30.0   16.666666666666668
500.0   30.0   0.0
500.0   60.0   0.0
450.0   60.0   0.0
500.0   60.0   16.666666666666668
450.0   30.0   16.666666666666668
450.0   60.0   16.666666666666668
500.0   60.0   16.666666666666668
450.0   60.0   0.0
450.0   30.0   16.666666666666668
500.0   60.0   16.666666666666668
500.0   30.0   16.666666666666668
500.0   30.0   0.0
450.0   30.0   16.666666666666668
500.0   60.0   16.666666666666668
500.0   30.0   0.0
450.0   60.0   0.0
450.0   30.0   16.666666666666668
500.0   30.0   16.666666666666668
450.0   60.0   16.666666666666668
450.0   30.0   33.333333333333336
500.0   30.0   16.666666666666668
500.0   60.0   16.666666666666668
450.0   60.0   16.666666666666668
500.0   60.0   33.333333333333336
450.0   30.0   33.333333333333336
450.0   60.0   33.333333333333336
500.0   60.0   33.333333333333336
450.0   60.0   16.666666666666668
450.0   30.0   33.333333333333336
500.0   60.0   33.333333333333336
500.0   30.0   33.333333333333336
500.0   30.0   16.666666666666668
450.0   30.0   33.333333333333336
500.0   60.0   33.333333333333336
500.0   30.0   16.666666666666668
450.0   60.0   16.666666666666668
450.0   30.0   33.333333333333336
500.0   30.0   33.333333333333336
450.0   60.0   33.333333333333336
450.0   30.0   50.0
500.0   30.0   33.333333333333336
500.0   60.0   33.333333333333336
450.0   60.0   33.333333333333336
500.0   60.0   50.0
450.0   30.0   50.0
450.0   60.0   50.0
500.0   60.0   50.0
450.0   60.0   33.333333333333336
450.0   30.0   50.0
500.0   60.0   50.0
500.0   30.0   50.0
500.0   30.0   33.333333333333336
450.0   30.0   50.0
500.0   60.0   50.0
500.0   30.0   33.333333333333336
450.0   60.0   33.333333333333336
450.0   60.0   0.0
500.0   60.0   0.0
450.0   90.0   0.0
450.0   60.0   16.666666666666668
500.0   60.0   0.0
500.0   90.0   0.0
450.0   90.0   0.0
500.0   90.0   16.666666666666668
450.0   60.0   16.666666666666668
450.0   90.0   16.666666666666668
500.0   90.0   16.666666666666668
450.0   90.0   0.0
450.0   60.0   16.666666666666668
500.0   90.0   16.666666666666668
500.0   60.0   16.666666666666668
500.0   60.0   0.0
450.0   60.0   16.666666666666668
500.0   90.0   16.666666666666668
500.0   60.0   0.0
450.0   90.0   0.0
450.0   60.0   16.666666666666668
500.0   60.0   16.666666666666668
450.0   90.0   16.666666666666668
450.0   60.0   33.333333333333336
500.0   60.0   16.666666666666668
500.0   90.0   16.666666666666668
450.0   90.0   16.666666666666668
500.0   90.0   33.333333333333336
450.0   60.0   33.333333333333336
450.0   90.0   33.333333333333336
500.0   90.0   33.333333333333336
450.0   90.0   16.666666666666668
450.0   60.0   33.333333333333336
500.0   90.0   33.333333333333336
500.0   60.0   33.333333333333336
500.0   60.0   16.666666666666668
450.0   60.0   33.333333333333336
500.0   90.0   33.333333333333336
500.0   60.0   16.666666666666668
450.0   90.0   16.666666666666668
450.0   60.0   33.333333333333336
500.0   60.0   33.333333333333336
450.0   90.0   33.333333333333336
450.0   60.0   50.0
500.0   60.0   33.333333333333336
500.0   90.0   33.333333333333336
450.0   90.0   33.333333333333336
500.0   90.0   50.0
450.0   60.0   50.0
450.0   90.0   50.0
500.0   90.0   50.0
450.0   90.0   33.333333333333336
450.0   60.0   50.0
500.0   90.0   50.0
500.0   60.0   50.0
500.0   60.0   33.333333333333336
450.0   60.0   50.0
500.0   90.0   50.0
500.0   60.0   33.333333333333336
450.0   90.0   33.333333333333336
450.0   90.0   0.0
500.0   90.0   0.0
450.0   120.0   0.0
450.0   90.0   16.666666666666668
500.0   90.0   0.0
500.0   120.0   0.0
450.0   120.0   0.0
500.0   120.0   16.666666666666668
450.0   90.0   16.666666666666668
450.0   120.0   16.666666666666668
500.0   120.0   16.666666666666668
450.0   120.0   0.0
450.0   90.0   16.666666666666668
500.0   120.0   16.666666666666668
500.0   90.0   16.666666666666668
500.0   90.0   0.0
450.0   90.0   16.666666666666668
500.0   120.0   16.666666666666668
500.0   90.0   0.0
450.0   120.0   0.0
450.0   90.0   16.666666666666668
500.0   90.0   16.666666666666668
450.0   120.0   16.666666666666668
450.0   90.0   33.333333333333336
500.0   90.0   16.666666666666668
500.0   120.0   16.666666666666668
450.0   120.0   16.666666666666668
500.0   120.0   33.333333333333336
450.0   90.0   33.333333333333336
450.0   120.0   33.333333333333336
500.0   120.0   33.333333333333336
450.0   120.0   16.666666666666668
450.0   90.0   33.333333333333336
500.0   120.0   33.333333333333336
500.0   90.0   33.333333333333336
500.0   90.0   16.666666666666668
450.0   90.0   33.333333333333336
500.0   120.0   33.333333333333336
500.0   90.0   16.666666666666668
450.0   120.0   16.666666666666668
450.0   90.0   33.333333333333336
500.0   90.0   33.333333333333336
450.0   120.0   33.333333333333336
450.0   90.0   50.0
500.0   90.0   33.333333333333336
500.0   120.0   33.333333333333336
450.0   120.0   33.333333333333336
500.0   120.0   50.0
450.0   90.0   50.0
450.0   120.0   50.0
500.0   120.0   50.0
450.0   120.0   33.333333333333336
450.0   90.0   50.0
500.0   120.0   50.0
500.0   90.0   50.0
500.0   90.0   33.333333333333336
450.0   90.0   50.0
500.0   120.0   50.0
500.0   90.0   33.333333333333336
450.0   120.0   33.333333333333336
450.0   120.0   0.0
500.0   120.0   0.0
450.0   150.0   0.0
450.0   120.0   16.666666666666668
500.0   120.0   0.0
500.0   150.0   0.0
450.0   150.0   0.0
500.0   150.0   16.666666666666668
450.0   120.0   16.666666666666668
450.0   150.0   16.666666666666668
500.0   150.0   16.666666666666668
450.0   150.0   0.0
450.0   120.0   16.666666666666668
500.0   150.0   16.666666666666668
500.0   120.0   16.666666666666668
500.0   120.0   0.0
450.0   120.0   16.666666666666668
500.0   150.0   16.666666666666668
500.0   120.0   0.0
450.0   150.0   0.0
450.0   120.0   16.666666666666668
500.0   120.0   16.666666666666668
450.0   150.0   16.666666666666668
450.0   120.0   33.333333333333336
500.0   120.0   16.666666666666668
500.0   150.0   16.666666666666668
450.0   150.0   16.666666666666668
500.0   150.0   33.333333333333336
450.0   120.0   33.333333333333336
450.0   150.0   33.333333333333336
500.0   150.0   33.333333333333336
450.0   150.0   16.666666666666668
450.0   120.0   33.333333333333336
500.0   150.0   33.333333333333336
500.0   120.0   33.333333333333336
500.0   120.0   16.666666666666668
450.0   120.0   33.333333333333336
500.0   150.0   33.333333333333336
500.0   120.0   16.666666666666668
450.0   150.0   16.666666666666668
450.0   120.0   33.333333333333336
500.0   120.0   33.333333333333336
450.0   150.0   33.333333333333336
450.0   120.0   50.0
500.0   120.0   33.333333333333336
500.0   150.0   33.333333333333336
450.0   150.0   33.333333333333336
500.0   150.0   50.0
450.0   120.0   50.0
450.0   150.0   50.0
500.0   150.0   50.0
450.0   150.0   33.333333333333336
450.0   120.0   50.0
500.0   150.0   50.0
500.0   120.0   50.0
500.0   120.0   33.333333333333336
450.0   120.0   50.0
500.0   150.0   50.0
500.0   120.0   33.333333333333336
450.0   150.0   33.333333333333336
             </DataArray>   
          </Points>  
          <Cells>  
             <DataArray type="Int32" Name="connectivity" format="ascii">   
0   1   2   3
4   5   6   7
8   9   10   11
12   13   14   15
16   17   18   19
20   21   22   23
24   25   26   27
28   29   30   31
32   33   34   35
36   37   38   39
40   41   42   43
44   45   46   47
48   49   50   51
52   53   54   55
56   57   58   59
60   61   62   63
64   65   66   67
68   69   70   71
72   73   74   75
76   77   78   79
80   81   82   83
84   85   86   87
88   89   90   91
92   93   94   95
96   97   98   99
100   101   102   103
104   105   106   107
108   109   110   111
112   113   114   115
116   117   118   119
120   121   122   123
124   125   126   127
128   129   130   131
132   133   134   135
136   137   138   139
140   141   142   143
144   145   146   147
148   149   150   151
152   153   154   155
156   157   158   159
160   161   162   163
164   165   166   167
168   169   170   171
172   173   174   175
176   177   178   179
180   181   182   183
184   185   186   187
188   189   190   191
192   193   194   195
196   197   198   199
200   201   202   203
204   205   206   207
208   209   210   211
212   213   214   215
216   217   218   219
220   221   222   223
224   225   226   227
228   229   230   231
232   233   234   235
236   237   238   239
240   241   242   243
244   245   246   247
248   249   250   251
252   253   254   255
256   257   258   259
260   261   262   263
264   265   266   267
268   269   270   271
272   273   274   275
276   277   278   279
280   281   282   283
284   285   286   287
288   289   290   291
292   293   294   295
296   297   298   299
300   301   302   303
304   305   306   307
308   309   310   311
312   313   314   315
316   317   318   319
320   321   322   323
324   325   326   327
328   329   330   331
332   333   334   335
336   337   338   339
340   341   342   343
344   345   346   347
348   349   350   351
352   353   354   355
356   357   358   359
360   361   362   363
364   365   366   367
368   369   370   371
372   373   374   375
376   377   378   379
380   381   382   383
384   385   386   387
388   389   390   391
392   393   394   395
396   397   398   399
400   401   402   403
404   405   406   407
408   409   410   411
412   413   414   415
416   417   418   419
420   421   422   423
424   425   426   427
428   429   430   431
432   433   434   435
436   437   438   439
440   441   442   443
444   445   446   447
448   449   450   451
452   453   454   455
456   457   458   459
460   461   462   463
464   465   466   467
468   469   470   471
472   473   474   475
476   477   478   479
480   481   482   483
484   485   486   487
488   489   490   491
492   493   494   495
496   497   498   499
500   501   502   503
504   505   506   507
508   509   510   511
512   513   514   515
516   517   518   519
520   521   522   523
524   525   526   527
528   529   530   531
532   533   534   535
536   537   538   539
540   541   542   543
544   545   546   547
548   549   550   551
552   553   554   555
556   557   558   559
560   561   562   563
564   565   566   567
568   569   570   571
572   573   574   575
576   577   578   579
580   581   582   583
584   585   586   587
588   589   590   591
592   593   594   595
596   597   598   599
600   601   602   603
604   605   606   607
608   609   610   611
612   613   614   615
616   617   618   619
620   621   622   623
624   625   626   627
628   629   630   631
632   633   634   635
636   637   638   639
640   641   642   643
644   645   646   647
648   649   650   651
652   653   654   655
656   657   658   659
660   661   662   663
664   665   666   667
668   669   670   671
672   673   674   675
676   677   678   679
680   681   682   683
684   685   686   687
688   689   690   691
692   693   694   695
696   697   698   699
700   701   702   703
704   705   706   707
708   709   710   711
712   713   714   715
716   717   718   719
720   721   722   723
724   725   726   727
728   729   730   731
732   733   734   735
736   737   738   739
740   741   742   743
744   745   746   747
748   749   750   751
752   753   754   755
756   757   758   759
760   761   762   763
764   765   766   767
768   769   770   771
772   773   774   775
776   777   778   779
780   781   782   783
784   785   786   787
788   789   790   791
792   793   794   795
796   797   798   799
800   801   802   803
804   805   806   807
808   809   810   811
812   813   814   815
816   817   818   819
820   821   822   823
824   825   826   827
828   829   830   831
832   833   834   835
836   837   838   839
840   841   842   843
844   845   846   847
848   849   850   851
852   853   854   855
856   857   858   859
860   861   862   863
864   865   866   867
868   869   870   871
872   873   874   875
876   877   878   879
880   881   882   883
884   885   886   887
888   889   890   891
892   893   894   895
896   897   898   899
900   901   902   903
904   905   906   907
908   909   910   911
912   913   914   915
916   917   918   919
920   921   922   923
924   925   926   927
928   929   930   931
932   933   934   935
936   937   938   939
940   941   942   943
944   945   946   947
948   949   950   951
952   953   954   955
956   957   958   959
960   961   962   963
964   965   966   967
968   969   970   971
972   973   974   975
976   977   978   979
980   981   982   983
984   985   986   987
988   989   990   991
992   993   994   995
996   997   998   999
1000   1001   1002   1003
1004   1005   1006   1007
1008   1009   1010   1011
1012   1013   1014   1015
1016   1017   1018   1019
1020   1021   1022   1023
1024   1025   1026   1027
1028   1029   1030   1031
1032   1033   1034   1035
1036   1037   1038   1039
1040   1041   1042   1043
1044   1045   1046   1047
1048   1049   1050   1051
1052   1053   1054   1055
1056   1057   1058   1059
1060   1061   1062   1063
1064   1065   1066   1067
1068   1069   1070   1071
1072   1073   1074   1075
1076   1077   1078   1079
1080   1081   1082   1083
1084   1085   1086   1087
1088   1089   1090   1091
1092   1093   1094   1095
1096   1097   1098   1099
1100   1101   1102   1103
1104   1105   1106   1107
1108   1109   1110   1111
1112   1113   1114   1115
1116   1117   1118   1119
1120   1121   1122   1123
1124   1125   1126   1127
1128   1129   1130   1131
1132   1133   1134   1135
1136   1137   1138   1139
1140   1141   1142   1143
1144   1145   1146   1147
1148   1149   1150   1151
1152   1153   1154   1155
1156   1157   1158   1159
1160   1161   1162   1163
1164   1165   1166   1167
1168   1169   1170   1171
1172   1173   1174   1175
1176   1177   1178   1179
1180   1181   1182   1183
1184   1185   1186   1187
1188   1189   1190   1191
1192   1193   1194   1195
1196   1197   1198   1199
1200   1201   1202   1203
1204   1205   1206   1207
1208   1209   1210   1211
1212   1213   1214   1215
1216   1217   1218   1219
1220   1221   1222   1223
1224   1225   1226   1227
1228   1229   1230   1231
1232   1233   1234   1235
1236   1237   1238   1239
1240   1241   1242   1243
1244   1245   1246   1247
1248   1249   1250   1251
1252   1253   1254   1255
1256   1257   1258   1259
1260   1261   1262   1263
1264   1265   1266   1267
1268   1269   1270   1271
1272   1273   1274   1275
1276   1277   1278   1279
1280   1281   1282   1283
1284   1285   1286   1287
1288   1289   1290   1291
1292   1293   1294   1295
1296   1297   1298   1299
1300   1301   1302   1303
1304   1305   1306   1307
1308   1309   1310   1311
1312   1313   1314   1315
1316   1317   1318   1319
1320   1321   1322   1323
1324   1325   1326   1327
1328   1329   1330   1331
1332   1333   1334   1335
1336   1337   1338   1339
1340   1341   1342   1343
1344   1345   1346   1347
1348   1349   1350   1351
1352   1353   1354   1355
1356   1357   1358   1359
1360   1361   1362   1363
1364   1365   1366   1367
1368   1369   1370   1371
1372   1373   1374   1375
1376   1377   1378   1379
1380   1381   1382   1383
1384   1385   1386   1387
1388   1389   1390   1391
1392   1393   1394   1395
1396   1397   1398   1399
1400   1401   1402   1403
1404   1405   1406   1407
1408   1409   1410   1411
1412   1413   1414   1415
1416   1417   1418   1419
1420   1421   1422   1423
1424   1425   1426   1427
1428   1429   1430   1431
1432   1433   1434   1435
1436   1437   1438   1439
1440   1441   1442   1443
1444   1445   1446   1447
1448   1449   1450   1451
1452   1453   1454   1455
1456   1457   1458   1459
1460   1461   1462   1463
1464   1465   1466   1467
1468   1469   1470   1471
1472   1473   1474   1475
1476   1477   1478   1479
1480   1481   1482   1483
1484   1485   1486   1487
1488   1489   1490   1491
1492   1493   1494   1495
1496   1497   1498   1499
1500   1501   1502   1503
1504   1505   1506   1507
1508   1509   1510   1511
1512   1513   1514   1515
1516   1517   1518   1519
1520   1521   1522   1523
1524   1525   1526   1527
1528   1529   1530   1531
1532   1533   1534   1535
1536   1537   1538   1539
1540   1541   1542   1543
1544   1545   1546   1547
1548   1549   1550   1551
1552   1553   1554   1555
1556   1557   1558   1559
1560   1561   1562   1563
1564   1565   1566   1567
1568   1569   1570   1571
1572   1573   1574   1575
1576   1577   1578   1579
1580   1581   1582   1583
1584   1585   1586   1587
1588   1589   1590   1591
1592   1593   1594   1595
1596   1597   1598   1599
1600   1601   1602   1603
1604   1605   1606   1607
1608   1609   1610   1611
1612   1613   1614   1615
1616   1617   1618   1619
1620   1621   1622   1623
1624   1625   1626   1627
1628   1629   1630   1631
1632   1633   1634   1635
1636   1637   1638   1639
1640   1641   1642   1643
1644   1645   1646   1647
1648   1649   1650   1651
1652   1653   1654   1655
1656   1657   1658   1659
1660   1661   1662   1663
1664   1665   1666   1667
1668   1669   1670   1671
1672   1673   1674   1675
1676   1677   1678   1679
1680   1681   1682   1683
1684   1685   1686   1687
1688   1689   1690   1691
1692   1693   1694   1695
1696   1697   1698   1699
1700   1701   1702   1703
1704   1705   1706   1707
1708   1709   1710   1711
1712   1713   1714   1715
1716   1717   1718   1719
1720   1721   1722   1723
1724   1725   1726   1727
1728   1729   1730   1731
1732   1733   1734   1735
1736   1737   1738   1739
1740   1741   1742   1743
1744   1745   1746   1747
1748   1749   1750   1751
1752   1753   1754   1755
1756   1757   1758   1759
1760   1761   1762   1763
1764   1765   1766   1767
1768   1769   1770   1771
1772   1773   1774   1775
1776   1777   1778   1779
1780   1781   1782   1783
1784   1785   1786   1787
1788   1789   1790   1791
1792   1793   1794   1795
1796   1797   1798   1799
1800   1801   1802   1803
1804   1805   1806   1807
1808   1809   1810   1811
1812   1813   1814   1815
1816   1817   1818   1819
1820   1821   1822   1823
1824   1825   1826   1827
1828   1829   1830   1831
1832   1833   1834   1835
1836   1837   1838   1839
1840   1841   1842   1843
1844   1845   1846   1847
1848   1849   1850   1851
1852   1853   1854   1855
1856   1857   1858   1859
1860   1861   1862   1863
1864   1865   1866   1867
1868   1869   1870   1871
1872   1873   1874   1875
1876   1877   1878   1879
1880   1881   1882   1883
1884   1885   1886   1887
1888   1889   1890   1891
1892   1893   1894   1895
1896   1897   1898   1899
1900   1901   1902   1903
1904   1905   1906   1907
1908   1909   1910   1911
1912   1913   1914   1915
1916   1917   1918   1919
1920   1921   1922   1923
1924   1925   1926   1927
1928   1929   1930   1931
1932   1933   1934   1935
1936   1937   1938   1939
1940   1941   1942   1943
1944   1945   1946   1947
1948   1949   1950   1951
1952   1953   1954   1955
1956   1957   1958   1959
1960   1961   1962   1963
1964   1965   1966   1967
1968   1969   1970   1971
1972   1973   1974   1975
1976   1977   1978   1979
1980   1981   1982   1983
1984   1985   1986   1987
1988   1989   1990   1991
1992   1993   1994   1995
1996   1997   1998   1999
2000   2001   2002   2003
2004   2005   2006   2007
2008   2009   2010   2011
2012   2013   2014   2015
2016   2017   2018   2019
2020   2021   2022   2023
2024   2025   2026   2027
2028   2029   2030   2031
2032   2033   2034   2035
2036   2037   2038   2039
2040   2041   2042   2043
2044   2045   2046   2047
2048   2049   2050   2051
2052   2053   2054   2055
2056   2057   2058   2059
2060   2061   2062   2063
2064   2065   2066   2067
2068   2069   2070   2071
2072   2073   2074   2075
2076   2077   2078   2079
2080   2081   2082   2083
2084   2085   2086   2087
2088   2089   2090   2091
2092   2093   2094   2095
2096   2097   2098   2099
2100   2101   2102   2103
2104   2105   2106   2107
2108   2109   2110   2111
2112   2113   2114   2115
2116   2117   2118   2119
2120   2121   2122   2123
2124   2125   2126   2127
2128   2129   2130   2131
2132   2133   2134   2135
2136   2137   2138   2139
2140   2141   2142   2143
2144   2145   2146   2147
2148   2149   2150   2151
2152   2153   2154   2155
2156   2157   2158   2159
2160   2161   2162   2163
2164   2165   2166   2167
2168   2169   2170   2171
2172   2173   2174   2175
2176   2177   2178   2179
2180   2181   2182   2183
2184   2185   2186   2187
2188   2189   2190   2191
2192   2193   2194   2195
2196   2197   2198   2199
2200   2201   2202   2203
2204   2205   2206   2207
2208   2209   2210   2211
2212   2213   2214   2215
2216   2217   2218   2219
2220   2221   2222   2223
2224   2225   2226   2227
2228   2229   2230   2231
2232   2233   2234   2235
2236   2237   2238   2239
2240   2241   2242   2243
2244   2245   2246   2247
2248   2249   2250   2251
2252   2253   2254   2255
2256   2257   2258   2259
2260   2261   2262   2263
2264   2265   2266   2267
2268   2269   2270   2271
2272   2273   2274   2275
2276   2277   2278   2279
2280   2281   2282   2283
2284   2285   2286   2287
2288   2289   2290   2291
2292   2293   2294   2295
2296   2297   2298   2299
2300   2301   2302   2303
2304   2305   2306   2307
2308   2309   2310   2311
2312   2313   2314   2315
2316   2317   2318   2319
2320   2321   2322   2323
2324   2325   2326   2327
2328   2329   2330   2331
2332   2333   2334   2335
2336   2337   2338   2339
2340   2341   2342   2343
2344   2345   2346   2347
2348   2349   2350   2351
2352   2353   2354   2355
2356   2357   2358   2359
2360   2361   2362   2363
2364   2365   2366   2367
2368   2369   2370   2371
2372   2373   2374   2375
2376   2377   2378   2379
2380   2381   2382   2383
2384   2385   2386   2387
2388   2389   2390   2391
2392   2393   2394   2395
2396   2397   2398   2399
2400   2401   2402   2403
2404   2405   2406   2407
2408   2409   2410   2411
2412   2413   2414   2415
2416   2417   2418   2419
2420   2421   2422   2423
2424   2425   2426   2427
2428   2429   2430   2431
2432   2433   2434   2435
2436   2437   2438   2439
2440   2441   2442   2443
2444   2445   2446   2447
2448   2449   2450   2451
2452   2453   2454   2455
2456   2457   2458   2459
2460   2461   2462   2463
2464   2465   2466   2467
2468   2469   2470   2471
2472   2473   2474   2475
2476   2477   2478   2479
2480   2481   2482   2483
2484   2485   2486   2487
2488   2489   2490   2491
2492   2493   2494   2495
2496   2497   2498   2499
2500   2501   2502   2503
2504   2505   2506   2507
2508   2509   2510   2511
2512   2513   2514   2515
2516   2517   2518   2519
2520   2521   2522   2523
2524   2525   2526   2527
2528   2529   2530   2531
2532   2533   2534   2535
2536   2537   2538   2539
2540   2541   2542   2543
2544   2545   2546   2547
2548   2549   2550   2551
2552   2553   2554   2555
2556   2557   2558   2559
2560   2561   2562   2563
2564   2565   2566   2567
2568   2569   2570   2571
2572   2573   2574   2575
2576   2577   2578   2579
2580   2581   2582   2583
2584   2585   2586   2587
2588   2589   2590   2591
2592   2593   2594   2595
2596   2597   2598   2599
2600   2601   2602   2603
2604   2605   2606   2607
2608   2609   2610   2611
2612   2613   2614   2615
2616   2617   2618   2619
2620   2621   2622   2623
2624   2625   2626   2627
2628   2629   2630   2631
2632   2633   2634   2635
2636   2637   2638   2639
2640   2641   2642   2643
2644   2645   2646   2647
2648   2649   2650   2651
2652   2653   2654   2655
2656   2657   2658   2659
2660   2661   2662   2663
2664   2665   2666   2667
2668   2669   2670   2671
2672   2673   2674   2675
2676   2677   2678   2679
2680   2681   2682   2683
2684   2685   2686   2687
2688   2689   2690   2691
2692   2693   2694   2695
2696   2697   2698   2699
2700   2701   2702   2703
2704   2705   2706   2707
2708   2709   2710   2711
2712   2713   2714   2715
2716   2717   2718   2719
2720   2721   2722   2723
2724   2725   2726   2727
2728   2729   2730   2731
2732   2733   2734   2735
2736   2737   2738   2739
2740   2741   2742   2743
2744   2745   2746   2747
2748   2749   2750   2751
2752   2753   2754   2755
2756   2757   2758   2759
2760   2761   2762   2763
2764   2765   2766   2767
2768   2769   2770   2771
2772   2773   2774   2775
2776   2777   2778   2779
2780   2781   2782   2783
2784   2785   2786   2787
2788   2789   2790   2791
2792   2793   2794   2795
2796   2797   2798   2799
2800   2801   2802   2803
2804   2805   2806   2807
2808   2809   2810   2811
2812   2813   2814   2815
2816   2817   2818   2819
2820   2821   2822   2823
2824   2825   2826   2827
2828   2829   2830   2831
2832   2833   2834   2835
2836   2837   2838   2839
2840   2841   2842   2843
2844   2845   2846   2847
2848   2849   2850   2851
2852   2853   2854   2855
2856   2857   2858   2859
2860   2861   2862   2863
2864   2865   2866   2867
2868   2869   2870   2871
2872   2873   2874   2875
2876   2877   2878   2879
2880   2881   2882   2883
2884   2885   2886   2887
2888   2889   2890   2891
2892   2893   2894   2895
2896   2897   2898   2899
2900   2901   2902   2903
2904   2905   2906   2907
2908   2909   2910   2911
2912   2913   2914   2915
2916   2917   2918   2919
2920   2921   2922   2923
2924   2925   2926   2927
2928   2929   2930   2931
2932   2933   2934   2935
2936   2937   2938   2939
2940   2941   2942   2943
2944   2945   2946   2947
2948   2949   2950   2951
2952   2953   2954   2955
2956   2957   2958   2959
2960   2961   2962   2963
2964   2965   2966   2967
2968   2969   2970   2971
2972   2973   2974   2975
2976   2977   2978   2979
2980   2981   2982   2983
2984   2985   2986   2987
2988   2989   2990   2991
2992   2993   2994   2995
2996   2997   2998   2999
3000   3001   3002   3003
3004   3005   3006   3007
3008   3009   3010   3011
3012   3013   3014   3015
3016   3017   3018   3019
3020   3021   3022   3023
3024   3025   3026   3027
3028   3029   3030   3031
3032   3033   3034   3035
3036   3037   3038   3039
3040   3041   3042   3043
3044   3045   3046   3047
3048   3049   3050   3051
3052   3053   3054   3055
3056   3057   3058   3059
3060   3061   3062   3063
3064   3065   3066   3067
3068   3069   3070   3071
3072   3073   3074   3075
3076   3077   3078   3079
3080   3081   3082   3083
3084   3085   3086   3087
3088   3089   3090   3091
3092   3093   3094   3095
3096   3097   3098   3099
3100   3101   3102   3103
3104   3105   3106   3107
3108   3109   3110   3111
3112   3113   3114   3115
3116   3117   3118   3119
3120   3121   3122   3123
3124   3125   3126   3127
3128   3129   3130   3131
3132   3133   3134   3135
3136   3137   3138   3139
3140   3141   3142   3143
3144   3145   3146   3147
3148   3149   3150   3151
3152   3153   3154   3155
3156   3157   3158   3159
3160   3161   3162   3163
3164   3165   3166   3167
3168   3169   3170   3171
3172   3173   3174   3175
3176   3177   3178   3179
3180   3181   3182   3183
3184   3185   3186   3187
3188   3189   3190   3191
3192   3193   3194   3195
3196   3197   3198   3199
3200   3201   3202   3203
3204   3205   3206   3207
3208   3209   3210   3211
3212   3213   3214   3215
3216   3217   3218   3219
3220   3221   3222   3223
3224   3225   3226   3227
3228   3229   3230   3231
3232   3233   3234   3235
3236   3237   3238   3239
3240   3241   3242   3243
3244   3245   3246   3247
3248   3249   3250   3251
3252   3253   3254   3255
3256   3257   3258   3259
3260   3261   3262   3263
3264   3265   3266   3267
3268   3269   3270   3271
3272   3273   3274   3275
3276   3277   3278   3279
3280   3281   3282   3283
3284   3285   3286   3287
3288   3289   3290   3291
3292   3293   3294   3295
3296   3297   3298   3299
3300   3301   3302   3303
3304   3305   3306   3307
3308   3309   3310   3311
3312   3313   3314   3315
3316   3317   3318   3319
3320   3321   3322   3323
3324   3325   3326   3327
3328   3329   3330   3331
3332   3333   3334   3335
3336   3337   3338   3339
3340   3341   3342   3343
3344   3345   3346   3347
3348   3349   3350   3351
3352   3353   3354   3355
3356   3357   3358   3359
3360   3361   3362   3363
3364   3365   3366   3367
3368   3369   3370   3371
3372   3373   3374   3375
3376   3377   3378   3379
3380   3381   3382   3383
3384   3385   3386   3387
3388   3389   3390   3391
3392   3393   3394   3395
3396   3397   3398   3399
3400   3401   3402   3403
3404   3405   3406   3407
3408   3409   3410   3411
3412   3413   3414   3415
3416   3417   3418   3419
3420   3421   3422   3423
3424   3425   3426   3427
3428   3429   3430   3431
3432   3433   3434   3435
3436   3437   3438   3439
3440   3441   3442   3443
3444   3445   3446   3447
3448   3449   3450   3451
3452   3453   3454   3455
3456   3457   3458   3459
3460   3461   3462   3463
3464   3465   3466   3467
3468   3469   3470   3471
3472   3473   3474   3475
3476   3477   3478   3479
3480   3481   3482   3483
3484   3485   3486   3487
3488   3489   3490   3491
3492   3493   3494   3495
3496   3497   3498   3499
3500   3501   3502   3503
3504   3505   3506   3507
3508   3509   3510   3511
3512   3513   3514   3515
3516   3517   3518   3519
3520   3521   3522   3523
3524   3525   3526   3527
3528   3529   3530   3531
3532   3533   3534   3535
3536   3537   3538   3539
3540   3541   3542   3543
3544   3545   3546   3547
3548   3549   3550   3551
3552   3553   3554   3555
3556   3557   3558   3559
3560   3561   3562   3563
3564   3565   3566   3567
3568   3569   3570   3571
3572   3573   3574   3575
3576   3577   3578   3579
3580   3581   3582   3583
3584   3585   3586   3587
3588   3589   3590   3591
3592   3593   3594   3595
3596   3597   3598   3599
3600   3601   3602   3603
3604   3605   3606   3607
3608   3609   3610   3611
3612   3613   3614   3615
3616   3617   3618   3619
3620   3621   3622   3623
3624   3625   3626   3627
3628   3629   3630   3631
3632   3633   3634   3635
3636   3637   3638   3639
3640   3641   3642   3643
3644   3645   3646   3647
3648   3649   3650   3651
3652   3653   3654   3655
3656   3657   3658   3659
3660   3661   3662   3663
3664   3665   3666   3667
3668   3669   3670   3671
3672   3673   3674   3675
3676   3677   3678   3679
3680   3681   3682   3683
3684   3685   3686   3687
3688   3689   3690   3691
3692   3693   3694   3695
3696   3697   3698   3699
3700   3701   3702   3703
3704   3705   3706   3707
3708   3709   3710   3711
3712   3713   3714   3715
3716   3717   3718   3719
3720   3721   3722   3723
3724   3725   3726   3727
3728   3729   3730   3731
3732   3733   3734   3735
3736   3737   3738   3739
3740   3741   3742   3743
3744   3745   3746   3747
3748   3749   3750   3751
3752   3753   3754   3755
3756   3757   3758   3759
3760   3761   3762   3763
3764   3765   3766   3767
3768   3769   3770   3771
3772   3773   3774   3775
3776   3777   3778   3779
3780   3781   3782   3783
3784   3785   3786   3787
3788   3789   3790   3791
3792   3793   3794   3795
3796   3797   3798   3799
3800   3801   3802   3803
3804   3805   3806   3807
3808   3809   3810   3811
3812   3813   3814   3815
3816   3817   3818   3819
3820   3821   3822   3823
3824   3825   3826   3827
3828   3829   3830   3831
3832   3833   3834   3835
3836   3837   3838   3839
3840   3841   3842   3843
3844   3845   3846   3847
3848   3849   3850   3851
3852   3853   3854   3855
3856   3857   3858   3859
3860   3861   3862   3863
3864   3865   3866   3867
3868   3869   3870   3871
3872   3873   3874   3875
3876   3877   3878   3879
3880   3881   3882   3883
3884   3885   3886   3887
3888   3889   3890   3891
3892   3893   3894   3895
3896   3897   3898   3899
3900   3901   3902   3903
3904   3905   3906   3907
3908   3909   3910   3911
3912   3913   3914   3915
3916   3917   3918   3919
3920   3921   3922   3923
3924   3925   3926   3927
3928   3929   3930   3931
3932   3933   3934   3935
3936   3937   3938   3939
3940   3941   3942   3943
3944   3945   3946   3947
3948   3949   3950   3951
3952   3953   3954   3955
3956   3957   3958   3959
3960   3961   3962   3963
3964   3965   3966   3967
3968   3969   3970   3971
3972   3973   3974   3975
3976   3977   3978   3979
3980   3981   3982   3983
3984   3985   3986   3987
3988   3989   3990   3991
3992   3993   3994   3995
3996   3997   3998   3999
4000   4001   4002   4003
4004   4005   4006   4007
4008   4009   4010   4011
4012   4013   4014   4015
4016   4017   4018   4019
4020   4021   4022   4023
4024   4025   4026   4027
4028   4029   4030   4031
4032   4033   4034   4035
4036   4037   4038   4039
4040   4041   4042   4043
4044   4045   4046   4047
4048   4049   4050   4051
4052   4053   4054   4055
4056   4057   4058   4059
4060   4061   4062   4063
4064   4065   4066   4067
4068   4069   4070   4071
4072   4073   4074   4075
4076   4077   4078   4079
4080   4081   4082   4083
4084   4085   4086   4087
4088   4089   4090   4091
4092   4093   4094   4095
4096   4097   4098   4099
4100   4101   4102   4103
4104   4105   4106   4107
4108   4109   4110   4111
4112   4113   4114   4115
4116   4117   4118   4119
4120   4121   4122   4123
4124   4125   4126   4127
4128   4129   4130   4131
4132   4133   4134   4135
4136   4137   4138   4139
4140   4141   4142   4143
4144   4145   4146   4147
4148   4149   4150   4151
4152   4153   4154   4155
4156   4157   4158   4159
4160   4161   4162   4163
4164   4165   4166   4167
4168   4169   4170   4171
4172   4173   4174   4175
4176   4177   4178   4179
4180   4181   4182   4183
4184   4185   4186   4187
4188   4189   4190   4191
4192   4193   4194   4195
4196   4197   4198   4199
4200   4201   4202   4203
4204   4205   4206   4207
4208   4209   4210   4211
4212   4213   4214   4215
4216   4217   4218   4219
4220   4221   4222   4223
4224   4225   4226   4227
4228   4229   4230   4231
4232   4233   4234   4235
4236   4237   4238   4239
4240   4241   4242   4243
4244   4245   4246   4247
4248   4249   4250   4251
4252   4253   4254   4255
4256   4257   4258   4259
4260   4261   4262   4263
4264   4265   4266   4267
4268   4269   4270   4271
4272   4273   4274   4275
4276   4277   4278   4279
4280   4281   4282   4283
4284   4285   4286   4287
4288   4289   4290   4291
4292   4293   4294   4295
4296   4297   4298   4299
4300   4301   4302   4303
4304   4305   4306   4307
4308   4309   4310   4311
4312   4313   4314   4315
4316   4317   4318   4319
4320   4321   4322   4323
4324   4325   4326   4327
4328   4329   4330   4331
4332   4333   4334   4335
4336   4337   4338   4339
4340   4341   4342   4343
4344   4345   4346   4347
4348   4349   4350   4351
4352   4353   4354   4355
4356   4357   4358   4359
4360   4361   4362   4363
4364   4365   4366   4367
4368   4369   4370   4371
4372   4373   4374   4375
4376   4377   4378   4379
4380   4381   4382   4383
4384   4385   4386   4387
4388   4389   4390   4391
4392   4393   4394   4395
4396   4397   4398   4399
4400   4401   4402   4403
4404   4405   4406   4407
4408   4409   4410   4411
4412   4413   4414   4415
4416   4417   4418   4419
4420   4421   4422   4423
4424   4425   4426   4427
4428   4429   4430   4431
4432   4433   4434   4435
4436   4437   4438   4439
4440   4441   4442   4443
4444   4445   4446   4447
4448   4449   4450   4451
4452   4453   4454   4455
4456   4457   4458   4459
4460   4461   4462   4463
4464   4465   4466   4467
4468   4469   4470   4471
4472   4473   4474   4475
4476   4477   4478   4479
4480   4481   4482   4483
4484   4485   4486   4487
4488   4489   4490   4491
4492   4493   4494   4495
4496   4497   4498   4499
4500   4501   4502   4503
4504   4505   4506   4507
4508   4509   4510   4511
4512   4513   4514   4515
4516   4517   4518   4519
4520   4521   4522   4523
4524   4525   4526   4527
4528   4529   4530   4531
4532   4533   4534   4535
4536   4537   4538   4539
4540   4541   4542   4543
4544   4545   4546   4547
4548   4549   4550   4551
4552   4553   4554   4555
4556   4557   4558   4559
4560   4561   4562   4563
4564   4565   4566   4567
4568   4569   4570   4571
4572   4573   4574   4575
4576   4577   4578   4579
4580   4581   4582   4583
4584   4585   4586   4587
4588   4589   4590   4591
4592   4593   4594   4595
4596   4597   4598   4599
4600   4601   4602   4603
4604   4605   4606   4607
4608   4609   4610   4611
4612   4613   4614   4615
4616   4617   4618   4619
4620   4621   4622   4623
4624   4625   4626   4627
4628   4629   4630   4631
4632   4633   4634   4635
4636   4637   4638   4639
4640   4641   4642   4643
4644   4645   4646   4647
4648   4649   4650   4651
4652   4653   4654   4655
4656   4657   4658   4659
4660   4661   4662   4663
4664   4665   4666   4667
4668   4669   4670   4671
4672   4673   4674   4675
4676   4677   4678   4679
4680   4681   4682   4683
4684   4685   4686   4687
4688   4689   4690   4691
4692   4693   4694   4695
4696   4697   4698   4699
4700   4701   4702   4703
4704   4705   4706   4707
4708   4709   4710   4711
4712   4713   4714   4715
4716   4717   4718   4719
4720   4721   4722   4723
4724   4725   4726   4727
4728   4729   4730   4731
4732   4733   4734   4735
4736   4737   4738   4739
4740   4741   4742   4743
4744   4745   4746   4747
4748   4749   4750   4751
4752   4753   4754   4755
4756   4757   4758   4759
4760   4761   4762   4763
4764   4765   4766   4767
4768   4769   4770   4771
4772   4773   4774   4775
4776   4777   4778   4779
4780   4781   4782   4783
4784   4785   4786   4787
4788   4789   4790   4791
4792   4793   4794   4795
4796   4797   4798   4799
4800   4801   4802   4803
4804   4805   4806   4807
4808   4809   4810   4811
4812   4813   4814   4815
4816   4817   4818   4819
4820   4821   4822   4823
4824   4825   4826   4827
4828   4829   4830   4831
4832   4833   4834   4835
4836   4837   4838   4839
4840   4841   4842   4843
4844   4845   4846   4847
4848   4849   4850   4851
4852   4853   4854   4855
4856   4857   4858   4859
4860   4861   4862   4863
4864   4865   4866   4867
4868   4869   4870   4871
4872   4873   4874   4875
4876   4877   4878   4879
4880   4881   4882   4883
4884   4885   4886   4887
4888   4889   4890   4891
4892   4893   4894   4895
4896   4897   4898   4899
4900   4901   4902   4903
4904   4905   4906   4907
4908   4909   4910   4911
4912   4913   4914   4915
4916   4917   4918   4919
4920   4921   4922   4923
4924   4925   4926   4927
4928   4929   4930   4931
4932   4933   4934   4935
4936   4937   4938   4939
4940   4941   4942   4943
4944   4945   4946   4947
4948   4949   4950   4951
4952   4953   4954   4955
4956   4957   4958   4959
4960   4961   4962   4963
4964   4965   4966   4967
4968   4969   4970   4971
4972   4973   4974   4975
4976   4977   4978   4979
4980   4981   4982   4983
4984   4985   4986   4987
4988   4989   4990   4991
4992   4993   4994   4995
4996   4997   4998   4999
5000   5001   5002   5003
5004   5005   5006   5007
5008   5009   5010   5011
5012   5013   5014   5015
5016   5017   5018   5019
5020   5021   5022   5023
5024   5025   5026   5027
5028   5029   5030   5031
5032   5033   5034   5035
5036   5037   5038   5039
5040   5041   5042   5043
5044   5045   5046   5047
5048   5049   5050   5051
5052   5053   5054   5055
5056   5057   5058   5059
5060   5061   5062   5063
5064   5065   5066   5067
5068   5069   5070   5071
5072   5073   5074   5075
5076   5077   5078   5079
5080   5081   5082   5083
5084   5085   5086   5087
5088   5089   5090   5091
5092   5093   5094   5095
5096   5097   5098   5099
5100   5101   5102   5103
5104   5105   5106   5107
5108   5109   5110   5111
5112   5113   5114   5115
5116   5117   5118   5119
5120   5121   5122   5123
5124   5125   5126   5127
5128   5129   5130   5131
5132   5133   5134   5135
5136   5137   5138   5139
5140   5141   5142   5143
5144   5145   5146   5147
5148   5149   5150   5151
5152   5153   5154   5155
5156   5157   5158   5159
5160   5161   5162   5163
5164   5165   5166   5167
5168   5169   5170   5171
5172   5173   5174   5175
5176   5177   5178   5179
5180   5181   5182   5183
5184   5185   5186   5187
5188   5189   5190   5191
5192   5193   5194   5195
5196   5197   5198   5199
5200   5201   5202   5203
5204   5205   5206   5207
5208   5209   5210   5211
5212   5213   5214   5215
5216   5217   5218   5219
5220   5221   5222   5223
5224   5225   5226   5227
5228   5229   5230   5231
5232   5233   5234   5235
5236   5237   5238   5239
5240   5241   5242   5243
5244   5245   5246   5247
5248   5249   5250   5251
5252   5253   5254   5255
5256   5257   5258   5259
5260   5261   5262   5263
5264   5265   5266   5267
5268   5269   5270   5271
5272   5273   5274   5275
5276   5277   5278   5279
5280   5281   5282   5283
5284   5285   5286   5287
5288   5289   5290   5291
5292   5293   5294   5295
5296   5297   5298   5299
5300   5301   5302   5303
5304   5305   5306   5307
5308   5309   5310   5311
5312   5313   5314   5315
5316   5317   5318   5319
5320   5321   5322   5323
5324   5325   5326   5327
5328   5329   5330   5331
5332   5333   5334   5335
5336   5337   5338   5339
5340   5341   5342   5343
5344   5345   5346   5347
5348   5349   5350   5351
5352   5353   5354   5355
5356   5357   5358   5359
5360   5361   5362   5363
5364   5365   5366   5367
5368   5369   5370   5371
5372   5373   5374   5375
5376   5377   5378   5379
5380   5381   5382   5383
5384   5385   5386   5387
5388   5389   5390   5391
5392   5393   5394   5395
5396   5397   5398   5399
5400   5401   5402   5403
5404   5405   5406   5407
5408   5409   5410   5411
5412   5413   5414   5415
5416   5417   5418   5419
5420   5421   5422   5423
5424   5425   5426   5427
5428   5429   5430   5431
5432   5433   5434   5435
5436   5437   5438   5439
5440   5441   5442   5443
5444   5445   5446   5447
5448   5449   5450   5451
5452   5453   5454   5455
5456   5457   5458   5459
5460   5461   5462   5463
5464   5465   5466   5467
5468   5469   5470   5471
5472   5473   5474   5475
5476   5477   5478   5479
5480   5481   5482   5483
5484   5485   5486   5487
5488   5489   5490   5491
5492   5493   5494   5495
5496   5497   5498   5499
5500   5501   5502   5503
5504   5505   5506   5507
5508   5509   5510   5511
5512   5513   5514   5515
5516   5517   5518   5519
5520   5521   5522   5523
5524   5525   5526   5527
5528   5529   5530   5531
5532   5533   5534   5535
5536   5537   5538   5539
5540   5541   5542   5543
5544   5545   5546   5547
5548   5549   5550   5551
5552   5553   5554   5555
5556   5557   5558   5559
5560   5561   5562   5563
5564   5565   5566   5567
5568   5569   5570   5571
5572   5573   5574   5575
5576   5577   5578   5579
5580   5581   5582   5583
5584   5585   5586   5587
5588   5589   5590   5591
5592   5593   5594   5595
5596   5597   5598   5599
5600   5601   5602   5603
5604   5605   5606   5607
5608   5609   5610   5611
5612   5613   5614   5615
5616   5617   5618   5619
5620   5621   5622   5623
5624   5625   5626   5627
5628   5629   5630   5631
5632   5633   5634   5635
5636   5637   5638   5639
5640   5641   5642   5643
5644   5645   5646   5647
5648   5649   5650   5651
5652   5653   5654   5655
5656   5657   5658   5659
5660   5661   5662   5663
5664   5665   5666   5667
5668   5669   5670   5671
5672   5673   5674   5675
5676   5677   5678   5679
5680   5681   5682   5683
5684   5685   5686   5687
5688   5689   5690   5691
5692   5693   5694   5695
5696   5697   5698   5699
5700   5701   5702   5703
5704   5705   5706   5707
5708   5709   5710   5711
5712   5713   5714   5715
5716   5717   5718   5719
5720   5721   5722   5723
5724   5725   5726   5727
5728   5729   5730   5731
5732   5733   5734   5735
5736   5737   5738   5739
5740   5741   5742   5743
5744   5745   5746   5747
5748   5749   5750   5751
5752   5753   5754   5755
5756   5757   5758   5759
5760   5761   5762   5763
5764   5765   5766   5767
5768   5769   5770   5771
5772   5773   5774   5775
5776   5777   5778   5779
5780   5781   5782   5783
5784   5785   5786   5787
5788   5789   5790   5791
5792   5793   5794   5795
5796   5797   5798   5799
5800   5801   5802   5803
5804   5805   5806   5807
5808   5809   5810   5811
5812   5813   5814   5815
5816   5817   5818   5819
5820   5821   5822   5823
5824   5825   5826   5827
5828   5829   5830   5831
5832   5833   5834   5835
5836   5837   5838   5839
5840   5841   5842   5843
5844   5845   5846   5847
5848   5849   5850   5851
5852   5853   5854   5855
5856   5857   5858   5859
5860   5861   5862   5863
5864   5865   5866   5867
5868   5869   5870   5871
5872   5873   5874   5875
5876   5877   5878   5879
5880   5881   5882   5883
5884   5885   5886   5887
5888   5889   5890   5891
5892   5893   5894   5895
5896   5897   5898   5899
5900   5901   5902   5903
5904   5905   5906   5907
5908   5909   5910   5911
5912   5913   5914   5915
5916   5917   5918   5919
5920   5921   5922   5923
5924   5925   5926   5927
5928   5929   5930   5931
5932   5933   5934   5935
5936   5937   5938   5939
5940   5941   5942   5943
5944   5945   5946   5947
5948   5949   5950   5951
5952   5953   5954   5955
5956   5957   5958   5959
5960   5961   5962   5963
5964   5965   5966   5967
5968   5969   5970   5971
5972   5973   5974   5975
5976   5977   5978   5979
5980   5981   5982   5983
5984   5985   5986   5987
5988   5989   5990   5991
5992   5993   5994   5995
5996   5997   5998   5999
              </DataArray>   
              <DataArray type="Int32" Name="offsets" format="ascii">   
4
8
12
16
20
24
28
32
36
40
44
48
52
56
60
64
68
72
76
80
84
88
92
96
100
104
108
112
116
120
124
128
132
136
140
144
148
152
156
160
164
168
172
176
180
184
188
192
196
200
204
208
212
216
220
224
228
232
236
240
244
248
252
256
260
264
268
272
276
280
284
288
292
296
300
304
308
312
316
320
324
328
332
336
340
344
348
352
356
360
364
368
372
376
380
384
388
392
396
400
404
408
412
416
420
424
428
432
436
440
444
448
452
456
460
464
468
472
476
480
484
488
492
496
500
504
508
512
516
520
524
528
532
536
540
544
548
552
556
560
564
568
572
576
580
584
588
592
596
600
604
608
612
616
620
624
628
632
636
640
644
648
652
656
660
664
668
672
676
680
684
688
692
696
700
704
708
712
716
720
724
728
732
736
740
744
748
752
756
760
764
768
772
776
780
784
788
792
796
800
804
808
812
816
820
824
828
832
836
840
844
848
852
856
860
864
868
872
876
880
884
888
892
896
900
904
908
912
916
920
924
928
932
936
940
944
948
952
956
960
964
968
972
976
980
984
988
992
996
1000
1004
1008
1012
1016
1020
1024
1028
1032
1036
1040
1044
1048
1052
1056
1060
1064
1068
1072
1076
1080
1084
1088
1092
1096
1100
1104
1108
1112
1116
1120
1124
1128
1132
1136
1140
1144
1148
1152
1156
1160
1164
1168
1172
1176
1180
1184
1188
1192
1196
1200
1204
1208
1212
1216
1220
1224
1228
1232
1236
1240
1244
1248
1252
1256
1260
1264
1268
1272
1276
1280
1284
1288
1292
1296
1300
1304
1308
1312
1316
1320
1324
1328
1332
1336
1340
1344
1348
1352
1356
1360
1364
1368
1372
1376
1380
1384
1388
1392
1396
1400
1404
1408
1412
1416
1420
1424
1428
1432
1436
1440
1444
1448
1452
1456
1460
1464
1468
1472
1476
1480
1484
1488
1492
1496
1500
1504
1508
1512
1516
1520
1524
1528
1532
1536
1540
1544
1548
1552
1556
1560
1564
1568
1572
1576
1580
1584
1588
1592
1596
1600
1604
1608
1612
1616
1620
1624
1628
1632
1636
1640
1644
1648
1652
1656
1660
1664
1668
1672
1676
1680
1684
1688
1692
1696
1700
1704
1708
1712
1716
1720
1724
1728
1732
1736
1740
1744
1748
1752
1756
1760
1764
1768
1772
1776
1780
1784
1788
1792
1796
1800
1804
1808
1812
1816
1820
1824
1828
1832
1836
1840
1844
1848
1852
1856
1860
1864
1868
1872
1876
1880
1884
1888
1892
1896
1900
1904
1908
1912
1916
1920
1924
1928
1932
1936
1940
1944
1948
1952
1956
1960
1964
1968
1972
1976
1980
1984
1988
1992
1996
2000
2004
2008
2012
2016
2020
2024
2028
2032
2036
2040
2044
2048
2052
2056
2060
2064
2068
2072
2076
2080
2084
2088
2092
2096
2100
2104
2108
2112
2116
2120
2124
2128
2132
2136
2140
2144
2148
2152
2156
2160
2164
2168
2172
2176
2180
2184
2188
2192
2196
2200
2204
2208
2212
2216
2220
2224
2228
2232
2236
2240
2244
2248
2252
2256
2260
2264
2268
2272
2276
2280
2284
2288
2292
2296
2300
2304
2308
2312
2316
2320
2324
2328
2332
2336
2340
2344
2348
2352
2356
2360
2364
2368
2372
2376
2380
2384
2388
2392
2396
2400
2404
2408
2412
2416
2420
2424
2428
2432
2436
2440
2444
2448
2452
2456
2460
2464
2468
2472
2476
2480
2484
2488
2492
2496
2500
2504
2508
2512
2516
2520
2524
2528
2532
2536
2540
2544
2548
2552
2556
2560
2564
2568
2572
2576
2580
2584
2588
2592
2596
2600
2604
2608
2612
2616
2620
2624
2628
2632
2636
2640
2644
2648
2652
2656
2660
2664
2668
2672
2676
2680
2684
2688
2692
2696
2700
2704
2708
2712
2716
2720
2724
2728
2732
2736
2740
2744
2748
2752
2756
2760
2764
2768
2772
2776
2780
2784
2788
2792
2796
2800
2804
2808
2812
2816
2820
2824
2828
2832
2836
2840
2844
2848
2852
2856
2860
2864
2868
2872
2876
2880
2884
2888
2892
2896
2900
2904
2908
2912
2916
2920
2924
2928
2932
2936
2940
2944
2948
2952
2956
2960
2964
2968
2972
2976
2980
2984
2988
2992
2996
3000
3004
3008
3012
3016
3020
3024
3028
3032
3036
3040
3044
3048
3052
3056
3060
3064
3068
3072
3076
3080
3084
3088
3092
3096
3100
3104
3108
3112
3116
3120
3124
3128
3132
3136
3140
3144
3148
3152
3156
3160
3164
3168
3172
3176
3180
3184
3188
3192
3196
3200
3204
3208
3212
3216
3220
3224
3228
3232
3236
3240
3244
3248
3252
3256
3260
3264
3268
3272
3276
3280
3284
3288
3292
3296
3300
3304
3308
3312
3316
3320
3324
3328
3332
3336
3340
3344
3348
3352
3356
3360
3364
3368
3372
3376
3380
3384
3388
3392
3396
3400
3404
3408
3412
3416
3420
3424
3428
3432
3436
3440
3444
3448
3452
3456
3460
3464
3468
3472
3476
3480
3484
3488
3492
3496
3500
3504
3508
3512
3516
3520
3524
3528
3532
3536
3540
3544
3548
3552
3556
3560
3564
3568
3572
3576
3580
3584
3588
3592
3596
3600
3604
3608
3612
3616
3620
3624
3628
3632
3636
3640
3644
3648
3652
3656
3660
3664
3668
3672
3676
3680
3684
3688
3692
3696
3700
3704
3708
3712
3716
3720
3724
3728
3732
3736
3740
3744
3748
3752
3756
3760
3764
3768
3772
3776
3780
3784
3788
3792
3796
3800
3804
3808
3812
3816
3820
3824
3828
3832
3836
3840
3844
3848
3852
3856
3860
3864
3868
3872
3876
3880
3884
3888
3892
3896
3900
3904
3908
3912
3916
3920
3924
3928
3932
3936
3940
3944
3948
3952
3956
3960
3964
3968
3972
3976
3980
3984
3988
3992
3996
4000
4004
4008
4012
4016
4020
4024
4028
4032
4036
4040
4044
4048
4052
4056
4060
4064
4068
4072
4076
4080
4084
4088
4092
4096
4100
4104
4108
4112
4116
4120
4124
4128
4132
4136
4140
4144
4148
4152
4156
4160
4164
4168
4172
4176
4180
4184
4188
4192
4196
4200
4204
4208
4212
4216
4220
4224
4228
4232
4236
4240
4244
4248
4252
4256
4260
4264
4268
4272
4276
4280
4284
4288
4292
4296
4300
4304
4308
4312
4316
4320
4324
4328
4332
4336
4340
4344
4348
4352
4356
4360
4364
4368
4372
4376
4380
4384
4388
4392
4396
4400
4404
4408
4412
4416
4420
4424
4428
4432
4436
4440
4444
4448
4452
4456
4460
4464
4468
4472
4476
4480
4484
4488
4492
4496
4500
4504
4508
4512
4516
4520
4524
4528
4532
4536
4540
4544
4548
4552
4556
4560
4564
4568
4572
4576
4580
4584
4588
4592
4596
4600
4604
4608
4612
4616
4620
4624
4628
4632
4636
4640
4644
4648
4652
4656
4660
4664
4668
4672
4676
4680
4684
4688
4692
4696
4700
4704
4708
4712
4716
4720
4724
4728
4732
4736
4740
4744
4748
4752
4756
4760
4764
4768
4772
4776
4780
4784
4788
4792
4796
4800
4804
4808
4812
4816
4820
4824
4828
4832
4836
4840
4844
4848
4852
4856
4860
4864
4868
4872
4876
4880
4884
4888
4892
4896
4900
4904
4908
4912
4916
4920
4924
4928
4932
4936
4940
4944
4948
4952
4956
4960
4964
4968
4972
4976
4980
4984
4988
4992
4996
5000
5004
5008
5012
5016
5020
5024
5028
5032
5036
5040
5044
5048
5052
5056
5060
5064
5068
5072
5076
5080
5084
5088
5092
5096
5100
5104
5108
5112
5116
5120
5124
5128
5132
5136
5140
5144
5148
5152
5156
5160
5164
5168
5172
5176
5180
5184
5188
5192
5196
5200
5204
5208
5212
5216
5220
5224
5228
5232
5236
5240
5244
5248
5252
5256
5260
5264
5268
5272
5276
5280
5284
5288
5292
5296
5300
5304
5308
5312
5316
5320
5324
5328
5332
5336
5340
5344
5348
5352
5356
5360
5364
5368
5372
5376
5380
5384
5388
5392
5396
5400
5404
5408
5412
5416
5420
5424
5428
5432
5436
5440
5444
5448
5452
5456
5460
5464
5468
5472
5476
5480
5484
5488
5492
5496
5500
5504
5508
5512
5516
5520
5524
5528
5532
5536
5540
5544
5548
5552
5556
5560
5564
5568
5572
5576
5580
5584
5588
5592
5596
5600
5604
5608
5612
5616
5620
5624
5628
5632
5636
5640
5644
5648
5652
5656
5660
5664
5668
5672
5676
5680
5684
5688
5692
5696
5700
5704
5708
5712
5716
5720
5724
5728
5732
5736
5740
5744
5748
5752
5756
5760
5764
5768
5772
5776
5780
5784
5788
5792
5796
5800
5804
5808
5812
5816
5820
5824
5828
5832
5836
5840
5844
5848
5852
5856
5860
5864
5868
5872
5876
5880
5884
5888
5892
5896
5900
5904
5908
5912
5916
5920
5924
5928
5932
5936
5940
5944
5948
5952
5956
5960
5964
5968
5972
5976
5980
5984
5988
5992
5996
6000
              </DataArray>   
              <DataArray type="UInt8" Name="types" format="ascii">   
10
10
10
10
10
10
10
10
10
10
10
10
10
10
10
10
10
10
10
10
10
10
10
10
10
10
10
10
10
10
10
10
10
10
10
10
10
10
10
10
10
10
10
10
10
10
10
10
10
10
10
10
10
10
10
10
10
10
10
10
10
10
10
10
10
10
10
10
10
10
10
10
10
10
10
10
10
10
10
10
10
10
10
10
10
10
10
10
10
10
10
10
10
10
10
10
10
10
10
10
10
10
10
10
10
10
10
10
10
10
10
10
10
10
10
10
10
10
10
10
10
10
10
10
10
10
10
10
10
10
10
10
10
10
10
10
10
10
10
10
10
10
10
10
10
10
10
10
10
10
10
10
10
10
10
10
10
10
10
10
10
10
10
10
10
10
10
10
10
10
10
10
10
10
10
10
10
10
10
10
10
10
10
10
10
10
10
10
10
10
10
10
10
10
10
10
10
10
10
10
10
10
10
10
10
10
10
10
10
10
10
10
10
10
10
10
10
10
10
10
10
10
10
10
10
10
10
10
10
10
10
10
10
10
10
10
10
10
10
10
10
10
10
10
10
10
10
10
10
10
10
10
10
10
10
10
10
10
10
10
10
10
10
10
10
10
10
10
10
10
10
10
10
10
10
10
10
10
10
10
10
10
10
10
10
10
10
10
10
10
10
10
10
10
10
10
10
10
10
10
10
10
10
10
10
10
10
10
10
10
10
10
10
10
10
10
10
10
10
10
10
10
10
10
10
10
10
10
10
10
10
10
10
10
10
10
10
10
10
10
10
10
10
10
10
10
10
10
10
10
10
10
10
10
10
10
10
10
10
10
10
10
10
10
10
10
10
10
10
10
10
10
10
10
10
10
10
10
10
10
10
10
10
10
10
10
10
10
10
10
10
10
10
10
10
10
10
10
10
10
10
10
10
10
10
10
10
10
10
10
10
10
10
10
10
10
10
10
10
10
10
10
10
10
10
10
10
10
10
10
10
10
10
10
10
10
10
10
10
10
10
10
10
10
10
10
10
10
10
10
10
10
10
10
10
10
10
10
10
10
10
10
10
10
10
10
10
10
10
10
10
10
10
10
10
10
10
10
10
10
10
10
10
10
10
10
10
10
10
10
10
10
10
10
10
10
10
10
10
10
10
10
10
10
10
10
10
10
10
10
10
10
10
10
10
10
10
10
10
10
10
10
10
10
10
10
10
10
10
10
10
10
10
10
10
10
10
10
10
10
10
10
10
10
10
10
10
10
10
10
10
10
10
10
10
10
10
10
10
10
10
10
10
10
10
10
10
10
10
10
10
10
10
10
10
10
10
10
10
10
10
10
10
10
10
10
10
10
10
10
10
10
10
10
10
10
10
10
10
10
10
10
10
10
10
10
10
10
10
10
10
10
10
10
10
10
10
10
10
10
10
10
10
10
10
10
10
10
10
10
10
10
10
10
10
10
10
10
10
10
10
10
10
10
10
10
10
10
10
10
10
10
10
10
10
10
10
10
10
10
10
10
10
10
10
10
10
10
10
10
10
10
10
10
10
10
10
10
10
10
10
10
10
10
10
10
10
10
10
10
10
10
10
10
10
10
10
10
10
10
10
10
10
10
10
10
10
10
10
10
10
10
10
10
10
10
10
10
10
10
10
10
10
10
10
10
10
10
10
10
10
10
10
10
10
10
10
10
10
10
10
10
10
10
10
10
10
10
10
10
10
10
10
10
10
10
10
10
10
10
10
10
10
10
10
10
10
10
10
10
10
10
10
10
10
10
10
10
10
10
10
10
10
10
10
10
10
10
10
10
10
10
10
10
10
10
10
10
10
10
10
10
10
10
10
10
10
10
10
10
10
10
10
10
10
10
10
10
10
10
10
10
10
10
10
10
10
10
10
10
10
10
10
10
10
10
10
10
10
10
10
10
10
10
10
10
10
10
10
10
10
10
10
10
10
10
10
10
10
10
10
10
10
10
10
10
10
10
10
10
10
10
10
10
10
10
10
10
10
10
10
10
10
10
10
10
10
10
10
10
10
10
10
10
10
10
10
10
10
10
10
10
10
10
10
10
10
10
10
10
10
10
10
10
10
10
10
10
10
10
10
10
10
10
10
10
10
10
10
10
10
10
10
10
10
10
10
10
10
10
10
10
10
10
10
10
10
10
10
10
10
10
10
10
10
10
10
10
10
10
10
10
10
10
10
10
10
10
10
10
10
10
10
10
10
10
10
10
10
10
10
10
10
10
10
10
10
10
10
10
10
10
10
10
10
10
10
10
10
10
10
10
10
10
10
10
10
10
10
10
10
10
10
10
10
10
10
10
10
10
10
10
10
10
10
10
10
10
10
10
10
10
10
10
10
10
10
10
10
10
10
10
10
10
10
10
10
10
10
10
10
10
10
10
10
10
10
10
10
10
10
10
10
10
10
10
10
10
10
10
10
10
10
10
10
10
10
10
10
10
10
10
10
10
10
10
10
10
10
10
10
10
10
10
10
10
10
10
10
10
10
10
10
10
10
10
10
10
10
10
10
10
10
10
10
10
10
10
10
10
10
10
10
10
10
10
10
10
10
10
10
10
10
10
10
10
10
10
10
10
10
10
10
10
10
10
10
10
10
10
10
10
10
10
10
10
10
10
10
10
10
10
10
10
10
10
10
10
10
10
10
10
10
10
10
10
10
10
10
10
10
10
10
10
10
10
10
10
10
10
10
10
10
10
10
10
10
10
10
10
10
10
10
10
10
10
10
10
10
10
10
10
10
10
10
10
10
10
10
10
10
10
10
10
10
10
10
10
10
10
10
10
10
10
10
10
10
10
10
10
10
10
10
10
10
10
10
10
10
10
10
10
10
10
10
10
10
10
10
10
10
10
10
10
10
10
10
10
10
10
10
10
10
10
10
10
10
10
10
10
10
10
10
10
10
10
10
10
10
10
10
10
10
10
10
10
10
10
10
10
10
10
10
10
10
10
10
10
10
10
10
10
10
10
10
10
10
10
10
10
10
10
10
10
10
10
10
10
10
10
10
10
10
10
10
10
10
10
10
10
10
10
10
10
10
10
10
10
10
10
10
10
10
10
10
10
10
10
10
10
10
10
10
10
10
10
10
10
10
10
10
10
10
10
10
10
10
10
10
10
10
10
10
10
10
10
10
10
10
10
10
10
10
10
10
10
10
10
10
10
10
10
10
10
10
10
10
10
10
10
10
10
10
10
10
10
10
10
10
10
10
10
10
10
10
10
10
10
10
10
10
10
10
10
10
10
10
10
10
10
10
10
10
10
10
10
10
10
10
10
10
10
10
10
10
10
10
10
10
10
10
10
10
10
10
10
10
10
10
10
10
10
10
10
10
10
10
10
10
10
10
10
10
10
10
10
10
10
10
10
10
10
10
10
10
10
10
10
10
10
              </DataArray>   
          </Cells>  
          <PointData>  
             <DataArray type="Float64" NumberOfComponents="3" Name="Strains" format="ascii">   
-2.55287586385712e-05   0.0   -1.694577054644467e-05
-2.55287586385712e-05   0.0   -1.694577054644467e-05
-2.55287586385712e-05   0.0   -1.694577054644467e-05
-2.55287586385712e-05   0.0   -1.694577054644467e-05
-1.6225530274966395e-05   2.802726497520069e-06   2.41245958075355e-07
-1.6225530274966395e-05   2.802726497520069e-06   2.41245958075355e-07
-1.6225530274966395e-05   2.802726497520069e-06   2.41245958075355e-07
-1.6225530274966395e-05   2.802726497520069e-06   2.41245958075355e-07
-1.589160342922166e-05   0.0   -1.6018646170483285e-05
-1.589160342922166e-05   0.0   -1.6018646170483285e-05
-1.589160342922166e-05   0.0   -1.6018646170483285e-05
-1.589160342922166e-05   0.0   -1.6018646170483285e-05
-2.6700930800830494e-05   3.375519190112422e-06   -2.8412065202611605e-08
-2.6700930800830494e-05   3.375519190112422e-06   -2.8412065202611605e-08
-2.6700930800830494e-05   3.375519190112422e-06   -2.8412065202611605e-08
-2.6700930800830494e-05   3.375519190112422e-06   -2.8412065202611605e-08
-2.0710181033896393e-05   7.726036466344826e-07   -8.451245684006008e-06
-2.0710181033896393e-05   7.726036466344826e-07   -8.451245684006008e-06
-2.0710181033896393e-05   7.726036466344826e-07   -8.451245684006008e-06
-2.0710181033896393e-05   7.726036466344826e-07   -8.451245684006008e-06
-2.6700930800830538e-05   0.0   -1.8043957684550745e-05
-2.6700930800830538e-05   0.0   -1.8043957684550745e-05
-2.6700930800830538e-05   0.0   -1.8043957684550745e-05
-2.6700930800830538e-05   0.0   -1.8043957684550745e-05
-1.589160342922166e-05   3.375519190112429e-06   1.996899448864841e-06
-1.589160342922166e-05   3.375519190112429e-06   1.996899448864841e-06
-1.589160342922166e-05   3.375519190112429e-06   1.996899448864841e-06
-1.589160342922166e-05   3.375519190112429e-06   1.996899448864841e-06
-1.5922321811396254e-05   0.0   -1.6406931503017904e-05
-1.5922321811396254e-05   0.0   -1.6406931503017904e-05
-1.5922321811396254e-05   0.0   -1.6406931503017904e-05
-1.5922321811396254e-05   0.0   -1.6406931503017904e-05
-2.7517663368397256e-05   3.6196570175015177e-06   7.468435481495879e-07
-2.7517663368397256e-05   3.6196570175015177e-06   7.468435481495879e-07
-2.7517663368397256e-05   3.6196570175015177e-06   7.468435481495879e-07
-2.7517663368397256e-05   3.6196570175015177e-06   7.468435481495879e-07
-2.1311626306113362e-05   1.364188484610697e-06   -8.243270435922402e-06
-2.1311626306113362e-05   1.364188484610697e-06   -8.243270435922402e-06
-2.1311626306113362e-05   1.364188484610697e-06   -8.243270435922402e-06
-2.1311626306113362e-05   1.364188484610697e-06   -8.243270435922402e-06
-2.7517663368397303e-05   0.0   -1.857872571351882e-05
-2.7517663368397303e-05   0.0   -1.857872571351882e-05
-2.7517663368397303e-05   0.0   -1.857872571351882e-05
-2.7517663368397303e-05   0.0   -1.857872571351882e-05
-1.5922321811396254e-05   3.619657017501528e-06   2.918637758650508e-06
-1.5922321811396254e-05   3.619657017501528e-06   2.918637758650508e-06
-1.5922321811396254e-05   3.619657017501528e-06   2.918637758650508e-06
-1.5922321811396254e-05   3.619657017501528e-06   2.918637758650508e-06
-1.5898059456590546e-05   0.0   -1.6508928572901976e-05
-1.5898059456590546e-05   0.0   -1.6508928572901976e-05
-1.5898059456590546e-05   0.0   -1.6508928572901976e-05
-1.5898059456590546e-05   0.0   -1.6508928572901976e-05
-2.9291121793442496e-05   4.133826614414832e-06   3.3325460198691177e-06
-2.9291121793442496e-05   4.133826614414832e-06   3.3325460198691177e-06
-2.9291121793442496e-05   4.133826614414832e-06   3.3325460198691177e-06
-2.9291121793442496e-05   4.133826614414832e-06   3.3325460198691177e-06
-2.1707861412493887e-05   1.7248309505140353e-06   -7.860823883371413e-06
-2.1707861412493887e-05   1.7248309505140353e-06   -7.860823883371413e-06
-2.1707861412493887e-05   1.7248309505140353e-06   -7.860823883371413e-06
-2.1707861412493887e-05   1.7248309505140353e-06   -7.860823883371413e-06
-1.622553027496642e-05   0.0   -1.5264134647932623e-05
-1.622553027496642e-05   0.0   -1.5264134647932623e-05
-1.622553027496642e-05   0.0   -1.5264134647932623e-05
-1.622553027496642e-05   0.0   -1.5264134647932623e-05
-7.405498406541304e-06   1.0230348251086004e-06   4.9739361174386805e-08
-7.405498406541304e-06   1.0230348251086004e-06   4.9739361174386805e-08
-7.405498406541304e-06   1.0230348251086004e-06   4.9739361174386805e-08
-7.405498406541304e-06   1.0230348251086004e-06   4.9739361174386805e-08
-7.108762416088822e-06   0.0   -1.5139740745716688e-05
-7.108762416088822e-06   0.0   -1.5139740745716688e-05
-7.108762416088822e-06   0.0   -1.5139740745716688e-05
-7.108762416088822e-06   0.0   -1.5139740745716688e-05
-1.589160342922166e-05   1.464842374610995e-06   -1.3805778152618887e-06
-1.589160342922166e-05   1.464842374610995e-06   -1.3805778152618887e-06
-1.589160342922166e-05   1.464842374610995e-06   -1.3805778152618887e-06
-1.589160342922166e-05   1.464842374610995e-06   -1.3805778152618887e-06
-1.1667146345527602e-05   1.0366158517994563e-07   -7.604631147759971e-06
-1.1667146345527602e-05   1.0366158517994563e-07   -7.604631147759971e-06
-1.1667146345527602e-05   1.0366158517994563e-07   -7.604631147759971e-06
-1.1667146345527602e-05   1.0366158517994563e-07   -7.604631147759971e-06
-1.5891603429221647e-05   0.0   -1.6018646170483272e-05
-1.5891603429221647e-05   0.0   -1.6018646170483272e-05
-1.5891603429221647e-05   0.0   -1.6018646170483272e-05
-1.5891603429221647e-05   0.0   -1.6018646170483272e-05
-7.108762416088822e-06   1.464842374610995e-06   -5.016723904952913e-07
-7.108762416088822e-06   1.464842374610995e-06   -5.016723904952913e-07
-7.108762416088822e-06   1.464842374610995e-06   -5.016723904952913e-07
-7.108762416088822e-06   1.464842374610995e-06   -5.016723904952913e-07
-6.936343132387706e-06   0.0   -1.5326869693170743e-05
-6.936343132387706e-06   0.0   -1.5326869693170743e-05
-6.936343132387706e-06   0.0   -1.5326869693170743e-05
-6.936343132387706e-06   0.0   -1.5326869693170743e-05
-1.5922321811396254e-05   1.8001030164119323e-06   -1.4303003713369932e-06
-1.5922321811396254e-05   1.8001030164119323e-06   -1.4303003713369932e-06
-1.5922321811396254e-05   1.8001030164119323e-06   -1.4303003713369932e-06
-1.5922321811396254e-05   1.8001030164119323e-06   -1.4303003713369932e-06
-1.1413973280804662e-05   5.76480397760452e-07   -8.210041017798693e-06
-1.1413973280804662e-05   5.76480397760452e-07   -8.210041017798693e-06
-1.1413973280804662e-05   5.76480397760452e-07   -8.210041017798693e-06
-1.1413973280804662e-05   5.76480397760452e-07   -8.210041017798693e-06
-1.5922321811396254e-05   0.0   -1.6406931503017904e-05
-1.5922321811396254e-05   0.0   -1.6406931503017904e-05
-1.5922321811396254e-05   0.0   -1.6406931503017904e-05
-1.5922321811396254e-05   0.0   -1.6406931503017904e-05
-6.936343132387706e-06   1.8001030164119323e-06   -3.5023856148983075e-07
-6.936343132387706e-06   1.8001030164119323e-06   -3.5023856148983075e-07
-6.936343132387706e-06   1.8001030164119323e-06   -3.5023856148983075e-07
-6.936343132387706e-06   1.8001030164119323e-06   -3.5023856148983075e-07
-6.777012834806638e-06   0.0   -1.5250144078619476e-05
-6.777012834806638e-06   0.0   -1.5250144078619476e-05
-6.777012834806638e-06   0.0   -1.5250144078619476e-05
-6.777012834806638e-06   0.0   -1.5250144078619476e-05
-1.5898059456590505e-05   2.097974157137471e-06   -1.3071842032621266e-06
-1.5898059456590505e-05   2.097974157137471e-06   -1.3071842032621266e-06
-1.5898059456590505e-05   2.097974157137471e-06   -1.3071842032621266e-06
-1.5898059456590505e-05   2.097974157137471e-06   -1.3071842032621266e-06
-1.1349667323101443e-05   9.63989520332012e-07   -8.207446976994008e-06
-1.1349667323101443e-05   9.63989520332012e-07   -8.207446976994008e-06
-1.1349667323101443e-05   9.63989520332012e-07   -8.207446976994008e-06
-1.1349667323101443e-05   9.63989520332012e-07   -8.207446976994008e-06
-7.405498406541318e-06   0.0   -1.4650313752867463e-05
-7.405498406541318e-06   0.0   -1.4650313752867463e-05
-7.405498406541318e-06   0.0   -1.4650313752867463e-05
-7.405498406541318e-06   0.0   -1.4650313752867463e-05
9.157255546271317e-07   -1.3475004979049808e-07   -8.624571807943319e-07
9.157255546271317e-07   -1.3475004979049808e-07   -8.624571807943319e-07
9.157255546271317e-07   -1.3475004979049808e-07   -8.624571807943319e-07
9.157255546271317e-07   -1.3475004979049808e-07   -8.624571807943319e-07
1.1116672078369709e-06   0.0   -1.4982953037876456e-05
1.1116672078369709e-06   0.0   -1.4982953037876456e-05
1.1116672078369709e-06   0.0   -1.4982953037876456e-05
1.1116672078369709e-06   0.0   -1.4982953037876456e-05
-7.108762416088822e-06   2.613128464003016e-07   -1.4390247058403628e-06
-7.108762416088822e-06   2.613128464003016e-07   -1.4390247058403628e-06
-7.108762416088822e-06   2.613128464003016e-07   -1.4390247058403628e-06
-7.108762416088822e-06   2.613128464003016e-07   -1.4390247058403628e-06
-3.1469155993521656e-06   -2.771994041742038e-07   -7.718995383390056e-06
-3.1469155993521656e-06   -2.771994041742038e-07   -7.718995383390056e-06
-3.1469155993521656e-06   -2.771994041742038e-07   -7.718995383390056e-06
-3.1469155993521656e-06   -2.771994041742038e-07   -7.718995383390056e-06
-7.108762416088822e-06   0.0   -1.5139740745716688e-05
-7.108762416088822e-06   0.0   -1.5139740745716688e-05
-7.108762416088822e-06   0.0   -1.5139740745716688e-05
-7.108762416088822e-06   0.0   -1.5139740745716688e-05
1.1116672078369728e-06   2.613128464003016e-07   -1.2822369980001789e-06
1.1116672078369728e-06   2.613128464003016e-07   -1.2822369980001789e-06
1.1116672078369728e-06   2.613128464003016e-07   -1.2822369980001789e-06
1.1116672078369728e-06   2.613128464003016e-07   -1.2822369980001789e-06
1.2681802743197348e-06   0.0   -1.4960434973859248e-05
1.2681802743197348e-06   0.0   -1.4960434973859248e-05
1.2681802743197348e-06   0.0   -1.4960434973859248e-05
1.2681802743197348e-06   0.0   -1.4960434973859248e-05
-6.936343132387694e-06   6.107245321857827e-07   -1.652664015325003e-06
-6.936343132387694e-06   6.107245321857827e-07   -1.652664015325003e-06
-6.936343132387694e-06   6.107245321857827e-07   -1.652664015325003e-06
-6.936343132387694e-06   6.107245321857827e-07   -1.652664015325003e-06
-2.9202910708845423e-06   1.4942147654784585e-07   -8.06930228444751e-06
-2.9202910708845423e-06   1.4942147654784585e-07   -8.06930228444751e-06
-2.9202910708845423e-06   1.4942147654784585e-07   -8.06930228444751e-06
-2.9202910708845423e-06   1.4942147654784585e-07   -8.06930228444751e-06
-6.936343132387706e-06   0.0   -1.5326869693170743e-05
-6.936343132387706e-06   0.0   -1.5326869693170743e-05
-6.936343132387706e-06   0.0   -1.5326869693170743e-05
-6.936343132387706e-06   0.0   -1.5326869693170743e-05
1.2681802743197372e-06   6.107245321857827e-07   -1.286229296013537e-06
1.2681802743197372e-06   6.107245321857827e-07   -1.286229296013537e-06
1.2681802743197372e-06   6.107245321857827e-07   -1.286229296013537e-06
1.2681802743197372e-06   6.107245321857827e-07   -1.286229296013537e-06
1.4740891863780716e-06   0.0   -1.4641387646052628e-05
1.4740891863780716e-06   0.0   -1.4641387646052628e-05
1.4740891863780716e-06   0.0   -1.4641387646052628e-05
1.4740891863780716e-06   0.0   -1.4641387646052628e-05
-6.777012834806632e-06   1.01459405427806e-06   -1.4983073766449565e-06
-6.777012834806632e-06   1.01459405427806e-06   -1.4983073766449565e-06
-6.777012834806632e-06   1.01459405427806e-06   -1.4983073766449565e-06
-6.777012834806632e-06   1.01459405427806e-06   -1.4983073766449565e-06
-2.731126973004811e-06   5.712350392650759e-07   -7.975435070640197e-06
-2.731126973004811e-06   5.712350392650759e-07   -7.975435070640197e-06
-2.731126973004811e-06   5.712350392650759e-07   -7.975435070640197e-06
-2.731126973004811e-06   5.712350392650759e-07   -7.975435070640197e-06
9.157255546271333e-07   0.0   -1.4731163782741762e-05
9.157255546271333e-07   0.0   -1.4731163782741762e-05
9.157255546271333e-07   0.0   -1.4731163782741762e-05
9.157255546271333e-07   0.0   -1.4731163782741762e-05
9.960283126514613e-06   -1.1683137618330228e-06   -3.578894200290987e-07
9.960283126514613e-06   -1.1683137618330228e-06   -3.578894200290987e-07
9.960283126514613e-06   -1.1683137618330228e-06   -3.578894200290987e-07
9.960283126514613e-06   -1.1683137618330228e-06   -3.578894200290987e-07
9.995552690657475e-06   0.0   -1.5509021003000185e-05
9.995552690657475e-06   0.0   -1.5509021003000185e-05
9.995552690657475e-06   0.0   -1.5509021003000185e-05
9.995552690657475e-06   0.0   -1.5509021003000185e-05
1.1116672078369747e-06   -8.76779941872791e-07   -1.7647723317567635e-07
1.1116672078369747e-06   -8.76779941872791e-07   -1.7647723317567635e-07
1.1116672078369747e-06   -8.76779941872791e-07   -1.7647723317567635e-07
1.1116672078369747e-06   -8.76779941872791e-07   -1.7647723317567635e-07
5.455639122642304e-06   -6.482143502153519e-07   -7.55356977951235e-06
5.455639122642304e-06   -6.482143502153519e-07   -7.55356977951235e-06
5.455639122642304e-06   -6.482143502153519e-07   -7.55356977951235e-06
5.455639122642304e-06   -6.482143502153519e-07   -7.55356977951235e-06
1.1116672078369747e-06   0.0   -1.4982953037876508e-05
1.1116672078369747e-06   0.0   -1.4982953037876508e-05
1.1116672078369747e-06   0.0   -1.4982953037876508e-05
1.1116672078369747e-06   0.0   -1.4982953037876508e-05
9.995552690657475e-06   -8.76779941872791e-07   -7.025451982993528e-07
9.995552690657475e-06   -8.76779941872791e-07   -7.025451982993528e-07
9.995552690657475e-06   -8.76779941872791e-07   -7.025451982993528e-07
9.995552690657475e-06   -8.76779941872791e-07   -7.025451982993528e-07
9.96787477413261e-06   0.0   -1.5287683830314058e-05
9.96787477413261e-06   0.0   -1.5287683830314058e-05
9.96787477413261e-06   0.0   -1.5287683830314058e-05
9.96787477413261e-06   0.0   -1.5287683830314058e-05
1.2681802743197372e-06   -5.454147607579743e-07   -4.6094414083782076e-07
1.2681802743197372e-06   -5.454147607579743e-07   -4.6094414083782076e-07
1.2681802743197372e-06   -5.454147607579743e-07   -4.6094414083782076e-07
1.2681802743197372e-06   -5.454147607579743e-07   -4.6094414083782076e-07
5.539770990984793e-06   -2.539423270312921e-07   -7.75514546218225e-06
5.539770990984793e-06   -2.539423270312921e-07   -7.75514546218225e-06
5.539770990984793e-06   -2.539423270312921e-07   -7.75514546218225e-06
5.539770990984793e-06   -2.539423270312921e-07   -7.75514546218225e-06
1.2681802743197359e-06   0.0   -1.4960434973859261e-05
1.2681802743197359e-06   0.0   -1.4960434973859261e-05
1.2681802743197359e-06   0.0   -1.4960434973859261e-05
1.2681802743197359e-06   0.0   -1.4960434973859261e-05
9.96787477413261e-06   -5.454147607579743e-07   -7.881929972926061e-07
9.96787477413261e-06   -5.454147607579743e-07   -7.881929972926061e-07
9.96787477413261e-06   -5.454147607579743e-07   -7.881929972926061e-07
9.96787477413261e-06   -5.454147607579743e-07   -7.881929972926061e-07
1.0175461959669243e-05   0.0   -1.4702021269994349e-05
1.0175461959669243e-05   0.0   -1.4702021269994349e-05
1.0175461959669243e-05   0.0   -1.4702021269994349e-05
1.0175461959669243e-05   0.0   -1.4702021269994349e-05
1.4740891863780742e-06   -1.0105603990282538e-07   -1.3909969056737656e-07
1.4740891863780742e-06   -1.0105603990282538e-07   -1.3909969056737656e-07
1.4740891863780742e-06   -1.0105603990282538e-07   -1.3909969056737656e-07
1.4740891863780742e-06   -1.0105603990282538e-07   -1.3909969056737656e-07
5.721821116994485e-06   2.1534475322077184e-07   -7.408493384135544e-06
5.721821116994485e-06   2.1534475322077184e-07   -7.408493384135544e-06
5.721821116994485e-06   2.1534475322077184e-07   -7.408493384135544e-06
5.721821116994485e-06   2.1534475322077184e-07   -7.408493384135544e-06
9.960283126514613e-06   0.0   -1.5432152039841577e-05
9.960283126514613e-06   0.0   -1.5432152039841577e-05
9.960283126514613e-06   0.0   -1.5432152039841577e-05
9.960283126514613e-06   0.0   -1.5432152039841577e-05
2.257960009554254e-05   -2.9734822732020732e-06   3.8159535446171774e-06
2.257960009554254e-05   -2.9734822732020732e-06   3.8159535446171774e-06
2.257960009554254e-05   -2.9734822732020732e-06   3.8159535446171774e-06
2.257960009554254e-05   -2.9734822732020732e-06   3.8159535446171774e-06
2.1228695575567668e-05   0.0   -1.7021432787980274e-05
2.1228695575567668e-05   0.0   -1.7021432787980274e-05
2.1228695575567668e-05   0.0   -1.7021432787980274e-05
2.1228695575567668e-05   0.0   -1.7021432787980274e-05
9.995552690657475e-06   -2.5206863083001514e-06   3.212883805183463e-06
9.995552690657475e-06   -2.5206863083001514e-06   3.212883805183463e-06
9.995552690657475e-06   -2.5206863083001514e-06   3.212883805183463e-06
9.995552690657475e-06   -2.5206863083001514e-06   3.212883805183463e-06
1.559448935104114e-05   -1.3244006234489162e-06   -6.8364487063667066e-06
1.559448935104114e-05   -1.3244006234489162e-06   -6.8364487063667066e-06
1.559448935104114e-05   -1.3244006234489162e-06   -6.8364487063667066e-06
1.559448935104114e-05   -1.3244006234489162e-06   -6.8364487063667066e-06
9.995552690657467e-06   0.0   -1.550902100300017e-05
9.995552690657467e-06   0.0   -1.550902100300017e-05
9.995552690657467e-06   0.0   -1.550902100300017e-05
9.995552690657467e-06   0.0   -1.550902100300017e-05
2.1228695575567594e-05   -2.520686308300141e-06   1.700472020203374e-06
2.1228695575567594e-05   -2.520686308300141e-06   1.700472020203374e-06
2.1228695575567594e-05   -2.520686308300141e-06   1.700472020203374e-06
2.1228695575567594e-05   -2.520686308300141e-06   1.700472020203374e-06
2.0612574270584874e-05   0.0   -1.6667713757683018e-05
2.0612574270584874e-05   0.0   -1.6667713757683018e-05
2.0612574270584874e-05   0.0   -1.6667713757683018e-05
2.0612574270584874e-05   0.0   -1.6667713757683018e-05
9.96787477413261e-06   -2.300049878948267e-06   2.45348199710638e-06
9.96787477413261e-06   -2.300049878948267e-06   2.45348199710638e-06
9.96787477413261e-06   -2.300049878948267e-06   2.45348199710638e-06
9.96787477413261e-06   -2.300049878948267e-06   2.45348199710638e-06
1.5304063480621165e-05   -9.6557729556903e-07   -7.240849397068755e-06
1.5304063480621165e-05   -9.6557729556903e-07   -7.240849397068755e-06
1.5304063480621165e-05   -9.6557729556903e-07   -7.240849397068755e-06
1.5304063480621165e-05   -9.6557729556903e-07   -7.240849397068755e-06
9.96787477413261e-06   0.0   -1.5287683830314058e-05
9.96787477413261e-06   0.0   -1.5287683830314058e-05
9.96787477413261e-06   0.0   -1.5287683830314058e-05
9.96787477413261e-06   0.0   -1.5287683830314058e-05
2.0612574270584802e-05   -2.30004987894826e-06   1.073452069737413e-06
2.0612574270584802e-05   -2.30004987894826e-06   1.073452069737413e-06
2.0612574270584802e-05   -2.30004987894826e-06   1.073452069737413e-06
2.0612574270584802e-05   -2.30004987894826e-06   1.073452069737413e-06
1.9684766826098584e-05   0.0   -1.5768073434093335e-05
1.9684766826098584e-05   0.0   -1.5768073434093335e-05
1.9684766826098584e-05   0.0   -1.5768073434093335e-05
1.9684766826098584e-05   0.0   -1.5768073434093335e-05
1.0175461959669243e-05   -1.7767536068316874e-06   1.1468201740546102e-06
1.0175461959669243e-05   -1.7767536068316874e-06   1.1468201740546102e-06
1.0175461959669243e-05   -1.7767536068316874e-06   1.1468201740546102e-06
1.0175461959669243e-05   -1.7767536068316874e-06   1.1468201740546102e-06
1.4826320800115615e-05   -4.003246698160864e-07   -7.430468588898698e-06
1.4826320800115615e-05   -4.003246698160864e-07   -7.430468588898698e-06
1.4826320800115615e-05   -4.003246698160864e-07   -7.430468588898698e-06
1.4826320800115615e-05   -4.003246698160864e-07   -7.430468588898698e-06
-2.2008279084304535e-05   2.8027264975200623e-06   -1.4567431128886316e-05
-2.2008279084304535e-05   2.8027264975200623e-06   -1.4567431128886316e-05
-2.2008279084304535e-05   2.8027264975200623e-06   -1.4567431128886316e-05
-2.2008279084304535e-05   2.8027264975200623e-06   -1.4567431128886316e-05
-1.4108850907942412e-05   2.511873962234712e-06   -1.5762290227873136e-06
-1.4108850907942412e-05   2.511873962234712e-06   -1.5762290227873136e-06
-1.4108850907942412e-05   2.511873962234712e-06   -1.5762290227873136e-06
-1.4108850907942412e-05   2.511873962234712e-06   -1.5762290227873136e-06
-1.4456268758817842e-05   3.3755191901124187e-06   -1.2246370620177754e-05
-1.4456268758817842e-05   3.3755191901124187e-06   -1.2246370620177754e-05
-1.4456268758817842e-05   3.3755191901124187e-06   -1.2246370620177754e-05
-1.4456268758817842e-05   3.3755191901124187e-06   -1.2246370620177754e-05
-2.2230673912571698e-05   3.0226178234866785e-06   9.227121227208202e-07
-2.2230673912571698e-05   3.0226178234866785e-06   9.227121227208202e-07
-2.2230673912571698e-05   3.0226178234866785e-06   9.227121227208202e-07
-2.2230673912571698e-05   3.0226178234866785e-06   9.227121227208202e-07
-1.7479224417559175e-05   2.9315357566232387e-06   -6.941721128848774e-06
-1.7479224417559175e-05   2.9315357566232387e-06   -6.941721128848774e-06
-1.7479224417559175e-05   2.9315357566232387e-06   -6.941721128848774e-06
-1.7479224417559175e-05   2.9315357566232387e-06   -6.941721128848774e-06
-2.2230673912571698e-05   3.3755191901124187e-06   -1.2034629800202306e-05
-2.2230673912571698e-05   3.3755191901124187e-06   -1.2034629800202306e-05
-2.2230673912571698e-05   3.3755191901124187e-06   -1.2034629800202306e-05
-2.2230673912571698e-05   3.3755191901124187e-06   -1.2034629800202306e-05
-1.4456268758817893e-05   3.022617823486692e-06   7.109713027453788e-07
-1.4456268758817893e-05   3.022617823486692e-06   7.109713027453788e-07
-1.4456268758817893e-05   3.022617823486692e-06   7.109713027453788e-07
-1.4456268758817893e-05   3.022617823486692e-06   7.109713027453788e-07
-1.4521056770718245e-05   3.6196570175015177e-06   -1.1018966079219831e-05
-1.4521056770718245e-05   3.6196570175015177e-06   -1.1018966079219831e-05
-1.4521056770718245e-05   3.6196570175015177e-06   -1.1018966079219831e-05
-1.4521056770718245e-05   3.6196570175015177e-06   -1.1018966079219831e-05
-2.2373446075057884e-05   3.253432207778035e-06   2.2880843138469223e-06
-2.2373446075057884e-05   3.253432207778035e-06   2.2880843138469223e-06
-2.2373446075057884e-05   3.253432207778035e-06   2.2880843138469223e-06
-2.2373446075057884e-05   3.253432207778035e-06   2.2880843138469223e-06
-1.7982858248948918e-05   3.2522881693588336e-06   -5.028875639949763e-06
-1.7982858248948918e-05   3.2522881693588336e-06   -5.028875639949763e-06
-1.7982858248948918e-05   3.2522881693588336e-06   -5.028875639949763e-06
-1.7982858248948918e-05   3.2522881693588336e-06   -5.028875639949763e-06
-2.2373446075057843e-05   3.6196570175015177e-06   -1.0799231193385738e-05
-2.2373446075057843e-05   3.6196570175015177e-06   -1.0799231193385738e-05
-2.2373446075057843e-05   3.6196570175015177e-06   -1.0799231193385738e-05
-2.2373446075057843e-05   3.6196570175015177e-06   -1.0799231193385738e-05
-1.4521056770718272e-05   3.253432207778035e-06   2.0683494280128252e-06
-1.4521056770718272e-05   3.253432207778035e-06   2.0683494280128252e-06
-1.4521056770718272e-05   3.253432207778035e-06   2.0683494280128252e-06
-1.4521056770718272e-05   3.253432207778035e-06   2.0683494280128252e-06
-1.4429707549563705e-05   4.133826614414825e-06   -8.168545271211057e-06
-1.4429707549563705e-05   4.133826614414825e-06   -8.168545271211057e-06
-1.4429707549563705e-05   4.133826614414825e-06   -8.168545271211057e-06
-1.4429707549563705e-05   4.133826614414825e-06   -8.168545271211057e-06
-2.1733060120678103e-05   3.441153983108297e-06   4.419312592763468e-06
-2.1733060120678103e-05   3.441153983108297e-06   4.419312592763468e-06
-2.1733060120678103e-05   3.441153983108297e-06   4.419312592763468e-06
-2.1733060120678103e-05   3.441153983108297e-06   4.419312592763468e-06
-1.750271642238533e-05   3.572145667977435e-06   -2.709855248645962e-06
-1.750271642238533e-05   3.572145667977435e-06   -2.709855248645962e-06
-1.750271642238533e-05   3.572145667977435e-06   -2.709855248645962e-06
-1.750271642238533e-05   3.572145667977435e-06   -2.709855248645962e-06
-1.4108850907942412e-05   1.0230348251086004e-06   -1.554727014202365e-05
-1.4108850907942412e-05   1.0230348251086004e-06   -1.554727014202365e-05
-1.4108850907942412e-05   1.0230348251086004e-06   -1.554727014202365e-05
-1.4108850907942412e-05   1.0230348251086004e-06   -1.554727014202365e-05
-6.708287158591663e-06   1.1690825842926506e-06   -3.125368570928604e-06
-6.708287158591663e-06   1.1690825842926506e-06   -3.125368570928604e-06
-6.708287158591663e-06   1.1690825842926506e-06   -3.125368570928604e-06
-6.708287158591663e-06   1.1690825842926506e-06   -3.125368570928604e-06
-6.860500670245845e-06   1.4648423746109917e-06   -1.5519616534670483e-05
-6.860500670245845e-06   1.4648423746109917e-06   -1.5519616534670483e-05
-6.860500670245845e-06   1.4648423746109917e-06   -1.5519616534670483e-05
-6.860500670245845e-06   1.4648423746109917e-06   -1.5519616534670483e-05
-1.4456268758817842e-05   1.6385612906676312e-06   -2.9642344033511e-06
-1.4456268758817842e-05   1.6385612906676312e-06   -2.9642344033511e-06
-1.4456268758817842e-05   1.6385612906676312e-06   -2.9642344033511e-06
-1.4456268758817842e-05   1.6385612906676312e-06   -2.9642344033511e-06
-1.0503271216740278e-05   1.318637238337791e-06   -9.360609208749228e-06
-1.0503271216740278e-05   1.318637238337791e-06   -9.360609208749228e-06
-1.0503271216740278e-05   1.318637238337791e-06   -9.360609208749228e-06
-1.0503271216740278e-05   1.318637238337791e-06   -9.360609208749228e-06
-1.4456268758817832e-05   1.4648423746109917e-06   -1.562384788430445e-05
-1.4456268758817832e-05   1.4648423746109917e-06   -1.562384788430445e-05
-1.4456268758817832e-05   1.4648423746109917e-06   -1.562384788430445e-05
-1.4456268758817832e-05   1.4648423746109917e-06   -1.562384788430445e-05
-6.860500670245856e-06   1.6385612906676312e-06   -2.86000305371713e-06
-6.860500670245856e-06   1.6385612906676312e-06   -2.86000305371713e-06
-6.860500670245856e-06   1.6385612906676312e-06   -2.86000305371713e-06
-6.860500670245856e-06   1.6385612906676312e-06   -2.86000305371713e-06
-6.902286237261239e-06   1.800103016411929e-06   -1.5231096829330717e-05
-6.902286237261239e-06   1.800103016411929e-06   -1.5231096829330717e-05
-6.902286237261239e-06   1.800103016411929e-06   -1.5231096829330717e-05
-6.902286237261239e-06   1.800103016411929e-06   -1.5231096829330717e-05
-1.4521056770718245e-05   2.0281153162062383e-06   -2.6699533201123156e-06
-1.4521056770718245e-05   2.0281153162062383e-06   -2.6699533201123156e-06
-1.4521056770718245e-05   2.0281153162062383e-06   -2.6699533201123156e-06
-1.4521056770718245e-05   2.0281153162062383e-06   -2.6699533201123156e-06
-1.0577708665101699e-05   1.677629594273347e-06   -9.031908729646787e-06
-1.0577708665101699e-05   1.677629594273347e-06   -9.031908729646787e-06
-1.0577708665101699e-05   1.677629594273347e-06   -9.031908729646787e-06
-1.0577708665101699e-05   1.677629594273347e-06   -9.031908729646787e-06
-1.4521056770718245e-05   1.800103016411929e-06   -1.536790420920731e-05
-1.4521056770718245e-05   1.800103016411929e-06   -1.536790420920731e-05
-1.4521056770718245e-05   1.800103016411929e-06   -1.536790420920731e-05
-1.4521056770718245e-05   1.800103016411929e-06   -1.536790420920731e-05
-6.902286237261265e-06   2.0281153162062383e-06   -2.533145940235741e-06
-6.902286237261265e-06   2.0281153162062383e-06   -2.533145940235741e-06
-6.902286237261265e-06   2.0281153162062383e-06   -2.533145940235741e-06
-6.902286237261265e-06   2.0281153162062383e-06   -2.533145940235741e-06
-6.877289008699038e-06   2.097974157137471e-06   -1.5078518296588645e-05
-6.877289008699038e-06   2.097974157137471e-06   -1.5078518296588645e-05
-6.877289008699038e-06   2.097974157137471e-06   -1.5078518296588645e-05
-6.877289008699038e-06   2.097974157137471e-06   -1.5078518296588645e-05
-1.4429707549563691e-05   2.44806276780834e-06   -2.7012072282167507e-06
-1.4429707549563691e-05   2.44806276780834e-06   -2.7012072282167507e-06
-1.4429707549563691e-05   2.44806276780834e-06   -2.7012072282167507e-06
-1.4429707549563691e-05   2.44806276780834e-06   -2.7012072282167507e-06
-1.0631638918320977e-05   2.0025991489911344e-06   -8.76404344233099e-06
-1.0631638918320977e-05   2.0025991489911344e-06   -8.76404344233099e-06
-1.0631638918320977e-05   2.0025991489911344e-06   -8.76404344233099e-06
-1.0631638918320977e-05   2.0025991489911344e-06   -8.76404344233099e-06
-6.70828715859165e-06   -1.3475004979049808e-07   -1.629098799860763e-05
-6.70828715859165e-06   -1.3475004979049808e-07   -1.629098799860763e-05
-6.70828715859165e-06   -1.3475004979049808e-07   -1.629098799860763e-05
-6.70828715859165e-06   -1.3475004979049808e-07   -1.629098799860763e-05
5.97542782123013e-07   -3.70834812460179e-08   -4.056004822956501e-06
5.97542782123013e-07   -3.70834812460179e-08   -4.056004822956501e-06
5.97542782123013e-07   -3.70834812460179e-08   -4.056004822956501e-06
5.97542782123013e-07   -3.70834812460179e-08   -4.056004822956501e-06
5.752816430085095e-07   2.613128464003016e-07   -1.6376211064309277e-05
5.752816430085095e-07   2.613128464003016e-07   -1.6376211064309277e-05
5.752816430085095e-07   2.613128464003016e-07   -1.6376211064309277e-05
5.752816430085095e-07   2.613128464003016e-07   -1.6376211064309277e-05
-6.860500670245845e-06   3.9590915591081893e-07   -4.0639983279249345e-06
-6.860500670245845e-06   3.9590915591081893e-07   -4.0639983279249345e-06
-6.860500670245845e-06   3.9590915591081893e-07   -4.0639983279249345e-06
-6.860500670245845e-06   3.9590915591081893e-07   -4.0639983279249345e-06
-3.1168999264128978e-06   1.322543119461133e-07   -1.014513999460107e-05
-3.1168999264128978e-06   1.322543119461133e-07   -1.014513999460107e-05
-3.1168999264128978e-06   1.322543119461133e-07   -1.014513999460107e-05
-3.1168999264128978e-06   1.322543119461133e-07   -1.014513999460107e-05
-6.860500670245845e-06   2.613128464003016e-07   -1.645696885001556e-05
-6.860500670245845e-06   2.613128464003016e-07   -1.645696885001556e-05
-6.860500670245845e-06   2.613128464003016e-07   -1.645696885001556e-05
-6.860500670245845e-06   2.613128464003016e-07   -1.645696885001556e-05
5.752816430085095e-07   3.959091559108054e-07   -3.983240542218636e-06
5.752816430085095e-07   3.959091559108054e-07   -3.983240542218636e-06
5.752816430085095e-07   3.959091559108054e-07   -3.983240542218636e-06
5.752816430085095e-07   3.959091559108054e-07   -3.983240542218636e-06
5.428561913531119e-07   6.107245321857827e-07   -1.640840303466565e-05
5.428561913531119e-07   6.107245321857827e-07   -1.640840303466565e-05
5.428561913531119e-07   6.107245321857827e-07   -1.640840303466565e-05
5.428561913531119e-07   6.107245321857827e-07   -1.640840303466565e-05
-6.902286237261239e-06   8.192566130195368e-07   -4.12495156880866e-06
-6.902286237261239e-06   8.192566130195368e-07   -4.12495156880866e-06
-6.902286237261239e-06   8.192566130195368e-07   -4.12495156880866e-06
-6.902286237261239e-06   8.192566130195368e-07   -4.12495156880866e-06
-3.166775348055543e-06   4.985821704434862e-07   -1.0158398385272488e-05
-3.166775348055543e-06   4.985821704434862e-07   -1.0158398385272488e-05
-3.166775348055543e-06   4.985821704434862e-07   -1.0158398385272488e-05
-3.166775348055543e-06   4.985821704434862e-07   -1.0158398385272488e-05
-6.902286237261239e-06   6.107245321857827e-07   -1.65335222831659e-05
-6.902286237261239e-06   6.107245321857827e-07   -1.65335222831659e-05
-6.902286237261239e-06   6.107245321857827e-07   -1.65335222831659e-05
-6.902286237261239e-06   6.107245321857827e-07   -1.65335222831659e-05
5.428561913531127e-07   8.192566130195368e-07   -3.999832320308412e-06
5.428561913531127e-07   8.192566130195368e-07   -3.999832320308412e-06
5.428561913531127e-07   8.192566130195368e-07   -3.999832320308412e-06
5.428561913531127e-07   8.192566130195368e-07   -3.999832320308412e-06
4.683788746791494e-07   1.0145940542780566e-06   -1.6381176061431115e-05
4.683788746791494e-07   1.0145940542780566e-06   -1.6381176061431115e-05
4.683788746791494e-07   1.0145940542780566e-06   -1.6381176061431115e-05
4.683788746791494e-07   1.0145940542780566e-06   -1.6381176061431115e-05
-6.877289008699044e-06   1.2600105589828176e-06   -4.285646158623661e-06
-6.877289008699044e-06   1.2600105589828176e-06   -4.285646158623661e-06
-6.877289008699044e-06   1.2600105589828176e-06   -4.285646158623661e-06
-6.877289008699044e-06   1.2600105589828176e-06   -4.285646158623661e-06
-3.193664374052407e-06   8.749219579035747e-07   -1.0193967389053838e-05
-3.193664374052407e-06   8.749219579035747e-07   -1.0193967389053838e-05
-3.193664374052407e-06   8.749219579035747e-07   -1.0193967389053838e-05
-3.193664374052407e-06   8.749219579035747e-07   -1.0193967389053838e-05
5.97542782123013e-07   -1.1683137618330194e-06   -1.5026832039615901e-05
5.97542782123013e-07   -1.1683137618330194e-06   -1.5026832039615901e-05
5.97542782123013e-07   -1.1683137618330194e-06   -1.5026832039615901e-05
5.97542782123013e-07   -1.1683137618330194e-06   -1.5026832039615901e-05
8.125926848634623e-06   -1.2004528000125205e-06   -2.4988086850042307e-06
8.125926848634623e-06   -1.2004528000125205e-06   -2.4988086850042307e-06
8.125926848634623e-06   -1.2004528000125205e-06   -2.4988086850042307e-06
8.125926848634623e-06   -1.2004528000125205e-06   -2.4988086850042307e-06
8.201957655680357e-06   -8.767799418727876e-07   -1.5227658279428543e-05
8.201957655680357e-06   -8.767799418727876e-07   -1.5227658279428543e-05
8.201957655680357e-06   -8.767799418727876e-07   -1.5227658279428543e-05
8.201957655680357e-06   -8.767799418727876e-07   -1.5227658279428543e-05
5.752816430085095e-07   -8.054582417791608e-07   -2.5593246116982836e-06
5.752816430085095e-07   -8.054582417791608e-07   -2.5593246116982836e-06
5.752816430085095e-07   -8.054582417791608e-07   -2.5593246116982836e-06
5.752816430085095e-07   -8.054582417791608e-07   -2.5593246116982836e-06
4.3194141743682015e-06   -9.667463724371186e-07   -8.702772618903023e-06
4.3194141743682015e-06   -9.667463724371186e-07   -8.702772618903023e-06
4.3194141743682015e-06   -9.667463724371186e-07   -8.702772618903023e-06
4.3194141743682015e-06   -9.667463724371186e-07   -8.702772618903023e-06
5.752816430085085e-07   -8.76779941872791e-07   -1.527045129948475e-05
5.752816430085085e-07   -8.76779941872791e-07   -1.527045129948475e-05
5.752816430085085e-07   -8.76779941872791e-07   -1.527045129948475e-05
5.752816430085085e-07   -8.76779941872791e-07   -1.527045129948475e-05
8.20195765568037e-06   -8.054582417791608e-07   -2.5165315916420987e-06
8.20195765568037e-06   -8.054582417791608e-07   -2.5165315916420987e-06
8.20195765568037e-06   -8.054582417791608e-07   -2.5165315916420987e-06
8.20195765568037e-06   -8.054582417791608e-07   -2.5165315916420987e-06
8.171306146392871e-06   -5.454147607579709e-07   -1.5507585864809752e-05
8.171306146392871e-06   -5.454147607579709e-07   -1.5507585864809752e-05
8.171306146392871e-06   -5.454147607579709e-07   -1.5507585864809752e-05
8.171306146392871e-06   -5.454147607579709e-07   -1.5507585864809752e-05
5.428561913531119e-07   -4.1952806962440223e-07   -2.8690346210903285e-06
5.428561913531119e-07   -4.1952806962440223e-07   -2.8690346210903285e-06
5.428561913531119e-07   -4.1952806962440223e-07   -2.8690346210903285e-06
5.428561913531119e-07   -4.1952806962440223e-07   -2.8690346210903285e-06
4.281198403196883e-06   -6.528886793534061e-07   -8.959588608325846e-06
4.281198403196883e-06   -6.528886793534061e-07   -8.959588608325846e-06
4.281198403196883e-06   -6.528886793534061e-07   -8.959588608325846e-06
4.281198403196883e-06   -6.528886793534061e-07   -8.959588608325846e-06
5.428561913531112e-07   -5.454147607579743e-07   -1.5583117879489904e-05
5.428561913531112e-07   -5.454147607579743e-07   -1.5583117879489904e-05
5.428561913531112e-07   -5.454147607579743e-07   -1.5583117879489904e-05
5.428561913531112e-07   -5.454147607579743e-07   -1.5583117879489904e-05
8.1713061463929e-06   -4.195280696243887e-07   -2.793502606410184e-06
8.1713061463929e-06   -4.195280696243887e-07   -2.793502606410184e-06
8.1713061463929e-06   -4.195280696243887e-07   -2.793502606410184e-06
8.1713061463929e-06   -4.195280696243887e-07   -2.793502606410184e-06
7.9396364915697e-06   -1.0105603990282538e-07   -1.5536138260973784e-05
7.9396364915697e-06   -1.0105603990282538e-07   -1.5536138260973784e-05
7.9396364915697e-06   -1.0105603990282538e-07   -1.5536138260973784e-05
7.9396364915697e-06   -1.0105603990282538e-07   -1.5536138260973784e-05
4.683788746791494e-07   5.658820500809838e-08   -3.178628779769442e-06
4.683788746791494e-07   5.658820500809838e-08   -3.178628779769442e-06
4.683788746791494e-07   5.658820500809838e-08   -3.178628779769442e-06
4.683788746791494e-07   5.658820500809838e-08   -3.178628779769442e-06
4.24208547820056e-06   -2.864166536201582e-07   -9.262336870461488e-06
4.24208547820056e-06   -2.864166536201582e-07   -9.262336870461488e-06
4.24208547820056e-06   -2.864166536201582e-07   -9.262336870461488e-06
4.24208547820056e-06   -2.864166536201582e-07   -9.262336870461488e-06
8.125926848634623e-06   -2.9734822732020732e-06   -9.088183133956071e-06
8.125926848634623e-06   -2.9734822732020732e-06   -9.088183133956071e-06
8.125926848634623e-06   -2.9734822732020732e-06   -9.088183133956071e-06
8.125926848634623e-06   -2.9734822732020732e-06   -9.088183133956071e-06
1.5538850324347877e-05   -2.2237473078025766e-06   3.716530304805673e-06
1.5538850324347877e-05   -2.2237473078025766e-06   3.716530304805673e-06
1.5538850324347877e-05   -2.2237473078025766e-06   3.716530304805673e-06
1.5538850324347877e-05   -2.2237473078025766e-06   3.716530304805673e-06
1.6152339969942135e-05   -2.520686308300148e-06   -1.1005779630069688e-05
1.6152339969942135e-05   -2.520686308300148e-06   -1.1005779630069688e-05
1.6152339969942135e-05   -2.520686308300148e-06   -1.1005779630069688e-05
1.6152339969942135e-05   -2.520686308300148e-06   -1.1005779630069688e-05
8.201957655680386e-06   -2.0099368985066526e-06   1.9384079144904927e-06
8.201957655680386e-06   -2.0099368985066526e-06   1.9384079144904927e-06
8.201957655680386e-06   -2.0099368985066526e-06   1.9384079144904927e-06
8.201957655680386e-06   -2.0099368985066526e-06   1.9384079144904927e-06
1.1446046367229482e-05   -2.4198395873488342e-06   -3.2224649914527084e-06
1.1446046367229482e-05   -2.4198395873488342e-06   -3.2224649914527084e-06
1.1446046367229482e-05   -2.4198395873488342e-06   -3.2224649914527084e-06
1.1446046367229482e-05   -2.4198395873488342e-06   -3.2224649914527084e-06
8.201957655680365e-06   -2.520686308300141e-06   -1.1312229275945732e-05
8.201957655680365e-06   -2.520686308300141e-06   -1.1312229275945732e-05
8.201957655680365e-06   -2.520686308300141e-06   -1.1312229275945732e-05
8.201957655680365e-06   -2.520686308300141e-06   -1.1312229275945732e-05
1.6152339969942135e-05   -2.0099368985066526e-06   2.2448575603665913e-06
1.6152339969942135e-05   -2.0099368985066526e-06   2.2448575603665913e-06
1.6152339969942135e-05   -2.0099368985066526e-06   2.2448575603665913e-06
1.6152339969942135e-05   -2.0099368985066526e-06   2.2448575603665913e-06
1.610619594824715e-05   -2.3000498789482634e-06   -1.1958709776815375e-05
1.610619594824715e-05   -2.3000498789482634e-06   -1.1958709776815375e-05
1.610619594824715e-05   -2.3000498789482634e-06   -1.1958709776815375e-05
1.610619594824715e-05   -2.3000498789482634e-06   -1.1958709776815375e-05
8.1713061463929e-06   -1.7880480562891765e-06   9.589054660129083e-07
8.1713061463929e-06   -1.7880480562891765e-06   9.589054660129083e-07
8.1713061463929e-06   -1.7880480562891765e-06   9.589054660129083e-07
8.1713061463929e-06   -1.7880480562891765e-06   9.589054660129083e-07
1.1859855107734786e-05   -2.1318193603795025e-06   -4.982413353769379e-06
1.1859855107734786e-05   -2.1318193603795025e-06   -4.982413353769379e-06
1.1859855107734786e-05   -2.1318193603795025e-06   -4.982413353769379e-06
1.1859855107734786e-05   -2.1318193603795025e-06   -4.982413353769379e-06
8.171306146392883e-06   -2.30004987894826e-06   -1.2265910870410814e-05
8.171306146392883e-06   -2.30004987894826e-06   -1.2265910870410814e-05
8.171306146392883e-06   -2.30004987894826e-06   -1.2265910870410814e-05
8.171306146392883e-06   -2.30004987894826e-06   -1.2265910870410814e-05
1.610619594824715e-05   -1.7880480562891765e-06   1.2661065596083706e-06
1.610619594824715e-05   -1.7880480562891765e-06   1.2661065596083706e-06
1.610619594824715e-05   -1.7880480562891765e-06   1.2661065596083706e-06
1.610619594824715e-05   -1.7880480562891765e-06   1.2661065596083706e-06
1.6025417762534276e-05   -1.7767536068316874e-06   -1.3910270221673004e-05
1.6025417762534276e-05   -1.7767536068316874e-06   -1.3910270221673004e-05
1.6025417762534276e-05   -1.7767536068316874e-06   -1.3910270221673004e-05
1.6025417762534276e-05   -1.7767536068316874e-06   -1.3910270221673004e-05
7.93963649156973e-06   -1.3112293556031011e-06   -7.132826541359348e-07
7.93963649156973e-06   -1.3112293556031011e-06   -7.132826541359348e-07
7.93963649156973e-06   -1.3112293556031011e-06   -7.132826541359348e-07
7.93963649156973e-06   -1.3112293556031011e-06   -7.132826541359348e-07
1.1530664639452146e-05   -1.83176421613222e-06   -6.3860086509557955e-06
1.1530664639452146e-05   -1.83176421613222e-06   -6.3860086509557955e-06
1.1530664639452146e-05   -1.83176421613222e-06   -6.3860086509557955e-06
1.1530664639452146e-05   -1.83176421613222e-06   -6.3860086509557955e-06
-1.741515404727277e-05   2.5118739622347254e-06   -1.210772533945885e-05
-1.741515404727277e-05   2.5118739622347254e-06   -1.210772533945885e-05
-1.741515404727277e-05   2.5118739622347254e-06   -1.210772533945885e-05
-1.741515404727277e-05   2.5118739622347254e-06   -1.210772533945885e-05
-1.1445343789293565e-05   1.909223187908745e-06   -2.5196320407557386e-06
-1.1445343789293565e-05   1.909223187908745e-06   -2.5196320407557386e-06
-1.1445343789293565e-05   1.909223187908745e-06   -2.5196320407557386e-06
-1.1445343789293565e-05   1.909223187908745e-06   -2.5196320407557386e-06
-1.1496175304805577e-05   3.0226178234866785e-06   -1.0058296013637963e-05
-1.1496175304805577e-05   3.0226178234866785e-06   -1.0058296013637963e-05
-1.1496175304805577e-05   3.0226178234866785e-06   -1.0058296013637963e-05
-1.1496175304805577e-05   3.0226178234866785e-06   -1.0058296013637963e-05
-1.7138098462467445e-05   2.315083990708642e-06   -2.3057045120138846e-07
-1.7138098462467445e-05   2.315083990708642e-06   -2.3057045120138846e-07
-1.7138098462467445e-05   2.315083990708642e-06   -2.3057045120138846e-07
-1.7138098462467445e-05   2.315083990708642e-06   -2.3057045120138846e-07
-1.3765126683341293e-05   2.556942573550563e-06   -5.99730523278351e-06
-1.3765126683341293e-05   2.556942573550563e-06   -5.99730523278351e-06
-1.3765126683341293e-05   2.556942573550563e-06   -5.99730523278351e-06
-1.3765126683341293e-05   2.556942573550563e-06   -5.99730523278351e-06
-1.7138098462467445e-05   3.0226178234866785e-06   -9.633775713971153e-06
-1.7138098462467445e-05   3.0226178234866785e-06   -9.633775713971153e-06
-1.7138098462467445e-05   3.0226178234866785e-06   -9.633775713971153e-06
-1.7138098462467445e-05   3.0226178234866785e-06   -9.633775713971153e-06
-1.1496175304805577e-05   2.315083990708669e-06   -6.550907508681711e-07
-1.1496175304805577e-05   2.315083990708669e-06   -6.550907508681711e-07
-1.1496175304805577e-05   2.315083990708669e-06   -6.550907508681711e-07
-1.1496175304805577e-05   2.315083990708669e-06   -6.550907508681711e-07
-1.147974111312514e-05   3.253432207778035e-06   -8.60884197722756e-06
-1.147974111312514e-05   3.253432207778035e-06   -8.60884197722756e-06
-1.147974111312514e-05   3.253432207778035e-06   -8.60884197722756e-06
-1.147974111312514e-05   3.253432207778035e-06   -8.60884197722756e-06
-1.687056888181643e-05   2.4943560166715674e-06   8.313166852551198e-07
-1.687056888181643e-05   2.4943560166715674e-06   8.313166852551198e-07
-1.687056888181643e-05   2.4943560166715674e-06   8.313166852551198e-07
-1.687056888181643e-05   2.4943560166715674e-06   8.313166852551198e-07
-1.3876920619807334e-05   2.7921387740605715e-06   -4.3367667391933025e-06
-1.3876920619807334e-05   2.7921387740605715e-06   -4.3367667391933025e-06
-1.3876920619807334e-05   2.7921387740605715e-06   -4.3367667391933025e-06
-1.3876920619807334e-05   2.7921387740605715e-06   -4.3367667391933025e-06
-1.687056888181643e-05   3.253432207778035e-06   -8.153396262563664e-06
-1.687056888181643e-05   3.253432207778035e-06   -8.153396262563664e-06
-1.687056888181643e-05   3.253432207778035e-06   -8.153396262563664e-06
-1.687056888181643e-05   3.253432207778035e-06   -8.153396262563664e-06
-1.147974111312516e-05   2.4943560166715674e-06   3.7587097059130567e-07
-1.147974111312516e-05   2.4943560166715674e-06   3.7587097059130567e-07
-1.147974111312516e-05   2.4943560166715674e-06   3.7587097059130567e-07
-1.147974111312516e-05   2.4943560166715674e-06   3.7587097059130567e-07
-1.1487907642340444e-05   3.441153983108297e-06   -6.586933012811427e-06
-1.1487907642340444e-05   3.441153983108297e-06   -6.586933012811427e-06
-1.1487907642340444e-05   3.441153983108297e-06   -6.586933012811427e-06
-1.1487907642340444e-05   3.441153983108297e-06   -6.586933012811427e-06
-1.6524802180427945e-05   2.6739491406892408e-06   2.2682141227857314e-06
-1.6524802180427945e-05   2.6739491406892408e-06   2.2682141227857314e-06
-1.6524802180427945e-05   2.6739491406892408e-06   2.2682141227857314e-06
-1.6524802180427945e-05   2.6739491406892408e-06   2.2682141227857314e-06
-1.355489623876558e-05   2.9183957388121507e-06   -2.828297072191764e-06
-1.355489623876558e-05   2.9183957388121507e-06   -2.828297072191764e-06
-1.355489623876558e-05   2.9183957388121507e-06   -2.828297072191764e-06
-1.355489623876558e-05   2.9183957388121507e-06   -2.828297072191764e-06
-1.1445343789293565e-05   1.1690825842926506e-06   -1.410608400770615e-05
-1.1445343789293565e-05   1.1690825842926506e-06   -1.410608400770615e-05
-1.1445343789293565e-05   1.1690825842926506e-06   -1.410608400770615e-05
-1.1445343789293565e-05   1.1690825842926506e-06   -1.410608400770615e-05
-5.855831491907712e-06   9.558168994841672e-07   -4.918189589614823e-06
-5.855831491907712e-06   9.558168994841672e-07   -4.918189589614823e-06
-5.855831491907712e-06   9.558168994841672e-07   -4.918189589614823e-06
-5.855831491907712e-06   9.558168994841672e-07   -4.918189589614823e-06
-5.923255507459671e-06   1.6385612906676312e-06   -1.3903163554408724e-05
-5.923255507459671e-06   1.6385612906676312e-06   -1.3903163554408724e-05
-5.923255507459671e-06   1.6385612906676312e-06   -1.3903163554408724e-05
-5.923255507459671e-06   1.6385612906676312e-06   -1.3903163554408724e-05
-1.1496175304805563e-05   1.3557915662105308e-06   -4.445302057491286e-06
-1.1496175304805563e-05   1.3557915662105308e-06   -4.445302057491286e-06
-1.1496175304805563e-05   1.3557915662105308e-06   -4.445302057491286e-06
-1.1496175304805563e-05   1.3557915662105308e-06   -4.445302057491286e-06
-8.60529290641213e-06   1.3534591431044353e-06   -9.262039934283359e-06
-8.60529290641213e-06   1.3534591431044353e-06   -9.262039934283359e-06
-8.60529290641213e-06   1.3534591431044353e-06   -9.262039934283359e-06
-8.60529290641213e-06   1.3534591431044353e-06   -9.262039934283359e-06
-1.149617530480557e-05   1.6385612906676312e-06   -1.3733501719734435e-05
-1.149617530480557e-05   1.6385612906676312e-06   -1.3733501719734435e-05
-1.149617530480557e-05   1.6385612906676312e-06   -1.3733501719734435e-05
-1.149617530480557e-05   1.6385612906676312e-06   -1.3733501719734435e-05
-5.9232555074596816e-06   1.3557915662105308e-06   -4.61496389216552e-06
-5.9232555074596816e-06   1.3557915662105308e-06   -4.61496389216552e-06
-5.9232555074596816e-06   1.3557915662105308e-06   -4.61496389216552e-06
-5.9232555074596816e-06   1.3557915662105308e-06   -4.61496389216552e-06
-5.9657027949748495e-06   2.0281153162062383e-06   -1.353660716245554e-05
-5.9657027949748495e-06   2.0281153162062383e-06   -1.353660716245554e-05
-5.9657027949748495e-06   2.0281153162062383e-06   -1.353660716245554e-05
-5.9657027949748495e-06   2.0281153162062383e-06   -1.353660716245554e-05
-1.147974111312514e-05   1.7123445877014582e-06   -4.157080861768935e-06
-1.147974111312514e-05   1.7123445877014582e-06   -4.157080861768935e-06
-1.147974111312514e-05   1.7123445877014582e-06   -4.157080861768935e-06
-1.147974111312514e-05   1.7123445877014582e-06   -4.157080861768935e-06
-8.61786899450985e-06   1.683333614001771e-06   -8.909461141907753e-06
-8.61786899450985e-06   1.683333614001771e-06   -8.909461141907753e-06
-8.61786899450985e-06   1.683333614001771e-06   -8.909461141907753e-06
-8.61786899450985e-06   1.683333614001771e-06   -8.909461141907753e-06
-1.147974111312514e-05   2.0281153162062383e-06   -1.33471447253527e-05
-1.147974111312514e-05   2.0281153162062383e-06   -1.33471447253527e-05
-1.147974111312514e-05   2.0281153162062383e-06   -1.33471447253527e-05
-1.147974111312514e-05   2.0281153162062383e-06   -1.33471447253527e-05
-5.965702794974868e-06   1.7123445877014853e-06   -4.346543298871727e-06
-5.965702794974868e-06   1.7123445877014853e-06   -4.346543298871727e-06
-5.965702794974868e-06   1.7123445877014853e-06   -4.346543298871727e-06
-5.965702794974868e-06   1.7123445877014853e-06   -4.346543298871727e-06
-6.0220015403286735e-06   2.4480627678083537e-06   -1.3504942548101659e-05
-6.0220015403286735e-06   2.4480627678083537e-06   -1.3504942548101659e-05
-6.0220015403286735e-06   2.4480627678083537e-06   -1.3504942548101659e-05
-6.0220015403286735e-06   2.4480627678083537e-06   -1.3504942548101659e-05
-1.1487907642340434e-05   2.0929072793185205e-06   -4.18200575165483e-06
-1.1487907642340434e-05   2.0929072793185205e-06   -4.18200575165483e-06
-1.1487907642340434e-05   2.0929072793185205e-06   -4.18200575165483e-06
-1.1487907642340434e-05   2.0929072793185205e-06   -4.18200575165483e-06
-8.716513351635393e-06   2.011152036684598e-06   -8.751943090582772e-06
-8.716513351635393e-06   2.011152036684598e-06   -8.751943090582772e-06
-8.716513351635393e-06   2.011152036684598e-06   -8.751943090582772e-06
-8.716513351635393e-06   2.011152036684598e-06   -8.751943090582772e-06
-5.855831491907702e-06   -3.70834812460179e-08   -1.5223279611745832e-05
-5.855831491907702e-06   -3.70834812460179e-08   -1.5223279611745832e-05
-5.855831491907702e-06   -3.70834812460179e-08   -1.5223279611745832e-05
-5.855831491907702e-06   -3.70834812460179e-08   -1.5223279611745832e-05
-3.2488279586585763e-07   5.1636960797274726e-08   -5.951799519783445e-06
-3.2488279586585763e-07   5.1636960797274726e-08   -5.951799519783445e-06
-3.2488279586585763e-07   5.1636960797274726e-08   -5.951799519783445e-06
-3.2488279586585763e-07   5.1636960797274726e-08   -5.951799519783445e-06
-3.7851407465872574e-07   3.959091559108054e-07   -1.5076827070625395e-05
-3.7851407465872574e-07   3.959091559108054e-07   -1.5076827070625395e-05
-3.7851407465872574e-07   3.959091559108054e-07   -1.5076827070625395e-05
-3.7851407465872574e-07   3.959091559108054e-07   -1.5076827070625395e-05
-5.923255507459671e-06   4.464620858960248e-07   -5.865923107281626e-06
-5.923255507459671e-06   4.464620858960248e-07   -5.865923107281626e-06
-5.923255507459671e-06   4.464620858960248e-07   -5.865923107281626e-06
-5.923255507459671e-06   4.464620858960248e-07   -5.865923107281626e-06
-3.102593765634696e-06   2.6095935035353953e-07   -1.0455724368997768e-05
-3.102593765634696e-06   2.6095935035353953e-07   -1.0455724368997768e-05
-3.102593765634696e-06   2.6095935035353953e-07   -1.0455724368997768e-05
-3.102593765634696e-06   2.6095935035353953e-07   -1.0455724368997768e-05
-5.923255507459671e-06   3.9590915591081893e-07   -1.5107158828616528e-05
-5.923255507459671e-06   3.9590915591081893e-07   -1.5107158828616528e-05
-5.923255507459671e-06   3.9590915591081893e-07   -1.5107158828616528e-05
-5.923255507459671e-06   3.9590915591081893e-07   -1.5107158828616528e-05
-3.785140746587264e-07   4.464620858959977e-07   -5.835591349290493e-06
-3.785140746587264e-07   4.464620858959977e-07   -5.835591349290493e-06
-3.785140746587264e-07   4.464620858959977e-07   -5.835591349290493e-06
-3.785140746587264e-07   4.464620858959977e-07   -5.835591349290493e-06
-4.159799630051292e-07   8.192566130195368e-07   -1.5115832261264713e-05
-4.159799630051292e-07   8.192566130195368e-07   -1.5115832261264713e-05
-4.159799630051292e-07   8.192566130195368e-07   -1.5115832261264713e-05
-4.159799630051292e-07   8.192566130195368e-07   -1.5115832261264713e-05
-5.96570279497486e-06   8.402241626258246e-07   -5.878874737745637e-06
-5.96570279497486e-06   8.402241626258246e-07   -5.878874737745637e-06
-5.96570279497486e-06   8.402241626258246e-07   -5.878874737745637e-06
-5.96570279497486e-06   8.402241626258246e-07   -5.878874737745637e-06
-3.1728907861615783e-06   6.094468320616878e-07   -1.0395095020762554e-05
-3.1728907861615783e-06   6.094468320616878e-07   -1.0395095020762554e-05
-3.1728907861615783e-06   6.094468320616878e-07   -1.0395095020762554e-05
-3.1728907861615783e-06   6.094468320616878e-07   -1.0395095020762554e-05
-5.96570279497486e-06   8.192566130195368e-07   -1.5128412791028479e-05
-5.96570279497486e-06   8.192566130195368e-07   -1.5128412791028479e-05
-5.96570279497486e-06   8.192566130195368e-07   -1.5128412791028479e-05
-5.96570279497486e-06   8.192566130195368e-07   -1.5128412791028479e-05
-4.159799630051298e-07   8.402241626258246e-07   -5.866294207981817e-06
-4.159799630051298e-07   8.402241626258246e-07   -5.866294207981817e-06
-4.159799630051298e-07   8.402241626258246e-07   -5.866294207981817e-06
-4.159799630051298e-07   8.402241626258246e-07   -5.866294207981817e-06
-4.769547920126921e-07   1.2600105589828176e-06   -1.5309630650365777e-05
-4.769547920126921e-07   1.2600105589828176e-06   -1.5309630650365777e-05
-4.769547920126921e-07   1.2600105589828176e-06   -1.5309630650365777e-05
-4.769547920126921e-07   1.2600105589828176e-06   -1.5309630650365777e-05
-6.0220015403286685e-06   1.2430172165582586e-06   -6.057690064384486e-06
-6.0220015403286685e-06   1.2430172165582586e-06   -6.057690064384486e-06
-6.0220015403286685e-06   1.2430172165582586e-06   -6.057690064384486e-06
-6.0220015403286685e-06   1.2430172165582586e-06   -6.057690064384486e-06
-3.2477767588732175e-06   9.620852737185964e-07   -1.051283886777302e-05
-3.2477767588732175e-06   9.620852737185964e-07   -1.051283886777302e-05
-3.2477767588732175e-06   9.620852737185964e-07   -1.051283886777302e-05
-3.2477767588732175e-06   9.620852737185964e-07   -1.051283886777302e-05
-3.2488279586585826e-07   -1.2004528000125205e-06   -1.3593567785659896e-05
-3.2488279586585826e-07   -1.2004528000125205e-06   -1.3593567785659896e-05
-3.2488279586585826e-07   -1.2004528000125205e-06   -1.3593567785659896e-05
-3.2488279586585826e-07   -1.2004528000125205e-06   -1.3593567785659896e-05
5.170879140065969e-06   -7.983902087856001e-07   -4.192727004370716e-06
5.170879140065969e-06   -7.983902087856001e-07   -4.192727004370716e-06
5.170879140065969e-06   -7.983902087856001e-07   -4.192727004370716e-06
5.170879140065969e-06   -7.983902087856001e-07   -4.192727004370716e-06
5.1705905646696864e-06   -8.054582417791608e-07   -1.3430580948332516e-05
5.1705905646696864e-06   -8.054582417791608e-07   -1.3430580948332516e-05
5.1705905646696864e-06   -8.054582417791608e-07   -1.3430580948332516e-05
5.1705905646696864e-06   -8.054582417791608e-07   -1.3430580948332516e-05
-3.785140746587264e-07   -4.34907922158194e-07   -4.404403407891072e-06
-3.785140746587264e-07   -4.34907922158194e-07   -4.404403407891072e-06
-3.785140746587264e-07   -4.34907922158194e-07   -4.404403407891072e-06
-3.785140746587264e-07   -4.34907922158194e-07   -4.404403407891072e-06
2.3916638129485447e-06   -7.804940690858578e-07   -8.814014865746576e-06
2.3916638129485447e-06   -7.804940690858578e-07   -8.814014865746576e-06
2.3916638129485447e-06   -7.804940690858578e-07   -8.814014865746576e-06
2.3916638129485447e-06   -7.804940690858578e-07   -8.814014865746576e-06
-3.785140746587264e-07   -8.054582417791608e-07   -1.3652911140105073e-05
-3.785140746587264e-07   -8.054582417791608e-07   -1.3652911140105073e-05
-3.785140746587264e-07   -8.054582417791608e-07   -1.3652911140105073e-05
-3.785140746587264e-07   -8.054582417791608e-07   -1.3652911140105073e-05
5.1705905646696864e-06   -4.34907922158194e-07   -4.182073216118466e-06
5.1705905646696864e-06   -4.34907922158194e-07   -4.182073216118466e-06
5.1705905646696864e-06   -4.34907922158194e-07   -4.182073216118466e-06
5.1705905646696864e-06   -4.34907922158194e-07   -4.182073216118466e-06
5.200535846765696e-06   -4.1952806962440223e-07   -1.3780769621952045e-05
5.200535846765696e-06   -4.1952806962440223e-07   -1.3780769621952045e-05
5.200535846765696e-06   -4.1952806962440223e-07   -1.3780769621952045e-05
5.200535846765696e-06   -4.1952806962440223e-07   -1.3780769621952045e-05
-4.1597996300513045e-07   -7.90865028000372e-08   -4.624174879095329e-06
-4.1597996300513045e-07   -7.90865028000372e-08   -4.624174879095329e-06
-4.1597996300513045e-07   -7.90865028000372e-08   -4.624174879095329e-06
-4.1597996300513045e-07   -7.90865028000372e-08   -4.624174879095329e-06
2.3198023657336214e-06   -4.656848896856852e-07   -8.951853061528456e-06
2.3198023657336214e-06   -4.656848896856852e-07   -8.951853061528456e-06
2.3198023657336214e-06   -4.656848896856852e-07   -8.951853061528456e-06
2.3198023657336214e-06   -4.656848896856852e-07   -8.951853061528456e-06
-4.159799630051294e-07   -4.195280696243887e-07   -1.3985034562046627e-05
-4.159799630051294e-07   -4.195280696243887e-07   -1.3985034562046627e-05
-4.159799630051294e-07   -4.195280696243887e-07   -1.3985034562046627e-05
-4.159799630051294e-07   -4.195280696243887e-07   -1.3985034562046627e-05
5.200535846765696e-06   -7.90865028000372e-08   -4.41990993900064e-06
5.200535846765696e-06   -7.90865028000372e-08   -4.41990993900064e-06
5.200535846765696e-06   -7.90865028000372e-08   -4.41990993900064e-06
5.200535846765696e-06   -7.90865028000372e-08   -4.41990993900064e-06
5.164818844872977e-06   5.658820500808483e-08   -1.4182493004867867e-05
5.164818844872977e-06   5.658820500808483e-08   -1.4182493004867867e-05
5.164818844872977e-06   5.658820500808483e-08   -1.4182493004867867e-05
5.164818844872977e-06   5.658820500808483e-08   -1.4182493004867867e-05
-4.76954792012693e-07   3.3553848745242567e-07   -4.946907112858383e-06
-4.76954792012693e-07   3.3553848745242567e-07   -4.946907112858383e-06
-4.76954792012693e-07   3.3553848745242567e-07   -4.946907112858383e-06
-4.76954792012693e-07   3.3553848745242567e-07   -4.946907112858383e-06
2.2966624085984563e-06   -1.3002687817168586e-07   -9.29026322783575e-06
2.2966624085984563e-06   -1.3002687817168586e-07   -9.29026322783575e-06
2.2966624085984563e-06   -1.3002687817168586e-07   -9.29026322783575e-06
2.2966624085984563e-06   -1.3002687817168586e-07   -9.29026322783575e-06
5.1708791400659585e-06   -2.223747307802563e-06   -7.586832220353515e-06
5.1708791400659585e-06   -2.223747307802563e-06   -7.586832220353515e-06
5.1708791400659585e-06   -2.223747307802563e-06   -7.586832220353515e-06
5.1708791400659585e-06   -2.223747307802563e-06   -7.586832220353515e-06
1.0287566734951786e-05   -1.4379669575670698e-06   1.4124486479308242e-06
1.0287566734951786e-05   -1.4379669575670698e-06   1.4124486479308242e-06
1.0287566734951786e-05   -1.4379669575670698e-06   1.4124486479308242e-06
1.0287566734951786e-05   -1.4379669575670698e-06   1.4124486479308242e-06
1.0648962627263366e-05   -2.0099368985066526e-06   -8.50529433032278e-06
1.0648962627263366e-05   -2.0099368985066526e-06   -8.50529433032278e-06
1.0648962627263366e-05   -2.0099368985066526e-06   -8.50529433032278e-06
1.0648962627263366e-05   -2.0099368985066526e-06   -8.50529433032278e-06
5.170590564669676e-06   -1.226025045378184e-06   1.5497866212297234e-07
5.170590564669676e-06   -1.226025045378184e-06   1.5497866212297234e-07
5.170590564669676e-06   -1.226025045378184e-06   1.5497866212297234e-07
5.170590564669676e-06   -1.226025045378184e-06   1.5497866212297234e-07
7.4855632608800106e-06   -1.7034560203938576e-06   -3.416850579884869e-06
7.4855632608800106e-06   -1.7034560203938576e-06   -3.416850579884869e-06
7.4855632608800106e-06   -1.7034560203938576e-06   -3.416850579884869e-06
7.4855632608800106e-06   -1.7034560203938576e-06   -3.416850579884869e-06
5.170590564669673e-06   -2.009936898506666e-06   -8.975641442199867e-06
5.170590564669673e-06   -2.009936898506666e-06   -8.975641442199867e-06
5.170590564669673e-06   -2.009936898506666e-06   -8.975641442199867e-06
5.170590564669673e-06   -2.009936898506666e-06   -8.975641442199867e-06
1.0648962627263366e-05   -1.226025045378157e-06   6.253257740000901e-07
1.0648962627263366e-05   -1.226025045378157e-06   6.253257740000901e-07
1.0648962627263366e-05   -1.226025045378157e-06   6.253257740000901e-07
1.0648962627263366e-05   -1.226025045378157e-06   6.253257740000901e-07
1.0929545252254693e-05   -1.7880480562891765e-06   -9.583797236223635e-06
1.0929545252254693e-05   -1.7880480562891765e-06   -9.583797236223635e-06
1.0929545252254693e-05   -1.7880480562891765e-06   -9.583797236223635e-06
1.0929545252254693e-05   -1.7880480562891765e-06   -9.583797236223635e-06
5.200535846765679e-06   -1.047107534113672e-06   -4.800125403806217e-07
5.200535846765679e-06   -1.047107534113672e-06   -4.800125403806217e-07
5.200535846765679e-06   -1.047107534113672e-06   -4.800125403806217e-07
5.200535846765679e-06   -1.047107534113672e-06   -4.800125403806217e-07
7.748099958029451e-06   -1.5669891101045494e-06   -4.414023780225668e-06
7.748099958029451e-06   -1.5669891101045494e-06   -4.414023780225668e-06
7.748099958029451e-06   -1.5669891101045494e-06   -4.414023780225668e-06
7.748099958029451e-06   -1.5669891101045494e-06   -4.414023780225668e-06
5.200535846765686e-06   -1.7880480562891765e-06   -1.0028361549528922e-05
5.200535846765686e-06   -1.7880480562891765e-06   -1.0028361549528922e-05
5.200535846765686e-06   -1.7880480562891765e-06   -1.0028361549528922e-05
5.200535846765686e-06   -1.7880480562891765e-06   -1.0028361549528922e-05
1.092954525225468e-05   -1.047107534113672e-06   -3.544822707525659e-08
1.092954525225468e-05   -1.047107534113672e-06   -3.544822707525659e-08
1.092954525225468e-05   -1.047107534113672e-06   -3.544822707525659e-08
1.092954525225468e-05   -1.047107534113672e-06   -3.544822707525659e-08
1.1230937223291196e-05   -1.3112293556031011e-06   -1.1425325754901521e-05
1.1230937223291196e-05   -1.3112293556031011e-06   -1.1425325754901521e-05
1.1230937223291196e-05   -1.3112293556031011e-06   -1.1425325754901521e-05
1.1230937223291196e-05   -1.3112293556031011e-06   -1.1425325754901521e-05
5.164818844872957e-06   -6.672165701374869e-07   -1.701536128817227e-06
5.164818844872957e-06   -6.672165701374869e-07   -1.701536128817227e-06
5.164818844872957e-06   -6.672165701374869e-07   -1.701536128817227e-06
5.164818844872957e-06   -6.672165701374869e-07   -1.701536128817227e-06
7.723484954572146e-06   -1.346410042489055e-06   -5.558463561571524e-06
7.723484954572146e-06   -1.346410042489055e-06   -5.558463561571524e-06
7.723484954572146e-06   -1.346410042489055e-06   -5.558463561571524e-06
7.723484954572146e-06   -1.346410042489055e-06   -5.558463561571524e-06
-1.241530550608943e-05   1.909223187908745e-06   -9.510105207633142e-06
-1.241530550608943e-05   1.909223187908745e-06   -9.510105207633142e-06
-1.241530550608943e-05   1.909223187908745e-06   -9.510105207633142e-06
-1.241530550608943e-05   1.909223187908745e-06   -9.510105207633142e-06
-8.492295479210306e-06   1.2050138331629403e-06   -3.3942807756820844e-06
-8.492295479210306e-06   1.2050138331629403e-06   -3.3942807756820844e-06
-8.492295479210306e-06   1.2050138331629403e-06   -3.3942807756820844e-06
-8.492295479210306e-06   1.2050138331629403e-06   -3.3942807756820844e-06
-8.460620176551407e-06   2.315083990708642e-06   -8.081097147365652e-06
-8.460620176551407e-06   2.315083990708642e-06   -8.081097147365652e-06
-8.460620176551407e-06   2.315083990708642e-06   -8.081097147365652e-06
-8.460620176551407e-06   2.315083990708642e-06   -8.081097147365652e-06
-1.2034715898768557e-05   1.5388013881195315e-06   -1.6585013821168986e-06
-1.2034715898768557e-05   1.5388013881195315e-06   -1.6585013821168986e-06
-1.2034715898768557e-05   1.5388013881195315e-06   -1.6585013821168986e-06
-1.2034715898768557e-05   1.5388013881195315e-06   -1.6585013821168986e-06
-9.911368398781177e-06   1.8402312991448722e-06   -5.378271828711072e-06
-9.911368398781177e-06   1.8402312991448722e-06   -5.378271828711072e-06
-9.911368398781177e-06   1.8402312991448722e-06   -5.378271828711072e-06
-9.911368398781177e-06   1.8402312991448722e-06   -5.378271828711072e-06
-1.2034715898768557e-05   2.315083990708642e-06   -7.615327585812142e-06
-1.2034715898768557e-05   2.315083990708642e-06   -7.615327585812142e-06
-1.2034715898768557e-05   2.315083990708642e-06   -7.615327585812142e-06
-1.2034715898768557e-05   2.315083990708642e-06   -7.615327585812142e-06
-8.46062017655142e-06   1.5388013881195315e-06   -2.1242709436703676e-06
-8.46062017655142e-06   1.5388013881195315e-06   -2.1242709436703676e-06
-8.46062017655142e-06   1.5388013881195315e-06   -2.1242709436703676e-06
-8.46062017655142e-06   1.5388013881195315e-06   -2.1242709436703676e-06
-8.395941479796457e-06   2.4943560166715945e-06   -7.0473761394885225e-06
-8.395941479796457e-06   2.4943560166715945e-06   -7.0473761394885225e-06
-8.395941479796457e-06   2.4943560166715945e-06   -7.0473761394885225e-06
-8.395941479796457e-06   2.4943560166715945e-06   -7.0473761394885225e-06
-1.175184611333985e-05   1.6956607257212768e-06   -9.749845756793895e-07
-1.175184611333985e-05   1.6956607257212768e-06   -9.749845756793895e-07
-1.175184611333985e-05   1.6956607257212768e-06   -9.749845756793895e-07
-1.175184611333985e-05   1.6956607257212768e-06   -9.749845756793895e-07
-9.908877215778851e-06   2.0267587825607066e-06   -4.24525823905137e-06
-9.908877215778851e-06   2.0267587825607066e-06   -4.24525823905137e-06
-9.908877215778851e-06   2.0267587825607066e-06   -4.24525823905137e-06
-9.908877215778851e-06   2.0267587825607066e-06   -4.24525823905137e-06
-1.175184611333985e-05   2.4943560166715945e-06   -6.568158964918345e-06
-1.175184611333985e-05   2.4943560166715945e-06   -6.568158964918345e-06
-1.175184611333985e-05   2.4943560166715945e-06   -6.568158964918345e-06
-1.175184611333985e-05   2.4943560166715945e-06   -6.568158964918345e-06
-8.39594147979647e-06   1.6956607257212768e-06   -1.4542017502494853e-06
-8.39594147979647e-06   1.6956607257212768e-06   -1.4542017502494853e-06
-8.39594147979647e-06   1.6956607257212768e-06   -1.4542017502494853e-06
-8.39594147979647e-06   1.6956607257212768e-06   -1.4542017502494853e-06
-8.37111560865874e-06   2.6739491406892137e-06   -5.621433520669374e-06
-8.37111560865874e-06   2.6739491406892137e-06   -5.621433520669374e-06
-8.37111560865874e-06   2.6739491406892137e-06   -5.621433520669374e-06
-8.37111560865874e-06   2.6739491406892137e-06   -5.621433520669374e-06
-1.1383630518831939e-05   1.8949665383910497e-06   -1.3318577566840176e-07
-1.1383630518831939e-05   1.8949665383910497e-06   -1.3318577566840176e-07
-1.1383630518831939e-05   1.8949665383910497e-06   -1.3318577566840176e-07
-1.1383630518831939e-05   1.8949665383910497e-06   -1.3318577566840176e-07
-9.614105452988348e-06   2.130380982190845e-06   -3.2236428850209543e-06
-9.614105452988348e-06   2.130380982190845e-06   -3.2236428850209543e-06
-9.614105452988348e-06   2.130380982190845e-06   -3.2236428850209543e-06
-9.614105452988348e-06   2.130380982190845e-06   -3.2236428850209543e-06
-8.492295479210292e-06   9.558168994841672e-07   -1.220322895845459e-05
-8.492295479210292e-06   9.558168994841672e-07   -1.220322895845459e-05
-8.492295479210292e-06   9.558168994841672e-07   -1.220322895845459e-05
-8.492295479210292e-06   9.558168994841672e-07   -1.220322895845459e-05
-4.924394346008795e-06   6.293591301481563e-07   -6.452601731387033e-06
-4.924394346008795e-06   6.293591301481563e-07   -6.452601731387033e-06
-4.924394346008795e-06   6.293591301481563e-07   -6.452601731387033e-06
-4.924394346008795e-06   6.293591301481563e-07   -6.452601731387033e-06
-4.927160481582662e-06   1.3557915662105579e-06   -1.2095182744954042e-05
-4.927160481582662e-06   1.3557915662105579e-06   -1.2095182744954042e-05
-4.927160481582662e-06   1.3557915662105579e-06   -1.2095182744954042e-05
-4.927160481582662e-06   1.3557915662105579e-06   -1.2095182744954042e-05
-8.460620176551407e-06   9.826677479350286e-07   -5.982208962374122e-06
-8.460620176551407e-06   9.826677479350286e-07   -5.982208962374122e-06
-8.460620176551407e-06   9.826677479350286e-07   -5.982208962374122e-06
-8.460620176551407e-06   9.826677479350286e-07   -5.982208962374122e-06
-6.639017488451976e-06   1.049424710918679e-06   -9.058267620330045e-06
-6.639017488451976e-06   1.049424710918679e-06   -9.058267620330045e-06
-6.639017488451976e-06   1.049424710918679e-06   -9.058267620330045e-06
-6.639017488451976e-06   1.049424710918679e-06   -9.058267620330045e-06
-8.4606201765514e-06   1.3557915662105308e-06   -1.1871308453988638e-05
-8.4606201765514e-06   1.3557915662105308e-06   -1.1871308453988638e-05
-8.4606201765514e-06   1.3557915662105308e-06   -1.1871308453988638e-05
-8.4606201765514e-06   1.3557915662105308e-06   -1.1871308453988638e-05
-4.927160481582662e-06   9.826677479350286e-07   -6.206083253339431e-06
-4.927160481582662e-06   9.826677479350286e-07   -6.206083253339431e-06
-4.927160481582662e-06   9.826677479350286e-07   -6.206083253339431e-06
-4.927160481582662e-06   9.826677479350286e-07   -6.206083253339431e-06
-4.924067674419185e-06   1.7123445877014582e-06   -1.1824438873801301e-05
-4.924067674419185e-06   1.7123445877014582e-06   -1.1824438873801301e-05
-4.924067674419185e-06   1.7123445877014582e-06   -1.1824438873801301e-05
-4.924067674419185e-06   1.7123445877014582e-06   -1.1824438873801301e-05
-8.395941479796457e-06   1.3054930844471626e-06   -5.793871629553246e-06
-8.395941479796457e-06   1.3054930844471626e-06   -5.793871629553246e-06
-8.395941479796457e-06   1.3054930844471626e-06   -5.793871629553246e-06
-8.395941479796457e-06   1.3054930844471626e-06   -5.793871629553246e-06
-6.60871460970274e-06   1.3408224054940038e-06   -8.793780672337473e-06
-6.60871460970274e-06   1.3408224054940038e-06   -8.793780672337473e-06
-6.60871460970274e-06   1.3408224054940038e-06   -8.793780672337473e-06
-6.60871460970274e-06   1.3408224054940038e-06   -8.793780672337473e-06
-8.395941479796457e-06   1.7123445877014582e-06   -1.1580327971848702e-05
-8.395941479796457e-06   1.7123445877014582e-06   -1.1580327971848702e-05
-8.395941479796457e-06   1.7123445877014582e-06   -1.1580327971848702e-05
-8.395941479796457e-06   1.7123445877014582e-06   -1.1580327971848702e-05
-4.924067674419195e-06   1.3054930844471626e-06   -6.037982531505798e-06
-4.924067674419195e-06   1.3054930844471626e-06   -6.037982531505798e-06
-4.924067674419195e-06   1.3054930844471626e-06   -6.037982531505798e-06
-4.924067674419195e-06   1.3054930844471626e-06   -6.037982531505798e-06
-4.9288216905978204e-06   2.0929072793185205e-06   -1.1872564757082988e-05
-4.9288216905978204e-06   2.0929072793185205e-06   -1.1872564757082988e-05
-4.9288216905978204e-06   2.0929072793185205e-06   -1.1872564757082988e-05
-4.9288216905978204e-06   2.0929072793185205e-06   -1.1872564757082988e-05
-8.371115608658746e-06   1.6575168336110252e-06   -5.874173959556902e-06
-8.371115608658746e-06   1.6575168336110252e-06   -5.874173959556902e-06
-8.371115608658746e-06   1.6575168336110252e-06   -5.874173959556902e-06
-8.371115608658746e-06   1.6575168336110252e-06   -5.874173959556902e-06
-6.652089718174874e-06   1.6305067596418142e-06   -8.723011065981821e-06
-6.652089718174874e-06   1.6305067596418142e-06   -8.723011065981821e-06
-6.652089718174874e-06   1.6305067596418142e-06   -8.723011065981821e-06
-6.652089718174874e-06   1.6305067596418142e-06   -8.723011065981821e-06
-4.924394346008785e-06   5.1636960797274726e-08   -1.3485945815450804e-05
-4.924394346008785e-06   5.1636960797274726e-08   -1.3485945815450804e-05
-4.924394346008785e-06   5.1636960797274726e-08   -1.3485945815450804e-05
-4.924394346008785e-06   5.1636960797274726e-08   -1.3485945815450804e-05
-1.4002166247805401e-06   1.1231904597543141e-07   -7.575907028963542e-06
-1.4002166247805401e-06   1.1231904597543141e-07   -7.575907028963542e-06
-1.4002166247805401e-06   1.1231904597543141e-07   -7.575907028963542e-06
-1.4002166247805401e-06   1.1231904597543141e-07   -7.575907028963542e-06
-1.403506407557151e-06   4.464620858960248e-07   -1.3332652878388275e-05
-1.403506407557151e-06   4.464620858960248e-07   -1.3332652878388275e-05
-1.403506407557151e-06   4.464620858960248e-07   -1.3332652878388275e-05
-1.403506407557151e-06   4.464620858960248e-07   -1.3332652878388275e-05
-4.927160481582652e-06   4.6894388869902224e-07   -7.473385170027581e-06
-4.927160481582652e-06   4.6894388869902224e-07   -7.473385170027581e-06
-4.927160481582652e-06   4.6894388869902224e-07   -7.473385170027581e-06
-4.927160481582652e-06   4.6894388869902224e-07   -7.473385170027581e-06
-3.1424749907548996e-06   3.1713978748747033e-07   -1.0356778527346892e-05
-3.1424749907548996e-06   3.1713978748747033e-07   -1.0356778527346892e-05
-3.1424749907548996e-06   3.1713978748747033e-07   -1.0356778527346892e-05
-3.1424749907548996e-06   3.1713978748747033e-07   -1.0356778527346892e-05
-4.927160481582652e-06   4.464620858960248e-07   -1.3346141960070073e-05
-4.927160481582652e-06   4.464620858960248e-07   -1.3346141960070073e-05
-4.927160481582652e-06   4.464620858960248e-07   -1.3346141960070073e-05
-4.927160481582652e-06   4.464620858960248e-07   -1.3346141960070073e-05
-1.403506407557151e-06   4.6894388869902224e-07   -7.4598960883457755e-06
-1.403506407557151e-06   4.6894388869902224e-07   -7.4598960883457755e-06
-1.403506407557151e-06   4.6894388869902224e-07   -7.4598960883457755e-06
-1.403506407557151e-06   4.6894388869902224e-07   -7.4598960883457755e-06
-1.3992689515109781e-06   8.402241626257975e-07   -1.3364866305989268e-05
-1.3992689515109781e-06   8.402241626257975e-07   -1.3364866305989268e-05
-1.3992689515109781e-06   8.402241626257975e-07   -1.3364866305989268e-05
-1.3992689515109781e-06   8.402241626257975e-07   -1.3364866305989268e-05
-4.924067674419185e-06   8.267308404355555e-07   -7.482105774494802e-06
-4.924067674419185e-06   8.267308404355555e-07   -7.482105774494802e-06
-4.924067674419185e-06   8.267308404355555e-07   -7.482105774494802e-06
-4.924067674419185e-06   8.267308404355555e-07   -7.482105774494802e-06
-3.1639970678916014e-06   6.29912700841537e-07   -1.029746590161767e-05
-3.1639970678916014e-06   6.29912700841537e-07   -1.029746590161767e-05
-3.1639970678916014e-06   6.29912700841537e-07   -1.029746590161767e-05
-3.1639970678916014e-06   6.29912700841537e-07   -1.029746590161767e-05
-4.924067674419185e-06   8.402241626257975e-07   -1.335677031267515e-05
-4.924067674419185e-06   8.402241626257975e-07   -1.335677031267515e-05
-4.924067674419185e-06   8.402241626257975e-07   -1.335677031267515e-05
-4.924067674419185e-06   8.402241626257975e-07   -1.335677031267515e-05
-1.3992689515109805e-06   8.267308404355555e-07   -7.490201767808879e-06
-1.3992689515109805e-06   8.267308404355555e-07   -7.490201767808879e-06
-1.3992689515109805e-06   8.267308404355555e-07   -7.490201767808879e-06
-1.3992689515109805e-06   8.267308404355555e-07   -7.490201767808879e-06
-1.4016822293121713e-06   1.2430172165582586e-06   -1.3566502579406028e-05
-1.4016822293121713e-06   1.2430172165582586e-06   -1.3566502579406028e-05
-1.4016822293121713e-06   1.2430172165582586e-06   -1.3566502579406028e-05
-1.4016822293121713e-06   1.2430172165582586e-06   -1.3566502579406028e-05
-4.928821690597817e-06   1.1907725454128213e-06   -7.656590007909285e-06
-4.928821690597817e-06   1.1907725454128213e-06   -7.656590007909285e-06
-4.928821690597817e-06   1.1907725454128213e-06   -7.656590007909285e-06
-4.928821690597817e-06   1.1907725454128213e-06   -7.656590007909285e-06
-3.191660959071995e-06   9.468049317783091e-07   -1.0405477325604982e-05
-3.191660959071995e-06   9.468049317783091e-07   -1.0405477325604982e-05
-3.191660959071995e-06   9.468049317783091e-07   -1.0405477325604982e-05
-3.191660959071995e-06   9.468049317783091e-07   -1.0405477325604982e-05
-1.4002166247805378e-06   -7.983902087856001e-07   -1.1931701603667326e-05
-1.4002166247805378e-06   -7.983902087856001e-07   -1.1931701603667326e-05
-1.4002166247805378e-06   -7.983902087856001e-07   -1.1931701603667326e-05
-1.4002166247805378e-06   -7.983902087856001e-07   -1.1931701603667326e-05
2.0636145607453554e-06   -3.594247880422941e-07   -5.895270375344899e-06
2.0636145607453554e-06   -3.594247880422941e-07   -5.895270375344899e-06
2.0636145607453554e-06   -3.594247880422941e-07   -5.895270375344899e-06
2.0636145607453554e-06   -3.594247880422941e-07   -5.895270375344899e-06
2.091571328429188e-06   -4.34907922158194e-07   -1.1653783793126517e-05
2.091571328429188e-06   -4.34907922158194e-07   -1.1653783793126517e-05
2.091571328429188e-06   -4.34907922158194e-07   -1.1653783793126517e-05
2.091571328429188e-06   -4.34907922158194e-07   -1.1653783793126517e-05
-1.403506407557151e-06   -2.210601572107118e-08   -6.076335377011565e-06
-1.403506407557151e-06   -2.210601572107118e-08   -6.076335377011565e-06
-1.403506407557151e-06   -2.210601572107118e-08   -6.076335377011565e-06
-1.403506407557151e-06   -2.210601572107118e-08   -6.076335377011565e-06
3.411586320692554e-07   -3.724988907015934e-07   -8.773874718067271e-06
3.411586320692554e-07   -3.724988907015934e-07   -8.773874718067271e-06
3.411586320692554e-07   -3.724988907015934e-07   -8.773874718067271e-06
3.411586320692554e-07   -3.724988907015934e-07   -8.773874718067271e-06
-1.403506407557151e-06   -4.34907922158194e-07   -1.1901464936988804e-05
-1.403506407557151e-06   -4.34907922158194e-07   -1.1901464936988804e-05
-1.403506407557151e-06   -4.34907922158194e-07   -1.1901464936988804e-05
-1.403506407557151e-06   -4.34907922158194e-07   -1.1901464936988804e-05
2.0915713284291948e-06   -2.210601572107118e-08   -5.82865423314933e-06
2.0915713284291948e-06   -2.210601572107118e-08   -5.82865423314933e-06
2.0915713284291948e-06   -2.210601572107118e-08   -5.82865423314933e-06
2.0915713284291948e-06   -2.210601572107118e-08   -5.82865423314933e-06
2.1597401878874542e-06   -7.90865028000372e-08   -1.1894636182298998e-05
2.1597401878874542e-06   -7.90865028000372e-08   -1.1894636182298998e-05
2.1597401878874542e-06   -7.90865028000372e-08   -1.1894636182298998e-05
2.1597401878874542e-06   -7.90865028000372e-08   -1.1894636182298998e-05
-1.3992689515109805e-06   3.010981552061269e-07   -6.1910650781053155e-06
-1.3992689515109805e-06   3.010981552061269e-07   -6.1910650781053155e-06
-1.3992689515109805e-06   3.010981552061269e-07   -6.1910650781053155e-06
-1.3992689515109805e-06   3.010981552061269e-07   -6.1910650781053155e-06
3.2061395506650147e-07   -9.157620829691997e-08   -8.821931970965976e-06
3.2061395506650147e-07   -9.157620829691997e-08   -8.821931970965976e-06
3.2061395506650147e-07   -9.157620829691997e-08   -8.821931970965976e-06
3.2061395506650147e-07   -9.157620829691997e-08   -8.821931970965976e-06
-1.3992689515109794e-06   -7.90865028000372e-08   -1.2122746977102667e-05
-1.3992689515109794e-06   -7.90865028000372e-08   -1.2122746977102667e-05
-1.3992689515109794e-06   -7.90865028000372e-08   -1.2122746977102667e-05
-1.3992689515109794e-06   -7.90865028000372e-08   -1.2122746977102667e-05
2.159740187887461e-06   3.010981552061269e-07   -5.962954283301585e-06
2.159740187887461e-06   3.010981552061269e-07   -5.962954283301585e-06
2.159740187887461e-06   3.010981552061269e-07   -5.962954283301585e-06
2.159740187887461e-06   3.010981552061269e-07   -5.962954283301585e-06
2.1936831286056146e-06   3.3553848745242567e-07   -1.2244803811040786e-05
2.1936831286056146e-06   3.3553848745242567e-07   -1.2244803811040786e-05
2.1936831286056146e-06   3.3553848745242567e-07   -1.2244803811040786e-05
2.1936831286056146e-06   3.3553848745242567e-07   -1.2244803811040786e-05
-1.401682229312169e-06   6.700715064263823e-07   -6.453248025895493e-06
-1.401682229312169e-06   6.700715064263823e-07   -6.453248025895493e-06
-1.401682229312169e-06   6.700715064263823e-07   -6.453248025895493e-06
-1.401682229312169e-06   6.700715064263823e-07   -6.453248025895493e-06
3.320789697692725e-07   2.0742340509454752e-07   -9.065261163565453e-06
3.320789697692725e-07   2.0742340509454752e-07   -9.065261163565453e-06
3.320789697692725e-07   2.0742340509454752e-07   -9.065261163565453e-06
3.320789697692725e-07   2.0742340509454752e-07   -9.065261163565453e-06
2.063614560745352e-06   -1.4379669575670698e-06   -6.534614909061104e-06
2.063614560745352e-06   -1.4379669575670698e-06   -6.534614909061104e-06
2.063614560745352e-06   -1.4379669575670698e-06   -6.534614909061104e-06
2.063614560745352e-06   -1.4379669575670698e-06   -6.534614909061104e-06
5.106011997126147e-06   -6.523783747505241e-07   -9.925993654032086e-07
5.106011997126147e-06   -6.523783747505241e-07   -9.925993654032086e-07
5.106011997126147e-06   -6.523783747505241e-07   -9.925993654032086e-07
5.106011997126147e-06   -6.523783747505241e-07   -9.925993654032086e-07
5.47948057256285e-06   -1.226025045378157e-06   -6.8343627575684595e-06
5.47948057256285e-06   -1.226025045378157e-06   -6.8343627575684595e-06
5.47948057256285e-06   -1.226025045378157e-06   -6.8343627575684595e-06
5.47948057256285e-06   -1.226025045378157e-06   -6.8343627575684595e-06
2.0915713284291914e-06   -4.2207644985038737e-07   -1.6702165079956707e-06
2.0915713284291914e-06   -4.2207644985038737e-07   -1.6702165079956707e-06
2.0915713284291914e-06   -4.2207644985038737e-07   -1.6702165079956707e-06
2.0915713284291914e-06   -4.2207644985038737e-07   -1.6702165079956707e-06
3.5280321777233806e-06   -9.05354239310078e-07   -3.774351249810184e-06
3.5280321777233806e-06   -9.05354239310078e-07   -3.774351249810184e-06
3.5280321777233806e-06   -9.05354239310078e-07   -3.774351249810184e-06
3.5280321777233806e-06   -9.05354239310078e-07   -3.774351249810184e-06
2.091571328429188e-06   -1.226025045378184e-06   -7.3167319148850725e-06
2.091571328429188e-06   -1.226025045378184e-06   -7.3167319148850725e-06
2.091571328429188e-06   -1.226025045378184e-06   -7.3167319148850725e-06
2.091571328429188e-06   -1.226025045378184e-06   -7.3167319148850725e-06
5.4794805725628365e-06   -4.2207644985038737e-07   -1.1878473506790035e-06
5.4794805725628365e-06   -4.2207644985038737e-07   -1.1878473506790035e-06
5.4794805725628365e-06   -4.2207644985038737e-07   -1.1878473506790035e-06
5.4794805725628365e-06   -4.2207644985038737e-07   -1.1878473506790035e-06
5.768420609145674e-06   -1.047107534113672e-06   -7.485302091785649e-06
5.768420609145674e-06   -1.047107534113672e-06   -7.485302091785649e-06
5.768420609145674e-06   -1.047107534113672e-06   -7.485302091785649e-06
5.768420609145674e-06   -1.047107534113672e-06   -7.485302091785649e-06
2.159740187887461e-06   -2.6471304762486106e-07   -1.940271414915267e-06
2.159740187887461e-06   -2.6471304762486106e-07   -1.940271414915267e-06
2.159740187887461e-06   -2.6471304762486106e-07   -1.940271414915267e-06
2.159740187887461e-06   -2.6471304762486106e-07   -1.940271414915267e-06
3.753346689802337e-06   -7.863489955378341e-07   -4.283300682692252e-06
3.753346689802337e-06   -7.863489955378341e-07   -4.283300682692252e-06
3.753346689802337e-06   -7.863489955378341e-07   -4.283300682692252e-06
3.753346689802337e-06   -7.863489955378341e-07   -4.283300682692252e-06
2.1597401878874576e-06   -1.047107534113672e-06   -7.954738783678953e-06
2.1597401878874576e-06   -1.047107534113672e-06   -7.954738783678953e-06
2.1597401878874576e-06   -1.047107534113672e-06   -7.954738783678953e-06
2.1597401878874576e-06   -1.047107534113672e-06   -7.954738783678953e-06
5.768420609145647e-06   -2.6471304762483395e-07   -1.470834723021929e-06
5.768420609145647e-06   -2.6471304762483395e-07   -1.470834723021929e-06
5.768420609145647e-06   -2.6471304762483395e-07   -1.470834723021929e-06
5.768420609145647e-06   -2.6471304762483395e-07   -1.470834723021929e-06
6.154496806854752e-06   -6.672165701374869e-07   -8.741541982789435e-06
6.154496806854752e-06   -6.672165701374869e-07   -8.741541982789435e-06
6.154496806854752e-06   -6.672165701374869e-07   -8.741541982789435e-06
6.154496806854752e-06   -6.672165701374869e-07   -8.741541982789435e-06
2.193683128605618e-06   4.1551785990510655e-08   -2.5654468660509647e-06
2.193683128605618e-06   4.1551785990510655e-08   -2.5654468660509647e-06
2.193683128605618e-06   4.1551785990510655e-08   -2.5654468660509647e-06
2.193683128605618e-06   4.1551785990510655e-08   -2.5654468660509647e-06
3.833421403379423e-06   -6.136727902962959e-07   -4.905209244901897e-06
3.833421403379423e-06   -6.136727902962959e-07   -4.905209244901897e-06
3.833421403379423e-06   -6.136727902962959e-07   -4.905209244901897e-06
3.833421403379423e-06   -6.136727902962959e-07   -4.905209244901897e-06
-7.4271466760441625e-06   1.2050138331629674e-06   -7.019298936624134e-06
-7.4271466760441625e-06   1.2050138331629674e-06   -7.019298936624134e-06
-7.4271466760441625e-06   1.2050138331629674e-06   -7.019298936624134e-06
-7.4271466760441625e-06   1.2050138331629674e-06   -7.019298936624134e-06
-5.536007438152588e-06   4.822809664571312e-07   -4.3010399268283484e-06
-5.536007438152588e-06   4.822809664571312e-07   -4.3010399268283484e-06
-5.536007438152588e-06   4.822809664571312e-07   -4.3010399268283484e-06
-5.536007438152588e-06   4.822809664571312e-07   -4.3010399268283484e-06
-5.457467124299621e-06   1.5388013881195044e-06   -6.192625580305627e-06
-5.457467124299621e-06   1.5388013881195044e-06   -6.192625580305627e-06
-5.457467124299621e-06   1.5388013881195044e-06   -6.192625580305627e-06
-5.457467124299621e-06   1.5388013881195044e-06   -6.192625580305627e-06
-7.017166827985282e-06   7.58168020409877e-07   -3.1247460535369477e-06
-7.017166827985282e-06   7.58168020409877e-07   -3.1247460535369477e-06
-7.017166827985282e-06   7.58168020409877e-07   -3.1247460535369477e-06
-7.017166827985282e-06   7.58168020409877e-07   -3.1247460535369477e-06
-6.090169609963658e-06   1.0826429347724387e-06   -4.8644263655242255e-06
-6.090169609963658e-06   1.0826429347724387e-06   -4.8644263655242255e-06
-6.090169609963658e-06   1.0826429347724387e-06   -4.8644263655242255e-06
-6.090169609963658e-06   1.0826429347724387e-06   -4.8644263655242255e-06
-7.017166827985282e-06   1.5388013881195044e-06   -5.7242455596798235e-06
-7.017166827985282e-06   1.5388013881195044e-06   -5.7242455596798235e-06
-7.017166827985282e-06   1.5388013881195044e-06   -5.7242455596798235e-06
-7.017166827985282e-06   1.5388013881195044e-06   -5.7242455596798235e-06
-5.457467124299635e-06   7.58168020409877e-07   -3.593126074162819e-06
-5.457467124299635e-06   7.58168020409877e-07   -3.593126074162819e-06
-5.457467124299635e-06   7.58168020409877e-07   -3.593126074162819e-06
-5.457467124299635e-06   7.58168020409877e-07   -3.593126074162819e-06
-5.344485921930604e-06   1.6956607257213039e-06   -5.528462829568106e-06
-5.344485921930604e-06   1.6956607257213039e-06   -5.528462829568106e-06
-5.344485921930604e-06   1.6956607257213039e-06   -5.528462829568106e-06
-5.344485921930604e-06   1.6956607257213039e-06   -5.528462829568106e-06
-6.692725575247315e-06   8.991837696946175e-07   -2.803510567090837e-06
-6.692725575247315e-06   8.991837696946175e-07   -2.803510567090837e-06
-6.692725575247315e-06   8.991837696946175e-07   -2.803510567090837e-06
-6.692725575247315e-06   8.991837696946175e-07   -2.803510567090837e-06
-5.9834704457911625e-06   1.2321724176613566e-06   -4.185395638297854e-06
-5.9834704457911625e-06   1.2321724176613566e-06   -4.185395638297854e-06
-5.9834704457911625e-06   1.2321724176613566e-06   -4.185395638297854e-06
-5.9834704457911625e-06   1.2321724176613566e-06   -4.185395638297854e-06
-6.692725575247301e-06   1.6956607257213039e-06   -5.050576655952062e-06
-6.692725575247301e-06   1.6956607257213039e-06   -5.050576655952062e-06
-6.692725575247301e-06   1.6956607257213039e-06   -5.050576655952062e-06
-6.692725575247301e-06   1.6956607257213039e-06   -5.050576655952062e-06
-5.344485921930611e-06   8.991837696946175e-07   -3.2813967407068677e-06
-5.344485921930611e-06   8.991837696946175e-07   -3.2813967407068677e-06
-5.344485921930611e-06   8.991837696946175e-07   -3.2813967407068677e-06
-5.344485921930611e-06   8.991837696946175e-07   -3.2813967407068677e-06
-5.269835886173741e-06   1.8949665383910497e-06   -4.679938827944151e-06
-5.269835886173741e-06   1.8949665383910497e-06   -4.679938827944151e-06
-5.269835886173741e-06   1.8949665383910497e-06   -4.679938827944151e-06
-5.269835886173741e-06   1.8949665383910497e-06   -4.679938827944151e-06
-6.280227011307024e-06   1.1233577073242198e-06   -2.5329883207485596e-06
-6.280227011307024e-06   1.1233577073242198e-06   -2.5329883207485596e-06
-6.280227011307024e-06   1.1233577073242198e-06   -2.5329883207485596e-06
-6.280227011307024e-06   1.1233577073242198e-06   -2.5329883207485596e-06
-5.705600184384685e-06   1.3383991933797203e-06   -3.6197245905859036e-06
-5.705600184384685e-06   1.3383991933797203e-06   -3.6197245905859036e-06
-5.705600184384685e-06   1.3383991933797203e-06   -3.6197245905859036e-06
-5.705600184384685e-06   1.3383991933797203e-06   -3.6197245905859036e-06
-5.536007438152588e-06   6.293591301481563e-07   -1.0315384950750989e-05
-5.536007438152588e-06   6.293591301481563e-07   -1.0315384950750989e-05
-5.536007438152588e-06   6.293591301481563e-07   -1.0315384950750989e-05
-5.536007438152588e-06   6.293591301481563e-07   -1.0315384950750989e-05
-3.993058550957269e-06   2.856466006880736e-07   -7.950030989768169e-06
-3.993058550957269e-06   2.856466006880736e-07   -7.950030989768169e-06
-3.993058550957269e-06   2.856466006880736e-07   -7.950030989768169e-06
-3.993058550957269e-06   2.856466006880736e-07   -7.950030989768169e-06
-3.943620045177734e-06   9.826677479350557e-07   -1.0278435538596114e-05
-3.943620045177734e-06   9.826677479350557e-07   -1.0278435538596114e-05
-3.943620045177734e-06   9.826677479350557e-07   -1.0278435538596114e-05
-3.943620045177734e-06   9.826677479350557e-07   -1.0278435538596114e-05
-5.4574671242996485e-06   6.028811819571464e-07   -7.527485133806145e-06
-5.4574671242996485e-06   6.028811819571464e-07   -7.527485133806145e-06
-5.4574671242996485e-06   6.028811819571464e-07   -7.527485133806145e-06
-5.4574671242996485e-06   6.028811819571464e-07   -7.527485133806145e-06
-4.686323968837036e-06   6.882219135367451e-07   -8.863928165191786e-06
-4.686323968837036e-06   6.882219135367451e-07   -8.863928165191786e-06
-4.686323968837036e-06   6.882219135367451e-07   -8.863928165191786e-06
-4.686323968837036e-06   6.882219135367451e-07   -8.863928165191786e-06
-5.457467124299621e-06   9.826677479350557e-07   -1.0050563599009287e-05
-5.457467124299621e-06   9.826677479350557e-07   -1.0050563599009287e-05
-5.457467124299621e-06   9.826677479350557e-07   -1.0050563599009287e-05
-5.457467124299621e-06   9.826677479350557e-07   -1.0050563599009287e-05
-3.943620045177734e-06   6.028811819571464e-07   -7.755357073392863e-06
-3.943620045177734e-06   6.028811819571464e-07   -7.755357073392863e-06
-3.943620045177734e-06   6.028811819571464e-07   -7.755357073392863e-06
-3.943620045177734e-06   6.028811819571464e-07   -7.755357073392863e-06
-3.888748100661392e-06   1.3054930844471355e-06   -1.0111894633256405e-05
-3.888748100661392e-06   1.3054930844471355e-06   -1.0111894633256405e-05
-3.888748100661392e-06   1.3054930844471355e-06   -1.0111894633256405e-05
-3.888748100661392e-06   1.3054930844471355e-06   -1.0111894633256405e-05
-5.344485921930624e-06   8.992232104728434e-07   -7.441903006756364e-06
-5.344485921930624e-06   8.992232104728434e-07   -7.441903006756364e-06
-5.344485921930624e-06   8.992232104728434e-07   -7.441903006756364e-06
-5.344485921930624e-06   8.992232104728434e-07   -7.441903006756364e-06
-4.620271241493702e-06   9.462035237996886e-07   -8.677115662147284e-06
-4.620271241493702e-06   9.462035237996886e-07   -8.677115662147284e-06
-4.620271241493702e-06   9.462035237996886e-07   -8.677115662147284e-06
-4.620271241493702e-06   9.462035237996886e-07   -8.677115662147284e-06
-5.344485921930604e-06   1.3054930844471355e-06   -9.868132708871759e-06
-5.344485921930604e-06   1.3054930844471355e-06   -9.868132708871759e-06
-5.344485921930604e-06   1.3054930844471355e-06   -9.868132708871759e-06
-5.344485921930604e-06   1.3054930844471355e-06   -9.868132708871759e-06
-3.8887481006613855e-06   8.992232104727891e-07   -7.685664931140942e-06
-3.8887481006613855e-06   8.992232104727891e-07   -7.685664931140942e-06
-3.8887481006613855e-06   8.992232104727891e-07   -7.685664931140942e-06
-3.8887481006613855e-06   8.992232104727891e-07   -7.685664931140942e-06
-3.840723672050497e-06   1.6575168336110252e-06   -1.0210140563524957e-05
-3.840723672050497e-06   1.6575168336110252e-06   -1.0210140563524957e-05
-3.840723672050497e-06   1.6575168336110252e-06   -1.0210140563524957e-05
-3.840723672050497e-06   1.6575168336110252e-06   -1.0210140563524957e-05
-5.269835886173754e-06   1.2298449784923387e-06   -7.571683760248236e-06
-5.269835886173754e-06   1.2298449784923387e-06   -7.571683760248236e-06
-5.269835886173754e-06   1.2298449784923387e-06   -7.571683760248236e-06
-5.269835886173754e-06   1.2298449784923387e-06   -7.571683760248236e-06
-4.597102873626466e-06   1.2089930708066238e-06   -8.680394303215761e-06
-4.597102873626466e-06   1.2089930708066238e-06   -8.680394303215761e-06
-4.597102873626466e-06   1.2089930708066238e-06   -8.680394303215761e-06
-4.597102873626466e-06   1.2089930708066238e-06   -8.680394303215761e-06
-3.993058550957255e-06   1.1231904597543141e-07   -1.1681327017110398e-05
-3.993058550957255e-06   1.1231904597543141e-07   -1.1681327017110398e-05
-3.993058550957255e-06   1.1231904597543141e-07   -1.1681327017110398e-05
-3.993058550957255e-06   1.1231904597543141e-07   -1.1681327017110398e-05
-2.484106916419772e-06   1.6951859841633082e-07   -9.132087894750065e-06
-2.484106916419772e-06   1.6951859841633082e-07   -9.132087894750065e-06
-2.484106916419772e-06   1.6951859841633082e-07   -9.132087894750065e-06
-2.484106916419772e-06   1.6951859841633082e-07   -9.132087894750065e-06
-2.4364009471683586e-06   4.6894388869902224e-07   -1.1530608699365048e-05
-2.4364009471683586e-06   4.6894388869902224e-07   -1.1530608699365048e-05
-2.4364009471683586e-06   4.6894388869902224e-07   -1.1530608699365048e-05
-2.4364009471683586e-06   4.6894388869902224e-07   -1.1530608699365048e-05
-3.943620045177734e-06   4.941584818977701e-07   -9.03370562526855e-06
-3.943620045177734e-06   4.941584818977701e-07   -9.03370562526855e-06
-3.943620045177734e-06   4.941584818977701e-07   -9.03370562526855e-06
-3.943620045177734e-06   4.941584818977701e-07   -9.03370562526855e-06
-3.193516186636118e-06   3.573035031617677e-07   -1.020176573559656e-05
-3.193516186636118e-06   3.573035031617677e-07   -1.020176573559656e-05
-3.193516186636118e-06   3.573035031617677e-07   -1.020176573559656e-05
-3.193516186636118e-06   3.573035031617677e-07   -1.020176573559656e-05
-3.943620045177724e-06   4.6894388869902224e-07   -1.1545737455284243e-05
-3.943620045177724e-06   4.6894388869902224e-07   -1.1545737455284243e-05
-3.943620045177724e-06   4.6894388869902224e-07   -1.1545737455284243e-05
-3.943620045177724e-06   4.6894388869902224e-07   -1.1545737455284243e-05
-2.4364009471683586e-06   4.941584818977701e-07   -9.018576869349368e-06
-2.4364009471683586e-06   4.941584818977701e-07   -9.018576869349368e-06
-2.4364009471683586e-06   4.941584818977701e-07   -9.018576869349368e-06
-2.4364009471683586e-06   4.941584818977701e-07   -9.018576869349368e-06
-2.381864534820979e-06   8.267308404355826e-07   -1.1559112998853427e-05
-2.381864534820979e-06   8.267308404355826e-07   -1.1559112998853427e-05
-2.381864534820979e-06   8.267308404355826e-07   -1.1559112998853427e-05
-2.381864534820979e-06   8.267308404355826e-07   -1.1559112998853427e-05
-3.8887481006613855e-06   8.215723027553954e-07   -9.044545266511281e-06
-3.8887481006613855e-06   8.215723027553954e-07   -9.044545266511281e-06
-3.8887481006613855e-06   8.215723027553954e-07   -9.044545266511281e-06
-3.8887481006613855e-06   8.215723027553954e-07   -9.044545266511281e-06
-3.16295231690279e-06   6.372744863247294e-07   -1.014362621625056e-05
-3.16295231690279e-06   6.372744863247294e-07   -1.014362621625056e-05
-3.16295231690279e-06   6.372744863247294e-07   -1.014362621625056e-05
-3.16295231690279e-06   6.372744863247294e-07   -1.014362621625056e-05
-3.888748100661379e-06   8.267308404355826e-07   -1.155601787624532e-05
-3.888748100661379e-06   8.267308404355826e-07   -1.155601787624532e-05
-3.888748100661379e-06   8.267308404355826e-07   -1.155601787624532e-05
-3.888748100661379e-06   8.267308404355826e-07   -1.155601787624532e-05
-2.3818645348209828e-06   8.215723027553954e-07   -9.047640389119401e-06
-2.3818645348209828e-06   8.215723027553954e-07   -9.047640389119401e-06
-2.3818645348209828e-06   8.215723027553954e-07   -9.047640389119401e-06
-2.3818645348209828e-06   8.215723027553954e-07   -9.047640389119401e-06
-2.3331166501031146e-06   1.1907725454127942e-06   -1.1753380727589383e-05
-2.3331166501031146e-06   1.1907725454127942e-06   -1.1753380727589383e-05
-2.3331166501031146e-06   1.1907725454127942e-06   -1.1753380727589383e-05
-2.3331166501031146e-06   1.1907725454127942e-06   -1.1753380727589383e-05
-3.840723672050497e-06   1.1540085735186408e-06   -9.2186439745405e-06
-3.840723672050497e-06   1.1540085735186408e-06   -9.2186439745405e-06
-3.840723672050497e-06   1.1540085735186408e-06   -9.2186439745405e-06
-3.840723672050497e-06   1.1540085735186408e-06   -9.2186439745405e-06
-3.1385480133998445e-06   9.209927557418283e-07   -1.0249127248292266e-05
-3.1385480133998445e-06   9.209927557418283e-07   -1.0249127248292266e-05
-3.1385480133998445e-06   9.209927557418283e-07   -1.0249127248292266e-05
-3.1385480133998445e-06   9.209927557418283e-07   -1.0249127248292266e-05
-2.4841069164197634e-06   -3.594247880423212e-07   -1.0229749884473229e-05
-2.4841069164197634e-06   -3.594247880423212e-07   -1.0229749884473229e-05
-2.4841069164197634e-06   -3.594247880423212e-07   -1.0229749884473229e-05
-2.4841069164197634e-06   -3.594247880423212e-07   -1.0229749884473229e-05
-1.031295553368838e-06   8.290475783775866e-08   -7.542999885193607e-06
-1.031295553368838e-06   8.290475783775866e-08   -7.542999885193607e-06
-1.031295553368838e-06   8.290475783775866e-08   -7.542999885193607e-06
-1.031295553368838e-06   8.290475783775866e-08   -7.542999885193607e-06
-9.579449875253353e-07   -2.210601572107118e-08   -9.894651314819552e-06
-9.579449875253353e-07   -2.210601572107118e-08   -9.894651314819552e-06
-9.579449875253353e-07   -2.210601572107118e-08   -9.894651314819552e-06
-9.579449875253353e-07   -2.210601572107118e-08   -9.894651314819552e-06
-2.4364009471683544e-06   3.9855510629776625e-07   -7.682954721959051e-06
-2.4364009471683544e-06   3.9855510629776625e-07   -7.682954721959051e-06
-2.4364009471683544e-06   3.9855510629776625e-07   -7.682954721959051e-06
-2.4364009471683544e-06   3.9855510629776625e-07   -7.682954721959051e-06
-1.7099213964973966e-06   5.7637418731867895e-08   -8.689203360537961e-06
-1.7099213964973966e-06   5.7637418731867895e-08   -8.689203360537961e-06
-1.7099213964973966e-06   5.7637418731867895e-08   -8.689203360537961e-06
-1.7099213964973966e-06   5.7637418731867895e-08   -8.689203360537961e-06
-2.43640094716835e-06   -2.210601572107118e-08   -1.0147047988030822e-05
-2.43640094716835e-06   -2.210601572107118e-08   -1.0147047988030822e-05
-2.43640094716835e-06   -2.210601572107118e-08   -1.0147047988030822e-05
-2.43640094716835e-06   -2.210601572107118e-08   -1.0147047988030822e-05
-9.579449875253353e-07   3.9855510629782046e-07   -7.4305580487478114e-06
-9.579449875253353e-07   3.9855510629782046e-07   -7.4305580487478114e-06
-9.579449875253353e-07   3.9855510629782046e-07   -7.4305580487478114e-06
-9.579449875253353e-07   3.9855510629782046e-07   -7.4305580487478114e-06
-8.456770754003367e-07   3.010981552061269e-07   -1.0023733864263204e-05
-8.456770754003367e-07   3.010981552061269e-07   -1.0023733864263204e-05
-8.456770754003367e-07   3.010981552061269e-07   -1.0023733864263204e-05
-8.456770754003367e-07   3.010981552061269e-07   -1.0023733864263204e-05
-2.381864534820979e-06   6.948355633505285e-07   -7.699663876782044e-06
-2.381864534820979e-06   6.948355633505285e-07   -7.699663876782044e-06
-2.381864534820979e-06   6.948355633505285e-07   -7.699663876782044e-06
-2.381864534820979e-06   6.948355633505285e-07   -7.699663876782044e-06
-1.6665762446769513e-06   3.131945989728359e-07   -8.662826448395484e-06
-1.6665762446769513e-06   3.131945989728359e-07   -8.662826448395484e-06
-1.6665762446769513e-06   3.131945989728359e-07   -8.662826448395484e-06
-1.6665762446769513e-06   3.131945989728359e-07   -8.662826448395484e-06
-2.3818645348209726e-06   3.010981552061269e-07   -1.0259976309149774e-05
-2.3818645348209726e-06   3.010981552061269e-07   -1.0259976309149774e-05
-2.3818645348209726e-06   3.010981552061269e-07   -1.0259976309149774e-05
-2.3818645348209726e-06   3.010981552061269e-07   -1.0259976309149774e-05
-8.456770754003401e-07   6.948355633504743e-07   -7.4634214318954365e-06
-8.456770754003401e-07   6.948355633504743e-07   -7.4634214318954365e-06
-8.456770754003401e-07   6.948355633504743e-07   -7.4634214318954365e-06
-8.456770754003401e-07   6.948355633504743e-07   -7.4634214318954365e-06
-7.678626617674981e-07   6.700715064264094e-07   -1.0303721297357237e-05
-7.678626617674981e-07   6.700715064264094e-07   -1.0303721297357237e-05
-7.678626617674981e-07   6.700715064264094e-07   -1.0303721297357237e-05
-7.678626617674981e-07   6.700715064264094e-07   -1.0303721297357237e-05
-2.3331166501031146e-06   1.0283559156448068e-06   -7.909935295662198e-06
-2.3331166501031146e-06   1.0283559156448068e-06   -7.909935295662198e-06
-2.3331166501031146e-06   1.0283559156448068e-06   -7.909935295662198e-06
-2.3331166501031146e-06   1.0283559156448068e-06   -7.909935295662198e-06
-1.6218136078126102e-06   5.795473670832003e-07   -8.826155237009431e-06
-1.6218136078126102e-06   5.795473670832003e-07   -8.826155237009431e-06
-1.6218136078126102e-06   5.795473670832003e-07   -8.826155237009431e-06
-1.6218136078126102e-06   5.795473670832003e-07   -8.826155237009431e-06
-1.0312955533688346e-06   -6.523783747505241e-07   -5.5330342966933635e-06
-1.0312955533688346e-06   -6.523783747505241e-07   -5.5330342966933635e-06
-1.0312955533688346e-06   -6.523783747505241e-07   -5.5330342966933635e-06
-1.0312955533688346e-06   -6.523783747505241e-07   -5.5330342966933635e-06
2.5685800421294466e-10   1.2663316052837978e-07   -3.3463733565709656e-06
2.5685800421294466e-10   1.2663316052837978e-07   -3.3463733565709656e-06
2.5685800421294466e-10   1.2663316052837978e-07   -3.3463733565709656e-06
2.5685800421294466e-10   1.2663316052837978e-07   -3.3463733565709656e-06
4.091039789559206e-07   -4.2207644985038737e-07   -5.2564108436728896e-06
4.091039789559206e-07   -4.2207644985038737e-07   -5.2564108436728896e-06
4.091039789559206e-07   -4.2207644985038737e-07   -5.2564108436728896e-06
4.091039789559206e-07   -4.2207644985038737e-07   -5.2564108436728896e-06
-9.579449875253353e-07   3.7759479347133874e-07   -3.4577986455303894e-06
-9.579449875253353e-07   3.7759479347133874e-07   -3.4577986455303894e-06
-9.579449875253353e-07   3.7759479347133874e-07   -3.4577986455303894e-06
-9.579449875253353e-07   3.7759479347133874e-07   -3.4577986455303894e-06
-3.81855272260749e-07   -1.101537429661092e-07   -4.1252990491090355e-06
-3.81855272260749e-07   -1.101537429661092e-07   -4.1252990491090355e-06
-3.81855272260749e-07   -1.101537429661092e-07   -4.1252990491090355e-06
-3.81855272260749e-07   -1.101537429661092e-07   -4.1252990491090355e-06
-9.57944987525332e-07   -4.2207644985038737e-07   -5.736213589665866e-06
-9.57944987525332e-07   -4.2207644985038737e-07   -5.736213589665866e-06
-9.57944987525332e-07   -4.2207644985038737e-07   -5.736213589665866e-06
-9.57944987525332e-07   -4.2207644985038737e-07   -5.736213589665866e-06
4.091039789559206e-07   3.7759479347133874e-07   -2.9779958995374066e-06
4.091039789559206e-07   3.7759479347133874e-07   -2.9779958995374066e-06
4.091039789559206e-07   3.7759479347133874e-07   -2.9779958995374066e-06
4.091039789559206e-07   3.7759479347133874e-07   -2.9779958995374066e-06
7.324329386928025e-07   -2.6471304762486106e-07   -5.531439959188572e-06
7.324329386928025e-07   -2.6471304762486106e-07   -5.531439959188572e-06
7.324329386928025e-07   -2.6471304762486106e-07   -5.531439959188572e-06
7.324329386928025e-07   -2.6471304762486106e-07   -5.531439959188572e-06
-8.456770754003401e-07   5.179720135222517e-07   -3.3708676390548914e-06
-8.456770754003401e-07   5.179720135222517e-07   -3.3708676390548914e-06
-8.456770754003401e-07   5.179720135222517e-07   -3.3708676390548914e-06
-8.456770754003401e-07   5.179720135222517e-07   -3.3708676390548914e-06
-1.790197148390764e-07   1.1315750056753709e-08   -4.177969481911035e-06
-1.790197148390764e-07   1.1315750056753709e-08   -4.177969481911035e-06
-1.790197148390764e-07   1.1315750056753709e-08   -4.177969481911035e-06
-1.790197148390764e-07   1.1315750056753709e-08   -4.177969481911035e-06
-8.456770754003367e-07   -2.6471304762486106e-07   -6.001050995876845e-06
-8.456770754003367e-07   -2.6471304762486106e-07   -6.001050995876845e-06
-8.456770754003367e-07   -2.6471304762486106e-07   -6.001050995876845e-06
-8.456770754003367e-07   -2.6471304762486106e-07   -6.001050995876845e-06
7.324329386928025e-07   5.179720135222517e-07   -2.9012566023666386e-06
7.324329386928025e-07   5.179720135222517e-07   -2.9012566023666386e-06
7.324329386928025e-07   5.179720135222517e-07   -2.9012566023666386e-06
7.324329386928025e-07   5.179720135222517e-07   -2.9012566023666386e-06
1.1434910197015888e-06   4.155178599048355e-08   -6.183560755324355e-06
1.1434910197015888e-06   4.155178599048355e-08   -6.183560755324355e-06
1.1434910197015888e-06   4.155178599048355e-08   -6.183560755324355e-06
1.1434910197015888e-06   4.155178599048355e-08   -6.183560755324355e-06
-7.678626617675015e-07   7.633504419450815e-07   -3.431050479781896e-06
-7.678626617675015e-07   7.633504419450815e-07   -3.431050479781896e-06
-7.678626617675015e-07   7.633504419450815e-07   -3.431050479781896e-06
-7.678626617675015e-07   7.633504419450815e-07   -3.431050479781896e-06
1.2765066544028321e-09   1.4641252935482805e-07   -4.342786346264355e-06
1.2765066544028321e-09   1.4641252935482805e-07   -4.342786346264355e-06
1.2765066544028321e-09   1.4641252935482805e-07   -4.342786346264355e-06
1.2765066544028321e-09   1.4641252935482805e-07   -4.342786346264355e-06
-2.4933067521251706e-06   4.822809664571312e-07   -4.6067143073844714e-06
-2.4933067521251706e-06   4.822809664571312e-07   -4.6067143073844714e-06
-2.4933067521251706e-06   4.822809664571312e-07   -4.6067143073844714e-06
-2.4933067521251706e-06   4.822809664571312e-07   -4.6067143073844714e-06
-2.6175232636607663e-06   -2.3811007760610832e-07   -5.2459764530484175e-06
-2.6175232636607663e-06   -2.3811007760610832e-07   -5.2459764530484175e-06
-2.6175232636607663e-06   -2.3811007760610832e-07   -5.2459764530484175e-06
-2.6175232636607663e-06   -2.3811007760610832e-07   -5.2459764530484175e-06
-2.4916956875459825e-06   7.581680204098227e-07   -4.3305733090227404e-06
-2.4916956875459825e-06   7.581680204098227e-07   -4.3305733090227404e-06
-2.4916956875459825e-06   7.581680204098227e-07   -4.3305733090227404e-06
-2.4916956875459825e-06   7.581680204098227e-07   -4.3305733090227404e-06
-2.041767773466768e-06   -1.671166635982971e-08   -4.615525353759568e-06
-2.041767773466768e-06   -1.671166635982971e-08   -4.615525353759568e-06
-2.041767773466768e-06   -1.671166635982971e-08   -4.615525353759568e-06
-2.041767773466768e-06   -1.671166635982971e-08   -4.615525353759568e-06
-2.3060836967302898e-06   3.325155389979082e-07   -4.384535138201849e-06
-2.3060836967302898e-06   3.325155389979082e-07   -4.384535138201849e-06
-2.3060836967302898e-06   3.325155389979082e-07   -4.384535138201849e-06
-2.3060836967302898e-06   3.325155389979082e-07   -4.384535138201849e-06
-2.041767773466768e-06   7.581680204098227e-07   -3.865645496960954e-06
-2.041767773466768e-06   7.581680204098227e-07   -3.865645496960954e-06
-2.041767773466768e-06   7.581680204098227e-07   -3.865645496960954e-06
-2.041767773466768e-06   7.581680204098227e-07   -3.865645496960954e-06
-2.4916956875459893e-06   -1.671166635982971e-08   -5.080453165821476e-06
-2.4916956875459893e-06   -1.671166635982971e-08   -5.080453165821476e-06
-2.4916956875459893e-06   -1.671166635982971e-08   -5.080453165821476e-06
-2.4916956875459893e-06   -1.671166635982971e-08   -5.080453165821476e-06
-2.3318757142700217e-06   8.991837696945633e-07   -4.017972991316029e-06
-2.3318757142700217e-06   8.991837696945633e-07   -4.017972991316029e-06
-2.3318757142700217e-06   8.991837696945633e-07   -4.017972991316029e-06
-2.3318757142700217e-06   8.991837696945633e-07   -4.017972991316029e-06
-1.6714389019342106e-06   1.1040217577255396e-07   -4.645432055522443e-06
-1.6714389019342106e-06   1.1040217577255396e-07   -4.645432055522443e-06
-1.6714389019342106e-06   1.1040217577255396e-07   -4.645432055522443e-06
-1.6714389019342106e-06   1.1040217577255396e-07   -4.645432055522443e-06
-2.0951958398860826e-06   4.472199164719595e-07   -4.1412611366891495e-06
-2.0951958398860826e-06   4.472199164719595e-07   -4.1412611366891495e-06
-2.0951958398860826e-06   4.472199164719595e-07   -4.1412611366891495e-06
-2.0951958398860826e-06   4.472199164719595e-07   -4.1412611366891495e-06
-1.671438901934197e-06   8.991837696945633e-07   -3.54470403496278e-06
-1.671438901934197e-06   8.991837696945633e-07   -3.54470403496278e-06
-1.671438901934197e-06   8.991837696945633e-07   -3.54470403496278e-06
-1.671438901934197e-06   8.991837696945633e-07   -3.54470403496278e-06
-2.3318757142700217e-06   1.1040217577260817e-07   -5.118701011875651e-06
-2.3318757142700217e-06   1.1040217577260817e-07   -5.118701011875651e-06
-2.3318757142700217e-06   1.1040217577260817e-07   -5.118701011875651e-06
-2.3318757142700217e-06   1.1040217577260817e-07   -5.118701011875651e-06
-2.209765806861012e-06   1.1233577073242198e-06   -3.73096657485094e-06
-2.209765806861012e-06   1.1233577073242198e-06   -3.73096657485094e-06
-2.209765806861012e-06   1.1233577073242198e-06   -3.73096657485094e-06
-2.209765806861012e-06   1.1233577073242198e-06   -3.73096657485094e-06
-1.2141975536352672e-06   3.632733050191561e-07   -4.934196355510848e-06
-1.2141975536352672e-06   3.632733050191561e-07   -4.934196355510848e-06
-1.2141975536352672e-06   3.632733050191561e-07   -4.934196355510848e-06
-1.2141975536352672e-06   3.632733050191561e-07   -4.934196355510848e-06
-1.833846072163482e-06   5.595067268411168e-07   -4.0191888777236725e-06
-1.833846072163482e-06   5.595067268411168e-07   -4.0191888777236725e-06
-1.833846072163482e-06   5.595067268411168e-07   -4.0191888777236725e-06
-1.833846072163482e-06   5.595067268411168e-07   -4.0191888777236725e-06
-2.6175232636607595e-06   2.856466006880736e-07   -8.481712479086162e-06
-2.6175232636607595e-06   2.856466006880736e-07   -8.481712479086162e-06
-2.6175232636607595e-06   2.856466006880736e-07   -8.481712479086162e-06
-2.6175232636607595e-06   2.856466006880736e-07   -8.481712479086162e-06
-3.086173842101617e-06   -4.5468179962304504e-08   -9.46146564487785e-06
-3.086173842101617e-06   -4.5468179962304504e-08   -9.46146564487785e-06
-3.086173842101617e-06   -4.5468179962304504e-08   -9.46146564487785e-06
-3.086173842101617e-06   -4.5468179962304504e-08   -9.46146564487785e-06
-2.986533608159366e-06   6.028811819571464e-07   -8.485601713711976e-06
-2.986533608159366e-06   6.028811819571464e-07   -8.485601713711976e-06
-2.986533608159366e-06   6.028811819571464e-07   -8.485601713711976e-06
-2.986533608159366e-06   6.028811819571464e-07   -8.485601713711976e-06
-2.4916956875459893e-06   2.3509894021405417e-07   -9.089662236354994e-06
-2.4916956875459893e-06   2.3509894021405417e-07   -9.089662236354994e-06
-2.4916956875459893e-06   2.3509894021405417e-07   -9.089662236354994e-06
-2.4916956875459893e-06   2.3509894021405417e-07   -9.089662236354994e-06
-2.7630895671186505e-06   3.3285933804703353e-07   -8.695995342433878e-06
-2.7630895671186505e-06   3.3285933804703353e-07   -8.695995342433878e-06
-2.7630895671186505e-06   3.3285933804703353e-07   -8.695995342433878e-06
-2.7630895671186505e-06   3.3285933804703353e-07   -8.695995342433878e-06
-2.4916956875459758e-06   6.028811819571464e-07   -8.264932368666012e-06
-2.4916956875459758e-06   6.028811819571464e-07   -8.264932368666012e-06
-2.4916956875459758e-06   6.028811819571464e-07   -8.264932368666012e-06
-2.4916956875459758e-06   6.028811819571464e-07   -8.264932368666012e-06
-2.9865336081593625e-06   2.3509894021405417e-07   -9.310331581400931e-06
-2.9865336081593625e-06   2.3509894021405417e-07   -9.310331581400931e-06
-2.9865336081593625e-06   2.3509894021405417e-07   -9.310331581400931e-06
-2.9865336081593625e-06   2.3509894021405417e-07   -9.310331581400931e-06
-2.882724484455647e-06   8.992232104728434e-07   -8.41413908398347e-06
-2.882724484455647e-06   8.992232104728434e-07   -8.41413908398347e-06
-2.882724484455647e-06   8.992232104728434e-07   -8.41413908398347e-06
-2.882724484455647e-06   8.992232104728434e-07   -8.41413908398347e-06
-2.3318757142700217e-06   5.0645683277625e-07   -9.09656054100815e-06
-2.3318757142700217e-06   5.0645683277625e-07   -9.09656054100815e-06
-2.3318757142700217e-06   5.0645683277625e-07   -9.09656054100815e-06
-2.3318757142700217e-06   5.0645683277625e-07   -9.09656054100815e-06
-2.6634283439403376e-06   5.606528721712909e-07   -8.576490448528056e-06
-2.6634283439403376e-06   5.606528721712909e-07   -8.576490448528056e-06
-2.6634283439403376e-06   5.606528721712909e-07   -8.576490448528056e-06
-2.6634283439403376e-06   5.606528721712909e-07   -8.576490448528056e-06
-2.3318757142700217e-06   8.992232104728434e-07   -8.178479257365444e-06
-2.3318757142700217e-06   8.992232104728434e-07   -8.178479257365444e-06
-2.3318757142700217e-06   8.992232104728434e-07   -8.178479257365444e-06
-2.3318757142700217e-06   8.992232104728434e-07   -8.178479257365444e-06
-2.88272448445564e-06   5.064568327761958e-07   -9.332220367626055e-06
-2.88272448445564e-06   5.064568327761958e-07   -9.332220367626055e-06
-2.88272448445564e-06   5.064568327761958e-07   -9.332220367626055e-06
-2.88272448445564e-06   5.064568327761958e-07   -9.332220367626055e-06
-2.785662991348834e-06   1.2298449784923387e-06   -8.554051551982003e-06
-2.785662991348834e-06   1.2298449784923387e-06   -8.554051551982003e-06
-2.785662991348834e-06   1.2298449784923387e-06   -8.554051551982003e-06
-2.785662991348834e-06   1.2298449784923387e-06   -8.554051551982003e-06
-2.2097658068610186e-06   8.175869180400636e-07   -9.266525356523572e-06
-2.2097658068610186e-06   8.175869180400636e-07   -9.266525356523572e-06
-2.2097658068610186e-06   8.175869180400636e-07   -9.266525356523572e-06
-2.2097658068610186e-06   8.175869180400636e-07   -9.266525356523572e-06
-2.5765802330183304e-06   8.010318495491292e-07   -8.645234938500196e-06
-2.5765802330183304e-06   8.010318495491292e-07   -8.645234938500196e-06
-2.5765802330183304e-06   8.010318495491292e-07   -8.645234938500196e-06
-2.5765802330183304e-06   8.010318495491292e-07   -8.645234938500196e-06
-3.08617384210161e-06   1.6951859841633082e-07   -9.896757983922822e-06
-3.08617384210161e-06   1.6951859841633082e-07   -9.896757983922822e-06
-3.08617384210161e-06   1.6951859841633082e-07   -9.896757983922822e-06
-3.08617384210161e-06   1.6951859841633082e-07   -9.896757983922822e-06
-3.570092137064448e-06   2.4115942182638015e-07   -1.066030398148157e-05
-3.570092137064448e-06   2.4115942182638015e-07   -1.066030398148157e-05
-3.570092137064448e-06   2.4115942182638015e-07   -1.066030398148157e-05
-3.570092137064448e-06   2.4115942182638015e-07   -1.066030398148157e-05
-3.472648088161747e-06   4.941584818977701e-07   -9.740800346765883e-06
-3.472648088161747e-06   4.941584818977701e-07   -9.740800346765883e-06
-3.472648088161747e-06   4.941584818977701e-07   -9.740800346765883e-06
-3.472648088161747e-06   4.941584818977701e-07   -9.740800346765883e-06
-2.986533608159366e-06   5.327416799340767e-07   -1.0574141065591605e-05
-2.986533608159366e-06   5.327416799340767e-07   -1.0574141065591605e-05
-2.986533608159366e-06   5.327416799340767e-07   -1.0574141065591605e-05
-2.986533608159366e-06   5.327416799340767e-07   -1.0574141065591605e-05
-3.2590636709690417e-06   4.0528297622478924e-07   -1.004344907201672e-05
-3.2590636709690417e-06   4.0528297622478924e-07   -1.004344907201672e-05
-3.2590636709690417e-06   4.0528297622478924e-07   -1.004344907201672e-05
-3.2590636709690417e-06   4.0528297622478924e-07   -1.004344907201672e-05
-2.986533608159359e-06   4.941584818977701e-07   -9.763950265587662e-06
-2.986533608159359e-06   4.941584818977701e-07   -9.763950265587662e-06
-2.986533608159359e-06   4.941584818977701e-07   -9.763950265587662e-06
-2.986533608159359e-06   4.941584818977701e-07   -9.763950265587662e-06
-3.4726480881617528e-06   5.327416799340767e-07   -1.055099114676984e-05
-3.4726480881617528e-06   5.327416799340767e-07   -1.055099114676984e-05
-3.4726480881617528e-06   5.327416799340767e-07   -1.055099114676984e-05
-3.4726480881617528e-06   5.327416799340767e-07   -1.055099114676984e-05
-3.369436203321167e-06   8.215723027553954e-07   -9.767674039216792e-06
-3.369436203321167e-06   8.215723027553954e-07   -9.767674039216792e-06
-3.369436203321167e-06   8.215723027553954e-07   -9.767674039216792e-06
-3.369436203321167e-06   8.215723027553954e-07   -9.767674039216792e-06
-2.882724484455647e-06   8.304812696503295e-07   -1.0584205617462922e-05
-2.882724484455647e-06   8.304812696503295e-07   -1.0584205617462922e-05
-2.882724484455647e-06   8.304812696503295e-07   -1.0584205617462922e-05
-2.882724484455647e-06   8.304812696503295e-07   -1.0584205617462922e-05
-3.1783626987281865e-06   6.558116726018649e-07   -9.986673502113132e-06
-3.1783626987281865e-06   6.558116726018649e-07   -9.986673502113132e-06
-3.1783626987281865e-06   6.558116726018649e-07   -9.986673502113132e-06
-3.1783626987281865e-06   6.558116726018649e-07   -9.986673502113132e-06
-2.88272448445564e-06   8.215723027553954e-07   -9.773019419353715e-06
-2.88272448445564e-06   8.215723027553954e-07   -9.773019419353715e-06
-2.88272448445564e-06   8.215723027553954e-07   -9.773019419353715e-06
-2.88272448445564e-06   8.215723027553954e-07   -9.773019419353715e-06
-3.369436203321167e-06   8.304812696503295e-07   -1.0578860237325972e-05
-3.369436203321167e-06   8.304812696503295e-07   -1.0578860237325972e-05
-3.369436203321167e-06   8.304812696503295e-07   -1.0578860237325972e-05
-3.369436203321167e-06   8.304812696503295e-07   -1.0578860237325972e-05
-3.2722820366477867e-06   1.1540085735186408e-06   -9.957335429295315e-06
-3.2722820366477867e-06   1.1540085735186408e-06   -9.957335429295315e-06
-3.2722820366477867e-06   1.1540085735186408e-06   -9.957335429295315e-06
-3.2722820366477867e-06   1.1540085735186408e-06   -9.957335429295315e-06
-2.7856629913488374e-06   1.1324639466981593e-06   -1.0755440395367913e-05
-2.7856629913488374e-06   1.1324639466981593e-06   -1.0755440395367913e-05
-2.7856629913488374e-06   1.1324639466981593e-06   -1.0755440395367913e-05
-2.7856629913488374e-06   1.1324639466981593e-06   -1.0755440395367913e-05
-3.1047571705158267e-06   9.098990686416393e-07   -1.0090077836589001e-05
-3.1047571705158267e-06   9.098990686416393e-07   -1.0090077836589001e-05
-3.1047571705158267e-06   9.098990686416393e-07   -1.0090077836589001e-05
-3.1047571705158267e-06   9.098990686416393e-07   -1.0090077836589001e-05
-3.570092137064435e-06   8.290475783775866e-08   -8.530083207848409e-06
-3.570092137064435e-06   8.290475783775866e-08   -8.530083207848409e-06
-3.570092137064435e-06   8.290475783775866e-08   -8.530083207848409e-06
-3.570092137064435e-06   8.290475783775866e-08   -8.530083207848409e-06
-4.087838281387207e-06   5.326008584524851e-07   -9.123175788017593e-06
-4.087838281387207e-06   5.326008584524851e-07   -9.123175788017593e-06
-4.087838281387207e-06   5.326008584524851e-07   -9.123175788017593e-06
-4.087838281387207e-06   5.326008584524851e-07   -9.123175788017593e-06
-3.968517133100248e-06   3.9855510629782046e-07   -8.148705284198886e-06
-3.968517133100248e-06   3.9855510629782046e-07   -8.148705284198886e-06
-3.968517133100248e-06   3.9855510629782046e-07   -8.148705284198886e-06
-3.968517133100248e-06   3.9855510629782046e-07   -8.148705284198886e-06
-3.472648088161747e-06   8.260099649256354e-07   -9.231626607606394e-06
-3.472648088161747e-06   8.260099649256354e-07   -9.231626607606394e-06
-3.472648088161747e-06   8.260099649256354e-07   -9.231626607606394e-06
-3.472648088161747e-06   8.260099649256354e-07   -9.231626607606394e-06
-3.7453777813111486e-06   4.920813857444925e-07   -8.576719971515492e-06
-3.7453777813111486e-06   4.920813857444925e-07   -8.576719971515492e-06
-3.7453777813111486e-06   4.920813857444925e-07   -8.576719971515492e-06
-3.7453777813111486e-06   4.920813857444925e-07   -8.576719971515492e-06
-3.472648088161741e-06   3.9855510629782046e-07   -8.405178199375569e-06
-3.472648088161741e-06   3.9855510629782046e-07   -8.405178199375569e-06
-3.472648088161741e-06   3.9855510629782046e-07   -8.405178199375569e-06
-3.472648088161741e-06   3.9855510629782046e-07   -8.405178199375569e-06
-3.968517133100248e-06   8.260099649256354e-07   -8.975153692429702e-06
-3.968517133100248e-06   8.260099649256354e-07   -8.975153692429702e-06
-3.968517133100248e-06   8.260099649256354e-07   -8.975153692429702e-06
-3.968517133100248e-06   8.260099649256354e-07   -8.975153692429702e-06
-3.8110657076270475e-06   6.948355633505285e-07   -8.179200572696775e-06
-3.8110657076270475e-06   6.948355633505285e-07   -8.179200572696775e-06
-3.8110657076270475e-06   6.948355633505285e-07   -8.179200572696775e-06
-3.8110657076270475e-06   6.948355633505285e-07   -8.179200572696775e-06
-3.3694362033211606e-06   1.0956638203216303e-06   -9.155746700722566e-06
-3.3694362033211606e-06   1.0956638203216303e-06   -9.155746700722566e-06
-3.3694362033211606e-06   1.0956638203216303e-06   -9.155746700722566e-06
-3.3694362033211606e-06   1.0956638203216303e-06   -9.155746700722566e-06
-3.6385283813981914e-06   7.257641445668813e-07   -8.485319931808121e-06
-3.6385283813981914e-06   7.257641445668813e-07   -8.485319931808121e-06
-3.6385283813981914e-06   7.257641445668813e-07   -8.485319931808121e-06
-3.6385283813981914e-06   7.257641445668813e-07   -8.485319931808121e-06
-3.3694362033211526e-06   6.948355633504743e-07   -8.419697526879425e-06
-3.3694362033211526e-06   6.948355633504743e-07   -8.419697526879425e-06
-3.3694362033211526e-06   6.948355633504743e-07   -8.419697526879425e-06
-3.3694362033211526e-06   6.948355633504743e-07   -8.419697526879425e-06
-3.8110657076270543e-06   1.0956638203216303e-06   -8.915249746539928e-06
-3.8110657076270543e-06   1.0956638203216303e-06   -8.915249746539928e-06
-3.8110657076270543e-06   1.0956638203216303e-06   -8.915249746539928e-06
-3.8110657076270543e-06   1.0956638203216303e-06   -8.915249746539928e-06
-3.6881970623227444e-06   1.0283559156448068e-06   -8.405827189415826e-06
-3.6881970623227444e-06   1.0283559156448068e-06   -8.405827189415826e-06
-3.6881970623227444e-06   1.0283559156448068e-06   -8.405827189415826e-06
-3.6881970623227444e-06   1.0283559156448068e-06   -8.405827189415826e-06
-3.2722820366477867e-06   1.3962578787526112e-06   -9.319760076738733e-06
-3.2722820366477867e-06   1.3962578787526112e-06   -9.319760076738733e-06
-3.2722820366477867e-06   1.3962578787526112e-06   -9.319760076738733e-06
-3.2722820366477867e-06   1.3962578787526112e-06   -9.319760076738733e-06
-3.561233377882832e-06   9.632008681086427e-07   -8.578340301627218e-06
-3.561233377882832e-06   9.632008681086427e-07   -8.578340301627218e-06
-3.561233377882832e-06   9.632008681086427e-07   -8.578340301627218e-06
-3.561233377882832e-06   9.632008681086427e-07   -8.578340301627218e-06
-4.0878382813871935e-06   1.2663316052837978e-07   -4.531045940024328e-06
-4.0878382813871935e-06   1.2663316052837978e-07   -4.531045940024328e-06
-4.0878382813871935e-06   1.2663316052837978e-07   -4.531045940024328e-06
-4.0878382813871935e-06   1.2663316052837978e-07   -4.531045940024328e-06
-5.011442148460141e-06   9.012941650787267e-07   -5.60558911574902e-06
-5.011442148460141e-06   9.012941650787267e-07   -5.60558911574902e-06
-5.011442148460141e-06   9.012941650787267e-07   -5.60558911574902e-06
-5.011442148460141e-06   9.012941650787267e-07   -5.60558911574902e-06
-4.566750867050174e-06   3.7759479347133874e-07   -3.7012766696011533e-06
-4.566750867050174e-06   3.7759479347133874e-07   -3.7012766696011533e-06
-4.566750867050174e-06   3.7759479347133874e-07   -3.7012766696011533e-06
-4.566750867050174e-06   3.7759479347133874e-07   -3.7012766696011533e-06
-3.9685171331002374e-06   1.168710145771953e-06   -5.173002104231339e-06
-3.9685171331002374e-06   1.168710145771953e-06   -5.173002104231339e-06
-3.9685171331002374e-06   1.168710145771953e-06   -5.173002104231339e-06
-3.9685171331002374e-06   1.168710145771953e-06   -5.173002104231339e-06
-4.230305781718875e-06   6.741750565194518e-07   -4.4399666363156175e-06
-4.230305781718875e-06   6.741750565194518e-07   -4.4399666363156175e-06
-4.230305781718875e-06   6.741750565194518e-07   -4.4399666363156175e-06
-4.230305781718875e-06   6.741750565194518e-07   -4.4399666363156175e-06
-3.968517133100227e-06   3.7759479347128453e-07   -4.175945880981457e-06
-3.968517133100227e-06   3.7759479347128453e-07   -4.175945880981457e-06
-3.968517133100227e-06   3.7759479347128453e-07   -4.175945880981457e-06
-3.968517133100227e-06   3.7759479347128453e-07   -4.175945880981457e-06
-4.566750867050167e-06   1.168710145771953e-06   -4.698332892851009e-06
-4.566750867050167e-06   1.168710145771953e-06   -4.698332892851009e-06
-4.566750867050167e-06   1.168710145771953e-06   -4.698332892851009e-06
-4.566750867050167e-06   1.168710145771953e-06   -4.698332892851009e-06
-4.205058995323978e-06   5.179720135223059e-07   -3.6228159905395965e-06
-4.205058995323978e-06   5.179720135223059e-07   -3.6228159905395965e-06
-4.205058995323978e-06   5.179720135223059e-07   -3.6228159905395965e-06
-4.205058995323978e-06   5.179720135223059e-07   -3.6228159905395965e-06
-3.8110657076270475e-06   1.2910233290501158e-06   -4.743302259351119e-06
-3.8110657076270475e-06   1.2910233290501158e-06   -4.743302259351119e-06
-3.8110657076270475e-06   1.2910233290501158e-06   -4.743302259351119e-06
-3.8110657076270475e-06   1.2910233290501158e-06   -4.743302259351119e-06
-4.047521230828981e-06   7.996504416895537e-07   -4.054385988264936e-06
-4.047521230828981e-06   7.996504416895537e-07   -4.054385988264936e-06
-4.047521230828981e-06   7.996504416895537e-07   -4.054385988264936e-06
-4.047521230828981e-06   7.996504416895537e-07   -4.054385988264936e-06
-3.8110657076270407e-06   5.179720135223059e-07   -4.086646779856277e-06
-3.8110657076270407e-06   5.179720135223059e-07   -4.086646779856277e-06
-3.8110657076270407e-06   5.179720135223059e-07   -4.086646779856277e-06
-3.8110657076270407e-06   5.179720135223059e-07   -4.086646779856277e-06
-4.205058995323978e-06   1.2910233290501158e-06   -4.279471470034445e-06
-4.205058995323978e-06   1.2910233290501158e-06   -4.279471470034445e-06
-4.205058995323978e-06   1.2910233290501158e-06   -4.279471470034445e-06
-4.205058995323978e-06   1.2910233290501158e-06   -4.279471470034445e-06
-3.759166262707902e-06   7.633504419450273e-07   -3.7139456085345595e-06
-3.759166262707902e-06   7.633504419450273e-07   -3.7139456085345595e-06
-3.759166262707902e-06   7.633504419450273e-07   -3.7139456085345595e-06
-3.759166262707902e-06   7.633504419450273e-07   -3.7139456085345595e-06
-3.6881970623227376e-06   1.4766294594983974e-06   -4.26019501970842e-06
-3.6881970623227376e-06   1.4766294594983974e-06   -4.26019501970842e-06
-3.6881970623227376e-06   1.4766294594983974e-06   -4.26019501970842e-06
-3.6881970623227376e-06   1.4766294594983974e-06   -4.26019501970842e-06
-3.766124616975719e-06   8.984917366357758e-07   -3.7834331282359215e-06
-3.766124616975719e-06   8.984917366357758e-07   -3.7834331282359215e-06
-3.766124616975719e-06   8.984917366357758e-07   -3.7834331282359215e-06
-3.766124616975719e-06   8.984917366357758e-07   -3.7834331282359215e-06
2.4260204631555097e-06   -2.3811007760610832e-07   -2.2480328223123283e-06
2.4260204631555097e-06   -2.3811007760610832e-07   -2.2480328223123283e-06
2.4260204631555097e-06   -2.3811007760610832e-07   -2.2480328223123283e-06
2.4260204631555097e-06   -2.3811007760610832e-07   -2.2480328223123283e-06
2.656414377924128e-07   -9.629642089868727e-07   -6.283577010079251e-06
2.656414377924128e-07   -9.629642089868727e-07   -6.283577010079251e-06
2.656414377924128e-07   -9.629642089868727e-07   -6.283577010079251e-06
2.656414377924128e-07   -9.629642089868727e-07   -6.283577010079251e-06
4.368901337670295e-07   -1.671166635982971e-08   -2.5034845979089466e-06
4.368901337670295e-07   -1.671166635982971e-08   -2.5034845979089466e-06
4.368901337670295e-07   -1.671166635982971e-08   -2.5034845979089466e-06
4.368901337670295e-07   -1.671166635982971e-08   -2.5034845979089466e-06
2.9216871055787137e-06   -7.93584658527718e-07   -6.178689088961044e-06
2.9216871055787137e-06   -7.93584658527718e-07   -6.178689088961044e-06
2.9216871055787137e-06   -7.93584658527718e-07   -6.178689088961044e-06
2.9216871055787137e-06   -7.93584658527718e-07   -6.178689088961044e-06
1.4550171202947436e-06   -4.0573685673983e-07   -3.966947794560509e-06
1.4550171202947436e-06   -4.0573685673983e-07   -3.966947794560509e-06
1.4550171202947436e-06   -4.0573685673983e-07   -3.966947794560509e-06
1.4550171202947436e-06   -4.0573685673983e-07   -3.966947794560509e-06
2.9216871055787137e-06   -1.671166635982971e-08   -2.03736080260823e-06
2.9216871055787137e-06   -1.671166635982971e-08   -2.03736080260823e-06
2.9216871055787137e-06   -1.671166635982971e-08   -2.03736080260823e-06
2.9216871055787137e-06   -1.671166635982971e-08   -2.03736080260823e-06
4.368901337670295e-07   -7.935846585277722e-07   -6.644812884261842e-06
4.368901337670295e-07   -7.935846585277722e-07   -6.644812884261842e-06
4.368901337670295e-07   -7.935846585277722e-07   -6.644812884261842e-06
4.368901337670295e-07   -7.935846585277722e-07   -6.644812884261842e-06
6.397342401224561e-07   1.1040217577255396e-07   -2.5292943141250754e-06
6.397342401224561e-07   1.1040217577255396e-07   -2.5292943141250754e-06
6.397342401224561e-07   1.1040217577255396e-07   -2.5292943141250754e-06
6.397342401224561e-07   1.1040217577255396e-07   -2.5292943141250754e-06
3.337418764751078e-06   -6.784901349071032e-07   -6.552099802098309e-06
3.337418764751078e-06   -6.784901349071032e-07   -6.552099802098309e-06
3.337418764751078e-06   -6.784901349071032e-07   -6.552099802098309e-06
3.337418764751078e-06   -6.784901349071032e-07   -6.552099802098309e-06
1.7670821277046023e-06   -3.252422683745998e-07   -4.146820793607219e-06
1.7670821277046023e-06   -3.252422683745998e-07   -4.146820793607219e-06
1.7670821277046023e-06   -3.252422683745998e-07   -4.146820793607219e-06
1.7670821277046023e-06   -3.252422683745998e-07   -4.146820793607219e-06
3.3374187647510915e-06   1.1040217577255396e-07   -2.0559589277173082e-06
3.3374187647510915e-06   1.1040217577255396e-07   -2.0559589277173082e-06
3.3374187647510915e-06   1.1040217577255396e-07   -2.0559589277173082e-06
3.3374187647510915e-06   1.1040217577255396e-07   -2.0559589277173082e-06
6.397342401224561e-07   -6.784901349071032e-07   -7.025435188506184e-06
6.397342401224561e-07   -6.784901349071032e-07   -7.025435188506184e-06
6.397342401224561e-07   -6.784901349071032e-07   -7.025435188506184e-06
6.397342401224561e-07   -6.784901349071032e-07   -7.025435188506184e-06
8.042214087098623e-07   3.632733050191561e-07   -2.7890242134101973e-06
8.042214087098623e-07   3.632733050191561e-07   -2.7890242134101973e-06
8.042214087098623e-07   3.632733050191561e-07   -2.7890242134101973e-06
8.042214087098623e-07   3.632733050191561e-07   -2.7890242134101973e-06
3.837096695064103e-06   -3.9060087338995894e-07   -7.3914918502884005e-06
3.837096695064103e-06   -3.9060087338995894e-07   -7.3914918502884005e-06
3.837096695064103e-06   -3.9060087338995894e-07   -7.3914918502884005e-06
3.837096695064103e-06   -3.9060087338995894e-07   -7.3914918502884005e-06
2.0100106485196326e-06   -2.0513489154051247e-07   -4.457628028490813e-06
2.0100106485196326e-06   -2.0513489154051247e-07   -4.457628028490813e-06
2.0100106485196326e-06   -2.0513489154051247e-07   -4.457628028490813e-06
2.0100106485196326e-06   -2.0513489154051247e-07   -4.457628028490813e-06
2.656414377924128e-07   -4.5468179962304504e-08   -6.699765624579995e-06
2.656414377924128e-07   -4.5468179962304504e-08   -6.699765624579995e-06
2.656414377924128e-07   -4.5468179962304504e-08   -6.699765624579995e-06
2.656414377924128e-07   -4.5468179962304504e-08   -6.699765624579995e-06
-2.2152838466533604e-06   -3.7196787599510324e-07   -1.1030540916275917e-05
-2.2152838466533604e-06   -3.7196787599510324e-07   -1.1030540916275917e-05
-2.2152838466533604e-06   -3.7196787599510324e-07   -1.1030540916275917e-05
-2.2152838466533604e-06   -3.7196787599510324e-07   -1.1030540916275917e-05
-2.066942483968077e-06   2.3509894021405417e-07   -6.736177560165597e-06
-2.066942483968077e-06   2.3509894021405417e-07   -6.736177560165597e-06
-2.066942483968077e-06   2.3509894021405417e-07   -6.736177560165597e-06
-2.066942483968077e-06   2.3509894021405417e-07   -6.736177560165597e-06
4.368901337670295e-07   -1.373742126577573e-07   -1.0685748031334395e-05
4.368901337670295e-07   -1.373742126577573e-07   -1.0685748031334395e-05
4.368901337670295e-07   -1.373742126577573e-07   -1.0685748031334395e-05
4.368901337670295e-07   -1.373742126577573e-07   -1.0685748031334395e-05
-8.748053253826796e-07   -7.320115376482569e-09   -8.577621391120263e-06
-8.748053253826796e-07   -7.320115376482569e-09   -8.577621391120263e-06
-8.748053253826796e-07   -7.320115376482569e-09   -8.577621391120263e-06
-8.748053253826796e-07   -7.320115376482569e-09   -8.577621391120263e-06
4.368901337670295e-07   2.3509894021405417e-07   -6.512693668442532e-06
4.368901337670295e-07   2.3509894021405417e-07   -6.512693668442532e-06
4.368901337670295e-07   2.3509894021405417e-07   -6.512693668442532e-06
4.368901337670295e-07   2.3509894021405417e-07   -6.512693668442532e-06
-2.066942483968077e-06   -1.373742126577573e-07   -1.09092319230575e-05
-2.066942483968077e-06   -1.373742126577573e-07   -1.09092319230575e-05
-2.066942483968077e-06   -1.373742126577573e-07   -1.09092319230575e-05
-2.066942483968077e-06   -1.373742126577573e-07   -1.09092319230575e-05
-1.9176762877216673e-06   5.064568327761958e-07   -6.7474494203704745e-06
-1.9176762877216673e-06   5.064568327761958e-07   -6.7474494203704745e-06
-1.9176762877216673e-06   5.064568327761958e-07   -6.7474494203704745e-06
-1.9176762877216673e-06   5.064568327761958e-07   -6.7474494203704745e-06
6.397342401224561e-07   1.0596420425476854e-07   -1.0769504722997776e-05
6.397342401224561e-07   1.0596420425476854e-07   -1.0769504722997776e-05
6.397342401224561e-07   1.0596420425476854e-07   -1.0769504722997776e-05
6.397342401224561e-07   1.0596420425476854e-07   -1.0769504722997776e-05
-7.446167597029594e-07   1.8688054523736649e-07   -8.510802861211674e-06
-7.446167597029594e-07   1.8688054523736649e-07   -8.510802861211674e-06
-7.446167597029594e-07   1.8688054523736649e-07   -8.510802861211674e-06
-7.446167597029594e-07   1.8688054523736649e-07   -8.510802861211674e-06
6.397342401224561e-07   5.0645683277625e-07   -6.507153843257575e-06
6.397342401224561e-07   5.0645683277625e-07   -6.507153843257575e-06
6.397342401224561e-07   5.0645683277625e-07   -6.507153843257575e-06
6.397342401224561e-07   5.0645683277625e-07   -6.507153843257575e-06
-1.9176762877216673e-06   1.0596420425471433e-07   -1.100980030011069e-05
-1.9176762877216673e-06   1.0596420425471433e-07   -1.100980030011069e-05
-1.9176762877216673e-06   1.0596420425471433e-07   -1.100980030011069e-05
-1.9176762877216673e-06   1.0596420425471433e-07   -1.100980030011069e-05
-1.7757150066554208e-06   8.175869180400094e-07   -6.918667305089133e-06
-1.7757150066554208e-06   8.175869180400094e-07   -6.918667305089133e-06
-1.7757150066554208e-06   8.175869180400094e-07   -6.918667305089133e-06
-1.7757150066554208e-06   8.175869180400094e-07   -6.918667305089133e-06
8.042214087098555e-07   3.953123646244401e-07   -1.096519659864867e-05
8.042214087098555e-07   3.953123646244401e-07   -1.096519659864867e-05
8.042214087098555e-07   3.953123646244401e-07   -1.096519659864867e-05
8.042214087098555e-07   3.953123646244401e-07   -1.096519659864867e-05
-5.983254706264767e-07   4.0335812210380616e-07   -8.63244592090916e-06
-5.983254706264767e-07   4.0335812210380616e-07   -8.63244592090916e-06
-5.983254706264767e-07   4.0335812210380616e-07   -8.63244592090916e-06
-5.983254706264767e-07   4.0335812210380616e-07   -8.63244592090916e-06
-2.215283846653367e-06   2.4115942182643436e-07   -8.13748827284942e-06
-2.215283846653367e-06   2.4115942182643436e-07   -8.13748827284942e-06
-2.215283846653367e-06   2.4115942182643436e-07   -8.13748827284942e-06
-2.215283846653367e-06   2.4115942182643436e-07   -8.13748827284942e-06
-4.67121219550651e-06   3.034516564047137e-07   -1.2193326846857627e-05
-4.67121219550651e-06   3.034516564047137e-07   -1.2193326846857627e-05
-4.67121219550651e-06   3.034516564047137e-07   -1.2193326846857627e-05
-4.67121219550651e-06   3.034516564047137e-07   -1.2193326846857627e-05
-4.522237597147038e-06   5.327416799341309e-07   -7.987722105883487e-06
-4.522237597147038e-06   5.327416799341309e-07   -7.987722105883487e-06
-4.522237597147038e-06   5.327416799341309e-07   -7.987722105883487e-06
-4.522237597147038e-06   5.327416799341309e-07   -7.987722105883487e-06
-2.066942483968084e-06   5.531832440554881e-07   -1.2092145566321325e-05
-2.066942483968084e-06   5.531832440554881e-07   -1.2092145566321325e-05
-2.066942483968084e-06   5.531832440554881e-07   -1.2092145566321325e-05
-2.066942483968084e-06   5.531832440554881e-07   -1.2092145566321325e-05
-3.349511520257346e-06   4.582856854550032e-07   -9.89759197067888e-06
-3.349511520257346e-06   4.582856854550032e-07   -9.89759197067888e-06
-3.349511520257346e-06   4.582856854550032e-07   -9.89759197067888e-06
-3.349511520257346e-06   4.582856854550032e-07   -9.89759197067888e-06
-2.066942483968084e-06   5.327416799340767e-07   -7.999987044356394e-06
-2.066942483968084e-06   5.327416799340767e-07   -7.999987044356394e-06
-2.066942483968084e-06   5.327416799340767e-07   -7.999987044356394e-06
-2.066942483968084e-06   5.327416799340767e-07   -7.999987044356394e-06
-4.522237597147038e-06   5.531832440554881e-07   -1.2079880627848493e-05
-4.522237597147038e-06   5.531832440554881e-07   -1.2079880627848493e-05
-4.522237597147038e-06   5.531832440554881e-07   -1.2079880627848493e-05
-4.522237597147038e-06   5.531832440554881e-07   -1.2079880627848493e-05
-4.370271138579075e-06   8.304812696503295e-07   -8.007592820644116e-06
-4.370271138579075e-06   8.304812696503295e-07   -8.007592820644116e-06
-4.370271138579075e-06   8.304812696503295e-07   -8.007592820644116e-06
-4.370271138579075e-06   8.304812696503295e-07   -8.007592820644116e-06
-1.9176762877216673e-06   8.168843522557054e-07   -1.2087092754969634e-05
-1.9176762877216673e-06   8.168843522557054e-07   -1.2087092754969634e-05
-1.9176762877216673e-06   8.168843522557054e-07   -1.2087092754969634e-05
-1.9176762877216673e-06   8.168843522557054e-07   -1.2087092754969634e-05
-3.219283223693066e-06   6.771522512730383e-07   -9.833908601094555e-06
-3.219283223693066e-06   6.771522512730383e-07   -9.833908601094555e-06
-3.219283223693066e-06   6.771522512730383e-07   -9.833908601094555e-06
-3.219283223693066e-06   6.771522512730383e-07   -9.833908601094555e-06
-1.9176762877216673e-06   8.304812696503295e-07   -7.999434670207287e-06
-1.9176762877216673e-06   8.304812696503295e-07   -7.999434670207287e-06
-1.9176762877216673e-06   8.304812696503295e-07   -7.999434670207287e-06
-1.9176762877216673e-06   8.304812696503295e-07   -7.999434670207287e-06
-4.370271138579069e-06   8.168843522557054e-07   -1.2095250905406476e-05
-4.370271138579069e-06   8.168843522557054e-07   -1.2095250905406476e-05
-4.370271138579069e-06   8.168843522557054e-07   -1.2095250905406476e-05
-4.370271138579069e-06   8.168843522557054e-07   -1.2095250905406476e-05
-4.225476065889506e-06   1.1324639466981593e-06   -8.188573019402663e-06
-4.225476065889506e-06   1.1324639466981593e-06   -8.188573019402663e-06
-4.225476065889506e-06   1.1324639466981593e-06   -8.188573019402663e-06
-4.225476065889506e-06   1.1324639466981593e-06   -8.188573019402663e-06
-1.7757150066554275e-06   1.085221427130599e-06   -1.2243162606385569e-05
-1.7757150066554275e-06   1.085221427130599e-06   -1.2243162606385569e-05
-1.7757150066554275e-06   1.085221427130599e-06   -1.2243162606385569e-05
-1.7757150066554275e-06   1.085221427130599e-06   -1.2243162606385569e-05
-3.098783749986411e-06   8.994339093468273e-07   -9.9265755234972e-06
-3.098783749986411e-06   8.994339093468273e-07   -9.9265755234972e-06
-3.098783749986411e-06   8.994339093468273e-07   -9.9265755234972e-06
-3.098783749986411e-06   8.994339093468273e-07   -9.9265755234972e-06
-4.671212195506518e-06   5.326008584524309e-07   -6.8328023990072285e-06
-4.671212195506518e-06   5.326008584524309e-07   -6.8328023990072285e-06
-4.671212195506518e-06   5.326008584524309e-07   -6.8328023990072285e-06
-4.671212195506518e-06   5.326008584524309e-07   -6.8328023990072285e-06
-7.111289511372256e-06   9.628829093647276e-07   -1.06414286949028e-05
-7.111289511372256e-06   9.628829093647276e-07   -1.06414286949028e-05
-7.111289511372256e-06   9.628829093647276e-07   -1.06414286949028e-05
-7.111289511372256e-06   9.628829093647276e-07   -1.06414286949028e-05
-6.940019817212839e-06   8.260099649256354e-07   -6.426222121828928e-06
-6.940019817212839e-06   8.260099649256354e-07   -6.426222121828928e-06
-6.940019817212839e-06   8.260099649256354e-07   -6.426222121828928e-06
-6.940019817212839e-06   8.260099649256354e-07   -6.426222121828928e-06
-4.522237597147038e-06   1.2295690397444133e-06   -1.0697994600163126e-05
-4.522237597147038e-06   1.2295690397444133e-06   -1.0697994600163126e-05
-4.522237597147038e-06   1.2295690397444133e-06   -1.0697994600163126e-05
-4.522237597147038e-06   1.2295690397444133e-06   -1.0697994600163126e-05
-5.770750602896343e-06   9.212739663840572e-07   -8.43216254656472e-06
-5.770750602896343e-06   9.212739663840572e-07   -8.43216254656472e-06
-5.770750602896343e-06   9.212739663840572e-07   -8.43216254656472e-06
-5.770750602896343e-06   9.212739663840572e-07   -8.43216254656472e-06
-4.522237597147046e-06   8.260099649256896e-07   -6.668357566720086e-06
-4.522237597147046e-06   8.260099649256896e-07   -6.668357566720086e-06
-4.522237597147046e-06   8.260099649256896e-07   -6.668357566720086e-06
-4.522237597147046e-06   8.260099649256896e-07   -6.668357566720086e-06
-6.940019817212849e-06   1.2295690397444133e-06   -1.0455859155271972e-05
-6.940019817212849e-06   1.2295690397444133e-06   -1.0455859155271972e-05
-6.940019817212849e-06   1.2295690397444133e-06   -1.0455859155271972e-05
-6.940019817212849e-06   1.2295690397444133e-06   -1.0455859155271972e-05
-6.732011966774569e-06   1.0956638203216303e-06   -6.360497544948614e-06
-6.732011966774569e-06   1.0956638203216303e-06   -6.360497544948614e-06
-6.732011966774569e-06   1.0956638203216303e-06   -6.360497544948614e-06
-6.732011966774569e-06   1.0956638203216303e-06   -6.360497544948614e-06
-4.370271138579075e-06   1.4689667188084315e-06   -1.0520713997699829e-05
-4.370271138579075e-06   1.4689667188084315e-06   -1.0520713997699829e-05
-4.370271138579075e-06   1.4689667188084315e-06   -1.0520713997699829e-05
-4.370271138579075e-06   1.4689667188084315e-06   -1.0520713997699829e-05
-5.596676495148298e-06   1.132808336287163e-06   -8.275010040571857e-06
-5.596676495148298e-06   1.132808336287163e-06   -8.275010040571857e-06
-5.596676495148298e-06   1.132808336287163e-06   -8.275010040571857e-06
-5.596676495148298e-06   1.132808336287163e-06   -8.275010040571857e-06
-4.370271138579072e-06   1.0956638203216303e-06   -6.584479284040641e-06
-4.370271138579072e-06   1.0956638203216303e-06   -6.584479284040641e-06
-4.370271138579072e-06   1.0956638203216303e-06   -6.584479284040641e-06
-4.370271138579072e-06   1.0956638203216303e-06   -6.584479284040641e-06
-6.732011966774569e-06   1.4689667188084315e-06   -1.0296732258607832e-05
-6.732011966774569e-06   1.4689667188084315e-06   -1.0296732258607832e-05
-6.732011966774569e-06   1.4689667188084315e-06   -1.0296732258607832e-05
-6.732011966774569e-06   1.4689667188084315e-06   -1.0296732258607832e-05
-6.559473179583531e-06   1.3962578787526112e-06   -6.536704737483451e-06
-6.559473179583531e-06   1.3962578787526112e-06   -6.536704737483451e-06
-6.559473179583531e-06   1.3962578787526112e-06   -6.536704737483451e-06
-6.559473179583531e-06   1.3962578787526112e-06   -6.536704737483451e-06
-4.225476065889506e-06   1.735026524082243e-06   -1.0629961114171295e-05
-4.225476065889506e-06   1.735026524082243e-06   -1.0629961114171295e-05
-4.225476065889506e-06   1.735026524082243e-06   -1.0629961114171295e-05
-4.225476065889506e-06   1.735026524082243e-06   -1.0629961114171295e-05
-5.484431664826709e-06   1.3401049320718858e-06   -8.294748827403015e-06
-5.484431664826709e-06   1.3401049320718858e-06   -8.294748827403015e-06
-5.484431664826709e-06   1.3401049320718858e-06   -8.294748827403015e-06
-5.484431664826709e-06   1.3401049320718858e-06   -8.294748827403015e-06
-7.111289511372256e-06   9.012941650787267e-07   -3.521843098921578e-06
-7.111289511372256e-06   9.012941650787267e-07   -3.521843098921578e-06
-7.111289511372256e-06   9.012941650787267e-07   -3.521843098921578e-06
-7.111289511372256e-06   9.012941650787267e-07   -3.521843098921578e-06
-9.906826159891871e-06   1.6579820486956878e-06   -7.7270581162841e-06
-9.906826159891871e-06   1.6579820486956878e-06   -7.7270581162841e-06
-9.906826159891871e-06   1.6579820486956878e-06   -7.7270581162841e-06
-9.906826159891871e-06   1.6579820486956878e-06   -7.7270581162841e-06
-9.4177578424341e-06   1.1687101457718988e-06   -2.1635058447410803e-06
-9.4177578424341e-06   1.1687101457718988e-06   -2.1635058447410803e-06
-9.4177578424341e-06   1.1687101457718988e-06   -2.1635058447410803e-06
-9.4177578424341e-06   1.1687101457718988e-06   -2.1635058447410803e-06
-6.940019817212839e-06   1.9363179605877802e-06   -6.7536339089993496e-06
-6.940019817212839e-06   1.9363179605877802e-06   -6.7536339089993496e-06
-6.940019817212839e-06   1.9363179605877802e-06   -6.7536339089993496e-06
-6.940019817212839e-06   1.9363179605877802e-06   -6.7536339089993496e-06
-8.00484981784186e-06   1.4456335920720207e-06   -4.684506620174914e-06
-8.00484981784186e-06   1.4456335920720207e-06   -4.684506620174914e-06
-8.00484981784186e-06   1.4456335920720207e-06   -4.684506620174914e-06
-8.00484981784186e-06   1.4456335920720207e-06   -4.684506620174914e-06
-6.940019817212844e-06   1.1687101457718988e-06   -2.6240705336305387e-06
-6.940019817212844e-06   1.1687101457718988e-06   -2.6240705336305387e-06
-6.940019817212844e-06   1.1687101457718988e-06   -2.6240705336305387e-06
-6.940019817212844e-06   1.1687101457718988e-06   -2.6240705336305387e-06
-9.417757842434065e-06   1.9363179605877802e-06   -6.29306922010983e-06
-9.417757842434065e-06   1.9363179605877802e-06   -6.29306922010983e-06
-9.417757842434065e-06   1.9363179605877802e-06   -6.29306922010983e-06
-9.417757842434065e-06   1.9363179605877802e-06   -6.29306922010983e-06
-9.013660395064653e-06   1.2910233290501158e-06   -1.7412469461625297e-06
-9.013660395064653e-06   1.2910233290501158e-06   -1.7412469461625297e-06
-9.013660395064653e-06   1.2910233290501158e-06   -1.7412469461625297e-06
-9.013660395064653e-06   1.2910233290501158e-06   -1.7412469461625297e-06
-6.732011966774557e-06   2.0365285150456577e-06   -5.991297438243324e-06
-6.732011966774557e-06   2.0365285150456577e-06   -5.991297438243324e-06
-6.732011966774557e-06   2.0365285150456577e-06   -5.991297438243324e-06
-6.732011966774557e-06   2.0365285150456577e-06   -5.991297438243324e-06
-7.835453049629112e-06   1.5728112366629465e-06   -3.873998599789497e-06
-7.835453049629112e-06   1.5728112366629465e-06   -3.873998599789497e-06
-7.835453049629112e-06   1.5728112366629465e-06   -3.873998599789497e-06
-7.835453049629112e-06   1.5728112366629465e-06   -3.873998599789497e-06
-6.732011966774569e-06   1.2910233290501158e-06   -2.1885500577598657e-06
-6.732011966774569e-06   1.2910233290501158e-06   -2.1885500577598657e-06
-6.732011966774569e-06   1.2910233290501158e-06   -2.1885500577598657e-06
-6.732011966774569e-06   1.2910233290501158e-06   -2.1885500577598657e-06
-9.013660395064639e-06   2.0365285150456035e-06   -5.543994326646028e-06
-9.013660395064639e-06   2.0365285150456035e-06   -5.543994326646028e-06
-9.013660395064639e-06   2.0365285150456035e-06   -5.543994326646028e-06
-9.013660395064639e-06   2.0365285150456035e-06   -5.543994326646028e-06
-8.531951418780778e-06   1.4766294594983974e-06   -1.2882354686287857e-06
-8.531951418780778e-06   1.4766294594983974e-06   -1.2882354686287857e-06
-8.531951418780778e-06   1.4766294594983974e-06   -1.2882354686287857e-06
-8.531951418780778e-06   1.4766294594983974e-06   -1.2882354686287857e-06
-6.559473179583531e-06   2.159371775646785e-06   -4.985344590313248e-06
-6.559473179583531e-06   2.159371775646785e-06   -4.985344590313248e-06
-6.559473179583531e-06   2.159371775646785e-06   -4.985344590313248e-06
-6.559473179583531e-06   2.159371775646785e-06   -4.985344590313248e-06
-7.451478280930012e-06   1.632690185639869e-06   -3.1826604673982993e-06
-7.451478280930012e-06   1.632690185639869e-06   -3.1826604673982993e-06
-7.451478280930012e-06   1.632690185639869e-06   -3.1826604673982993e-06
-7.451478280930012e-06   1.632690185639869e-06   -3.1826604673982993e-06
7.386849578714549e-06   -9.629642089868727e-07   8.923611321263233e-08
7.386849578714549e-06   -9.629642089868727e-07   8.923611321263233e-08
7.386849578714549e-06   -9.629642089868727e-07   8.923611321263233e-08
7.386849578714549e-06   -9.629642089868727e-07   8.923611321263233e-08
3.1228571174206937e-06   -1.7178114611637093e-06   -7.470326340249862e-06
3.1228571174206937e-06   -1.7178114611637093e-06   -7.470326340249862e-06
3.1228571174206937e-06   -1.7178114611637093e-06   -7.470326340249862e-06
3.1228571174206937e-06   -1.7178114611637093e-06   -7.470326340249862e-06
3.33079968704103e-06   -7.93584658527718e-07   -6.849015010286486e-07
3.33079968704103e-06   -7.93584658527718e-07   -6.849015010286486e-07
3.33079968704103e-06   -7.93584658527718e-07   -6.849015010286486e-07
3.33079968704103e-06   -7.93584658527718e-07   -6.849015010286486e-07
7.92277960473504e-06   -1.5997832722437462e-06   -7.85448219562239e-06
7.92277960473504e-06   -1.5997832722437462e-06   -7.85448219562239e-06
7.92277960473504e-06   -1.5997832722437462e-06   -7.85448219562239e-06
7.92277960473504e-06   -1.5997832722437462e-06   -7.85448219562239e-06
5.22017748148696e-06   -1.1382581362061241e-06   -3.627060405164863e-06
5.22017748148696e-06   -1.1382581362061241e-06   -3.627060405164863e-06
5.22017748148696e-06   -1.1382581362061241e-06   -3.627060405164863e-06
5.22017748148696e-06   -1.1382581362061241e-06   -3.627060405164863e-06
7.922779604735067e-06   -7.93584658527718e-07   -2.0118233279905334e-07
7.922779604735067e-06   -7.93584658527718e-07   -2.0118233279905334e-07
7.922779604735067e-06   -7.93584658527718e-07   -2.0118233279905334e-07
7.922779604735067e-06   -7.93584658527718e-07   -2.0118233279905334e-07
3.3307996870410165e-06   -1.5997832722437462e-06   -8.338201363852066e-06
3.3307996870410165e-06   -1.5997832722437462e-06   -8.338201363852066e-06
3.3307996870410165e-06   -1.5997832722437462e-06   -8.338201363852066e-06
3.3307996870410165e-06   -1.5997832722437462e-06   -8.338201363852066e-06
3.5618754118183206e-06   -6.784901349071032e-07   -1.028215818322934e-06
3.5618754118183206e-06   -6.784901349071032e-07   -1.028215818322934e-06
3.5618754118183206e-06   -6.784901349071032e-07   -1.028215818322934e-06
3.5618754118183206e-06   -6.784901349071032e-07   -1.028215818322934e-06
8.370079822774031e-06   -1.4955880546674728e-06   -8.551631084726178e-06
8.370079822774031e-06   -1.4955880546674728e-06   -8.551631084726178e-06
8.370079822774031e-06   -1.4955880546674728e-06   -8.551631084726178e-06
8.370079822774031e-06   -1.4955880546674728e-06   -8.551631084726178e-06
5.622255186722225e-06   -1.0916977414471328e-06   -4.214257545905376e-06
5.622255186722225e-06   -1.0916977414471328e-06   -4.214257545905376e-06
5.622255186722225e-06   -1.0916977414471328e-06   -4.214257545905376e-06
5.622255186722225e-06   -1.0916977414471328e-06   -4.214257545905376e-06
8.370079822774031e-06   -6.784901349071032e-07   -5.379570664666581e-07
8.370079822774031e-06   -6.784901349071032e-07   -5.379570664666581e-07
8.370079822774031e-06   -6.784901349071032e-07   -5.379570664666581e-07
8.370079822774031e-06   -6.784901349071032e-07   -5.379570664666581e-07
3.561875411818314e-06   -1.4955880546673643e-06   -9.041889836582426e-06
3.561875411818314e-06   -1.4955880546673643e-06   -9.041889836582426e-06
3.561875411818314e-06   -1.4955880546673643e-06   -9.041889836582426e-06
3.561875411818314e-06   -1.4955880546673643e-06   -9.041889836582426e-06
3.750595380909853e-06   -3.9060087338995894e-07   -1.811525121444375e-06
3.750595380909853e-06   -3.9060087338995894e-07   -1.811525121444375e-06
3.750595380909853e-06   -3.9060087338995894e-07   -1.811525121444375e-06
3.750595380909853e-06   -3.9060087338995894e-07   -1.811525121444375e-06
8.889859236212158e-06   -1.169182306050222e-06   -9.909816020685488e-06
8.889859236212158e-06   -1.169182306050222e-06   -9.909816020685488e-06
8.889859236212158e-06   -1.169182306050222e-06   -9.909816020685488e-06
8.889859236212158e-06   -1.169182306050222e-06   -9.909816020685488e-06
5.831932782768295e-06   -9.613943858701596e-07   -4.937944683720583e-06
5.831932782768295e-06   -9.613943858701596e-07   -4.937944683720583e-06
5.831932782768295e-06   -9.613943858701596e-07   -4.937944683720583e-06
5.831932782768295e-06   -9.613943858701596e-07   -4.937944683720583e-06
3.1228571174207005e-06   -3.7196787599510324e-07   -4.9147363266704405e-06
3.1228571174207005e-06   -3.7196787599510324e-07   -4.9147363266704405e-06
3.1228571174207005e-06   -3.7196787599510324e-07   -4.9147363266704405e-06
3.1228571174207005e-06   -3.7196787599510324e-07   -4.9147363266704405e-06
-1.3637529216328575e-06   -7.901182429735426e-07   -1.2643309945280088e-05
-1.3637529216328575e-06   -7.901182429735426e-07   -1.2643309945280088e-05
-1.3637529216328575e-06   -7.901182429735426e-07   -1.2643309945280088e-05
-1.3637529216328575e-06   -7.901182429735426e-07   -1.2643309945280088e-05
-1.171910045261411e-06   -1.373742126577573e-07   -5.016460844993779e-06
-1.171910045261411e-06   -1.373742126577573e-07   -5.016460844993779e-06
-1.171910045261411e-06   -1.373742126577573e-07   -5.016460844993779e-06
-1.171910045261411e-06   -1.373742126577573e-07   -5.016460844993779e-06
3.3307996870410233e-06   -6.217478741452282e-07   -1.2230352868605358e-05
3.3307996870410233e-06   -6.217478741452282e-07   -1.2230352868605358e-05
3.3307996870410233e-06   -6.217478741452282e-07   -1.2230352868605358e-05
3.3307996870410233e-06   -6.217478741452282e-07   -1.2230352868605358e-05
9.898650671401273e-07   -3.79417951430522e-07   -8.474193122399298e-06
9.898650671401273e-07   -3.79417951430522e-07   -8.474193122399298e-06
9.898650671401273e-07   -3.79417951430522e-07   -8.474193122399298e-06
9.898650671401273e-07   -3.79417951430522e-07   -8.474193122399298e-06
3.3307996870410233e-06   -1.373742126577573e-07   -4.725836648101296e-06
3.3307996870410233e-06   -1.373742126577573e-07   -4.725836648101296e-06
3.3307996870410233e-06   -1.373742126577573e-07   -4.725836648101296e-06
3.3307996870410233e-06   -1.373742126577573e-07   -4.725836648101296e-06
-1.171910045261411e-06   -6.217478741452282e-07   -1.2520977065497813e-05
-1.171910045261411e-06   -6.217478741452282e-07   -1.2520977065497813e-05
-1.171910045261411e-06   -6.217478741452282e-07   -1.2520977065497813e-05
-1.171910045261411e-06   -6.217478741452282e-07   -1.2520977065497813e-05
-9.88798832243509e-07   1.0596420425476854e-07   -5.085674728805647e-06
-9.88798832243509e-07   1.0596420425476854e-07   -5.085674728805647e-06
-9.88798832243509e-07   1.0596420425476854e-07   -5.085674728805647e-06
-9.88798832243509e-07   1.0596420425476854e-07   -5.085674728805647e-06
3.561875411818314e-06   -4.163514223970866e-07   -1.2356742426250904e-05
3.561875411818314e-06   -4.163514223970866e-07   -1.2356742426250904e-05
3.561875411818314e-06   -4.163514223970866e-07   -1.2356742426250904e-05
3.561875411818314e-06   -4.163514223970866e-07   -1.2356742426250904e-05
1.1399877896186082e-06   -2.294238553991572e-07   -8.432419596116712e-06
1.1399877896186082e-06   -2.294238553991572e-07   -8.432419596116712e-06
1.1399877896186082e-06   -2.294238553991572e-07   -8.432419596116712e-06
1.1399877896186082e-06   -2.294238553991572e-07   -8.432419596116712e-06
3.5618754118183206e-06   1.0596420425476854e-07   -4.7722853528145664e-06
3.5618754118183206e-06   1.0596420425476854e-07   -4.7722853528145664e-06
3.5618754118183206e-06   1.0596420425476854e-07   -4.7722853528145664e-06
3.5618754118183206e-06   1.0596420425476854e-07   -4.7722853528145664e-06
-9.88798832243509e-07   -4.1635142239719505e-07   -1.267013180224208e-05
-9.88798832243509e-07   -4.1635142239719505e-07   -1.267013180224208e-05
-9.88798832243509e-07   -4.1635142239719505e-07   -1.267013180224208e-05
-9.88798832243509e-07   -4.1635142239719505e-07   -1.267013180224208e-05
-8.173935986015356e-07   3.9531236462454853e-07   -5.26427048487565e-06
-8.173935986015356e-07   3.9531236462454853e-07   -5.26427048487565e-06
-8.173935986015356e-07   3.9531236462454853e-07   -5.26427048487565e-06
-8.173935986015356e-07   3.9531236462454853e-07   -5.26427048487565e-06
3.750595380909853e-06   -1.569628389029706e-07   -1.25462203286115e-05
3.750595380909853e-06   -1.569628389029706e-07   -1.25462203286115e-05
3.750595380909853e-06   -1.569628389029706e-07   -1.25462203286115e-05
3.750595380909853e-06   -1.569628389029706e-07   -1.25462203286115e-05
1.3306428754878116e-06   -4.3799239165544755e-08   -8.580864312750794e-06
1.3306428754878116e-06   -4.3799239165544755e-08   -8.580864312750794e-06
1.3306428754878116e-06   -4.3799239165544755e-08   -8.580864312750794e-06
1.3306428754878116e-06   -4.3799239165544755e-08   -8.580864312750794e-06
-1.3637529216328575e-06   3.034516564047137e-07   -6.3657878181863224e-06
-1.3637529216328575e-06   3.034516564047137e-07   -6.3657878181863224e-06
-1.3637529216328575e-06   3.034516564047137e-07   -6.3657878181863224e-06
-1.3637529216328575e-06   3.034516564047137e-07   -6.3657878181863224e-06
-5.771226187494955e-06   1.7214804360916186e-07   -1.3790358762300482e-05
-5.771226187494955e-06   1.7214804360916186e-07   -1.3790358762300482e-05
-5.771226187494955e-06   1.7214804360916186e-07   -1.3790358762300482e-05
-5.771226187494955e-06   1.7214804360916186e-07   -1.3790358762300482e-05
-5.564948791244118e-06   5.531832440554881e-07   -6.313887053552877e-06
-5.564948791244118e-06   5.531832440554881e-07   -6.313887053552877e-06
-5.564948791244118e-06   5.531832440554881e-07   -6.313887053552877e-06
-5.564948791244118e-06   5.531832440554881e-07   -6.313887053552877e-06
-1.171910045261411e-06   3.623289685632811e-07   -1.3521105731562084e-05
-1.171910045261411e-06   3.623289685632811e-07   -1.3521105731562084e-05
-1.171910045261411e-06   3.623289685632811e-07   -1.3521105731562084e-05
-1.171910045261411e-06   3.623289685632811e-07   -1.3521105731562084e-05
-3.444785036958533e-06   4.1721858886917956e-07   -9.765914517583737e-06
-3.444785036958533e-06   4.1721858886917956e-07   -9.765914517583737e-06
-3.444785036958533e-06   4.1721858886917956e-07   -9.765914517583737e-06
-3.444785036958533e-06   4.1721858886917956e-07   -9.765914517583737e-06
-1.171910045261411e-06   5.531832440554881e-07   -6.199374488257596e-06
-1.171910045261411e-06   5.531832440554881e-07   -6.199374488257596e-06
-1.171910045261411e-06   5.531832440554881e-07   -6.199374488257596e-06
-1.171910045261411e-06   5.531832440554881e-07   -6.199374488257596e-06
-5.564948791244118e-06   3.623289685632811e-07   -1.3635618296857358e-05
-5.564948791244118e-06   3.623289685632811e-07   -1.3635618296857358e-05
-5.564948791244118e-06   3.623289685632811e-07   -1.3635618296857358e-05
-5.564948791244118e-06   3.623289685632811e-07   -1.3635618296857358e-05
-5.3656147085114e-06   8.168843522556512e-07   -6.304503475671689e-06
-5.3656147085114e-06   8.168843522556512e-07   -6.304503475671689e-06
-5.3656147085114e-06   8.168843522556512e-07   -6.304503475671689e-06
-5.3656147085114e-06   8.168843522556512e-07   -6.304503475671689e-06
-9.887988322435158e-07   5.80990532243926e-07   -1.345766031077782e-05
-9.887988322435158e-07   5.80990532243926e-07   -1.345766031077782e-05
-9.887988322435158e-07   5.80990532243926e-07   -1.345766031077782e-05
-9.887988322435158e-07   5.80990532243926e-07   -1.345766031077782e-05
-3.2680886581451122e-06   5.955548676957797e-07   -9.66758253554621e-06
-3.2680886581451122e-06   5.955548676957797e-07   -9.66758253554621e-06
-3.2680886581451122e-06   5.955548676957797e-07   -9.66758253554621e-06
-3.2680886581451122e-06   5.955548676957797e-07   -9.66758253554621e-06
-9.887988322435158e-07   8.168843522557054e-07   -6.162967183664686e-06
-9.887988322435158e-07   8.168843522557054e-07   -6.162967183664686e-06
-9.887988322435158e-07   8.168843522557054e-07   -6.162967183664686e-06
-9.887988322435158e-07   8.168843522557054e-07   -6.162967183664686e-06
-5.3656147085114e-06   5.80990532243926e-07   -1.3599196602784877e-05
-5.3656147085114e-06   5.80990532243926e-07   -1.3599196602784877e-05
-5.3656147085114e-06   5.80990532243926e-07   -1.3599196602784877e-05
-5.3656147085114e-06   5.80990532243926e-07   -1.3599196602784877e-05
-5.18148373260636e-06   1.0852214271305448e-06   -6.456001181961491e-06
-5.18148373260636e-06   1.0852214271305448e-06   -6.456001181961491e-06
-5.18148373260636e-06   1.0852214271305448e-06   -6.456001181961491e-06
-5.18148373260636e-06   1.0852214271305448e-06   -6.456001181961491e-06
-8.173935986015356e-07   8.066723914667293e-07   -1.356235531723801e-05
-8.173935986015356e-07   8.066723914667293e-07   -1.356235531723801e-05
-8.173935986015356e-07   8.066723914667293e-07   -1.356235531723801e-05
-8.173935986015356e-07   8.066723914667293e-07   -1.356235531723801e-05
-3.1109319597940973e-06   7.784986615819688e-07   -9.722887143986405e-06
-3.1109319597940973e-06   7.784986615819688e-07   -9.722887143986405e-06
-3.1109319597940973e-06   7.784986615819688e-07   -9.722887143986405e-06
-3.1109319597940973e-06   7.784986615819688e-07   -9.722887143986405e-06
-5.771226187494964e-06   9.628829093647276e-07   -5.150841064456026e-06
-5.771226187494964e-06   9.628829093647276e-07   -5.150841064456026e-06
-5.771226187494964e-06   9.628829093647276e-07   -5.150841064456026e-06
-5.771226187494964e-06   9.628829093647276e-07   -5.150841064456026e-06
-1.0113400211478622e-05   1.1694133835413482e-06   -1.2263879486589554e-05
-1.0113400211478622e-05   1.1694133835413482e-06   -1.2263879486589554e-05
-1.0113400211478622e-05   1.1694133835413482e-06   -1.2263879486589554e-05
-1.0113400211478622e-05   1.1694133835413482e-06   -1.2263879486589554e-05
-9.863738642914167e-06   1.2295690397444133e-06   -4.824370949768901e-06
-9.863738642914167e-06   1.2295690397444133e-06   -4.824370949768901e-06
-9.863738642914167e-06   1.2295690397444133e-06   -4.824370949768901e-06
-9.863738642914167e-06   1.2295690397444133e-06   -4.824370949768901e-06
-5.564948791244126e-06   1.4089524999087505e-06   -1.2096650778650973e-05
-5.564948791244126e-06   1.4089524999087505e-06   -1.2096650778650973e-05
-5.564948791244126e-06   1.4089524999087505e-06   -1.2096650778650973e-05
-5.564948791244126e-06   1.4089524999087505e-06   -1.2096650778650973e-05
-7.771469463841275e-06   1.2404706496735394e-06   -8.31802721418127e-06
-7.771469463841275e-06   1.2404706496735394e-06   -8.31802721418127e-06
-7.771469463841275e-06   1.2404706496735394e-06   -8.31802721418127e-06
-7.771469463841275e-06   1.2404706496735394e-06   -8.31802721418127e-06
-5.564948791244126e-06   1.2295690397444133e-06   -4.932001025867569e-06
-5.564948791244126e-06   1.2295690397444133e-06   -4.932001025867569e-06
-5.564948791244126e-06   1.2295690397444133e-06   -4.932001025867569e-06
-5.564948791244126e-06   1.2295690397444133e-06   -4.932001025867569e-06
-9.863738642914184e-06   1.4089524999087505e-06   -1.1989020702552367e-05
-9.863738642914184e-06   1.4089524999087505e-06   -1.1989020702552367e-05
-9.863738642914184e-06   1.4089524999087505e-06   -1.1989020702552367e-05
-9.863738642914184e-06   1.4089524999087505e-06   -1.1989020702552367e-05
-9.585198468976194e-06   1.4689667188084315e-06   -4.642379953282067e-06
-9.585198468976194e-06   1.4689667188084315e-06   -4.642379953282067e-06
-9.585198468976194e-06   1.4689667188084315e-06   -4.642379953282067e-06
-9.585198468976194e-06   1.4689667188084315e-06   -4.642379953282067e-06
-5.365614708511407e-06   1.6149444099467728e-06   -1.1762606168739769e-05
-5.365614708511407e-06   1.6149444099467728e-06   -1.1762606168739769e-05
-5.365614708511407e-06   1.6149444099467728e-06   -1.1762606168739769e-05
-5.365614708511407e-06   1.6149444099467728e-06   -1.1762606168739769e-05
-7.516604647362496e-06   1.4282049321318524e-06   -8.06557925063234e-06
-7.516604647362496e-06   1.4282049321318524e-06   -8.06557925063234e-06
-7.516604647362496e-06   1.4282049321318524e-06   -8.06557925063234e-06
-7.516604647362496e-06   1.4282049321318524e-06   -8.06557925063234e-06
-5.3656147085114016e-06   1.4689667188084315e-06   -4.729966567965072e-06
-5.3656147085114016e-06   1.4689667188084315e-06   -4.729966567965072e-06
-5.3656147085114016e-06   1.4689667188084315e-06   -4.729966567965072e-06
-5.3656147085114016e-06   1.4689667188084315e-06   -4.729966567965072e-06
-9.585198468976194e-06   1.6149444099467728e-06   -1.1675019554056778e-05
-9.585198468976194e-06   1.6149444099467728e-06   -1.1675019554056778e-05
-9.585198468976194e-06   1.6149444099467728e-06   -1.1675019554056778e-05
-9.585198468976194e-06   1.6149444099467728e-06   -1.1675019554056778e-05
-9.35043143340641e-06   1.735026524082243e-06   -4.750706509035175e-06
-9.35043143340641e-06   1.735026524082243e-06   -4.750706509035175e-06
-9.35043143340641e-06   1.735026524082243e-06   -4.750706509035175e-06
-9.35043143340641e-06   1.735026524082243e-06   -4.750706509035175e-06
-5.181483732606368e-06   1.8412726390347597e-06   -1.176270034600677e-05
-5.181483732606368e-06   1.8412726390347597e-06   -1.176270034600677e-05
-5.181483732606368e-06   1.8412726390347597e-06   -1.176270034600677e-05
-5.181483732606368e-06   1.8412726390347597e-06   -1.176270034600677e-05
-7.363710719453586e-06   1.600512360816356e-06   -7.981199200997064e-06
-7.363710719453586e-06   1.600512360816356e-06   -7.981199200997064e-06
-7.363710719453586e-06   1.600512360816356e-06   -7.981199200997064e-06
-7.363710719453586e-06   1.600512360816356e-06   -7.981199200997064e-06
-1.0113400211478622e-05   1.6579820486956878e-06   -2.5665649315016596e-06
-1.0113400211478622e-05   1.6579820486956878e-06   -2.5665649315016596e-06
-1.0113400211478622e-05   1.6579820486956878e-06   -2.5665649315016596e-06
-1.0113400211478622e-05   1.6579820486956878e-06   -2.5665649315016596e-06
-1.4709460291314349e-05   2.2754576872579266e-06   -9.856179681423855e-06
-1.4709460291314349e-05   2.2754576872579266e-06   -9.856179681423855e-06
-1.4709460291314349e-05   2.2754576872579266e-06   -9.856179681423855e-06
-1.4709460291314349e-05   2.2754576872579266e-06   -9.856179681423855e-06
-1.4120101027936742e-05   1.9363179605877802e-06   -7.275235495102315e-07
-1.4120101027936742e-05   1.9363179605877802e-06   -7.275235495102315e-07
-1.4120101027936742e-05   1.9363179605877802e-06   -7.275235495102315e-07
-1.4120101027936742e-05   1.9363179605877802e-06   -7.275235495102315e-07
-9.863738642914167e-06   2.5940215505647953e-06   -8.216083011867326e-06
-9.863738642914167e-06   2.5940215505647953e-06   -8.216083011867326e-06
-9.863738642914167e-06   2.5940215505647953e-06   -8.216083011867326e-06
-9.863738642914167e-06   2.5940215505647953e-06   -8.216083011867326e-06
-1.1698177448997156e-05   2.166981237661063e-06   -4.902460813986756e-06
-1.1698177448997156e-05   2.166981237661063e-06   -4.902460813986756e-06
-1.1698177448997156e-05   2.166981237661063e-06   -4.902460813986756e-06
-1.1698177448997156e-05   2.166981237661063e-06   -4.902460813986756e-06
-9.863738642914174e-06   1.9363179605877802e-06   -1.1221457034963538e-06
-9.863738642914174e-06   1.9363179605877802e-06   -1.1221457034963538e-06
-9.863738642914174e-06   1.9363179605877802e-06   -1.1221457034963538e-06
-9.863738642914174e-06   1.9363179605877802e-06   -1.1221457034963538e-06
-1.4120101027936719e-05   2.5940215505647953e-06   -7.821460857881186e-06
-1.4120101027936719e-05   2.5940215505647953e-06   -7.821460857881186e-06
-1.4120101027936719e-05   2.5940215505647953e-06   -7.821460857881186e-06
-1.4120101027936719e-05   2.5940215505647953e-06   -7.821460857881186e-06
-1.363544200382188e-05   2.0365285150456035e-06   4.836229241378517e-08
-1.363544200382188e-05   2.0365285150456035e-06   4.836229241378517e-08
-1.363544200382188e-05   2.0365285150456035e-06   4.836229241378517e-08
-1.363544200382188e-05   2.0365285150456035e-06   4.836229241378517e-08
-9.585198468976194e-06   2.6787075572646136e-06   -7.087351024327119e-06
-9.585198468976194e-06   2.6787075572646136e-06   -7.087351024327119e-06
-9.585198468976194e-06   2.6787075572646136e-06   -7.087351024327119e-06
-9.585198468976194e-06   2.6787075572646136e-06   -7.087351024327119e-06
-1.1510158468392817e-05   2.2967580816994583e-06   -3.6499146732935797e-06
-1.1510158468392817e-05   2.2967580816994583e-06   -3.6499146732935797e-06
-1.1510158468392817e-05   2.2967580816994583e-06   -3.6499146732935797e-06
-1.1510158468392817e-05   2.2967580816994583e-06   -3.6499146732935797e-06
-9.585198468976194e-06   2.0365285150456035e-06   -3.369451329176534e-07
-9.585198468976194e-06   2.0365285150456035e-06   -3.369451329176534e-07
-9.585198468976194e-06   2.0365285150456035e-06   -3.369451329176534e-07
-9.585198468976194e-06   2.0365285150456035e-06   -3.369451329176534e-07
-1.3635442003821833e-05   2.678707557264722e-06   -6.702043598995756e-06
-1.3635442003821833e-05   2.678707557264722e-06   -6.702043598995756e-06
-1.3635442003821833e-05   2.678707557264722e-06   -6.702043598995756e-06
-1.3635442003821833e-05   2.678707557264722e-06   -6.702043598995756e-06
-1.3108550505884805e-05   2.159371775646785e-06   1.0431451079267562e-06
-1.3108550505884805e-05   2.159371775646785e-06   1.0431451079267562e-06
-1.3108550505884805e-05   2.159371775646785e-06   1.0431451079267562e-06
-1.3108550505884805e-05   2.159371775646785e-06   1.0431451079267562e-06
-9.35043143340641e-06   2.746865576149578e-06   -5.572882959838941e-06
-9.35043143340641e-06   2.746865576149578e-06   -5.572882959838941e-06
-9.35043143340641e-06   2.746865576149578e-06   -5.572882959838941e-06
-9.35043143340641e-06   2.746865576149578e-06   -5.572882959838941e-06
-1.101178598103641e-05   2.3172239393994118e-06   -2.5461737317390227e-06
-1.101178598103641e-05   2.3172239393994118e-06   -2.5461737317390227e-06
-1.101178598103641e-05   2.3172239393994118e-06   -2.5461737317390227e-06
-1.101178598103641e-05   2.3172239393994118e-06   -2.5461737317390227e-06
1.2379138971397362e-05   -1.7178114611637093e-06   2.597614467206733e-06
1.2379138971397362e-05   -1.7178114611637093e-06   2.597614467206733e-06
1.2379138971397362e-05   -1.7178114611637093e-06   2.597614467206733e-06
1.2379138971397362e-05   -1.7178114611637093e-06   2.597614467206733e-06
5.933596811393131e-06   -2.5218861327641834e-06   -8.627400602427245e-06
5.933596811393131e-06   -2.5218861327641834e-06   -8.627400602427245e-06
5.933596811393131e-06   -2.5218861327641834e-06   -8.627400602427245e-06
5.933596811393131e-06   -2.5218861327641834e-06   -8.627400602427245e-06
6.1631622140800066e-06   -1.5997832722437462e-06   1.328142523960229e-06
6.1631622140800066e-06   -1.5997832722437462e-06   1.328142523960229e-06
6.1631622140800066e-06   -1.5997832722437462e-06   1.328142523960229e-06
6.1631622140800066e-06   -1.5997832722437462e-06   1.328142523960229e-06
1.2924799240966975e-05   -2.465546863639331e-06   -9.421794366014106e-06
1.2924799240966975e-05   -2.465546863639331e-06   -9.421794366014106e-06
1.2924799240966975e-05   -2.465546863639331e-06   -9.421794366014106e-06
1.2924799240966975e-05   -2.465546863639331e-06   -9.421794366014106e-06
8.968509713147764e-06   -1.876021542767726e-06   -3.1816936788383243e-06
8.968509713147764e-06   -1.876021542767726e-06   -3.1816936788383243e-06
8.968509713147764e-06   -1.876021542767726e-06   -3.1816936788383243e-06
8.968509713147764e-06   -1.876021542767726e-06   -3.1816936788383243e-06
1.2924799240967002e-05   -1.5997832722437462e-06   1.8476006787975256e-06
1.2924799240967002e-05   -1.5997832722437462e-06   1.8476006787975256e-06
1.2924799240967002e-05   -1.5997832722437462e-06   1.8476006787975256e-06
1.2924799240967002e-05   -1.5997832722437462e-06   1.8476006787975256e-06
6.163162214079993e-06   -2.465546863639331e-06   -9.94125252085147e-06
6.163162214079993e-06   -2.465546863639331e-06   -9.94125252085147e-06
6.163162214079993e-06   -2.465546863639331e-06   -9.94125252085147e-06
6.163162214079993e-06   -2.465546863639331e-06   -9.94125252085147e-06
6.391875538869338e-06   -1.4955880546674728e-06   7.010835403438377e-07
6.391875538869338e-06   -1.4955880546674728e-06   7.010835403438377e-07
6.391875538869338e-06   -1.4955880546674728e-06   7.010835403438377e-07
6.391875538869338e-06   -1.4955880546674728e-06   7.010835403438377e-07
1.3341687983111324e-05   -2.379089602662799e-06   -1.0351836271262278e-05
1.3341687983111324e-05   -2.379089602662799e-06   -1.0351836271262278e-05
1.3341687983111324e-05   -2.379089602662799e-06   -1.0351836271262278e-05
1.3341687983111324e-05   -2.379089602662799e-06   -1.0351836271262278e-05
9.430152821732868e-06   -1.8692705894301402e-06   -4.138502410237809e-06
9.430152821732868e-06   -1.8692705894301402e-06   -4.138502410237809e-06
9.430152821732868e-06   -1.8692705894301402e-06   -4.138502410237809e-06
9.430152821732868e-06   -1.8692705894301402e-06   -4.138502410237809e-06
1.3341687983111324e-05   -1.4955880546674728e-06   1.2311844691410552e-06
1.3341687983111324e-05   -1.4955880546674728e-06   1.2311844691410552e-06
1.3341687983111324e-05   -1.4955880546674728e-06   1.2311844691410552e-06
1.3341687983111324e-05   -1.4955880546674728e-06   1.2311844691410552e-06
6.391875538869338e-06   -2.379089602662799e-06   -1.088193720005955e-05
6.391875538869338e-06   -2.379089602662799e-06   -1.088193720005955e-05
6.391875538869338e-06   -2.379089602662799e-06   -1.088193720005955e-05
6.391875538869338e-06   -2.379089602662799e-06   -1.088193720005955e-05
6.5450323876462614e-06   -1.169182306050222e-06   -5.518222280605418e-07
6.5450323876462614e-06   -1.169182306050222e-06   -5.518222280605418e-07
6.5450323876462614e-06   -1.169182306050222e-06   -5.518222280605418e-07
6.5450323876462614e-06   -1.169182306050222e-06   -5.518222280605418e-07
1.3783240381335768e-05   -2.0449874383055835e-06   -1.2090019138189746e-05
1.3783240381335768e-05   -2.0449874383055835e-06   -1.2090019138189746e-05
1.3783240381335768e-05   -2.0449874383055835e-06   -1.2090019138189746e-05
1.3783240381335768e-05   -2.0449874383055835e-06   -1.2090019138189746e-05
9.549425644131858e-06   -1.723961480118853e-06   -5.226276817762147e-06
9.549425644131858e-06   -1.723961480118853e-06   -5.226276817762147e-06
9.549425644131858e-06   -1.723961480118853e-06   -5.226276817762147e-06
9.549425644131858e-06   -1.723961480118853e-06   -5.226276817762147e-06
5.9335968113931374e-06   -7.901182429735426e-07   -2.806923720596703e-06
5.9335968113931374e-06   -7.901182429735426e-07   -2.806923720596703e-06
5.9335968113931374e-06   -7.901182429735426e-07   -2.806923720596703e-06
5.9335968113931374e-06   -7.901182429735426e-07   -2.806923720596703e-06
-4.1673410840541646e-07   -1.5996361053862698e-06   -1.3876519304375232e-05
-4.1673410840541646e-07   -1.5996361053862698e-06   -1.3876519304375232e-05
-4.1673410840541646e-07   -1.5996361053862698e-06   -1.3876519304375232e-05
-4.1673410840541646e-07   -1.5996361053862698e-06   -1.3876519304375232e-05
-1.823436744768971e-07   -6.217478741451198e-07   -3.1018977482133166e-06
-1.823436744768971e-07   -6.217478741451198e-07   -3.1018977482133166e-06
-1.823436744768971e-07   -6.217478741451198e-07   -3.1018977482133166e-06
-1.823436744768971e-07   -6.217478741451198e-07   -3.1018977482133166e-06
6.1631622140800066e-06   -1.518229153178903e-06   -1.3139852128387923e-05
6.1631622140800066e-06   -1.518229153178903e-06   -1.3139852128387923e-05
6.1631622140800066e-06   -1.518229153178903e-06   -1.3139852128387923e-05
6.1631622140800066e-06   -1.518229153178903e-06   -1.3139852128387923e-05
2.8819682528941645e-06   -9.693605383399298e-07   -8.000516695314848e-06
2.8819682528941645e-06   -9.693605383399298e-07   -8.000516695314848e-06
2.8819682528941645e-06   -9.693605383399298e-07   -8.000516695314848e-06
2.8819682528941645e-06   -9.693605383399298e-07   -8.000516695314848e-06
6.16316221408e-06   -6.217478741451198e-07   -2.56400898079309e-06
6.16316221408e-06   -6.217478741451198e-07   -2.56400898079309e-06
6.16316221408e-06   -6.217478741451198e-07   -2.56400898079309e-06
6.16316221408e-06   -6.217478741451198e-07   -2.56400898079309e-06
-1.823436744768971e-07   -1.518229153178903e-06   -1.3677740895808163e-05
-1.823436744768971e-07   -1.518229153178903e-06   -1.3677740895808163e-05
-1.823436744768971e-07   -1.518229153178903e-06   -1.3677740895808163e-05
-1.823436744768971e-07   -1.518229153178903e-06   -1.3677740895808163e-05
2.3851721038867365e-08   -4.1635142239719505e-07   -3.1860835506493834e-06
2.3851721038867365e-08   -4.1635142239719505e-07   -3.1860835506493834e-06
2.3851721038867365e-08   -4.1635142239719505e-07   -3.1860835506493834e-06
2.3851721038867365e-08   -4.1635142239719505e-07   -3.1860835506493834e-06
6.391875538869338e-06   -1.3702089246049338e-06   -1.3227142079042149e-05
6.391875538869338e-06   -1.3702089246049338e-06   -1.3227142079042149e-05
6.391875538869338e-06   -1.3702089246049338e-06   -1.3227142079042149e-05
6.391875538869338e-06   -1.3702089246049338e-06   -1.3227142079042149e-05
3.0385120738995904e-06   -8.846815296517652e-07   -7.929519407730962e-06
3.0385120738995904e-06   -8.846815296517652e-07   -7.929519407730962e-06
3.0385120738995904e-06   -8.846815296517652e-07   -7.929519407730962e-06
3.0385120738995904e-06   -8.846815296517652e-07   -7.929519407730962e-06
6.391875538869338e-06   -4.1635142239719505e-07   -2.6137690493247077e-06
6.391875538869338e-06   -4.1635142239719505e-07   -2.6137690493247077e-06
6.391875538869338e-06   -4.1635142239719505e-07   -2.6137690493247077e-06
6.391875538869338e-06   -4.1635142239719505e-07   -2.6137690493247077e-06
2.3851721038867365e-08   -1.3702089246049338e-06   -1.3799456580366879e-05
2.3851721038867365e-08   -1.3702089246049338e-06   -1.3799456580366879e-05
2.3851721038867365e-08   -1.3702089246049338e-06   -1.3799456580366879e-05
2.3851721038867365e-08   -1.3702089246049338e-06   -1.3799456580366879e-05
1.6956278149002086e-07   -1.569628389029706e-07   -3.322500624992138e-06
1.6956278149002086e-07   -1.569628389029706e-07   -3.322500624992138e-06
1.6956278149002086e-07   -1.569628389029706e-07   -3.322500624992138e-06
1.6956278149002086e-07   -1.569628389029706e-07   -3.322500624992138e-06
6.545032387646275e-06   -1.1593344199058641e-06   -1.3346860353317578e-05
6.545032387646275e-06   -1.1593344199058641e-06   -1.3346860353317578e-05
6.545032387646275e-06   -1.1593344199058641e-06   -1.3346860353317578e-05
6.545032387646275e-06   -1.1593344199058641e-06   -1.3346860353317578e-05
3.230463761334322e-06   -7.376684469139264e-07   -8.075578893259656e-06
3.230463761334322e-06   -7.376684469139264e-07   -8.075578893259656e-06
3.230463761334322e-06   -7.376684469139264e-07   -8.075578893259656e-06
3.230463761334322e-06   -7.376684469139264e-07   -8.075578893259656e-06
-4.1673410840541646e-07   1.7214804360905344e-07   -4.3609010873873425e-06
-4.1673410840541646e-07   1.7214804360905344e-07   -4.3609010873873425e-06
-4.1673410840541646e-07   1.7214804360905344e-07   -4.3609010873873425e-06
-4.1673410840541646e-07   1.7214804360905344e-07   -4.3609010873873425e-06
-6.6734238556671665e-06   -7.861951115943231e-07   -1.5363723225945666e-05
-6.6734238556671665e-06   -7.861951115943231e-07   -1.5363723225945666e-05
-6.6734238556671665e-06   -7.861951115943231e-07   -1.5363723225945666e-05
-6.6734238556671665e-06   -7.861951115943231e-07   -1.5363723225945666e-05
-6.391731924400689e-06   3.623289685632811e-07   -4.732683162718583e-06
-6.391731924400689e-06   3.623289685632811e-07   -4.732683162718583e-06
-6.391731924400689e-06   3.623289685632811e-07   -4.732683162718583e-06
-6.391731924400689e-06   3.623289685632811e-07   -4.732683162718583e-06
-1.823436744768971e-07   -6.887656121716329e-07   -1.445100683081723e-05
-1.823436744768971e-07   -6.887656121716329e-07   -1.445100683081723e-05
-1.823436744768971e-07   -6.887656121716329e-07   -1.445100683081723e-05
-1.823436744768971e-07   -6.887656121716329e-07   -1.445100683081723e-05
-3.3774499369833976e-06   -1.1697733285557892e-07   -9.468902694229415e-06
-3.3774499369833976e-06   -1.1697733285557892e-07   -9.468902694229415e-06
-3.3774499369833976e-06   -1.1697733285557892e-07   -9.468902694229415e-06
-3.3774499369833976e-06   -1.1697733285557892e-07   -9.468902694229415e-06
-1.823436744768971e-07   3.623289685632811e-07   -4.1020264142775805e-06
-1.823436744768971e-07   3.623289685632811e-07   -4.1020264142775805e-06
-1.823436744768971e-07   3.623289685632811e-07   -4.1020264142775805e-06
-1.823436744768971e-07   3.623289685632811e-07   -4.1020264142775805e-06
-6.391731924400689e-06   -6.887656121716329e-07   -1.5081663579258233e-05
-6.391731924400689e-06   -6.887656121716329e-07   -1.5081663579258233e-05
-6.391731924400689e-06   -6.887656121716329e-07   -1.5081663579258233e-05
-6.391731924400689e-06   -6.887656121716329e-07   -1.5081663579258233e-05
-6.133350609667652e-06   5.80990532243926e-07   -4.647520653104599e-06
-6.133350609667652e-06   5.80990532243926e-07   -4.647520653104599e-06
-6.133350609667652e-06   5.80990532243926e-07   -4.647520653104599e-06
-6.133350609667652e-06   5.80990532243926e-07   -4.647520653104599e-06
2.3851721038867365e-08   -5.421904576218646e-07   -1.4235615943695958e-05
2.3851721038867365e-08   -5.421904576218646e-07   -1.4235615943695958e-05
2.3851721038867365e-08   -5.421904576218646e-07   -1.4235615943695958e-05
2.3851721038867365e-08   -5.421904576218646e-07   -1.4235615943695958e-05
-3.1490619884735734e-06   -7.3219863930620854e-09   -9.268347510579191e-06
-3.1490619884735734e-06   -7.3219863930620854e-09   -9.268347510579191e-06
-3.1490619884735734e-06   -7.3219863930620854e-09   -9.268347510579191e-06
-3.1490619884735734e-06   -7.3219863930620854e-09   -9.268347510579191e-06
2.3851721038867365e-08   5.80990532243926e-07   -3.973612059185124e-06
2.3851721038867365e-08   5.80990532243926e-07   -3.973612059185124e-06
2.3851721038867365e-08   5.80990532243926e-07   -3.973612059185124e-06
2.3851721038867365e-08   5.80990532243926e-07   -3.973612059185124e-06
-6.133350609667669e-06   -5.42190457621973e-07   -1.4909524537615507e-05
-6.133350609667669e-06   -5.42190457621973e-07   -1.4909524537615507e-05
-6.133350609667669e-06   -5.42190457621973e-07   -1.4909524537615507e-05
-6.133350609667669e-06   -5.42190457621973e-07   -1.4909524537615507e-05
-5.959567426004407e-06   8.066723914667293e-07   -4.732758657518719e-06
-5.959567426004407e-06   8.066723914667293e-07   -4.732758657518719e-06
-5.959567426004407e-06   8.066723914667293e-07   -4.732758657518719e-06
-5.959567426004407e-06   8.066723914667293e-07   -4.732758657518719e-06
1.6956278149002086e-07   -4.0247455189424113e-07   -1.422248750399285e-05
1.6956278149002086e-07   -4.0247455189424113e-07   -1.422248750399285e-05
1.6956278149002086e-07   -4.0247455189424113e-07   -1.422248750399285e-05
1.6956278149002086e-07   -4.0247455189424113e-07   -1.422248750399285e-05
-2.9872856587203994e-06   1.1517542501497668e-07   -9.27166342312114e-06
-2.9872856587203994e-06   1.1517542501497668e-07   -9.27166342312114e-06
-2.9872856587203994e-06   1.1517542501497668e-07   -9.27166342312114e-06
-2.9872856587203994e-06   1.1517542501497668e-07   -9.27166342312114e-06
-6.673423855667153e-06   1.1694133835413482e-06   -3.533345989304381e-06
-6.673423855667153e-06   1.1694133835413482e-06   -3.533345989304381e-06
-6.673423855667153e-06   1.1694133835413482e-06   -3.533345989304381e-06
-6.673423855667153e-06   1.1694133835413482e-06   -3.533345989304381e-06
-1.302446536915387e-05   3.1488383408259223e-07   -1.463113290812426e-05
-1.302446536915387e-05   3.1488383408259223e-07   -1.463113290812426e-05
-1.302446536915387e-05   3.1488383408259223e-07   -1.463113290812426e-05
-1.302446536915387e-05   3.1488383408259223e-07   -1.463113290812426e-05
-1.2622874137706601e-05   1.4089524999087505e-06   -3.7463557345723884e-06
-1.2622874137706601e-05   1.4089524999087505e-06   -3.7463557345723884e-06
-1.2622874137706601e-05   1.4089524999087505e-06   -3.7463557345723884e-06
-1.2622874137706601e-05   1.4089524999087505e-06   -3.7463557345723884e-06
-6.391731924400679e-06   4.878856831417059e-07   -1.3578952666688698e-05
-6.391731924400679e-06   4.878856831417059e-07   -1.3578952666688698e-05
-6.391731924400679e-06   4.878856831417059e-07   -1.3578952666688698e-05
-6.391731924400679e-06   4.878856831417059e-07   -1.3578952666688698e-05
-9.580443959166777e-06   9.236052720014692e-07   -8.525864362061049e-06
-9.580443959166777e-06   9.236052720014692e-07   -8.525864362061049e-06
-9.580443959166777e-06   9.236052720014692e-07   -8.525864362061049e-06
-9.580443959166777e-06   9.236052720014692e-07   -8.525864362061049e-06
-6.391731924400679e-06   1.4089524999087505e-06   -3.193715644512151e-06
-6.391731924400679e-06   1.4089524999087505e-06   -3.193715644512151e-06
-6.391731924400679e-06   1.4089524999087505e-06   -3.193715644512151e-06
-6.391731924400679e-06   1.4089524999087505e-06   -3.193715644512151e-06
-1.2622874137706622e-05   4.878856831417059e-07   -1.4131592756748922e-05
-1.2622874137706622e-05   4.878856831417059e-07   -1.4131592756748922e-05
-1.2622874137706622e-05   4.878856831417059e-07   -1.4131592756748922e-05
-1.2622874137706622e-05   4.878856831417059e-07   -1.4131592756748922e-05
-1.2232252040077547e-05   1.6149444099467728e-06   -3.392058145633664e-06
-1.2232252040077547e-05   1.6149444099467728e-06   -3.392058145633664e-06
-1.2232252040077547e-05   1.6149444099467728e-06   -3.392058145633664e-06
-1.2232252040077547e-05   1.6149444099467728e-06   -3.392058145633664e-06
-6.133350609667669e-06   6.463978656565247e-07   -1.2975765936409346e-05
-6.133350609667669e-06   6.463978656565247e-07   -1.2975765936409346e-05
-6.133350609667669e-06   6.463978656565247e-07   -1.2975765936409346e-05
-6.133350609667669e-06   6.463978656565247e-07   -1.2975765936409346e-05
-9.213919953888814e-06   1.0742407363534831e-06   -8.098189418458884e-06
-9.213919953888814e-06   1.0742407363534831e-06   -8.098189418458884e-06
-9.213919953888814e-06   1.0742407363534831e-06   -8.098189418458884e-06
-9.213919953888814e-06   1.0742407363534831e-06   -8.098189418458884e-06
-6.133350609667649e-06   1.6149444099467728e-06   -2.81093021905945e-06
-6.133350609667649e-06   1.6149444099467728e-06   -2.81093021905945e-06
-6.133350609667649e-06   1.6149444099467728e-06   -2.81093021905945e-06
-6.133350609667649e-06   1.6149444099467728e-06   -2.81093021905945e-06
-1.2232252040077569e-05   6.463978656565247e-07   -1.3556893862983485e-05
-1.2232252040077569e-05   6.463978656565247e-07   -1.3556893862983485e-05
-1.2232252040077569e-05   6.463978656565247e-07   -1.3556893862983485e-05
-1.2232252040077569e-05   6.463978656565247e-07   -1.3556893862983485e-05
-1.1939435794420192e-05   1.8412726390347597e-06   -3.403408610644365e-06
-1.1939435794420192e-05   1.8412726390347597e-06   -3.403408610644365e-06
-1.1939435794420192e-05   1.8412726390347597e-06   -3.403408610644365e-06
-1.1939435794420192e-05   1.8412726390347597e-06   -3.403408610644365e-06
-5.959567426004419e-06   7.788820627761166e-07   -1.2732421545582206e-05
-5.959567426004419e-06   7.788820627761166e-07   -1.2732421545582206e-05
-5.959567426004419e-06   7.788820627761166e-07   -1.2732421545582206e-05
-5.959567426004419e-06   7.788820627761166e-07   -1.2732421545582206e-05
-9.016762820706222e-06   1.1798476944539348e-06   -7.877675266752487e-06
-9.016762820706222e-06   1.1798476944539348e-06   -7.877675266752487e-06
-9.016762820706222e-06   1.1798476944539348e-06   -7.877675266752487e-06
-9.016762820706222e-06   1.1798476944539348e-06   -7.877675266752487e-06
-1.302446536915387e-05   2.2754576872579266e-06   -2.008849296951463e-06
-1.302446536915387e-05   2.2754576872579266e-06   -2.008849296951463e-06
-1.302446536915387e-05   2.2754576872579266e-06   -2.008849296951463e-06
-1.302446536915387e-05   2.2754576872579266e-06   -2.008849296951463e-06
-1.968069079528755e-05   2.170590532490544e-06   -1.316547863336806e-05
-1.968069079528755e-05   2.170590532490544e-06   -1.316547863336806e-05
-1.968069079528755e-05   2.170590532490544e-06   -1.316547863336806e-05
-1.968069079528755e-05   2.170590532490544e-06   -1.316547863336806e-05
-1.8869229462066903e-05   2.5940215505647953e-06   1.0049175051943032e-07
-1.8869229462066903e-05   2.5940215505647953e-06   1.0049175051943032e-07
-1.8869229462066903e-05   2.5940215505647953e-06   1.0049175051943032e-07
-1.8869229462066903e-05   2.5940215505647953e-06   1.0049175051943032e-07
-1.2622874137706577e-05   2.7172045412427294e-06   -1.0384010251154617e-05
-1.2622874137706577e-05   2.7172045412427294e-06   -1.0384010251154617e-05
-1.2622874137706577e-05   2.7172045412427294e-06   -1.0384010251154617e-05
-1.2622874137706577e-05   2.7172045412427294e-06   -1.0384010251154617e-05
-1.5358425397493277e-05   2.5580182192563427e-06   -5.729246358318212e-06
-1.5358425397493277e-05   2.5580182192563427e-06   -5.729246358318212e-06
-1.5358425397493277e-05   2.5580182192563427e-06   -5.729246358318212e-06
-1.5358425397493277e-05   2.5580182192563427e-06   -5.729246358318212e-06
-1.2622874137706611e-05   2.5940215505647953e-06   2.6581956112615643e-08
-1.2622874137706611e-05   2.5940215505647953e-06   2.6581956112615643e-08
-1.2622874137706611e-05   2.5940215505647953e-06   2.6581956112615643e-08
-1.2622874137706611e-05   2.5940215505647953e-06   2.6581956112615643e-08
-1.8869229462066903e-05   2.7172045412427294e-06   -1.031010045674782e-05
-1.8869229462066903e-05   2.7172045412427294e-06   -1.031010045674782e-05
-1.8869229462066903e-05   2.7172045412427294e-06   -1.031010045674782e-05
-1.8869229462066903e-05   2.7172045412427294e-06   -1.031010045674782e-05
-1.819911362524461e-05   2.678707557264722e-06   1.2932484877610506e-06
-1.819911362524461e-05   2.678707557264722e-06   1.2932484877610506e-06
-1.819911362524461e-05   2.678707557264722e-06   1.2932484877610506e-06
-1.819911362524461e-05   2.678707557264722e-06   1.2932484877610506e-06
-1.2232252040077547e-05   2.8414377300397782e-06   -8.74915892451585e-06
-1.2232252040077547e-05   2.8414377300397782e-06   -8.74915892451585e-06
-1.2232252040077547e-05   2.8414377300397782e-06   -8.74915892451585e-06
-1.2232252040077547e-05   2.8414377300397782e-06   -8.74915892451585e-06
-1.5068502601411933e-05   2.7405553301115305e-06   -3.961545215668035e-06
-1.5068502601411933e-05   2.7405553301115305e-06   -3.961545215668035e-06
-1.5068502601411933e-05   2.7405553301115305e-06   -3.961545215668035e-06
-1.5068502601411933e-05   2.7405553301115305e-06   -3.961545215668035e-06
-1.2232252040077569e-05   2.678707557264722e-06   1.1956103840959193e-06
-1.2232252040077569e-05   2.678707557264722e-06   1.1956103840959193e-06
-1.2232252040077569e-05   2.678707557264722e-06   1.1956103840959193e-06
-1.2232252040077569e-05   2.678707557264722e-06   1.1956103840959193e-06
-1.8199113625244575e-05   2.8414377300397782e-06   -8.651520820850784e-06
-1.8199113625244575e-05   2.8414377300397782e-06   -8.651520820850784e-06
-1.8199113625244575e-05   2.8414377300397782e-06   -8.651520820850784e-06
-1.8199113625244575e-05   2.8414377300397782e-06   -8.651520820850784e-06
-1.7495185371853095e-05   2.746865576149578e-06   2.9019202244484317e-06
-1.7495185371853095e-05   2.746865576149578e-06   2.9019202244484317e-06
-1.7495185371853095e-05   2.746865576149578e-06   2.9019202244484317e-06
-1.7495185371853095e-05   2.746865576149578e-06   2.9019202244484317e-06
-1.1939435794420192e-05   3.0456307726438835e-06   -6.5369215225029775e-06
-1.1939435794420192e-05   3.0456307726438835e-06   -6.5369215225029775e-06
-1.1939435794420192e-05   3.0456307726438835e-06   -6.5369215225029775e-06
-1.1939435794420192e-05   3.0456307726438835e-06   -6.5369215225029775e-06
-1.4382567968387622e-05   2.7981816070626496e-06   -2.3165650665419953e-06
-1.4382567968387622e-05   2.7981816070626496e-06   -2.3165650665419953e-06
-1.4382567968387622e-05   2.7981816070626496e-06   -2.3165650665419953e-06
-1.4382567968387622e-05   2.7981816070626496e-06   -2.3165650665419953e-06
1.6896223985680076e-05   -2.5218861327641834e-06   5.877386005914513e-06
1.6896223985680076e-05   -2.5218861327641834e-06   5.877386005914513e-06
1.6896223985680076e-05   -2.5218861327641834e-06   5.877386005914513e-06
1.6896223985680076e-05   -2.5218861327641834e-06   5.877386005914513e-06
8.458651386273919e-06   -3.1723867426004717e-06   -8.575535358997508e-06
8.458651386273919e-06   -3.1723867426004717e-06   -8.575535358997508e-06
8.458651386273919e-06   -3.1723867426004717e-06   -8.575535358997508e-06
8.458651386273919e-06   -3.1723867426004717e-06   -8.575535358997508e-06
8.65388222441862e-06   -2.465546863639331e-06   4.2436681453189855e-06
8.65388222441862e-06   -2.465546863639331e-06   4.2436681453189855e-06
8.65388222441862e-06   -2.465546863639331e-06   4.2436681453189855e-06
8.65388222441862e-06   -2.465546863639331e-06   4.2436681453189855e-06
1.730242561338765e-05   -3.2518643016613957e-06   -9.698780373482794e-06
1.730242561338765e-05   -3.2518643016613957e-06   -9.698780373482794e-06
1.730242561338765e-05   -3.2518643016613957e-06   -9.698780373482794e-06
1.730242561338765e-05   -3.2518643016613957e-06   -9.698780373482794e-06
1.2314364792017056e-05   -2.5754582902749734e-06   -1.7911892780303256e-06
1.2314364792017056e-05   -2.5754582902749734e-06   -1.7911892780303256e-06
1.2314364792017056e-05   -2.5754582902749734e-06   -1.7911892780303256e-06
1.2314364792017056e-05   -2.5754582902749734e-06   -1.7911892780303256e-06
1.730242561338765e-05   -2.465546863639331e-06   4.715458608132235e-06
1.730242561338765e-05   -2.465546863639331e-06   4.715458608132235e-06
1.730242561338765e-05   -2.465546863639331e-06   4.715458608132235e-06
1.730242561338765e-05   -2.465546863639331e-06   4.715458608132235e-06
8.65388222441862e-06   -3.2518643016613957e-06   -1.017057083629603e-05
8.65388222441862e-06   -3.2518643016613957e-06   -1.017057083629603e-05
8.65388222441862e-06   -3.2518643016613957e-06   -1.017057083629603e-05
8.65388222441862e-06   -3.2518643016613957e-06   -1.017057083629603e-05
8.818631866588474e-06   -2.379089602662799e-06   3.3631245699441373e-06
8.818631866588474e-06   -2.379089602662799e-06   3.3631245699441373e-06
8.818631866588474e-06   -2.379089602662799e-06   3.3631245699441373e-06
8.818631866588474e-06   -2.379089602662799e-06   3.3631245699441373e-06
1.7554410196988676e-05   -3.2201721474737523e-06   -1.0691856453836273e-05
1.7554410196988676e-05   -3.2201721474737523e-06   -1.0691856453836273e-05
1.7554410196988676e-05   -3.2201721474737523e-06   -1.0691856453836273e-05
1.7554410196988676e-05   -3.2201721474737523e-06   -1.0691856453836273e-05
1.2738256463125265e-05   -2.6540624959111615e-06   -3.004599355001502e-06
1.2738256463125265e-05   -2.6540624959111615e-06   -3.004599355001502e-06
1.2738256463125265e-05   -2.6540624959111615e-06   -3.004599355001502e-06
1.2738256463125265e-05   -2.6540624959111615e-06   -3.004599355001502e-06
1.7554410196988676e-05   -2.379089602662799e-06   3.8677740968306984e-06
1.7554410196988676e-05   -2.379089602662799e-06   3.8677740968306984e-06
1.7554410196988676e-05   -2.379089602662799e-06   3.8677740968306984e-06
1.7554410196988676e-05   -2.379089602662799e-06   3.8677740968306984e-06
8.818631866588474e-06   -3.2201721474737523e-06   -1.1196505980722862e-05
8.818631866588474e-06   -3.2201721474737523e-06   -1.1196505980722862e-05
8.818631866588474e-06   -3.2201721474737523e-06   -1.1196505980722862e-05
8.818631866588474e-06   -3.2201721474737523e-06   -1.1196505980722862e-05
8.989075899666548e-06   -2.044987438305692e-06   1.6676470011059668e-06
8.989075899666548e-06   -2.044987438305692e-06   1.6676470011059668e-06
8.989075899666548e-06   -2.044987438305692e-06   1.6676470011059668e-06
8.989075899666548e-06   -2.044987438305692e-06   1.6676470011059668e-06
1.780266542363143e-05   -3.0345441099805534e-06   -1.2427934869163983e-05
1.780266542363143e-05   -3.0345441099805534e-06   -1.2427934869163983e-05
1.780266542363143e-05   -3.0345441099805534e-06   -1.2427934869163983e-05
1.780266542363143e-05   -3.0345441099805534e-06   -1.2427934869163983e-05
1.2733610732356904e-05   -2.550665778114098e-06   -4.269837382826311e-06
1.2733610732356904e-05   -2.550665778114098e-06   -4.269837382826311e-06
1.2733610732356904e-05   -2.550665778114098e-06   -4.269837382826311e-06
1.2733610732356904e-05   -2.550665778114098e-06   -4.269837382826311e-06
8.458651386273919e-06   -1.5996361053863782e-06   7.236776555123248e-07
8.458651386273919e-06   -1.5996361053863782e-06   7.236776555123248e-07
8.458651386273919e-06   -1.5996361053863782e-06   7.236776555123248e-07
8.458651386273919e-06   -1.5996361053863782e-06   7.236776555123248e-07
9.114906961034589e-07   -3.099502901479363e-06   -1.2754843572427644e-05
9.114906961034589e-07   -3.099502901479363e-06   -1.2754843572427644e-05
9.114906961034589e-07   -3.099502901479363e-06   -1.2754843572427644e-05
9.114906961034589e-07   -3.099502901479363e-06   -1.2754843572427644e-05
1.1379392688161055e-06   -1.5182291531787946e-06   1.0851141870753299e-07
1.1379392688161055e-06   -1.5182291531787946e-06   1.0851141870753299e-07
1.1379392688161055e-06   -1.5182291531787946e-06   1.0851141870753299e-07
1.1379392688161055e-06   -1.5182291531787946e-06   1.0851141870753299e-07
8.653882224418641e-06   -3.079157684970457e-06   -1.148150305488843e-05
8.653882224418641e-06   -3.079157684970457e-06   -1.148150305488843e-05
8.653882224418641e-06   -3.079157684970457e-06   -1.148150305488843e-05
8.653882224418641e-06   -3.079157684970457e-06   -1.148150305488843e-05
4.807049527601878e-06   -2.095888382333544e-06   -5.660076808442673e-06
4.807049527601878e-06   -2.095888382333544e-06   -5.660076808442673e-06
4.807049527601878e-06   -2.095888382333544e-06   -5.660076808442673e-06
4.807049527601878e-06   -2.095888382333544e-06   -5.660076808442673e-06
8.653882224418614e-06   -1.518229153178903e-06   1.0450685377825196e-06
8.653882224418614e-06   -1.518229153178903e-06   1.0450685377825196e-06
8.653882224418614e-06   -1.518229153178903e-06   1.0450685377825196e-06
8.653882224418614e-06   -1.518229153178903e-06   1.0450685377825196e-06
1.1379392688160988e-06   -3.079157684970457e-06   -1.2418060173963348e-05
1.1379392688160988e-06   -3.079157684970457e-06   -1.2418060173963348e-05
1.1379392688160988e-06   -3.079157684970457e-06   -1.2418060173963348e-05
1.1379392688160988e-06   -3.079157684970457e-06   -1.2418060173963348e-05
1.342209090957271e-06   -1.3702089246048254e-06   2.0942569114599987e-08
1.342209090957271e-06   -1.3702089246048254e-06   2.0942569114599987e-08
1.342209090957271e-06   -1.3702089246048254e-06   2.0942569114599987e-08
1.342209090957271e-06   -1.3702089246048254e-06   2.0942569114599987e-08
8.818631866588474e-06   -3.03183746101646e-06   -1.144278493509052e-05
8.818631866588474e-06   -3.03183746101646e-06   -1.144278493509052e-05
8.818631866588474e-06   -3.03183746101646e-06   -1.144278493509052e-05
8.818631866588474e-06   -3.03183746101646e-06   -1.144278493509052e-05
4.931791799391323e-06   -2.1136188508467458e-06   -5.51564932253025e-06
4.931791799391323e-06   -2.1136188508467458e-06   -5.51564932253025e-06
4.931791799391323e-06   -2.1136188508467458e-06   -5.51564932253025e-06
4.931791799391323e-06   -2.1136188508467458e-06   -5.51564932253025e-06
8.818631866588474e-06   -1.3702089246049338e-06   1.0179196909614833e-06
8.818631866588474e-06   -1.3702089246049338e-06   1.0179196909614833e-06
8.818631866588474e-06   -1.3702089246049338e-06   1.0179196909614833e-06
8.818631866588474e-06   -1.3702089246049338e-06   1.0179196909614833e-06
1.342209090957271e-06   -3.03183746101646e-06   -1.2439762056937458e-05
1.342209090957271e-06   -3.03183746101646e-06   -1.2439762056937458e-05
1.342209090957271e-06   -3.03183746101646e-06   -1.2439762056937458e-05
1.342209090957271e-06   -3.03183746101646e-06   -1.2439762056937458e-05
1.647999265563605e-06   -1.1593344199058641e-06   -1.3281891001533808e-07
1.647999265563605e-06   -1.1593344199058641e-06   -1.3281891001533808e-07
1.647999265563605e-06   -1.1593344199058641e-06   -1.3281891001533808e-07
1.647999265563605e-06   -1.1593344199058641e-06   -1.3281891001533808e-07
8.989075899666548e-06   -2.9411807121504418e-06   -1.1298838858173435e-05
8.989075899666548e-06   -2.9411807121504418e-06   -1.1298838858173435e-05
8.989075899666548e-06   -2.9411807121504418e-06   -1.1298838858173435e-05
8.989075899666548e-06   -2.9411807121504418e-06   -1.1298838858173435e-05
5.179337273067794e-06   -2.073780803601901e-06   -5.469714425637896e-06
5.179337273067794e-06   -2.073780803601901e-06   -5.469714425637896e-06
5.179337273067794e-06   -2.073780803601901e-06   -5.469714425637896e-06
5.179337273067794e-06   -2.073780803601901e-06   -5.469714425637896e-06
9.114906961034589e-07   -7.861951115942147e-07   -1.0884404505917978e-06
9.114906961034589e-07   -7.861951115942147e-07   -1.0884404505917978e-06
9.114906961034589e-07   -7.861951115942147e-07   -1.0884404505917978e-06
9.114906961034589e-07   -7.861951115942147e-07   -1.0884404505917978e-06
-6.553791656347518e-06   -3.6510283132477114e-06   -1.5249477625668727e-05
-6.553791656347518e-06   -3.6510283132477114e-06   -1.5249477625668727e-05
-6.553791656347518e-06   -3.6510283132477114e-06   -1.5249477625668727e-05
-6.553791656347518e-06   -3.6510283132477114e-06   -1.5249477625668727e-05
-6.200052147325142e-06   -6.887656121716329e-07   -2.4864770509469797e-06
-6.200052147325142e-06   -6.887656121716329e-07   -2.4864770509469797e-06
-6.200052147325142e-06   -6.887656121716329e-07   -2.4864770509469797e-06
-6.200052147325142e-06   -6.887656121716329e-07   -2.4864770509469797e-06
1.1379392688160988e-06   -3.7249698365808158e-06   -1.2894740209870302e-05
1.1379392688160988e-06   -3.7249698365808158e-06   -1.2894740209870302e-05
1.1379392688160988e-06   -3.7249698365808158e-06   -1.2894740209870302e-05
1.1379392688160988e-06   -3.7249698365808158e-06   -1.2894740209870302e-05
-2.5938468975222143e-06   -2.0426048290918177e-06   -7.684515603799784e-06
-2.5938468975222143e-06   -2.0426048290918177e-06   -7.684515603799784e-06
-2.5938468975222143e-06   -2.0426048290918177e-06   -7.684515603799784e-06
-2.5938468975222143e-06   -2.0426048290918177e-06   -7.684515603799784e-06
1.1379392688160988e-06   -6.887656121716329e-07   -6.64754516301535e-07
1.1379392688160988e-06   -6.887656121716329e-07   -6.64754516301535e-07
1.1379392688160988e-06   -6.887656121716329e-07   -6.64754516301535e-07
1.1379392688160988e-06   -6.887656121716329e-07   -6.64754516301535e-07
-6.200052147325156e-06   -3.7249698365808158e-06   -1.4716462744515787e-05
-6.200052147325156e-06   -3.7249698365808158e-06   -1.4716462744515787e-05
-6.200052147325156e-06   -3.7249698365808158e-06   -1.4716462744515787e-05
-6.200052147325156e-06   -3.7249698365808158e-06   -1.4716462744515787e-05
-5.894076962642017e-06   -5.421904576218646e-07   -2.309505087415666e-06
-5.894076962642017e-06   -5.421904576218646e-07   -2.309505087415666e-06
-5.894076962642017e-06   -5.421904576218646e-07   -2.309505087415666e-06
-5.894076962642017e-06   -5.421904576218646e-07   -2.309505087415666e-06
1.342209090957271e-06   -3.699337612957142e-06   -1.2475693550213393e-05
1.342209090957271e-06   -3.699337612957142e-06   -1.2475693550213393e-05
1.342209090957271e-06   -3.699337612957142e-06   -1.2475693550213393e-05
1.342209090957271e-06   -3.699337612957142e-06   -1.2475693550213393e-05
-2.343190733705632e-06   -2.082987158623438e-06   -7.3031707817087764e-06
-2.343190733705632e-06   -2.082987158623438e-06   -7.3031707817087764e-06
-2.343190733705632e-06   -2.082987158623438e-06   -7.3031707817087764e-06
-2.343190733705632e-06   -2.082987158623438e-06   -7.3031707817087764e-06
1.342209090957271e-06   -5.421904576218646e-07   -4.152167942146081e-07
1.342209090957271e-06   -5.421904576218646e-07   -4.152167942146081e-07
1.342209090957271e-06   -5.421904576218646e-07   -4.152167942146081e-07
1.342209090957271e-06   -5.421904576218646e-07   -4.152167942146081e-07
-5.894076962642034e-06   -3.699337612957142e-06   -1.4369981843414593e-05
-5.894076962642034e-06   -3.699337612957142e-06   -1.4369981843414593e-05
-5.894076962642034e-06   -3.699337612957142e-06   -1.4369981843414593e-05
-5.894076962642034e-06   -3.699337612957142e-06   -1.4369981843414593e-05
-5.365437446274747e-06   -4.0247455189424113e-07   -2.3015427955974405e-06
-5.365437446274747e-06   -4.0247455189424113e-07   -2.3015427955974405e-06
-5.365437446274747e-06   -4.0247455189424113e-07   -2.3015427955974405e-06
-5.365437446274747e-06   -4.0247455189424113e-07   -2.3015427955974405e-06
1.647999265563605e-06   -3.5600073577418028e-06   -1.2096084298486181e-05
1.647999265563605e-06   -3.5600073577418028e-06   -1.2096084298486181e-05
1.647999265563605e-06   -3.5600073577418028e-06   -1.2096084298486181e-05
1.647999265563605e-06   -3.5600073577418028e-06   -1.2096084298486181e-05
-2.0170059222903252e-06   -2.0292937708227352e-06   -6.906170470881055e-06
-2.0170059222903252e-06   -2.0292937708227352e-06   -6.906170470881055e-06
-2.0170059222903252e-06   -2.0292937708227352e-06   -6.906170470881055e-06
-2.0170059222903252e-06   -2.0292937708227352e-06   -6.906170470881055e-06
-6.553791656347505e-06   3.148838340824838e-07   -1.5620323240871288e-06
-6.553791656347505e-06   3.148838340824838e-07   -1.5620323240871288e-06
-6.553791656347505e-06   3.148838340824838e-07   -1.5620323240871288e-06
-6.553791656347505e-06   3.148838340824838e-07   -1.5620323240871288e-06
-1.4847178688184685e-05   -4.466294107812385e-06   -1.825305080895267e-05
-1.4847178688184685e-05   -4.466294107812385e-06   -1.825305080895267e-05
-1.4847178688184685e-05   -4.466294107812385e-06   -1.825305080895267e-05
-1.4847178688184685e-05   -4.466294107812385e-06   -1.825305080895267e-05
-1.4417937703868668e-05   4.878856831415975e-07   -4.289798271600337e-06
-1.4417937703868668e-05   4.878856831415975e-07   -4.289798271600337e-06
-1.4417937703868668e-05   4.878856831415975e-07   -4.289798271600337e-06
-1.4417937703868668e-05   4.878856831415975e-07   -4.289798271600337e-06
-6.200052147325142e-06   -5.022167872229823e-06   -1.4680242065949975e-05
-6.200052147325142e-06   -5.022167872229823e-06   -1.4680242065949975e-05
-6.200052147325142e-06   -5.022167872229823e-06   -1.4680242065949975e-05
-6.200052147325142e-06   -5.022167872229823e-06   -1.4680242065949975e-05
-1.0358209992497588e-05   -2.2263498854558153e-06   -9.42746978272691e-06
-1.0358209992497588e-05   -2.2263498854558153e-06   -9.42746978272691e-06
-1.0358209992497588e-05   -2.2263498854558153e-06   -9.42746978272691e-06
-1.0358209992497588e-05   -2.2263498854558153e-06   -9.42746978272691e-06
-6.200052147325142e-06   4.878856831417059e-07   -9.837661383774849e-07
-6.200052147325142e-06   4.878856831417059e-07   -9.837661383774849e-07
-6.200052147325142e-06   4.878856831417059e-07   -9.837661383774849e-07
-6.200052147325142e-06   4.878856831417059e-07   -9.837661383774849e-07
-1.4417937703868668e-05   -5.022167872229823e-06   -1.7986274199172862e-05
-1.4417937703868668e-05   -5.022167872229823e-06   -1.7986274199172862e-05
-1.4417937703868668e-05   -5.022167872229823e-06   -1.7986274199172862e-05
-1.4417937703868668e-05   -5.022167872229823e-06   -1.7986274199172862e-05
-1.4007227457846859e-05   6.463978656564163e-07   -3.7887152741771933e-06
-1.4007227457846859e-05   6.463978656564163e-07   -3.7887152741771933e-06
-1.4007227457846859e-05   6.463978656564163e-07   -3.7887152741771933e-06
-1.4007227457846859e-05   6.463978656564163e-07   -3.7887152741771933e-06
-5.894076962642027e-06   -5.041883447623008e-06   -1.3897663978217581e-05
-5.894076962642027e-06   -5.041883447623008e-06   -1.3897663978217581e-05
-5.894076962642027e-06   -5.041883447623008e-06   -1.3897663978217581e-05
-5.894076962642027e-06   -5.041883447623008e-06   -1.3897663978217581e-05
-9.939447382787687e-06   -2.2264058937627486e-06   -8.844666476957633e-06
-9.939447382787687e-06   -2.2264058937627486e-06   -8.844666476957633e-06
-9.939447382787687e-06   -2.2264058937627486e-06   -8.844666476957633e-06
-9.939447382787687e-06   -2.2264058937627486e-06   -8.844666476957633e-06
-5.894076962642021e-06   6.463978656564163e-07   -3.7574648620953893e-07
-5.894076962642021e-06   6.463978656564163e-07   -3.7574648620953893e-07
-5.894076962642021e-06   6.463978656564163e-07   -3.7574648620953893e-07
-5.894076962642021e-06   6.463978656564163e-07   -3.7574648620953893e-07
-1.4007227457846882e-05   -5.041883447623008e-06   -1.7310632766185296e-05
-1.4007227457846882e-05   -5.041883447623008e-06   -1.7310632766185296e-05
-1.4007227457846882e-05   -5.041883447623008e-06   -1.7310632766185296e-05
-1.4007227457846882e-05   -5.041883447623008e-06   -1.7310632766185296e-05
-1.3328790562956382e-05   7.788820627760082e-07   -3.284378261967638e-06
-1.3328790562956382e-05   7.788820627760082e-07   -3.284378261967638e-06
-1.3328790562956382e-05   7.788820627760082e-07   -3.284378261967638e-06
-1.3328790562956382e-05   7.788820627760082e-07   -3.284378261967638e-06
-5.3654374462747606e-06   -4.551767255219744e-06   -1.3358243865639518e-05
-5.3654374462747606e-06   -4.551767255219744e-06   -1.3358243865639518e-05
-5.3654374462747606e-06   -4.551767255219744e-06   -1.3358243865639518e-05
-5.3654374462747606e-06   -4.551767255219744e-06   -1.3358243865639518e-05
-9.532286850464446e-06   -1.931072383178599e-06   -7.985911781881156e-06
-9.532286850464446e-06   -1.931072383178599e-06   -7.985911781881156e-06
-9.532286850464446e-06   -1.931072383178599e-06   -7.985911781881156e-06
-9.532286850464446e-06   -1.931072383178599e-06   -7.985911781881156e-06
-1.4847178688184685e-05   2.1705905324906523e-06   -2.9021645216075398e-06
-1.4847178688184685e-05   2.1705905324906523e-06   -2.9021645216075398e-06
-1.4847178688184685e-05   2.1705905324906523e-06   -2.9021645216075398e-06
-1.4847178688184685e-05   2.1705905324906523e-06   -2.9021645216075398e-06
-2.5371505157210995e-05   0.0   -2.174506295614582e-05
-2.5371505157210995e-05   0.0   -2.174506295614582e-05
-2.5371505157210995e-05   0.0   -2.174506295614582e-05
-2.5371505157210995e-05   0.0   -2.174506295614582e-05
-2.474966903219722e-05   2.7172045412427294e-06   -2.172538490751656e-06
-2.474966903219722e-05   2.7172045412427294e-06   -2.172538490751656e-06
-2.474966903219722e-05   2.7172045412427294e-06   -2.172538490751656e-06
-2.474966903219722e-05   2.7172045412427294e-06   -2.172538490751656e-06
-1.4417937703868642e-05   0.0   -1.776176797988694e-05
-1.4417937703868642e-05   0.0   -1.776176797988694e-05
-1.4417937703868642e-05   0.0   -1.776176797988694e-05
-1.4417937703868642e-05   0.0   -1.776176797988694e-05
-1.9005066791187126e-05   8.481495931247961e-07   -1.062544259023102e-05
-1.9005066791187126e-05   8.481495931247961e-07   -1.062544259023102e-05
-1.9005066791187126e-05   8.481495931247961e-07   -1.062544259023102e-05
-1.9005066791187126e-05   8.481495931247961e-07   -1.062544259023102e-05
-1.4417937703868656e-05   2.717204541242838e-06   -5.422157660059965e-07
-1.4417937703868656e-05   2.717204541242838e-06   -5.422157660059965e-07
-1.4417937703868656e-05   2.717204541242838e-06   -5.422157660059965e-07
-1.4417937703868656e-05   2.717204541242838e-06   -5.422157660059965e-07
-2.474966903219718e-05   0.0   -1.9392090704632627e-05
-2.474966903219718e-05   0.0   -1.9392090704632627e-05
-2.474966903219718e-05   0.0   -1.9392090704632627e-05
-2.474966903219718e-05   0.0   -1.9392090704632627e-05
-2.421963261458861e-05   2.8414377300398867e-06   -6.858429737334579e-07
-2.421963261458861e-05   2.8414377300398867e-06   -6.858429737334579e-07
-2.421963261458861e-05   2.8414377300398867e-06   -6.858429737334579e-07
-2.421963261458861e-05   2.8414377300398867e-06   -6.858429737334579e-07
-1.4007227457846882e-05   0.0   -1.6001655596945924e-05
-1.4007227457846882e-05   0.0   -1.6001655596945924e-05
-1.4007227457846882e-05   0.0   -1.6001655596945924e-05
-1.4007227457846882e-05   0.0   -1.6001655596945924e-05
-1.8836547009568305e-05   1.3200813801452112e-06   -8.744838505497108e-06
-1.8836547009568305e-05   1.3200813801452112e-06   -8.744838505497108e-06
-1.8836547009568305e-05   1.3200813801452112e-06   -8.744838505497108e-06
-1.8836547009568305e-05   1.3200813801452112e-06   -8.744838505497108e-06
-1.4007227457846882e-05   2.8414377300397782e-06   1.0190196642903223e-06
-1.4007227457846882e-05   2.8414377300397782e-06   1.0190196642903223e-06
-1.4007227457846882e-05   2.8414377300397782e-06   1.0190196642903223e-06
-1.4007227457846882e-05   2.8414377300397782e-06   1.0190196642903223e-06
-2.421963261458857e-05   0.0   -1.770651823496973e-05
-2.421963261458857e-05   0.0   -1.770651823496973e-05
-2.421963261458857e-05   0.0   -1.770651823496973e-05
-2.421963261458857e-05   0.0   -1.770651823496973e-05
-2.3158024852256247e-05   3.0456307726438835e-06   1.7211776432805035e-06
-2.3158024852256247e-05   3.0456307726438835e-06   1.7211776432805035e-06
-2.3158024852256247e-05   3.0456307726438835e-06   1.7211776432805035e-06
-2.3158024852256247e-05   3.0456307726438835e-06   1.7211776432805035e-06
-1.3328790562956404e-05   0.0   -1.2833501041966384e-05
-1.3328790562956404e-05   0.0   -1.2833501041966384e-05
-1.3328790562956404e-05   0.0   -1.2833501041966384e-05
-1.3328790562956404e-05   0.0   -1.2833501041966384e-05
-1.7895919413606775e-05   1.6211471742646815e-06   -6.194307928774495e-06
-1.7895919413606775e-05   1.6211471742646815e-06   -6.194307928774495e-06
-1.7895919413606775e-05   1.6211471742646815e-06   -6.194307928774495e-06
-1.7895919413606775e-05   1.6211471742646815e-06   -6.194307928774495e-06
1.8690063065903098e-05   -3.1723867426004717e-06   1.1088654145128283e-05
1.8690063065903098e-05   -3.1723867426004717e-06   1.1088654145128283e-05
1.8690063065903098e-05   -3.1723867426004717e-06   1.1088654145128283e-05
1.8690063065903098e-05   -3.1723867426004717e-06   1.1088654145128283e-05
9.653156517352732e-06   -2.4784682921768315e-06   -3.55650569886808e-06
9.653156517352732e-06   -2.4784682921768315e-06   -3.55650569886808e-06
9.653156517352732e-06   -2.4784682921768315e-06   -3.55650569886808e-06
9.653156517352732e-06   -2.4784682921768315e-06   -3.55650569886808e-06
9.41925959654126e-06   -3.2518643016613957e-06   9.753799061026696e-06
9.41925959654126e-06   -3.2518643016613957e-06   9.753799061026696e-06
9.41925959654126e-06   -3.2518643016613957e-06   9.753799061026696e-06
9.41925959654126e-06   -3.2518643016613957e-06   9.753799061026696e-06
1.8502571173697352e-05   -2.718647660756592e-06   -5.704983552109689e-06
1.8502571173697352e-05   -2.718647660756592e-06   -5.704983552109689e-06
1.8502571173697352e-05   -2.718647660756592e-06   -5.704983552109689e-06
1.8502571173697352e-05   -2.718647660756592e-06   -5.704983552109689e-06
1.348848762340845e-05   -2.7518000149553794e-06   2.6717137775576845e-06
1.348848762340845e-05   -2.7518000149553794e-06   2.6717137775576845e-06
1.348848762340845e-05   -2.7518000149553794e-06   2.6717137775576845e-06
1.348848762340845e-05   -2.7518000149553794e-06   2.6717137775576845e-06
1.8502571173697352e-05   -3.2518643016613957e-06   9.433869076483782e-06
1.8502571173697352e-05   -3.2518643016613957e-06   9.433869076483782e-06
1.8502571173697352e-05   -3.2518643016613957e-06   9.433869076483782e-06
1.8502571173697352e-05   -3.2518643016613957e-06   9.433869076483782e-06
9.41925959654126e-06   -2.718647660756592e-06   -5.385053567566781e-06
9.41925959654126e-06   -2.718647660756592e-06   -5.385053567566781e-06
9.41925959654126e-06   -2.718647660756592e-06   -5.385053567566781e-06
9.41925959654126e-06   -2.718647660756592e-06   -5.385053567566781e-06
9.206831472284266e-06   -3.2201721474737523e-06   8.737277703151254e-06
9.206831472284266e-06   -3.2201721474737523e-06   8.737277703151254e-06
9.206831472284266e-06   -3.2201721474737523e-06   8.737277703151254e-06
9.206831472284266e-06   -3.2201721474737523e-06   8.737277703151254e-06
1.828250541244898e-05   -2.7381787980772145e-06   -6.678041540094572e-06
1.828250541244898e-05   -2.7381787980772145e-06   -6.678041540094572e-06
1.828250541244898e-05   -2.7381787980772145e-06   -6.678041540094572e-06
1.828250541244898e-05   -2.7381787980772145e-06   -6.678041540094572e-06
1.3488811575412426e-05   -2.800150625738079e-06   1.348631284896246e-06
1.3488811575412426e-05   -2.800150625738079e-06   1.348631284896246e-06
1.3488811575412426e-05   -2.800150625738079e-06   1.348631284896246e-06
1.3488811575412426e-05   -2.800150625738079e-06   1.348631284896246e-06
1.8282505412449016e-05   -3.2201721474737523e-06   8.44808169351332e-06
1.8282505412449016e-05   -3.2201721474737523e-06   8.44808169351332e-06
1.8282505412449016e-05   -3.2201721474737523e-06   8.44808169351332e-06
1.8282505412449016e-05   -3.2201721474737523e-06   8.44808169351332e-06
9.206831472284266e-06   -2.7381787980772145e-06   -6.388845530456598e-06
9.206831472284266e-06   -2.7381787980772145e-06   -6.388845530456598e-06
9.206831472284266e-06   -2.7381787980772145e-06   -6.388845530456598e-06
9.206831472284266e-06   -2.7381787980772145e-06   -6.388845530456598e-06
8.947210081792909e-06   -3.0345441099805534e-06   7.083384165566776e-06
8.947210081792909e-06   -3.0345441099805534e-06   7.083384165566776e-06
8.947210081792909e-06   -3.0345441099805534e-06   7.083384165566776e-06
8.947210081792909e-06   -3.0345441099805534e-06   7.083384165566776e-06
1.7937404859686362e-05   -2.672306172570916e-06   -8.1176165600347e-06
1.7937404859686362e-05   -2.672306172570916e-06   -8.1176165600347e-06
1.7937404859686362e-05   -2.672306172570916e-06   -8.1176165600347e-06
1.7937404859686362e-05   -2.672306172570916e-06   -8.1176165600347e-06
1.3037819834367905e-05   -2.6617229777019507e-06   4.200856524127334e-08
1.3037819834367905e-05   -2.6617229777019507e-06   4.200856524127334e-08
1.3037819834367905e-05   -2.6617229777019507e-06   4.200856524127334e-08
1.3037819834367905e-05   -2.6617229777019507e-06   4.200856524127334e-08
9.653156517352732e-06   -3.099502901479363e-06   8.225617079608274e-06
9.653156517352732e-06   -3.099502901479363e-06   8.225617079608274e-06
9.653156517352732e-06   -3.099502901479363e-06   8.225617079608274e-06
9.653156517352732e-06   -3.099502901479363e-06   8.225617079608274e-06
1.932048820583936e-06   -1.493626471907425e-06   -3.679369890596481e-06
1.932048820583936e-06   -1.493626471907425e-06   -3.679369890596481e-06
1.932048820583936e-06   -1.493626471907425e-06   -3.679369890596481e-06
1.932048820583936e-06   -1.493626471907425e-06   -3.679369890596481e-06
1.5620744913861053e-06   -3.079157684970457e-06   9.341467257294276e-06
1.5620744913861053e-06   -3.079157684970457e-06   9.341467257294276e-06
1.5620744913861053e-06   -3.079157684970457e-06   9.341467257294276e-06
1.5620744913861053e-06   -3.079157684970457e-06   9.341467257294276e-06
9.41925959654126e-06   -1.5814903268705337e-06   -4.652441666157574e-06
9.41925959654126e-06   -1.5814903268705337e-06   -4.652441666157574e-06
9.41925959654126e-06   -1.5814903268705337e-06   -4.652441666157574e-06
9.41925959654126e-06   -1.5814903268705337e-06   -4.652441666157574e-06
5.631978571710257e-06   -2.2271303322111058e-06   2.0470773784317693e-06
5.631978571710257e-06   -2.2271303322111058e-06   2.0470773784317693e-06
5.631978571710257e-06   -2.2271303322111058e-06   2.0470773784317693e-06
5.631978571710257e-06   -2.2271303322111058e-06   2.0470773784317693e-06
9.419259596541267e-06   -3.079157684970457e-06   8.442866842434365e-06
9.419259596541267e-06   -3.079157684970457e-06   8.442866842434365e-06
9.419259596541267e-06   -3.079157684970457e-06   8.442866842434365e-06
9.419259596541267e-06   -3.079157684970457e-06   8.442866842434365e-06
1.5620744913861053e-06   -1.5814903268705337e-06   -3.753841251297684e-06
1.5620744913861053e-06   -1.5814903268705337e-06   -3.753841251297684e-06
1.5620744913861053e-06   -1.5814903268705337e-06   -3.753841251297684e-06
1.5620744913861053e-06   -1.5814903268705337e-06   -3.753841251297684e-06
1.2968740761111144e-06   -3.03183746101646e-06   9.33982227429973e-06
1.2968740761111144e-06   -3.03183746101646e-06   9.33982227429973e-06
1.2968740761111144e-06   -3.03183746101646e-06   9.33982227429973e-06
1.2968740761111144e-06   -3.03183746101646e-06   9.33982227429973e-06
9.206831472284266e-06   -1.617131585156164e-06   -4.69226357817166e-06
9.206831472284266e-06   -1.617131585156164e-06   -4.69226357817166e-06
9.206831472284266e-06   -1.617131585156164e-06   -4.69226357817166e-06
9.206831472284266e-06   -1.617131585156164e-06   -4.69226357817166e-06
5.311573068015217e-06   -2.1788853566862172e-06   2.1368860251949457e-06
5.311573068015217e-06   -2.1788853566862172e-06   2.1368860251949457e-06
5.311573068015217e-06   -2.1788853566862172e-06   2.1368860251949457e-06
5.311573068015217e-06   -2.1788853566862172e-06   2.1368860251949457e-06
9.206831472284283e-06   -3.03183746101646e-06   8.490998748783595e-06
9.206831472284283e-06   -3.03183746101646e-06   8.490998748783595e-06
9.206831472284283e-06   -3.03183746101646e-06   8.490998748783595e-06
9.206831472284283e-06   -3.03183746101646e-06   8.490998748783595e-06
1.2968740761111144e-06   -1.617131585156164e-06   -3.843440052655512e-06
1.2968740761111144e-06   -1.617131585156164e-06   -3.843440052655512e-06
1.2968740761111144e-06   -1.617131585156164e-06   -3.843440052655512e-06
1.2968740761111144e-06   -1.617131585156164e-06   -3.843440052655512e-06
1.0024276930104781e-06   -2.9411807121504418e-06   9.62618471954781e-06
1.0024276930104781e-06   -2.9411807121504418e-06   9.62618471954781e-06
1.0024276930104781e-06   -2.9411807121504418e-06   9.62618471954781e-06
1.0024276930104781e-06   -2.9411807121504418e-06   9.62618471954781e-06
8.947210081792902e-06   -1.5745631455078282e-06   -4.435089801741924e-06
8.947210081792902e-06   -1.5745631455078282e-06   -4.435089801741924e-06
8.947210081792902e-06   -1.5745631455078282e-06   -4.435089801741924e-06
8.947210081792902e-06   -1.5745631455078282e-06   -4.435089801741924e-06
5.118324360403261e-06   -2.078561826935211e-06   2.2487856094306004e-06
5.118324360403261e-06   -2.078561826935211e-06   2.2487856094306004e-06
5.118324360403261e-06   -2.078561826935211e-06   2.2487856094306004e-06
5.118324360403261e-06   -2.078561826935211e-06   2.2487856094306004e-06
1.9320488205839428e-06   -3.6510283132477114e-06   8.41340880510243e-06
1.9320488205839428e-06   -3.6510283132477114e-06   8.41340880510243e-06
1.9320488205839428e-06   -3.6510283132477114e-06   8.41340880510243e-06
1.9320488205839428e-06   -3.6510283132477114e-06   8.41340880510243e-06
-5.493937786470467e-06   -5.680782865319324e-07   -2.1134655239588842e-06
-5.493937786470467e-06   -5.680782865319324e-07   -2.1134655239588842e-06
-5.493937786470467e-06   -5.680782865319324e-07   -2.1134655239588842e-06
-5.493937786470467e-06   -5.680782865319324e-07   -2.1134655239588842e-06
-6.0684487944586615e-06   -3.7249698365808158e-06   1.074099697856006e-05
-6.0684487944586615e-06   -3.7249698365808158e-06   1.074099697856006e-05
-6.0684487944586615e-06   -3.7249698365808158e-06   1.074099697856006e-05
-6.0684487944586615e-06   -3.7249698365808158e-06   1.074099697856006e-05
1.5620744913861053e-06   -5.979535746262381e-07   -3.852751588353921e-06
1.5620744913861053e-06   -5.979535746262381e-07   -3.852751588353921e-06
1.5620744913861053e-06   -5.979535746262381e-07   -3.852751588353921e-06
1.5620744913861053e-06   -5.979535746262381e-07   -3.852751588353921e-06
-1.954120690693869e-06   -2.0652291977091937e-06   2.887939088962498e-06
-1.954120690693869e-06   -2.0652291977091937e-06   2.887939088962498e-06
-1.954120690693869e-06   -2.0652291977091937e-06   2.887939088962498e-06
-1.954120690693869e-06   -2.0652291977091937e-06   2.887939088962498e-06
1.5620744913861053e-06   -3.7249698365808158e-06   8.864787221387336e-06
1.5620744913861053e-06   -3.7249698365808158e-06   8.864787221387336e-06
1.5620744913861053e-06   -3.7249698365808158e-06   8.864787221387336e-06
1.5620744913861053e-06   -3.7249698365808158e-06   8.864787221387336e-06
-6.068448794458651e-06   -5.979535746263465e-07   -1.9765418311811552e-06
-6.068448794458651e-06   -5.979535746263465e-07   -1.9765418311811552e-06
-6.068448794458651e-06   -5.979535746263465e-07   -1.9765418311811552e-06
-6.068448794458651e-06   -5.979535746263465e-07   -1.9765418311811552e-06
-6.421863209807736e-06   -3.699337612957142e-06   1.114221085502659e-05
-6.421863209807736e-06   -3.699337612957142e-06   1.114221085502659e-05
-6.421863209807736e-06   -3.699337612957142e-06   1.114221085502659e-05
-6.421863209807736e-06   -3.699337612957142e-06   1.114221085502659e-05
1.2968740761111144e-06   -6.35470822952372e-07   -3.5606713621742615e-06
1.2968740761111144e-06   -6.35470822952372e-07   -3.5606713621742615e-06
1.2968740761111144e-06   -6.35470822952372e-07   -3.5606713621742615e-06
1.2968740761111144e-06   -6.35470822952372e-07   -3.5606713621742615e-06
-2.3441635647325047e-06   -2.05244179250926e-06   3.3579072876325984e-06
-2.3441635647325047e-06   -2.05244179250926e-06   3.3579072876325984e-06
-2.3441635647325047e-06   -2.05244179250926e-06   3.3579072876325984e-06
-2.3441635647325047e-06   -2.05244179250926e-06   3.3579072876325984e-06
1.2968740761111144e-06   -3.6993376129570337e-06   9.303890781023707e-06
1.2968740761111144e-06   -3.6993376129570337e-06   9.303890781023707e-06
1.2968740761111144e-06   -3.6993376129570337e-06   9.303890781023707e-06
1.2968740761111144e-06   -3.6993376129570337e-06   9.303890781023707e-06
-6.421863209807722e-06   -6.35470822952372e-07   -1.7223512881714116e-06
-6.421863209807722e-06   -6.35470822952372e-07   -1.7223512881714116e-06
-6.421863209807722e-06   -6.35470822952372e-07   -1.7223512881714116e-06
-6.421863209807722e-06   -6.35470822952372e-07   -1.7223512881714116e-06
-6.834830281315227e-06   -3.5600073577418028e-06   1.1657967895892653e-05
-6.834830281315227e-06   -3.5600073577418028e-06   1.1657967895892653e-05
-6.834830281315227e-06   -3.5600073577418028e-06   1.1657967895892653e-05
-6.834830281315227e-06   -3.5600073577418028e-06   1.1657967895892653e-05
1.0024276930104781e-06   -6.268059555570573e-07   -3.164049569294333e-06
1.0024276930104781e-06   -6.268059555570573e-07   -3.164049569294333e-06
1.0024276930104781e-06   -6.268059555570573e-07   -3.164049569294333e-06
1.0024276930104781e-06   -6.268059555570573e-07   -3.164049569294333e-06
-2.6629451763531585e-06   -1.9624774625390078e-06   3.7463081171675234e-06
-2.6629451763531585e-06   -1.9624774625390078e-06   3.7463081171675234e-06
-2.6629451763531585e-06   -1.9624774625390078e-06   3.7463081171675234e-06
-2.6629451763531585e-06   -1.9624774625390078e-06   3.7463081171675234e-06
-5.493937786470474e-06   -4.466294107812385e-06   1.0128312402984865e-05
-5.493937786470474e-06   -4.466294107812385e-06   1.0128312402984865e-05
-5.493937786470474e-06   -4.466294107812385e-06   1.0128312402984865e-05
-5.493937786470474e-06   -4.466294107812385e-06   1.0128312402984865e-05
-1.3882798435085646e-05   7.823318171031523e-07   -7.039464564244195e-07
-1.3882798435085646e-05   7.823318171031523e-07   -7.039464564244195e-07
-1.3882798435085646e-05   7.823318171031523e-07   -7.039464564244195e-07
-1.3882798435085646e-05   7.823318171031523e-07   -7.039464564244195e-07
-1.4581632412425848e-05   -5.022167872229823e-06   1.4241237147354937e-05
-1.4581632412425848e-05   -5.022167872229823e-06   1.4241237147354937e-05
-1.4581632412425848e-05   -5.022167872229823e-06   1.4241237147354937e-05
-1.4581632412425848e-05   -5.022167872229823e-06   1.4241237147354937e-05
-6.068448794458651e-06   7.511979448187461e-07   -3.4114217061527707e-06
-6.068448794458651e-06   7.511979448187461e-07   -3.4114217061527707e-06
-6.068448794458651e-06   7.511979448187461e-07   -3.4114217061527707e-06
-6.068448794458651e-06   7.511979448187461e-07   -3.4114217061527707e-06
-9.872379674190848e-06   -1.7762532176497474e-06   4.444933790881899e-06
-9.872379674190848e-06   -1.7762532176497474e-06   4.444933790881899e-06
-9.872379674190848e-06   -1.7762532176497474e-06   4.444933790881899e-06
-9.872379674190848e-06   -1.7762532176497474e-06   4.444933790881899e-06
-6.0684487944586615e-06   -5.022167872229823e-06   1.0777217657125839e-05
-6.0684487944586615e-06   -5.022167872229823e-06   1.0777217657125839e-05
-6.0684487944586615e-06   -5.022167872229823e-06   1.0777217657125839e-05
-6.0684487944586615e-06   -5.022167872229823e-06   1.0777217657125839e-05
-1.4581632412425848e-05   7.511979448187461e-07   5.2597784076314005e-08
-1.4581632412425848e-05   7.511979448187461e-07   5.2597784076314005e-08
-1.4581632412425848e-05   7.511979448187461e-07   5.2597784076314005e-08
-1.4581632412425848e-05   7.511979448187461e-07   5.2597784076314005e-08
-1.5005897050828702e-05   -5.041883447623008e-06   1.5049458690070407e-05
-1.5005897050828702e-05   -5.041883447623008e-06   1.5049458690070407e-05
-1.5005897050828702e-05   -5.041883447623008e-06   1.5049458690070407e-05
-1.5005897050828702e-05   -5.041883447623008e-06   1.5049458690070407e-05
-6.421863209807722e-06   6.829998354551019e-07   -2.6921943481447085e-06
-6.421863209807722e-06   6.829998354551019e-07   -2.6921943481447085e-06
-6.421863209807722e-06   6.829998354551019e-07   -2.6921943481447085e-06
-6.421863209807722e-06   6.829998354551019e-07   -2.6921943481447085e-06
-1.0320612972176018e-05   -2.0733802171049847e-06   5.459549954005123e-06
-1.0320612972176018e-05   -2.0733802171049847e-06   5.459549954005123e-06
-1.0320612972176018e-05   -2.0733802171049847e-06   5.459549954005123e-06
-1.0320612972176018e-05   -2.0733802171049847e-06   5.459549954005123e-06
-6.421863209807719e-06   -5.041883447623008e-06   1.1614528720223487e-05
-6.421863209807719e-06   -5.041883447623008e-06   1.1614528720223487e-05
-6.421863209807719e-06   -5.041883447623008e-06   1.1614528720223487e-05
-6.421863209807719e-06   -5.041883447623008e-06   1.1614528720223487e-05
-1.5005897050828678e-05   6.829998354551019e-07   7.427356217021438e-07
-1.5005897050828678e-05   6.829998354551019e-07   7.427356217021438e-07
-1.5005897050828678e-05   6.829998354551019e-07   7.427356217021438e-07
-1.5005897050828678e-05   6.829998354551019e-07   7.427356217021438e-07
-1.5464964596243866e-05   -4.551767255219744e-06   1.5384016850213892e-05
-1.5464964596243866e-05   -4.551767255219744e-06   1.5384016850213892e-05
-1.5464964596243866e-05   -4.551767255219744e-06   1.5384016850213892e-05
-1.5464964596243866e-05   -4.551767255219744e-06   1.5384016850213892e-05
-6.8348302813152e-06   6.043808080572572e-07   -2.093229179299963e-06
-6.8348302813152e-06   6.043808080572572e-07   -2.093229179299963e-06
-6.8348302813152e-06   6.043808080572572e-07   -2.093229179299963e-06
-6.8348302813152e-06   6.043808080572572e-07   -2.093229179299963e-06
-1.0789368301429415e-05   -2.08348969197485e-06   6.110389820909731e-06
-1.0789368301429415e-05   -2.08348969197485e-06   6.110389820909731e-06
-1.0789368301429415e-05   -2.08348969197485e-06   6.110389820909731e-06
-1.0789368301429415e-05   -2.08348969197485e-06   6.110389820909731e-06
-1.3882798435085595e-05   0.0   1.1087830130235342e-05
-1.3882798435085595e-05   0.0   1.1087830130235342e-05
-1.3882798435085595e-05   0.0   1.1087830130235342e-05
-1.3882798435085595e-05   0.0   1.1087830130235342e-05
-2.4250341158401188e-05   3.2027281334608615e-06   -4.26977086188078e-06
-2.4250341158401188e-05   3.2027281334608615e-06   -4.26977086188078e-06
-2.4250341158401188e-05   3.2027281334608615e-06   -4.26977086188078e-06
-2.4250341158401188e-05   3.2027281334608615e-06   -4.26977086188078e-06
-2.51981555697584e-05   0.0   1.6331867096826486e-05
-2.51981555697584e-05   0.0   1.6331867096826486e-05
-2.51981555697584e-05   0.0   1.6331867096826486e-05
-2.51981555697584e-05   0.0   1.6331867096826486e-05
-1.4581632412425821e-05   3.1102062169761826e-06   -3.2284618955802998e-06
-1.4581632412425821e-05   3.1102062169761826e-06   -3.2284618955802998e-06
-1.4581632412425821e-05   3.1102062169761826e-06   -3.2284618955802998e-06
-1.4581632412425821e-05   3.1102062169761826e-06   -3.2284618955802998e-06
-1.8650822363069317e-05   1.8987679184017878e-06   4.280384334636876e-06
-1.8650822363069317e-05   1.8987679184017878e-06   4.280384334636876e-06
-1.8650822363069317e-05   1.8987679184017878e-06   4.280384334636876e-06
-1.8650822363069317e-05   1.8987679184017878e-06   4.280384334636876e-06
-1.4581632412425807e-05   0.0   1.4465743366640776e-05
-1.4581632412425807e-05   0.0   1.4465743366640776e-05
-1.4581632412425807e-05   0.0   1.4465743366640776e-05
-1.4581632412425807e-05   0.0   1.4465743366640776e-05
-2.5198155569758446e-05   3.1102062169761826e-06   -1.3623381653945902e-06
-2.5198155569758446e-05   3.1102062169761826e-06   -1.3623381653945902e-06
-2.5198155569758446e-05   3.1102062169761826e-06   -1.3623381653945902e-06
-2.5198155569758446e-05   3.1102062169761826e-06   -1.3623381653945902e-06
-2.567354456892772e-05   0.0   1.818094983025917e-05
-2.567354456892772e-05   0.0   1.818094983025917e-05
-2.567354456892772e-05   0.0   1.818094983025917e-05
-2.567354456892772e-05   0.0   1.818094983025917e-05
-1.5005897050828678e-05   3.037523284915621e-06   -1.4209766708553117e-06
-1.5005897050828678e-05   3.037523284915621e-06   -1.4209766708553117e-06
-1.5005897050828678e-05   3.037523284915621e-06   -1.4209766708553117e-06
-1.5005897050828678e-05   3.037523284915621e-06   -1.4209766708553117e-06
-1.9585687255223047e-05   1.5907241767551192e-06   7.0800864680318245e-06
-1.9585687255223047e-05   1.5907241767551192e-06   7.0800864680318245e-06
-1.9585687255223047e-05   1.5907241767551192e-06   7.0800864680318245e-06
-1.9585687255223047e-05   1.5907241767551192e-06   7.0800864680318245e-06
-1.5005897050828678e-05   0.0   1.635843585930986e-05
-1.5005897050828678e-05   0.0   1.635843585930986e-05
-1.5005897050828678e-05   0.0   1.635843585930986e-05
-1.5005897050828678e-05   0.0   1.635843585930986e-05
-2.567354456892781e-05   3.037523284915621e-06   4.015373000940364e-07
-2.567354456892781e-05   3.037523284915621e-06   4.015373000940364e-07
-2.567354456892781e-05   3.037523284915621e-06   4.015373000940364e-07
-2.567354456892781e-05   3.037523284915621e-06   4.015373000940364e-07
-2.6195411291030658e-05   0.0   2.0642739662442592e-05
-2.6195411291030658e-05   0.0   2.0642739662442592e-05
-2.6195411291030658e-05   0.0   2.0642739662442592e-05
-2.6195411291030658e-05   0.0   2.0642739662442592e-05
-1.5464964596243866e-05   2.559317329596804e-06   1.2230714400397614e-06
-1.5464964596243866e-05   2.559317329596804e-06   1.2230714400397614e-06
-1.5464964596243866e-05   2.559317329596804e-06   1.2230714400397614e-06
-1.5464964596243866e-05   2.559317329596804e-06   1.2230714400397614e-06
-1.972236199576397e-05   1.1305526827059273e-06   9.175992560707852e-06
-1.972236199576397e-05   1.1305526827059273e-06   9.175992560707852e-06
-1.972236199576397e-05   1.1305526827059273e-06   9.175992560707852e-06
-1.972236199576397e-05   1.1305526827059273e-06   9.175992560707852e-06
1.658670272598793e-05   -2.4784682921768315e-06   1.164627330540541e-05
1.658670272598793e-05   -2.4784682921768315e-06   1.164627330540541e-05
1.658670272598793e-05   -2.4784682921768315e-06   1.164627330540541e-05
1.658670272598793e-05   -2.4784682921768315e-06   1.164627330540541e-05
8.35805222005508e-06   -1.8970961740990113e-06   -1.7193209336360728e-06
8.35805222005508e-06   -1.8970961740990113e-06   -1.7193209336360728e-06
8.35805222005508e-06   -1.8970961740990113e-06   -1.7193209336360728e-06
8.35805222005508e-06   -1.8970961740990113e-06   -1.7193209336360728e-06
8.146111195095811e-06   -2.718647660756592e-06   1.0136995870066098e-05
8.146111195095811e-06   -2.718647660756592e-06   1.0136995870066098e-05
8.146111195095811e-06   -2.718647660756592e-06   1.0136995870066098e-05
8.146111195095811e-06   -2.718647660756592e-06   1.0136995870066098e-05
1.621208772984671e-05   -2.142690641510352e-06   -3.651872566066523e-06
1.621208772984671e-05   -2.142690641510352e-06   -3.651872566066523e-06
1.621208772984671e-05   -2.142690641510352e-06   -3.651872566066523e-06
1.621208772984671e-05   -2.142690641510352e-06   -3.651872566066523e-06
1.1777030738425288e-05   -2.219133000036684e-06   3.785754501418393e-06
1.1777030738425288e-05   -2.219133000036684e-06   3.785754501418393e-06
1.1777030738425288e-05   -2.219133000036684e-06   3.785754501418393e-06
1.1777030738425288e-05   -2.219133000036684e-06   3.785754501418393e-06
1.6212087729846682e-05   -2.718647660756592e-06   9.791421658518365e-06
1.6212087729846682e-05   -2.718647660756592e-06   9.791421658518365e-06
1.6212087729846682e-05   -2.718647660756592e-06   9.791421658518365e-06
1.6212087729846682e-05   -2.718647660756592e-06   9.791421658518365e-06
8.146111195095828e-06   -2.142690641510352e-06   -3.3062983545187287e-06
8.146111195095828e-06   -2.142690641510352e-06   -3.3062983545187287e-06
8.146111195095828e-06   -2.142690641510352e-06   -3.3062983545187287e-06
8.146111195095828e-06   -2.142690641510352e-06   -3.3062983545187287e-06
7.873180689293742e-06   -2.7381787980772145e-06   9.081470596111155e-06
7.873180689293742e-06   -2.7381787980772145e-06   9.081470596111155e-06
7.873180689293742e-06   -2.7381787980772145e-06   9.081470596111155e-06
7.873180689293742e-06   -2.7381787980772145e-06   9.081470596111155e-06
1.5831448777681254e-05   -2.177403447248716e-06   -4.518774761698427e-06
1.5831448777681254e-05   -2.177403447248716e-06   -4.518774761698427e-06
1.5831448777681254e-05   -2.177403447248716e-06   -4.518774761698427e-06
1.5831448777681254e-05   -2.177403447248716e-06   -4.518774761698427e-06
1.168056328048751e-05   -2.314286533970926e-06   2.481497585657782e-06
1.168056328048751e-05   -2.314286533970926e-06   2.481497585657782e-06
1.168056328048751e-05   -2.314286533970926e-06   2.481497585657782e-06
1.168056328048751e-05   -2.314286533970926e-06   2.481497585657782e-06
1.5831448777681254e-05   -2.7381787980772145e-06   8.7450053856141e-06
1.5831448777681254e-05   -2.7381787980772145e-06   8.7450053856141e-06
1.5831448777681254e-05   -2.7381787980772145e-06   8.7450053856141e-06
1.5831448777681254e-05   -2.7381787980772145e-06   8.7450053856141e-06
7.873180689293742e-06   -2.177403447248716e-06   -4.182309551201385e-06
7.873180689293742e-06   -2.177403447248716e-06   -4.182309551201385e-06
7.873180689293742e-06   -2.177403447248716e-06   -4.182309551201385e-06
7.873180689293742e-06   -2.177403447248716e-06   -4.182309551201385e-06
7.5861745255332345e-06   -2.672306172570916e-06   7.509051112445601e-06
7.5861745255332345e-06   -2.672306172570916e-06   7.509051112445601e-06
7.5861745255332345e-06   -2.672306172570916e-06   7.509051112445601e-06
7.5861745255332345e-06   -2.672306172570916e-06   7.509051112445601e-06
1.535442725764114e-05   -2.1556668137697778e-06   -5.748020389681522e-06
1.535442725764114e-05   -2.1556668137697778e-06   -5.748020389681522e-06
1.535442725764114e-05   -2.1556668137697778e-06   -5.748020389681522e-06
1.535442725764114e-05   -2.1556668137697778e-06   -5.748020389681522e-06
1.1174513319989859e-05   -2.251042347360308e-06   1.2757281598917348e-06
1.1174513319989859e-05   -2.251042347360308e-06   1.2757281598917348e-06
1.1174513319989859e-05   -2.251042347360308e-06   1.2757281598917348e-06
1.1174513319989859e-05   -2.251042347360308e-06   1.2757281598917348e-06
8.358052220055093e-06   -1.493626471907425e-06   1.0908706526780452e-05
8.358052220055093e-06   -1.493626471907425e-06   1.0908706526780452e-05
8.358052220055093e-06   -1.493626471907425e-06   1.0908706526780452e-05
8.358052220055093e-06   -1.493626471907425e-06   1.0908706526780452e-05
8.417368618989388e-07   -6.596691154024843e-07   -1.118111322910239e-06
8.417368618989388e-07   -6.596691154024843e-07   -1.118111322910239e-06
8.417368618989388e-07   -6.596691154024843e-07   -1.118111322910239e-06
8.417368618989388e-07   -6.596691154024843e-07   -1.118111322910239e-06
6.303220278445885e-07   -1.5814903268706422e-06   1.134456390476451e-05
6.303220278445885e-07   -1.5814903268706422e-06   1.134456390476451e-05
6.303220278445885e-07   -1.5814903268706422e-06   1.134456390476451e-05
6.303220278445885e-07   -1.5814903268706422e-06   1.134456390476451e-05
8.146111195095828e-06   -7.898967713885477e-07   -1.6567075072767222e-06
8.146111195095828e-06   -7.898967713885477e-07   -1.6567075072767222e-06
8.146111195095828e-06   -7.898967713885477e-07   -1.6567075072767222e-06
8.146111195095828e-06   -7.898967713885477e-07   -1.6567075072767222e-06
4.4505114870974815e-06   -1.0530227042568688e-06   4.6605008991081065e-06
4.4505114870974815e-06   -1.0530227042568688e-06   4.6605008991081065e-06
4.4505114870974815e-06   -1.0530227042568688e-06   4.6605008991081065e-06
4.4505114870974815e-06   -1.0530227042568688e-06   4.6605008991081065e-06
8.146111195095821e-06   -1.5814903268706422e-06   1.086960777147534e-05
8.146111195095821e-06   -1.5814903268706422e-06   1.086960777147534e-05
8.146111195095821e-06   -1.5814903268706422e-06   1.086960777147534e-05
8.146111195095821e-06   -1.5814903268706422e-06   1.086960777147534e-05
6.303220278445885e-07   -7.898967713885477e-07   -1.1817513739875523e-06
6.303220278445885e-07   -7.898967713885477e-07   -1.1817513739875523e-06
6.303220278445885e-07   -7.898967713885477e-07   -1.1817513739875523e-06
6.303220278445885e-07   -7.898967713885477e-07   -1.1817513739875523e-06
3.6138653869067545e-07   -1.617131585156164e-06   1.1224599625290935e-05
3.6138653869067545e-07   -1.617131585156164e-06   1.1224599625290935e-05
3.6138653869067545e-07   -1.617131585156164e-06   1.1224599625290935e-05
3.6138653869067545e-07   -1.617131585156164e-06   1.1224599625290935e-05
7.873180689293742e-06   -8.728864569982611e-07   -1.7416043692756563e-06
7.873180689293742e-06   -8.728864569982611e-07   -1.7416043692756563e-06
7.873180689293742e-06   -8.728864569982611e-07   -1.7416043692756563e-06
7.873180689293742e-06   -8.728864569982611e-07   -1.7416043692756563e-06
4.180868953073283e-06   -1.1010402061115403e-06   4.549140773893275e-06
4.180868953073283e-06   -1.1010402061115403e-06   4.549140773893275e-06
4.180868953073283e-06   -1.1010402061115403e-06   4.549140773893275e-06
4.180868953073283e-06   -1.1010402061115403e-06   4.549140773893275e-06
7.873180689293728e-06   -1.6171315851562723e-06   1.077805254839616e-05
7.873180689293728e-06   -1.6171315851562723e-06   1.077805254839616e-05
7.873180689293728e-06   -1.6171315851562723e-06   1.077805254839616e-05
7.873180689293728e-06   -1.6171315851562723e-06   1.077805254839616e-05
3.6138653869067545e-07   -8.728864569982611e-07   -1.2950572923808618e-06
3.6138653869067545e-07   -8.728864569982611e-07   -1.2950572923808618e-06
3.6138653869067545e-07   -8.728864569982611e-07   -1.2950572923808618e-06
3.6138653869067545e-07   -8.728864569982611e-07   -1.2950572923808618e-06
6.4404035706833e-08   -1.5745631455078282e-06   1.1376011687631502e-05
6.4404035706833e-08   -1.5745631455078282e-06   1.1376011687631502e-05
6.4404035706833e-08   -1.5745631455078282e-06   1.1376011687631502e-05
6.4404035706833e-08   -1.5745631455078282e-06   1.1376011687631502e-05
7.586174525533231e-06   -9.049355132764681e-07   -1.5620490414180243e-06
7.586174525533231e-06   -9.049355132764681e-07   -1.5620490414180243e-06
7.586174525533231e-06   -9.049355132764681e-07   -1.5620490414180243e-06
7.586174525533231e-06   -9.049355132764681e-07   -1.5620490414180243e-06
3.9650746439515305e-06   -1.0872210866667538e-06   4.5824887719193185e-06
3.9650746439515305e-06   -1.0872210866667538e-06   4.5824887719193185e-06
3.9650746439515305e-06   -1.0872210866667538e-06   4.5824887719193185e-06
3.9650746439515305e-06   -1.0872210866667538e-06   4.5824887719193185e-06
8.41736861898932e-07   -5.680782865320408e-07   1.1125215291291589e-05
8.41736861898932e-07   -5.680782865320408e-07   1.1125215291291589e-05
8.41736861898932e-07   -5.680782865320408e-07   1.1125215291291589e-05
8.41736861898932e-07   -5.680782865320408e-07   1.1125215291291589e-05
-6.447128657075256e-06   6.073551117751798e-07   -3.1763386801445014e-07
-6.447128657075256e-06   6.073551117751798e-07   -3.1763386801445014e-07
-6.447128657075256e-06   6.073551117751798e-07   -3.1763386801445014e-07
-6.447128657075256e-06   6.073551117751798e-07   -3.1763386801445014e-07
-6.685690576655804e-06   -5.979535746262381e-07   1.1910942412931506e-05
-6.685690576655804e-06   -5.979535746262381e-07   1.1910942412931506e-05
-6.685690576655804e-06   -5.979535746262381e-07   1.1910942412931506e-05
-6.685690576655804e-06   -5.979535746262381e-07   1.1910942412931506e-05
6.303220278445885e-07   5.108611674124524e-07   -9.47700773125756e-07
6.303220278445885e-07   5.108611674124524e-07   -9.47700773125756e-07
6.303220278445885e-07   5.108611674124524e-07   -9.47700773125756e-07
6.303220278445885e-07   5.108611674124524e-07   -9.47700773125756e-07
-2.910165900530114e-06   3.8948457319900286e-08   5.23626006688761e-06
-2.910165900530114e-06   3.8948457319900286e-08   5.23626006688761e-06
-2.910165900530114e-06   3.8948457319900286e-08   5.23626006688761e-06
-2.910165900530114e-06   3.8948457319900286e-08   5.23626006688761e-06
6.303220278445885e-07   -5.979535746262381e-07   1.1245653567708205e-05
6.303220278445885e-07   -5.979535746262381e-07   1.1245653567708205e-05
6.303220278445885e-07   -5.979535746262381e-07   1.1245653567708205e-05
6.303220278445885e-07   -5.979535746262381e-07   1.1245653567708205e-05
-6.685690576655804e-06   5.108611674124524e-07   -2.8241192790248205e-07
-6.685690576655804e-06   5.108611674124524e-07   -2.8241192790248205e-07
-6.685690576655804e-06   5.108611674124524e-07   -2.8241192790248205e-07
-6.685690576655804e-06   5.108611674124524e-07   -2.8241192790248205e-07
-7.003387961175996e-06   -6.35470822952372e-07   1.2141288167838839e-05
-7.003387961175996e-06   -6.35470822952372e-07   1.2141288167838839e-05
-7.003387961175996e-06   -6.35470822952372e-07   1.2141288167838839e-05
-7.003387961175996e-06   -6.35470822952372e-07   1.2141288167838839e-05
3.6138653869067545e-07   4.2106226382540406e-07   -7.672558506723282e-07
3.6138653869067545e-07   4.2106226382540406e-07   -7.672558506723282e-07
3.6138653869067545e-07   4.2106226382540406e-07   -7.672558506723282e-07
3.6138653869067545e-07   4.2106226382540406e-07   -7.672558506723282e-07
-3.1449091722244366e-06   1.4028316760398424e-08   5.320790702425203e-06
-3.1449091722244366e-06   1.4028316760398424e-08   5.320790702425203e-06
-3.1449091722244366e-06   1.4028316760398424e-08   5.320790702425203e-06
-3.1449091722244366e-06   1.4028316760398424e-08   5.320790702425203e-06
3.6138653869067545e-07   -6.35470822952372e-07   1.1507368315772152e-05
3.6138653869067545e-07   -6.35470822952372e-07   1.1507368315772152e-05
3.6138653869067545e-07   -6.35470822952372e-07   1.1507368315772152e-05
3.6138653869067545e-07   -6.35470822952372e-07   1.1507368315772152e-05
-7.003387961175989e-06   4.2106226382540406e-07   -1.3333599860565438e-07
-7.003387961175989e-06   4.2106226382540406e-07   -1.3333599860565438e-07
-7.003387961175989e-06   4.2106226382540406e-07   -1.3333599860565438e-07
-7.003387961175989e-06   4.2106226382540406e-07   -1.3333599860565438e-07
-7.341817573063662e-06   -6.268059555570573e-07   1.241746718033302e-05
-7.341817573063662e-06   -6.268059555570573e-07   1.241746718033302e-05
-7.341817573063662e-06   -6.268059555570573e-07   1.241746718033302e-05
-7.341817573063662e-06   -6.268059555570573e-07   1.241746718033302e-05
6.4404035706833e-08   3.571703781755269e-07   -5.166213011906844e-07
6.4404035706833e-08   3.571703781755269e-07   -5.166213011906844e-07
6.4404035706833e-08   3.571703781755269e-07   -5.166213011906844e-07
6.4404035706833e-08   3.571703781755269e-07   -5.166213011906844e-07
-3.443442935141023e-06   -2.646507802185963e-09   5.545680448475914e-06
-3.443442935141023e-06   -2.646507802185963e-09   5.545680448475914e-06
-3.443442935141023e-06   -2.646507802185963e-09   5.545680448475914e-06
-3.443442935141023e-06   -2.646507802185963e-09   5.545680448475914e-06
-6.447128657075229e-06   7.823318171031523e-07   1.009081884286101e-05
-6.447128657075229e-06   7.823318171031523e-07   1.009081884286101e-05
-6.447128657075229e-06   7.823318171031523e-07   1.009081884286101e-05
-6.447128657075229e-06   7.823318171031523e-07   1.009081884286101e-05
-1.3612413676066063e-05   1.9510698633845363e-06   -1.1500800276883073e-06
-1.3612413676066063e-05   1.9510698633845363e-06   -1.1500800276883073e-06
-1.3612413676066063e-05   1.9510698633845363e-06   -1.1500800276883073e-06
-1.3612413676066063e-05   1.9510698633845363e-06   -1.1500800276883073e-06
-1.3955332660576187e-05   7.511979448187461e-07   1.1139004836964504e-05
-1.3955332660576187e-05   7.511979448187461e-07   1.1139004836964504e-05
-1.3955332660576187e-05   7.511979448187461e-07   1.1139004836964504e-05
-1.3955332660576187e-05   7.511979448187461e-07   1.1139004836964504e-05
-6.685690576655784e-06   1.8561017764931074e-06   -1.6400076019073624e-06
-6.685690576655784e-06   1.8561017764931074e-06   -1.6400076019073624e-06
-6.685690576655784e-06   1.8561017764931074e-06   -1.6400076019073624e-06
-6.685690576655784e-06   1.8561017764931074e-06   -1.6400076019073624e-06
-1.0097986718244399e-05   1.353464485543722e-06   4.348735008643324e-06
-1.0097986718244399e-05   1.353464485543722e-06   4.348735008643324e-06
-1.0097986718244399e-05   1.353464485543722e-06   4.348735008643324e-06
-1.0097986718244399e-05   1.353464485543722e-06   4.348735008643324e-06
-6.685690576655791e-06   7.511979448187461e-07   1.0476062537959877e-05
-6.685690576655791e-06   7.511979448187461e-07   1.0476062537959877e-05
-6.685690576655791e-06   7.511979448187461e-07   1.0476062537959877e-05
-6.685690576655791e-06   7.511979448187461e-07   1.0476062537959877e-05
-1.3955332660576167e-05   1.8561017764931074e-06   -9.770653029027212e-07
-1.3955332660576167e-05   1.8561017764931074e-06   -9.770653029027212e-07
-1.3955332660576167e-05   1.8561017764931074e-06   -9.770653029027212e-07
-1.3955332660576167e-05   1.8561017764931074e-06   -9.770653029027212e-07
-1.4377136914402899e-05   6.829998354552103e-07   1.1821632580193923e-05
-1.4377136914402899e-05   6.829998354552103e-07   1.1821632580193923e-05
-1.4377136914402899e-05   6.829998354552103e-07   1.1821632580193923e-05
-1.4377136914402899e-05   6.829998354552103e-07   1.1821632580193923e-05
-7.003387961175989e-06   1.766645622668984e-06   -1.1181364808459645e-06
-7.003387961175989e-06   1.766645622668984e-06   -1.1181364808459645e-06
-7.003387961175989e-06   1.766645622668984e-06   -1.1181364808459645e-06
-7.003387961175989e-06   1.766645622668984e-06   -1.1181364808459645e-06
-1.0350278906588594e-05   1.3352549282743317e-06   4.718849511478569e-06
-1.0350278906588594e-05   1.3352549282743317e-06   4.718849511478569e-06
-1.0350278906588594e-05   1.3352549282743317e-06   4.718849511478569e-06
-1.0350278906588594e-05   1.3352549282743317e-06   4.718849511478569e-06
-7.0033879611759825e-06   6.829998354551019e-07   1.1171445107865528e-05
-7.0033879611759825e-06   6.829998354551019e-07   1.1171445107865528e-05
-7.0033879611759825e-06   6.829998354551019e-07   1.1171445107865528e-05
-7.0033879611759825e-06   6.829998354551019e-07   1.1171445107865528e-05
-1.4377136914402899e-05   1.7666456226690923e-06   -4.6794900851763804e-07
-1.4377136914402899e-05   1.7666456226690923e-06   -4.6794900851763804e-07
-1.4377136914402899e-05   1.7666456226690923e-06   -4.6794900851763804e-07
-1.4377136914402899e-05   1.7666456226690923e-06   -4.6794900851763804e-07
-1.4821691929456432e-05   6.043808080571488e-07   1.2352459098222363e-05
-1.4821691929456432e-05   6.043808080571488e-07   1.2352459098222363e-05
-1.4821691929456432e-05   6.043808080571488e-07   1.2352459098222363e-05
-1.4821691929456432e-05   6.043808080571488e-07   1.2352459098222363e-05
-7.341817573063635e-06   1.6445347567333336e-06   -7.380905316379372e-07
-7.341817573063635e-06   1.6445347567333336e-06   -7.380905316379372e-07
-7.341817573063635e-06   1.6445347567333336e-06   -7.380905316379372e-07
-7.341817573063635e-06   1.6445347567333336e-06   -7.380905316379372e-07
-1.0781544580673678e-05   1.2639926341578584e-06   5.223113087924388e-06
-1.0781544580673678e-05   1.2639926341578584e-06   5.223113087924388e-06
-1.0781544580673678e-05   1.2639926341578584e-06   5.223113087924388e-06
-1.0781544580673678e-05   1.2639926341578584e-06   5.223113087924388e-06
-1.3612413676066063e-05   3.2027281334608615e-06   5.304600385096865e-06
-1.3612413676066063e-05   3.2027281334608615e-06   5.304600385096865e-06
-1.3612413676066063e-05   3.2027281334608615e-06   5.304600385096865e-06
-1.3612413676066063e-05   3.2027281334608615e-06   5.304600385096865e-06
-2.0505067596935463e-05   3.173148069048428e-06   -6.200904188332918e-06
-2.0505067596935463e-05   3.173148069048428e-06   -6.200904188332918e-06
-2.0505067596935463e-05   3.173148069048428e-06   -6.200904188332918e-06
-2.0505067596935463e-05   3.173148069048428e-06   -6.200904188332918e-06
-2.1123250615797186e-05   3.1102062169761826e-06   7.937159860435506e-06
-2.1123250615797186e-05   3.1102062169761826e-06   7.937159860435506e-06
-2.1123250615797186e-05   3.1102062169761826e-06   7.937159860435506e-06
-2.1123250615797186e-05   3.1102062169761826e-06   7.937159860435506e-06
-1.3955332660576167e-05   3.2422307221888387e-06   -4.088584768060477e-06
-1.3955332660576167e-05   3.2422307221888387e-06   -4.088584768060477e-06
-1.3955332660576167e-05   3.2422307221888387e-06   -4.088584768060477e-06
-1.3955332660576167e-05   3.2422307221888387e-06   -4.088584768060477e-06
-1.6602667723587442e-05   3.2248100092668224e-06   3.3409276471152156e-07
-1.6602667723587442e-05   3.2248100092668224e-06   3.3409276471152156e-07
-1.6602667723587442e-05   3.2248100092668224e-06   3.3409276471152156e-07
-1.6602667723587442e-05   3.2248100092668224e-06   3.3409276471152156e-07
-1.3955332660576153e-05   3.1102062169761826e-06   7.857945157307945e-06
-1.3955332660576153e-05   3.1102062169761826e-06   7.857945157307945e-06
-1.3955332660576153e-05   3.1102062169761826e-06   7.857945157307945e-06
-1.3955332660576153e-05   3.1102062169761826e-06   7.857945157307945e-06
-2.1123250615797186e-05   3.2422307221888387e-06   -4.00937006493293e-06
-2.1123250615797186e-05   3.2422307221888387e-06   -4.00937006493293e-06
-2.1123250615797186e-05   3.2422307221888387e-06   -4.00937006493293e-06
-2.1123250615797186e-05   3.2422307221888387e-06   -4.00937006493293e-06
-2.1729287309060964e-05   3.0375232849155125e-06   9.768347050769963e-06
-2.1729287309060964e-05   3.0375232849155125e-06   9.768347050769963e-06
-2.1729287309060964e-05   3.0375232849155125e-06   9.768347050769963e-06
-2.1729287309060964e-05   3.0375232849155125e-06   9.768347050769963e-06
-1.4377136914402872e-05   3.2215678901382095e-06   -2.595663703460502e-06
-1.4377136914402872e-05   3.2215678901382095e-06   -2.595663703460502e-06
-1.4377136914402872e-05   3.2215678901382095e-06   -2.595663703460502e-06
-1.4377136914402872e-05   3.2215678901382095e-06   -2.595663703460502e-06
-1.732597092974806e-05   3.2315911758573146e-06   2.3130456840168753e-06
-1.732597092974806e-05   3.2315911758573146e-06   2.3130456840168753e-06
-1.732597092974806e-05   3.2315911758573146e-06   2.3130456840168753e-06
-1.732597092974806e-05   3.2315911758573146e-06   2.3130456840168753e-06
-1.4377136914402872e-05   3.037523284915621e-06   9.6579202876364e-06
-1.4377136914402872e-05   3.037523284915621e-06   9.6579202876364e-06
-1.4377136914402872e-05   3.037523284915621e-06   9.6579202876364e-06
-1.4377136914402872e-05   3.037523284915621e-06   9.6579202876364e-06
-2.1729287309060964e-05   3.2215678901382095e-06   -2.485236940326938e-06
-2.1729287309060964e-05   3.2215678901382095e-06   -2.485236940326938e-06
-2.1729287309060964e-05   3.2215678901382095e-06   -2.485236940326938e-06
-2.1729287309060964e-05   3.2215678901382095e-06   -2.485236940326938e-06
-2.2445398815058248e-05   2.5593173295966956e-06   1.2823806577398102e-05
-2.2445398815058248e-05   2.5593173295966956e-06   1.2823806577398102e-05
-2.2445398815058248e-05   2.5593173295966956e-06   1.2823806577398102e-05
-2.2445398815058248e-05   2.5593173295966956e-06   1.2823806577398102e-05
-1.4821691929456378e-05   2.973876825933773e-06   -1.3110726307388678e-07
-1.4821691929456378e-05   2.973876825933773e-06   -1.3110726307388678e-07
-1.4821691929456378e-05   2.973876825933773e-06   -1.3110726307388678e-07
-1.4821691929456378e-05   2.973876825933773e-06   -1.3110726307388678e-07
-1.756437527790875e-05   3.084179474219435e-06   4.37385006204214e-06
-1.756437527790875e-05   3.084179474219435e-06   4.37385006204214e-06
-1.756437527790875e-05   3.084179474219435e-06   4.37385006204214e-06
-1.756437527790875e-05   3.084179474219435e-06   4.37385006204214e-06
1.361474166314934e-05   -1.8970961740990113e-06   1.0372345315618414e-05
1.361474166314934e-05   -1.8970961740990113e-06   1.0372345315618414e-05
1.361474166314934e-05   -1.8970961740990113e-06   1.0372345315618414e-05
1.361474166314934e-05   -1.8970961740990113e-06   1.0372345315618414e-05
6.715461638873276e-06   -1.4124566641269837e-06   -8.356710188584535e-07
6.715461638873276e-06   -1.4124566641269837e-06   -8.356710188584535e-07
6.715461638873276e-06   -1.4124566641269837e-06   -8.356710188584535e-07
6.715461638873276e-06   -1.4124566641269837e-06   -8.356710188584535e-07
6.470855197067632e-06   -2.142690641510352e-06   8.999766298678849e-06
6.470855197067632e-06   -2.142690641510352e-06   8.999766298678849e-06
6.470855197067632e-06   -2.142690641510352e-06   8.999766298678849e-06
6.470855197067632e-06   -2.142690641510352e-06   8.999766298678849e-06
1.3166082806649918e-05   -1.6321514025932626e-06   -2.465269927308409e-06
1.3166082806649918e-05   -1.6321514025932626e-06   -2.465269927308409e-06
1.3166082806649918e-05   -1.6321514025932626e-06   -2.465269927308409e-06
1.3166082806649918e-05   -1.6321514025932626e-06   -2.465269927308409e-06
9.534759193582872e-06   -1.7524891537943395e-06   3.6591387451905584e-06
9.534759193582872e-06   -1.7524891537943395e-06   3.6591387451905584e-06
9.534759193582872e-06   -1.7524891537943395e-06   3.6591387451905584e-06
9.534759193582872e-06   -1.7524891537943395e-06   3.6591387451905584e-06
1.3166082806649896e-05   -2.142690641510352e-06   8.693442755328704e-06
1.3166082806649896e-05   -2.142690641510352e-06   8.693442755328704e-06
1.3166082806649896e-05   -2.142690641510352e-06   8.693442755328704e-06
1.3166082806649896e-05   -2.142690641510352e-06   8.693442755328704e-06
6.470855197067653e-06   -1.6321514025932626e-06   -2.1589463839582763e-06
6.470855197067653e-06   -1.6321514025932626e-06   -2.1589463839582763e-06
6.470855197067653e-06   -1.6321514025932626e-06   -2.1589463839582763e-06
6.470855197067653e-06   -1.6321514025932626e-06   -2.1589463839582763e-06
6.198322061943653e-06   -2.177403447248716e-06   8.052283702885223e-06
6.198322061943653e-06   -2.177403447248716e-06   8.052283702885223e-06
6.198322061943653e-06   -2.177403447248716e-06   8.052283702885223e-06
6.198322061943653e-06   -2.177403447248716e-06   8.052283702885223e-06
1.2758287067381497e-05   -1.675069138685364e-06   -3.1823918913158066e-06
1.2758287067381497e-05   -1.675069138685364e-06   -3.1823918913158066e-06
1.2758287067381497e-05   -1.675069138685364e-06   -3.1823918913158066e-06
1.2758287067381497e-05   -1.675069138685364e-06   -3.1823918913158066e-06
9.373985728395765e-06   -1.8381887383573997e-06   2.555982100130192e-06
9.373985728395765e-06   -1.8381887383573997e-06   2.555982100130192e-06
9.373985728395765e-06   -1.8381887383573997e-06   2.555982100130192e-06
9.373985728395765e-06   -1.8381887383573997e-06   2.555982100130192e-06
1.2758287067381453e-05   -2.177403447248716e-06   7.750883117747223e-06
1.2758287067381453e-05   -2.177403447248716e-06   7.750883117747223e-06
1.2758287067381453e-05   -2.177403447248716e-06   7.750883117747223e-06
1.2758287067381453e-05   -2.177403447248716e-06   7.750883117747223e-06
6.198322061943663e-06   -1.675069138685364e-06   -2.8809913061778503e-06
6.198322061943663e-06   -1.675069138685364e-06   -2.8809913061778503e-06
6.198322061943663e-06   -1.675069138685364e-06   -2.8809913061778503e-06
6.198322061943663e-06   -1.675069138685364e-06   -2.8809913061778503e-06
5.935519179963676e-06   -2.155666813769886e-06   6.720912173309153e-06
5.935519179963676e-06   -2.155666813769886e-06   6.720912173309153e-06
5.935519179963676e-06   -2.155666813769886e-06   6.720912173309153e-06
5.935519179963676e-06   -2.155666813769886e-06   6.720912173309153e-06
1.2294990409452656e-05   -1.6862105479072175e-06   -4.15988030202339e-06
1.2294990409452656e-05   -1.6862105479072175e-06   -4.15988030202339e-06
1.2294990409452656e-05   -1.6862105479072175e-06   -4.15988030202339e-06
1.2294990409452656e-05   -1.6862105479072175e-06   -4.15988030202339e-06
8.907612470194984e-06   -1.8045924356584718e-06   1.5567787293904266e-06
8.907612470194984e-06   -1.8045924356584718e-06   1.5567787293904266e-06
8.907612470194984e-06   -1.8045924356584718e-06   1.5567787293904266e-06
8.907612470194984e-06   -1.8045924356584718e-06   1.5567787293904266e-06
6.715461638873276e-06   -6.596691154024843e-07   1.0763964218424564e-05
6.715461638873276e-06   -6.596691154024843e-07   1.0763964218424564e-05
6.715461638873276e-06   -6.596691154024843e-07   1.0763964218424564e-05
6.715461638873276e-06   -6.596691154024843e-07   1.0763964218424564e-05
2.3819642648288084e-07   -2.726095078563499e-07   2.0075796230170596e-07
2.3819642648288084e-07   -2.726095078563499e-07   2.0075796230170596e-07
2.3819642648288084e-07   -2.726095078563499e-07   2.0075796230170596e-07
2.3819642648288084e-07   -2.726095078563499e-07   2.0075796230170596e-07
2.611530721912509e-09   -7.898967713885477e-07   1.0867194310731259e-05
2.611530721912509e-09   -7.898967713885477e-07   1.0867194310731259e-05
2.611530721912509e-09   -7.898967713885477e-07   1.0867194310731259e-05
2.611530721912509e-09   -7.898967713885477e-07   1.0867194310731259e-05
6.470855197067653e-06   -4.268348300378753e-07   -1.3104896465540217e-07
6.470855197067653e-06   -4.268348300378753e-07   -1.3104896465540217e-07
6.470855197067653e-06   -4.268348300378753e-07   -1.3104896465540217e-07
6.470855197067653e-06   -4.268348300378753e-07   -1.3104896465540217e-07
3.3156240433976974e-06   -5.181674736958516e-07   5.182469210989282e-06
3.3156240433976974e-06   -5.181674736958516e-07   5.182469210989282e-06
3.3156240433976974e-06   -5.181674736958516e-07   5.182469210989282e-06
3.3156240433976974e-06   -5.181674736958516e-07   5.182469210989282e-06
6.470855197067649e-06   -7.898967713886561e-07   1.0649357145920801e-05
6.470855197067649e-06   -7.898967713886561e-07   1.0649357145920801e-05
6.470855197067649e-06   -7.898967713886561e-07   1.0649357145920801e-05
6.470855197067649e-06   -7.898967713886561e-07   1.0649357145920801e-05
2.611530721912509e-09   -4.268348300378753e-07   8.67882001550995e-08
2.611530721912509e-09   -4.268348300378753e-07   8.67882001550995e-08
2.611530721912509e-09   -4.268348300378753e-07   8.67882001550995e-08
2.611530721912509e-09   -4.268348300378753e-07   8.67882001550995e-08
-2.423210265140965e-07   -8.728864569983695e-07   1.0693060747935911e-05
-2.423210265140965e-07   -8.728864569983695e-07   1.0693060747935911e-05
-2.423210265140965e-07   -8.728864569983695e-07   1.0693060747935911e-05
-2.423210265140965e-07   -8.728864569983695e-07   1.0693060747935911e-05
6.198322061943663e-06   -5.394333517900292e-07   -2.414162626187108e-07
6.198322061943663e-06   -5.394333517900292e-07   -2.414162626187108e-07
6.198322061943663e-06   -5.394333517900292e-07   -2.414162626187108e-07
6.198322061943663e-06   -5.394333517900292e-07   -2.414162626187108e-07
3.043384679780891e-06   -5.980763750255361e-07   5.0519985215941675e-06
3.043384679780891e-06   -5.980763750255361e-07   5.0519985215941675e-06
3.043384679780891e-06   -5.980763750255361e-07   5.0519985215941675e-06
3.043384679780891e-06   -5.980763750255361e-07   5.0519985215941675e-06
6.198322061943653e-06   -8.728864569983695e-07   1.0492988884810918e-05
6.198322061943653e-06   -8.728864569983695e-07   1.0492988884810918e-05
6.198322061943653e-06   -8.728864569983695e-07   1.0492988884810918e-05
6.198322061943653e-06   -8.728864569983695e-07   1.0492988884810918e-05
-2.423210265140965e-07   -5.394333517900292e-07   -4.134439949372761e-08
-2.423210265140965e-07   -5.394333517900292e-07   -4.134439949372761e-08
-2.423210265140965e-07   -5.394333517900292e-07   -4.134439949372761e-08
-2.423210265140965e-07   -5.394333517900292e-07   -4.134439949372761e-08
-4.973346635006934e-07   -9.049355132764681e-07   1.0764326698450106e-05
-4.973346635006934e-07   -9.049355132764681e-07   1.0764326698450106e-05
-4.973346635006934e-07   -9.049355132764681e-07   1.0764326698450106e-05
-4.973346635006934e-07   -9.049355132764681e-07   1.0764326698450106e-05
5.935519179963691e-06   -6.258908596795112e-07   -1.2452316614860749e-07
5.935519179963691e-06   -6.258908596795112e-07   -1.2452316614860749e-07
5.935519179963691e-06   -6.258908596795112e-07   -1.2452316614860749e-07
5.935519179963691e-06   -6.258908596795112e-07   -1.2452316614860749e-07
2.8417878110610452e-06   -6.386131177698413e-07   5.039329136876815e-06
2.8417878110610452e-06   -6.386131177698413e-07   5.039329136876815e-06
2.8417878110610452e-06   -6.386131177698413e-07   5.039329136876815e-06
2.8417878110610452e-06   -6.386131177698413e-07   5.039329136876815e-06
2.3819642648287406e-07   6.073551117752882e-07   1.1091417398863756e-05
2.3819642648287406e-07   6.073551117752882e-07   1.1091417398863756e-05
2.3819642648287406e-07   6.073551117752882e-07   1.1091417398863756e-05
2.3819642648287406e-07   6.073551117752882e-07   1.1091417398863756e-05
-6.055217962101034e-06   8.65742481507008e-07   7.57425839729574e-07
-6.055217962101034e-06   8.65742481507008e-07   7.57425839729574e-07
-6.055217962101034e-06   8.65742481507008e-07   7.57425839729574e-07
-6.055217962101034e-06   8.65742481507008e-07   7.57425839729574e-07
-6.301819106068833e-06   5.108611674124524e-07   1.1238535169300371e-05
-6.301819106068833e-06   5.108611674124524e-07   1.1238535169300371e-05
-6.301819106068833e-06   5.108611674124524e-07   1.1238535169300371e-05
-6.301819106068833e-06   5.108611674124524e-07   1.1238535169300371e-05
2.611530721912509e-09   7.396782635911599e-07   5.938605169418615e-07
2.611530721912509e-09   7.396782635911599e-07   5.938605169418615e-07
2.611530721912509e-09   7.396782635911599e-07   5.938605169418615e-07
2.611530721912509e-09   7.396782635911599e-07   5.938605169418615e-07
-3.0335739257077666e-06   6.86602353609767e-07   5.68601515698019e-06
-3.0335739257077666e-06   6.86602353609767e-07   5.68601515698019e-06
-3.0335739257077666e-06   6.86602353609767e-07   5.68601515698019e-06
-3.0335739257077666e-06   6.86602353609767e-07   5.68601515698019e-06
2.611530721912509e-09   5.108611674124524e-07   1.1101244911593136e-05
2.611530721912509e-09   5.108611674124524e-07   1.1101244911593136e-05
2.611530721912509e-09   5.108611674124524e-07   1.1101244911593136e-05
2.611530721912509e-09   5.108611674124524e-07   1.1101244911593136e-05
-6.301819106068833e-06   7.396782635911599e-07   7.311507746491307e-07
-6.301819106068833e-06   7.396782635911599e-07   7.311507746491307e-07
-6.301819106068833e-06   7.396782635911599e-07   7.311507746491307e-07
-6.301819106068833e-06   7.396782635911599e-07   7.311507746491307e-07
-6.56162149065265e-06   4.210622638255125e-07   1.133864845820554e-05
-6.56162149065265e-06   4.210622638255125e-07   1.133864845820554e-05
-6.56162149065265e-06   4.210622638255125e-07   1.133864845820554e-05
-6.56162149065265e-06   4.210622638255125e-07   1.133864845820554e-05
-2.423210265140965e-07   6.173727114273247e-07   6.886947494135479e-07
-2.423210265140965e-07   6.173727114273247e-07   6.886947494135479e-07
-2.423210265140965e-07   6.173727114273247e-07   6.886947494135479e-07
-2.423210265140965e-07   6.173727114273247e-07   6.886947494135479e-07
-3.2622621332072476e-06   6.159012079123664e-07   5.722812829344411e-06
-3.2622621332072476e-06   6.159012079123664e-07   5.722812829344411e-06
-3.2622621332072476e-06   6.159012079123664e-07   5.722812829344411e-06
-3.2622621332072476e-06   6.159012079123664e-07   5.722812829344411e-06
-2.423210265140965e-07   4.210622638255125e-07   1.1220862189644432e-05
-2.423210265140965e-07   4.210622638255125e-07   1.1220862189644432e-05
-2.423210265140965e-07   4.210622638255125e-07   1.1220862189644432e-05
-2.423210265140965e-07   4.210622638255125e-07   1.1220862189644432e-05
-6.561621490652663e-06   6.173727114273247e-07   8.064810179746434e-07
-6.561621490652663e-06   6.173727114273247e-07   8.064810179746434e-07
-6.561621490652663e-06   6.173727114273247e-07   8.064810179746434e-07
-6.561621490652663e-06   6.173727114273247e-07   8.064810179746434e-07
-6.829372486595298e-06   3.571703781755269e-07   1.149886496558248e-05
-6.829372486595298e-06   3.571703781755269e-07   1.149886496558248e-05
-6.829372486595298e-06   3.571703781755269e-07   1.149886496558248e-05
-6.829372486595298e-06   3.571703781755269e-07   1.149886496558248e-05
-4.973346635006934e-07   5.086488885818396e-07   8.545814875142292e-07
-4.973346635006934e-07   5.086488885818396e-07   8.545814875142292e-07
-4.973346635006934e-07   5.086488885818396e-07   8.545814875142292e-07
-4.973346635006934e-07   5.086488885818396e-07   8.545814875142292e-07
-3.5097977289611487e-06   5.48426890966975e-07   5.851486461850852e-06
-3.5097977289611487e-06   5.48426890966975e-07   5.851486461850852e-06
-3.5097977289611487e-06   5.48426890966975e-07   5.851486461850852e-06
-3.5097977289611487e-06   5.48426890966975e-07   5.851486461850852e-06
-6.0552179621010474e-06   1.9510698633845363e-06   9.712760833260209e-06
-6.0552179621010474e-06   1.9510698633845363e-06   9.712760833260209e-06
-6.0552179621010474e-06   1.9510698633845363e-06   9.712760833260209e-06
-6.0552179621010474e-06   1.9510698633845363e-06   9.712760833260209e-06
-1.2173603786351286e-05   1.976306928092313e-06   -4.6940663499890536e-07
-1.2173603786351286e-05   1.976306928092313e-06   -4.6940663499890536e-07
-1.2173603786351286e-05   1.976306928092313e-06   -4.6940663499890536e-07
-1.2173603786351286e-05   1.976306928092313e-06   -4.6940663499890536e-07
-1.245959494131868e-05   1.8561017764931074e-06   9.882046225406923e-06
-1.245959494131868e-05   1.8561017764931074e-06   9.882046225406923e-06
-1.245959494131868e-05   1.8561017764931074e-06   9.882046225406923e-06
-1.245959494131868e-05   1.8561017764931074e-06   9.882046225406923e-06
-6.30181910606884e-06   1.8579463266788767e-06   -3.820202301209341e-07
-6.30181910606884e-06   1.8579463266788767e-06   -3.820202301209341e-07
-6.30181910606884e-06   1.8579463266788767e-06   -3.820202301209341e-07
-6.30181910606884e-06   1.8579463266788767e-06   -3.820202301209341e-07
-9.206341043593312e-06   1.9028086241818518e-06   4.431932287251412e-06
-9.206341043593312e-06   1.9028086241818518e-06   4.431932287251412e-06
-9.206341043593312e-06   1.9028086241818518e-06   4.431932287251412e-06
-9.206341043593312e-06   1.9028086241818518e-06   4.431932287251412e-06
-6.30181910606884e-06   1.8561017764931074e-06   9.880939495295396e-06
-6.30181910606884e-06   1.8561017764931074e-06   9.880939495295396e-06
-6.30181910606884e-06   1.8561017764931074e-06   9.880939495295396e-06
-6.30181910606884e-06   1.8561017764931074e-06   9.880939495295396e-06
-1.245959494131866e-05   1.8579463266788767e-06   -3.8091350000948876e-07
-1.245959494131866e-05   1.8579463266788767e-06   -3.8091350000948876e-07
-1.245959494131866e-05   1.8579463266788767e-06   -3.8091350000948876e-07
-1.245959494131866e-05   1.8579463266788767e-06   -3.8091350000948876e-07
-1.2775442437152459e-05   1.766645622668984e-06   1.0342116104989382e-05
-1.2775442437152459e-05   1.766645622668984e-06   1.0342116104989382e-05
-1.2775442437152459e-05   1.766645622668984e-06   1.0342116104989382e-05
-1.2775442437152459e-05   1.766645622668984e-06   1.0342116104989382e-05
-6.561621490652663e-06   1.7470925043758722e-06   -2.5202682010430763e-09
-6.561621490652663e-06   1.7470925043758722e-06   -2.5202682010430763e-09
-6.561621490652663e-06   1.7470925043758722e-06   -2.5202682010430763e-09
-6.561621490652663e-06   1.7470925043758722e-06   -2.5202682010430763e-09
-9.409549367323152e-06   1.8371280846384659e-06   4.690004844758855e-06
-9.409549367323152e-06   1.8371280846384659e-06   4.690004844758855e-06
-9.409549367323152e-06   1.8371280846384659e-06   4.690004844758855e-06
-9.409549367323152e-06   1.8371280846384659e-06   4.690004844758855e-06
-6.5616214906526565e-06   1.766645622668984e-06   1.0353847975965271e-05
-6.5616214906526565e-06   1.766645622668984e-06   1.0353847975965271e-05
-6.5616214906526565e-06   1.766645622668984e-06   1.0353847975965271e-05
-6.5616214906526565e-06   1.766645622668984e-06   1.0353847975965271e-05
-1.2775442437152438e-05   1.7470925043758722e-06   -1.425213917694533e-08
-1.2775442437152438e-05   1.7470925043758722e-06   -1.425213917694533e-08
-1.2775442437152438e-05   1.7470925043758722e-06   -1.425213917694533e-08
-1.2775442437152438e-05   1.7470925043758722e-06   -1.425213917694533e-08
-1.3075789055151065e-05   1.644534756733442e-06   1.066637094528322e-05
-1.3075789055151065e-05   1.644534756733442e-06   1.066637094528322e-05
-1.3075789055151065e-05   1.644534756733442e-06   1.066637094528322e-05
-1.3075789055151065e-05   1.644534756733442e-06   1.066637094528322e-05
-6.829372486595318e-06   1.6101364407127656e-06   2.7631565396934803e-07
-6.829372486595318e-06   1.6101364407127656e-06   2.7631565396934803e-07
-6.829372486595318e-06   1.6101364407127656e-06   2.7631565396934803e-07
-6.829372486595318e-06   1.6101364407127656e-06   2.7631565396934803e-07
-9.740772609842255e-06   1.7495463778565866e-06   5.045003230428447e-06
-9.740772609842255e-06   1.7495463778565866e-06   5.045003230428447e-06
-9.740772609842255e-06   1.7495463778565866e-06   5.045003230428447e-06
-9.740772609842255e-06   1.7495463778565866e-06   5.045003230428447e-06
-1.2173603786351273e-05   3.173148069048428e-06   4.694826950087637e-06
-1.2173603786351273e-05   3.173148069048428e-06   4.694826950087637e-06
-1.2173603786351273e-05   3.173148069048428e-06   4.694826950087637e-06
-1.2173603786351273e-05   3.173148069048428e-06   4.694826950087637e-06
-1.8028303941782168e-05   2.865213152643438e-06   -5.247767592140239e-06
-1.8028303941782168e-05   2.865213152643438e-06   -5.247767592140239e-06
-1.8028303941782168e-05   2.865213152643438e-06   -5.247767592140239e-06
-1.8028303941782168e-05   2.865213152643438e-06   -5.247767592140239e-06
-1.8479159237483304e-05   3.2422307221888387e-06   6.566375116505625e-06
-1.8479159237483304e-05   3.2422307221888387e-06   6.566375116505625e-06
-1.8479159237483304e-05   3.2422307221888387e-06   6.566375116505625e-06
-1.8479159237483304e-05   3.2422307221888387e-06   6.566375116505625e-06
-1.245959494131868e-05   2.901977982616255e-06   -3.2620804000253116e-06
-1.245959494131868e-05   2.901977982616255e-06   -3.2620804000253116e-06
-1.245959494131868e-05   2.901977982616255e-06   -3.2620804000253116e-06
-1.245959494131868e-05   2.901977982616255e-06   -3.2620804000253116e-06
-1.4698849106748909e-05   3.0241672977214832e-06   3.966962866286969e-07
-1.4698849106748909e-05   3.0241672977214832e-06   3.966962866286969e-07
-1.4698849106748909e-05   3.0241672977214832e-06   3.966962866286969e-07
-1.4698849106748909e-05   3.0241672977214832e-06   3.966962866286969e-07
-1.245959494131864e-05   3.2422307221888387e-06   6.770526760249099e-06
-1.245959494131864e-05   3.2422307221888387e-06   6.770526760249099e-06
-1.245959494131864e-05   3.2422307221888387e-06   6.770526760249099e-06
-1.245959494131864e-05   3.2422307221888387e-06   6.770526760249099e-06
-1.8479159237483358e-05   2.901977982616255e-06   -3.46623204376884e-06
-1.8479159237483358e-05   2.901977982616255e-06   -3.46623204376884e-06
-1.8479159237483358e-05   2.901977982616255e-06   -3.46623204376884e-06
-1.8479159237483358e-05   2.901977982616255e-06   -3.46623204376884e-06
-1.8917727621576254e-05   3.2215678901382095e-06   8.004555882894064e-06
-1.8917727621576254e-05   3.2215678901382095e-06   8.004555882894064e-06
-1.8917727621576254e-05   3.2215678901382095e-06   8.004555882894064e-06
-1.8917727621576254e-05   3.2215678901382095e-06   8.004555882894064e-06
-1.2775442437152459e-05   2.87182534488401e-06   -2.0227405639932554e-06
-1.2775442437152459e-05   2.87182534488401e-06   -2.0227405639932554e-06
-1.2775442437152459e-05   2.87182534488401e-06   -2.0227405639932554e-06
-1.2775442437152459e-05   2.87182534488401e-06   -2.0227405639932554e-06
-1.5264438446095478e-05   3.0818601435010683e-06   1.9995652384085475e-06
-1.5264438446095478e-05   3.0818601435010683e-06   1.9995652384085475e-06
-1.5264438446095478e-05   3.0818601435010683e-06   1.9995652384085475e-06
-1.5264438446095478e-05   3.0818601435010683e-06   1.9995652384085475e-06
-1.2775442437152459e-05   3.2215678901382095e-06   8.214401410046573e-06
-1.2775442437152459e-05   3.2215678901382095e-06   8.214401410046573e-06
-1.2775442437152459e-05   3.2215678901382095e-06   8.214401410046573e-06
-1.2775442437152459e-05   3.2215678901382095e-06   8.214401410046573e-06
-1.891772762157632e-05   2.87182534488401e-06   -2.23258609114571e-06
-1.891772762157632e-05   2.87182534488401e-06   -2.23258609114571e-06
-1.891772762157632e-05   2.87182534488401e-06   -2.23258609114571e-06
-1.891772762157632e-05   2.87182534488401e-06   -2.23258609114571e-06
-1.9428243474743097e-05   2.973876825933773e-06   1.045789146903413e-05
-1.9428243474743097e-05   2.973876825933773e-06   1.045789146903413e-05
-1.9428243474743097e-05   2.973876825933773e-06   1.045789146903413e-05
-1.9428243474743097e-05   2.973876825933773e-06   1.045789146903413e-05
-1.3075789055151065e-05   2.654926199921275e-06   6.183781198814613e-08
-1.3075789055151065e-05   2.654926199921275e-06   6.183781198814613e-08
-1.3075789055151065e-05   2.654926199921275e-06   6.183781198814613e-08
-1.3075789055151065e-05   2.654926199921275e-06   6.183781198814613e-08
-1.5390728614597828e-05   2.9919797923316175e-06   3.7178382556201685e-06
-1.5390728614597828e-05   2.9919797923316175e-06   3.7178382556201685e-06
-1.5390728614597828e-05   2.9919797923316175e-06   3.7178382556201685e-06
-1.5390728614597828e-05   2.9919797923316175e-06   3.7178382556201685e-06
1.0489611970064404e-05   -1.4124566641269837e-06   8.770806900873062e-06
1.0489611970064404e-05   -1.4124566641269837e-06   8.770806900873062e-06
1.0489611970064404e-05   -1.4124566641269837e-06   8.770806900873062e-06
1.0489611970064404e-05   -1.4124566641269837e-06   8.770806900873062e-06
4.924448684920214e-06   -9.524632317114805e-07   -2.2846918158460046e-07
4.924448684920214e-06   -9.524632317114805e-07   -2.2846918158460046e-07
4.924448684920214e-06   -9.524632317114805e-07   -2.2846918158460046e-07
4.924448684920214e-06   -9.524632317114805e-07   -2.2846918158460046e-07
4.704678695079654e-06   -1.6321514025932626e-06   7.690197578850175e-06
4.704678695079654e-06   -1.6321514025932626e-06   7.690197578850175e-06
4.704678695079654e-06   -1.6321514025932626e-06   7.690197578850175e-06
4.704678695079654e-06   -1.6321514025932626e-06   7.690197578850175e-06
1.0063336117139899e-05   -1.149087074369835e-06   -1.53073672151761e-06
1.0063336117139899e-05   -1.149087074369835e-06   -1.53073672151761e-06
1.0063336117139899e-05   -1.149087074369835e-06   -1.53073672151761e-06
1.0063336117139899e-05   -1.149087074369835e-06   -1.53073672151761e-06
7.191132303393325e-06   -1.2949978317716281e-06   3.343816089167794e-06
7.191132303393325e-06   -1.2949978317716281e-06   3.343816089167794e-06
7.191132303393325e-06   -1.2949978317716281e-06   3.343816089167794e-06
7.191132303393325e-06   -1.2949978317716281e-06   3.343816089167794e-06
1.0063336117139899e-05   -1.6321514025932626e-06   7.400358981916096e-06
1.0063336117139899e-05   -1.6321514025932626e-06   7.400358981916096e-06
1.0063336117139899e-05   -1.6321514025932626e-06   7.400358981916096e-06
1.0063336117139899e-05   -1.6321514025932626e-06   7.400358981916096e-06
4.704678695079662e-06   -1.149087074369835e-06   -1.2408981245835013e-06
4.704678695079662e-06   -1.149087074369835e-06   -1.2408981245835013e-06
4.704678695079662e-06   -1.149087074369835e-06   -1.2408981245835013e-06
4.704678695079662e-06   -1.149087074369835e-06   -1.2408981245835013e-06
4.4610707697587786e-06   -1.675069138685364e-06   6.932318706378746e-06
4.4610707697587786e-06   -1.675069138685364e-06   6.932318706378746e-06
4.4610707697587786e-06   -1.675069138685364e-06   6.932318706378746e-06
4.4610707697587786e-06   -1.675069138685364e-06   6.932318706378746e-06
9.688435929959507e-06   -1.2005800654638988e-06   -2.0646500045552964e-06
9.688435929959507e-06   -1.2005800654638988e-06   -2.0646500045552964e-06
9.688435929959507e-06   -1.2005800654638988e-06   -2.0646500045552964e-06
9.688435929959507e-06   -1.2005800654638988e-06   -2.0646500045552964e-06
7.021618039620537e-06   -1.3753510451735814e-06   2.4849090671688337e-06
7.021618039620537e-06   -1.3753510451735814e-06   2.4849090671688337e-06
7.021618039620537e-06   -1.3753510451735814e-06   2.4849090671688337e-06
7.021618039620537e-06   -1.3753510451735814e-06   2.4849090671688337e-06
9.688435929959488e-06   -1.6750691386854723e-06   6.647625262445856e-06
9.688435929959488e-06   -1.6750691386854723e-06   6.647625262445856e-06
9.688435929959488e-06   -1.6750691386854723e-06   6.647625262445856e-06
9.688435929959488e-06   -1.6750691386854723e-06   6.647625262445856e-06
4.461070769758787e-06   -1.2005800654638988e-06   -1.7799565606224166e-06
4.461070769758787e-06   -1.2005800654638988e-06   -1.7799565606224166e-06
4.461070769758787e-06   -1.2005800654638988e-06   -1.7799565606224166e-06
4.461070769758787e-06   -1.2005800654638988e-06   -1.7799565606224166e-06
4.235547719972898e-06   -1.6862105479072175e-06   5.896199334455706e-06
4.235547719972898e-06   -1.6862105479072175e-06   5.896199334455706e-06
4.235547719972898e-06   -1.6862105479072175e-06   5.896199334455706e-06
4.235547719972898e-06   -1.6862105479072175e-06   5.896199334455706e-06
9.26764081925616e-06   -1.2439023092780232e-06   -2.7560074408604638e-06
9.26764081925616e-06   -1.2439023092780232e-06   -2.7560074408604638e-06
9.26764081925616e-06   -1.2439023092780232e-06   -2.7560074408604638e-06
9.26764081925616e-06   -1.2439023092780232e-06   -2.7560074408604638e-06
6.622948059463033e-06   -1.3650398791122988e-06   1.7244963673621187e-06
6.622948059463033e-06   -1.3650398791122988e-06   1.7244963673621187e-06
6.622948059463033e-06   -1.3650398791122988e-06   1.7244963673621187e-06
6.622948059463033e-06   -1.3650398791122988e-06   1.7244963673621187e-06
4.924448684920199e-06   -2.726095078563499e-07   9.85099617695467e-06
4.924448684920199e-06   -2.726095078563499e-07   9.85099617695467e-06
4.924448684920199e-06   -2.726095078563499e-07   9.85099617695467e-06
4.924448684920199e-06   -2.726095078563499e-07   9.85099617695467e-06
-3.352469390005886e-07   -1.4878553274621717e-08   1.2394753765024237e-06
-3.352469390005886e-07   -1.4878553274621717e-08   1.2394753765024237e-06
-3.352469390005886e-07   -1.4878553274621717e-08   1.2394753765024237e-06
-3.352469390005886e-07   -1.4878553274621717e-08   1.2394753765024237e-06
-5.424403889666294e-07   -4.268348300378753e-07   9.863740222602543e-06
-5.424403889666294e-07   -4.268348300378753e-07   9.863740222602543e-06
-5.424403889666294e-07   -4.268348300378753e-07   9.863740222602543e-06
-5.424403889666294e-07   -4.268348300378753e-07   9.863740222602543e-06
4.704678695079662e-06   -1.8409278928870065e-07   9.728965247426109e-07
4.704678695079662e-06   -1.8409278928870065e-07   9.728965247426109e-07
4.704678695079662e-06   -1.8409278928870065e-07   9.728965247426109e-07
4.704678695079662e-06   -1.8409278928870065e-07   9.728965247426109e-07
2.152102379599227e-06   -2.3104166319183606e-07   5.255359708218455e-06
2.152102379599227e-06   -2.3104166319183606e-07   5.255359708218455e-06
2.152102379599227e-06   -2.3104166319183606e-07   5.255359708218455e-06
2.152102379599227e-06   -2.3104166319183606e-07   5.255359708218455e-06
4.7046786950796486e-06   -4.268348300378753e-07   9.718094998153039e-06
4.7046786950796486e-06   -4.268348300378753e-07   9.718094998153039e-06
4.7046786950796486e-06   -4.268348300378753e-07   9.718094998153039e-06
4.7046786950796486e-06   -4.268348300378753e-07   9.718094998153039e-06
-5.424403889666294e-07   -1.8409278928870065e-07   1.1185417491920953e-06
-5.424403889666294e-07   -1.8409278928870065e-07   1.1185417491920953e-06
-5.424403889666294e-07   -1.8409278928870065e-07   1.1185417491920953e-06
-5.424403889666294e-07   -1.8409278928870065e-07   1.1185417491920953e-06
-7.54278870160735e-07   -5.394333517900292e-07   9.706107703241458e-06
-7.54278870160735e-07   -5.394333517900292e-07   9.706107703241458e-06
-7.54278870160735e-07   -5.394333517900292e-07   9.706107703241458e-06
-7.54278870160735e-07   -5.394333517900292e-07   9.706107703241458e-06
4.461070769758787e-06   -3.1574342961721014e-07   8.796443500720776e-07
4.461070769758787e-06   -3.1574342961721014e-07   8.796443500720776e-07
4.461070769758787e-06   -3.1574342961721014e-07   8.796443500720776e-07
4.461070769758787e-06   -3.1574342961721014e-07   8.796443500720776e-07
1.9181177959075676e-06   -3.3456206847341623e-07   5.129190489804802e-06
1.9181177959075676e-06   -3.3456206847341623e-07   5.129190489804802e-06
1.9181177959075676e-06   -3.3456206847341623e-07   5.129190489804802e-06
1.9181177959075676e-06   -3.3456206847341623e-07   5.129190489804802e-06
4.4610707697587786e-06   -5.394333517899207e-07   9.571893749937875e-06
4.4610707697587786e-06   -5.394333517899207e-07   9.571893749937875e-06
4.4610707697587786e-06   -5.394333517899207e-07   9.571893749937875e-06
4.4610707697587786e-06   -5.394333517899207e-07   9.571893749937875e-06
-7.54278870160735e-07   -3.1574342961721014e-07   1.0138583033756504e-06
-7.54278870160735e-07   -3.1574342961721014e-07   1.0138583033756504e-06
-7.54278870160735e-07   -3.1574342961721014e-07   1.0138583033756504e-06
-7.54278870160735e-07   -3.1574342961721014e-07   1.0138583033756504e-06
-9.674115733994927e-07   -6.258908596795112e-07   9.76410198898171e-06
-9.674115733994927e-07   -6.258908596795112e-07   9.76410198898171e-06
-9.674115733994927e-07   -6.258908596795112e-07   9.76410198898171e-06
-9.674115733994927e-07   -6.258908596795112e-07   9.76410198898171e-06
4.2355477199729015e-06   -4.355253960649976e-07   9.78283888525592e-07
4.2355477199729015e-06   -4.355253960649976e-07   9.78283888525592e-07
4.2355477199729015e-06   -4.355253960649976e-07   9.78283888525592e-07
4.2355477199729015e-06   -4.355253960649976e-07   9.78283888525592e-07
1.7420183325158943e-06   -4.0912394635430824e-07   5.1183253311277e-06
1.7420183325158943e-06   -4.0912394635430824e-07   5.1183253311277e-06
1.7420183325158943e-06   -4.0912394635430824e-07   5.1183253311277e-06
1.7420183325158943e-06   -4.0912394635430824e-07   5.1183253311277e-06
-3.3524693900059536e-07   8.65742481507008e-07   1.040727020529264e-05
-3.3524693900059536e-07   8.65742481507008e-07   1.040727020529264e-05
-3.3524693900059536e-07   8.65742481507008e-07   1.040727020529264e-05
-3.3524693900059536e-07   8.65742481507008e-07   1.040727020529264e-05
-5.484357616599376e-06   8.949909594739656e-07   1.8429681627414921e-06
-5.484357616599376e-06   8.949909594739656e-07   1.8429681627414921e-06
-5.484357616599376e-06   8.949909594739656e-07   1.8429681627414921e-06
-5.484357616599376e-06   8.949909594739656e-07   1.8429681627414921e-06
-5.693249984147377e-06   7.396782635911599e-07   1.0375952477773486e-05
-5.693249984147377e-06   7.396782635911599e-07   1.0375952477773486e-05
-5.693249984147377e-06   7.396782635911599e-07   1.0375952477773486e-05
-5.693249984147377e-06   7.396782635911599e-07   1.0375952477773486e-05
-5.424403889666362e-07   7.482448275647566e-07   1.786129880754812e-06
-5.424403889666362e-07   7.482448275647566e-07   1.786129880754812e-06
-5.424403889666362e-07   7.482448275647566e-07   1.786129880754812e-06
-5.424403889666362e-07   7.482448275647566e-07   1.786129880754812e-06
-3.0215191715921853e-06   7.968086830002948e-07   5.88878953853604e-06
-3.0215191715921853e-06   7.968086830002948e-07   5.88878953853604e-06
-3.0215191715921853e-06   7.968086830002948e-07   5.88878953853604e-06
-3.0215191715921853e-06   7.968086830002948e-07   5.88878953853604e-06
-5.424403889666362e-07   7.396782635911599e-07   1.0370812539389393e-05
-5.424403889666362e-07   7.396782635911599e-07   1.0370812539389393e-05
-5.424403889666362e-07   7.396782635911599e-07   1.0370812539389393e-05
-5.424403889666362e-07   7.396782635911599e-07   1.0370812539389393e-05
-5.693249984147377e-06   7.482448275648651e-07   1.7912698191389388e-06
-5.693249984147377e-06   7.482448275648651e-07   1.7912698191389388e-06
-5.693249984147377e-06   7.482448275648651e-07   1.7912698191389388e-06
-5.693249984147377e-06   7.482448275648651e-07   1.7912698191389388e-06
-5.90704144216068e-06   6.173727114273247e-07   1.0428074220140548e-05
-5.90704144216068e-06   6.173727114273247e-07   1.0428074220140548e-05
-5.90704144216068e-06   6.173727114273247e-07   1.0428074220140548e-05
-5.90704144216068e-06   6.173727114273247e-07   1.0428074220140548e-05
-7.542788701607418e-07   6.039183247469283e-07   1.8482092321488186e-06
-7.542788701607418e-07   6.039183247469283e-07   1.8482092321488186e-06
-7.542788701607418e-07   6.039183247469283e-07   1.8482092321488186e-06
-7.542788701607418e-07   6.039183247469283e-07   1.8482092321488186e-06
-3.2149329824794375e-06   6.989992962348843e-07   5.892250836454137e-06
-3.2149329824794375e-06   6.989992962348843e-07   5.892250836454137e-06
-3.2149329824794375e-06   6.989992962348843e-07   5.892250836454137e-06
-3.2149329824794375e-06   6.989992962348843e-07   5.892250836454137e-06
-7.542788701607418e-07   6.173727114273247e-07   1.043614685214872e-05
-7.542788701607418e-07   6.173727114273247e-07   1.043614685214872e-05
-7.542788701607418e-07   6.173727114273247e-07   1.043614685214872e-05
-7.542788701607418e-07   6.173727114273247e-07   1.043614685214872e-05
-5.90704144216068e-06   6.039183247469283e-07   1.8401366001406729e-06
-5.90704144216068e-06   6.039183247469283e-07   1.8401366001406729e-06
-5.90704144216068e-06   6.039183247469283e-07   1.8401366001406729e-06
-5.90704144216068e-06   6.039183247469283e-07   1.8401366001406729e-06
-6.1204576741598915e-06   5.086488885818396e-07   1.0550859115039375e-05
-6.1204576741598915e-06   5.086488885818396e-07   1.0550859115039375e-05
-6.1204576741598915e-06   5.086488885818396e-07   1.0550859115039375e-05
-6.1204576741598915e-06   5.086488885818396e-07   1.0550859115039375e-05
-9.674115733994927e-07   4.671143295034187e-07   1.9873696825524736e-06
-9.674115733994927e-07   4.671143295034187e-07   1.9873696825524736e-06
-9.674115733994927e-07   4.671143295034187e-07   1.9873696825524736e-06
-9.674115733994927e-07   4.671143295034187e-07   1.9873696825524736e-06
-3.4176879240448006e-06   6.039367187594784e-07   5.989070166741219e-06
-3.4176879240448006e-06   6.039367187594784e-07   5.989070166741219e-06
-3.4176879240448006e-06   6.039367187594784e-07   5.989070166741219e-06
-3.4176879240448006e-06   6.039367187594784e-07   5.989070166741219e-06
-5.484357616599362e-06   1.976306928092313e-06   9.182844578519637e-06
-5.484357616599362e-06   1.976306928092313e-06   9.182844578519637e-06
-5.484357616599362e-06   1.976306928092313e-06   9.182844578519637e-06
-5.484357616599362e-06   1.976306928092313e-06   9.182844578519637e-06
-1.0536261466533926e-05   1.7733461819018819e-06   6.412283809144228e-07
-1.0536261466533926e-05   1.7733461819018819e-06   6.412283809144228e-07
-1.0536261466533926e-05   1.7733461819018819e-06   6.412283809144228e-07
-1.0536261466533926e-05   1.7733461819018819e-06   6.412283809144228e-07
-1.0761528167422383e-05   1.8579463266788767e-06   9.128704972465127e-06
-1.0761528167422383e-05   1.8579463266788767e-06   9.128704972465127e-06
-1.0761528167422383e-05   1.8579463266788767e-06   9.128704972465127e-06
-1.0761528167422383e-05   1.8579463266788767e-06   9.128704972465127e-06
-5.6932499841473905e-06   1.634485492448142e-06   8.156511675451759e-07
-5.6932499841473905e-06   1.634485492448142e-06   8.156511675451759e-07
-5.6932499841473905e-06   1.634485492448142e-06   8.156511675451759e-07
-5.6932499841473905e-06   1.634485492448142e-06   8.156511675451759e-07
-8.091572489394125e-06   1.7848702817380678e-06   4.7226244693824e-06
-8.091572489394125e-06   1.7848702817380678e-06   4.7226244693824e-06
-8.091572489394125e-06   1.7848702817380678e-06   4.7226244693824e-06
-8.091572489394125e-06   1.7848702817380678e-06   4.7226244693824e-06
-5.693249984147377e-06   1.8579463266788767e-06   9.262781473003449e-06
-5.693249984147377e-06   1.8579463266788767e-06   9.262781473003449e-06
-5.693249984147377e-06   1.8579463266788767e-06   9.262781473003449e-06
-5.693249984147377e-06   1.8579463266788767e-06   9.262781473003449e-06
-1.0761528167422383e-05   1.634485492448142e-06   6.815746670067323e-07
-1.0761528167422383e-05   1.634485492448142e-06   6.815746670067323e-07
-1.0761528167422383e-05   1.634485492448142e-06   6.815746670067323e-07
-1.0761528167422383e-05   1.634485492448142e-06   6.815746670067323e-07
-1.1008720136567932e-05   1.7470925043758722e-06   9.47293801054251e-06
-1.1008720136567932e-05   1.7470925043758722e-06   9.47293801054251e-06
-1.1008720136567932e-05   1.7470925043758722e-06   9.47293801054251e-06
-1.1008720136567932e-05   1.7470925043758722e-06   9.47293801054251e-06
-5.907041442160687e-06   1.503534298672067e-06   1.1162751099527706e-06
-5.907041442160687e-06   1.503534298672067e-06   1.1162751099527706e-06
-5.907041442160687e-06   1.503534298672067e-06   1.1162751099527706e-06
-5.907041442160687e-06   1.503534298672067e-06   1.1162751099527706e-06
-8.249926211695128e-06   1.6969308394142613e-06   4.905045134731721e-06
-8.249926211695128e-06   1.6969308394142613e-06   4.905045134731721e-06
-8.249926211695128e-06   1.6969308394142613e-06   4.905045134731721e-06
-8.249926211695128e-06   1.6969308394142613e-06   4.905045134731721e-06
-5.907041442160687e-06   1.7470925043758722e-06   9.619072933964848e-06
-5.907041442160687e-06   1.7470925043758722e-06   9.619072933964848e-06
-5.907041442160687e-06   1.7470925043758722e-06   9.619072933964848e-06
-5.907041442160687e-06   1.7470925043758722e-06   9.619072933964848e-06
-1.1008720136567932e-05   1.503534298672067e-06   9.701401865304198e-07
-1.1008720136567932e-05   1.503534298672067e-06   9.701401865304198e-07
-1.1008720136567932e-05   1.503534298672067e-06   9.701401865304198e-07
-1.1008720136567932e-05   1.503534298672067e-06   9.701401865304198e-07
-1.123380375912953e-05   1.6101364407127656e-06   9.725384544968926e-06
-1.123380375912953e-05   1.6101364407127656e-06   9.725384544968926e-06
-1.123380375912953e-05   1.6101364407127656e-06   9.725384544968926e-06
-1.123380375912953e-05   1.6101364407127656e-06   9.725384544968926e-06
-6.120457674159905e-06   1.3496003902432625e-06   1.3594627003013575e-06
-6.120457674159905e-06   1.3496003902432625e-06   1.3594627003013575e-06
-6.120457674159905e-06   1.3496003902432625e-06   1.3594627003013575e-06
-6.120457674159905e-06   1.3496003902432625e-06   1.3594627003013575e-06
-8.508787748613458e-06   1.595999559404716e-06   5.192173322894137e-06
-8.508787748613458e-06   1.595999559404716e-06   5.192173322894137e-06
-8.508787748613458e-06   1.595999559404716e-06   5.192173322894137e-06
-8.508787748613458e-06   1.595999559404716e-06   5.192173322894137e-06
-1.0536261466533926e-05   2.865213152643438e-06   4.4674681235069955e-06
-1.0536261466533926e-05   2.865213152643438e-06   4.4674681235069955e-06
-1.0536261466533926e-05   2.865213152643438e-06   4.4674681235069955e-06
-1.0536261466533926e-05   2.865213152643438e-06   4.4674681235069955e-06
-1.5371559661791993e-05   2.464519496419063e-06   -3.831778395657647e-06
-1.5371559661791993e-05   2.464519496419063e-06   -3.831778395657647e-06
-1.5371559661791993e-05   2.464519496419063e-06   -3.831778395657647e-06
-1.5371559661791993e-05   2.464519496419063e-06   -3.831778395657647e-06
-1.577827442473738e-05   2.901977982616255e-06   5.981296962585228e-06
-1.577827442473738e-05   2.901977982616255e-06   5.981296962585228e-06
-1.577827442473738e-05   2.901977982616255e-06   5.981296962585228e-06
-1.577827442473738e-05   2.901977982616255e-06   5.981296962585228e-06
-1.0761528167422383e-05   2.45824279950966e-06   -2.1137056897424934e-06
-1.0761528167422383e-05   2.45824279950966e-06   -2.1137056897424934e-06
-1.0761528167422383e-05   2.45824279950966e-06   -2.1137056897424934e-06
-1.0761528167422383e-05   2.45824279950966e-06   -2.1137056897424934e-06
-1.2612167610834168e-05   2.6309520035241833e-06   8.670678602017146e-07
-1.2612167610834168e-05   2.6309520035241833e-06   8.670678602017146e-07
-1.2612167610834168e-05   2.6309520035241833e-06   8.670678602017146e-07
-1.2612167610834168e-05   2.6309520035241833e-06   8.670678602017146e-07
-1.0761528167422383e-05   2.901977982616255e-06   6.24753807244925e-06
-1.0761528167422383e-05   2.901977982616255e-06   6.24753807244925e-06
-1.0761528167422383e-05   2.901977982616255e-06   6.24753807244925e-06
-1.0761528167422383e-05   2.901977982616255e-06   6.24753807244925e-06
-1.577827442473742e-05   2.45824279950966e-06   -2.379946799606488e-06
-1.577827442473742e-05   2.45824279950966e-06   -2.379946799606488e-06
-1.577827442473742e-05   2.45824279950966e-06   -2.379946799606488e-06
-1.577827442473742e-05   2.45824279950966e-06   -2.379946799606488e-06
-1.6140688737053437e-05   2.87182534488401e-06   7.187449611466355e-06
-1.6140688737053437e-05   2.87182534488401e-06   7.187449611466355e-06
-1.6140688737053437e-05   2.87182534488401e-06   7.187449611466355e-06
-1.6140688737053437e-05   2.87182534488401e-06   7.187449611466355e-06
-1.1008720136567932e-05   2.410158721117628e-06   -1.088831415083048e-06
-1.1008720136567932e-05   2.410158721117628e-06   -1.088831415083048e-06
-1.1008720136567932e-05   2.410158721117628e-06   -1.088831415083048e-06
-1.1008720136567932e-05   2.410158721117628e-06   -1.088831415083048e-06
-1.3088246061015504e-05   2.66221019286925e-06   2.2258142426124215e-06
-1.3088246061015504e-05   2.66221019286925e-06   2.2258142426124215e-06
-1.3088246061015504e-05   2.66221019286925e-06   2.2258142426124215e-06
-1.3088246061015504e-05   2.66221019286925e-06   2.2258142426124215e-06
-1.1008720136567932e-05   2.87182534488401e-06   7.464449585726227e-06
-1.1008720136567932e-05   2.87182534488401e-06   7.464449585726227e-06
-1.1008720136567932e-05   2.87182534488401e-06   7.464449585726227e-06
-1.1008720136567932e-05   2.87182534488401e-06   7.464449585726227e-06
-1.6140688737053478e-05   2.410158721117628e-06   -1.3658313893428662e-06
-1.6140688737053478e-05   2.410158721117628e-06   -1.3658313893428662e-06
-1.6140688737053478e-05   2.410158721117628e-06   -1.3658313893428662e-06
-1.6140688737053478e-05   2.410158721117628e-06   -1.3658313893428662e-06
-1.655545494018972e-05   2.654926199921275e-06   9.254523339156668e-06
-1.655545494018972e-05   2.654926199921275e-06   9.254523339156668e-06
-1.655545494018972e-05   2.654926199921275e-06   9.254523339156668e-06
-1.655545494018972e-05   2.654926199921275e-06   9.254523339156668e-06
-1.123380375912953e-05   2.1932222775156726e-06   6.621270574996548e-07
-1.123380375912953e-05   2.1932222775156726e-06   6.621270574996548e-07
-1.123380375912953e-05   2.1932222775156726e-06   6.621270574996548e-07
-1.123380375912953e-05   2.1932222775156726e-06   6.621270574996548e-07
-1.3176057814613005e-05   2.5716880009120325e-06   3.6721377159344964e-06
-1.3176057814613005e-05   2.5716880009120325e-06   3.6721377159344964e-06
-1.3176057814613005e-05   2.5716880009120325e-06   3.6721377159344964e-06
-1.3176057814613005e-05   2.5716880009120325e-06   3.6721377159344964e-06
7.373190657836146e-06   -9.524632317113721e-07   7.2398897161983695e-06
7.373190657836146e-06   -9.524632317113721e-07   7.2398897161983695e-06
7.373190657836146e-06   -9.524632317113721e-07   7.2398897161983695e-06
7.373190657836146e-06   -9.524632317113721e-07   7.2398897161983695e-06
3.068598992914146e-06   -4.891698246660501e-07   3.435463188889245e-07
3.068598992914146e-06   -4.891698246660501e-07   3.435463188889245e-07
3.068598992914146e-06   -4.891698246660501e-07   3.435463188889245e-07
3.068598992914146e-06   -4.891698246660501e-07   3.435463188889245e-07
2.889987004631868e-06   -1.149087074369835e-06   6.4923671815036044e-06
2.889987004631868e-06   -1.149087074369835e-06   6.4923671815036044e-06
2.889987004631868e-06   -1.149087074369835e-06   6.4923671815036044e-06
2.889987004631868e-06   -1.149087074369835e-06   6.4923671815036044e-06
6.990608713062844e-06   -6.673425371716266e-07   -6.310490548669203e-07
6.990608713062844e-06   -6.673425371716266e-07   -6.310490548669203e-07
6.990608713062844e-06   -6.673425371716266e-07   -6.310490548669203e-07
6.990608713062844e-06   -6.673425371716266e-07   -6.310490548669203e-07
4.82882873359728e-06   -8.327103274061425e-07   3.0711382517165374e-06
4.82882873359728e-06   -8.327103274061425e-07   3.0711382517165374e-06
4.82882873359728e-06   -8.327103274061425e-07   3.0711382517165374e-06
4.82882873359728e-06   -8.327103274061425e-07   3.0711382517165374e-06
6.990608713062858e-06   -1.149087074369835e-06   6.203320459184777e-06
6.990608713062858e-06   -1.149087074369835e-06   6.203320459184777e-06
6.990608713062858e-06   -1.149087074369835e-06   6.203320459184777e-06
6.990608713062858e-06   -1.149087074369835e-06   6.203320459184777e-06
2.8899870046318596e-06   -6.673425371716266e-07   -3.420023325480183e-07
2.8899870046318596e-06   -6.673425371716266e-07   -3.420023325480183e-07
2.8899870046318596e-06   -6.673425371716266e-07   -3.420023325480183e-07
2.8899870046318596e-06   -6.673425371716266e-07   -3.420023325480183e-07
2.6882038704533073e-06   -1.2005800654640072e-06   5.939522989788356e-06
2.6882038704533073e-06   -1.2005800654640072e-06   5.939522989788356e-06
2.6882038704533073e-06   -1.2005800654640072e-06   5.939522989788356e-06
2.6882038704533073e-06   -1.2005800654640072e-06   5.939522989788356e-06
6.6609822549504375e-06   -7.274473789465599e-07   -9.656539296173057e-07
6.6609822549504375e-06   -7.274473789465599e-07   -9.656539296173057e-07
6.6609822549504375e-06   -7.274473789465599e-07   -9.656539296173057e-07
6.6609822549504375e-06   -7.274473789465599e-07   -9.656539296173057e-07
4.6644670188590485e-06   -9.087223696939949e-07   2.470636458317022e-06
4.6644670188590485e-06   -9.087223696939949e-07   2.470636458317022e-06
4.6644670188590485e-06   -9.087223696939949e-07   2.470636458317022e-06
4.6644670188590485e-06   -9.087223696939949e-07   2.470636458317022e-06
6.660982254950448e-06   -1.2005800654640072e-06   5.65564337787791e-06
6.660982254950448e-06   -1.2005800654640072e-06   5.65564337787791e-06
6.660982254950448e-06   -1.2005800654640072e-06   5.65564337787791e-06
6.660982254950448e-06   -1.2005800654640072e-06   5.65564337787791e-06
2.688203870453302e-06   -7.274473789465599e-07   -6.817743177067845e-07
2.688203870453302e-06   -7.274473789465599e-07   -6.817743177067845e-07
2.688203870453302e-06   -7.274473789465599e-07   -6.817743177067845e-07
2.688203870453302e-06   -7.274473789465599e-07   -6.817743177067845e-07
2.5068288682991623e-06   -1.2439023092780232e-06   5.212548533513686e-06
2.5068288682991623e-06   -1.2439023092780232e-06   5.212548533513686e-06
2.5068288682991623e-06   -1.2439023092780232e-06   5.212548533513686e-06
2.5068288682991623e-06   -1.2439023092780232e-06   5.212548533513686e-06
6.285066200427891e-06   -8.029456062114398e-07   -1.3490877085408325e-06
6.285066200427891e-06   -8.029456062114398e-07   -1.3490877085408325e-06
6.285066200427891e-06   -8.029456062114398e-07   -1.3490877085408325e-06
6.285066200427891e-06   -8.029456062114398e-07   -1.3490877085408325e-06
4.342497826580374e-06   -9.209098492177887e-07   1.9593047936755053e-06
4.342497826580374e-06   -9.209098492177887e-07   1.9593047936755053e-06
4.342497826580374e-06   -9.209098492177887e-07   1.9593047936755053e-06
4.342497826580374e-06   -9.209098492177887e-07   1.9593047936755053e-06
3.0685989929141564e-06   -1.4878553274513297e-08   8.831171745763604e-06
3.0685989929141564e-06   -1.4878553274513297e-08   8.831171745763604e-06
3.0685989929141564e-06   -1.4878553274513297e-08   8.831171745763604e-06
3.0685989929141564e-06   -1.4878553274513297e-08   8.831171745763604e-06
-9.598659706839367e-07   2.2370718000437606e-07   2.260214913067508e-06
-9.598659706839367e-07   2.2370718000437606e-07   2.260214913067508e-06
-9.598659706839367e-07   2.2370718000437606e-07   2.260214913067508e-06
-9.598659706839367e-07   2.2370718000437606e-07   2.260214913067508e-06
-1.1244992117279772e-06   -1.8409278928870065e-07   8.843924696102156e-06
-1.1244992117279772e-06   -1.8409278928870065e-07   8.843924696102156e-06
-1.1244992117279772e-06   -1.8409278928870065e-07   8.843924696102156e-06
-1.1244992117279772e-06   -1.8409278928870065e-07   8.843924696102156e-06
2.8899870046318596e-06   4.5511986165489796e-08   2.0153514702299785e-06
2.8899870046318596e-06   4.5511986165489796e-08   2.0153514702299785e-06
2.8899870046318596e-06   4.5511986165489796e-08   2.0153514702299785e-06
2.8899870046318596e-06   4.5511986165489796e-08   2.0153514702299785e-06
9.394363921527816e-07   1.7348385572069427e-09   5.292535446260236e-06
9.394363921527816e-07   1.7348385572069427e-09   5.292535446260236e-06
9.394363921527816e-07   1.7348385572069427e-09   5.292535446260236e-06
9.394363921527816e-07   1.7348385572069427e-09   5.292535446260236e-06
2.8899870046318664e-06   -1.8409278928870065e-07   8.706161830829696e-06
2.8899870046318664e-06   -1.8409278928870065e-07   8.706161830829696e-06
2.8899870046318664e-06   -1.8409278928870065e-07   8.706161830829696e-06
2.8899870046318664e-06   -1.8409278928870065e-07   8.706161830829696e-06
-1.1244992117279772e-06   4.5511986165489796e-08   2.1531143355025097e-06
-1.1244992117279772e-06   4.5511986165489796e-08   2.1531143355025097e-06
-1.1244992117279772e-06   4.5511986165489796e-08   2.1531143355025097e-06
-1.1244992117279772e-06   4.5511986165489796e-08   2.1531143355025097e-06
-1.2930891040287574e-06   -3.1574342961721014e-07   8.729372026820663e-06
-1.2930891040287574e-06   -3.1574342961721014e-07   8.729372026820663e-06
-1.2930891040287574e-06   -3.1574342961721014e-07   8.729372026820663e-06
-1.2930891040287574e-06   -3.1574342961721014e-07   8.729372026820663e-06
2.688203870453302e-06   -9.866321905424493e-08   1.963635609679477e-06
2.688203870453302e-06   -9.866321905424493e-08   1.963635609679477e-06
2.688203870453302e-06   -9.866321905424493e-08   1.963635609679477e-06
2.688203870453302e-06   -9.866321905424493e-08   1.963635609679477e-06
7.5725155581305e-07   -1.1613907254773206e-07   5.1923749795095475e-06
7.5725155581305e-07   -1.1613907254773206e-07   5.1923749795095475e-06
7.5725155581305e-07   -1.1613907254773206e-07   5.1923749795095475e-06
7.5725155581305e-07   -1.1613907254773206e-07   5.1923749795095475e-06
2.6882038704533107e-06   -3.1574342961721014e-07   8.599123900482786e-06
2.6882038704533107e-06   -3.1574342961721014e-07   8.599123900482786e-06
2.6882038704533107e-06   -3.1574342961721014e-07   8.599123900482786e-06
2.6882038704533107e-06   -3.1574342961721014e-07   8.599123900482786e-06
-1.2930891040287574e-06   -9.866321905424493e-08   2.0938837360171946e-06
-1.2930891040287574e-06   -9.866321905424493e-08   2.0938837360171946e-06
-1.2930891040287574e-06   -9.866321905424493e-08   2.0938837360171946e-06
-1.2930891040287574e-06   -9.866321905424493e-08   2.0938837360171946e-06
-1.4604636169857405e-06   -4.355253960649976e-07   8.799570795450708e-06
-1.4604636169857405e-06   -4.355253960649976e-07   8.799570795450708e-06
-1.4604636169857405e-06   -4.355253960649976e-07   8.799570795450708e-06
-1.4604636169857405e-06   -4.355253960649976e-07   8.799570795450708e-06
2.506828868299152e-06   -2.3866560318422944e-07   2.0693007775808016e-06
2.506828868299152e-06   -2.3866560318422944e-07   2.0693007775808016e-06
2.506828868299152e-06   -2.3866560318422944e-07   2.0693007775808016e-06
2.506828868299152e-06   -2.3866560318422944e-07   2.0693007775808016e-06
6.152540343435953e-07   -2.1243952150629825e-07   5.206189851833253e-06
6.152540343435953e-07   -2.1243952150629825e-07   5.206189851833253e-06
6.152540343435953e-07   -2.1243952150629825e-07   5.206189851833253e-06
6.152540343435953e-07   -2.1243952150629825e-07   5.206189851833253e-06
-9.598659706839367e-07   8.949909594738572e-07   9.560266885189983e-06
-9.598659706839367e-07   8.949909594738572e-07   9.560266885189983e-06
-9.598659706839367e-07   8.949909594738572e-07   9.560266885189983e-06
-9.598659706839367e-07   8.949909594738572e-07   9.560266885189983e-06
-4.917846637507464e-06   8.863237472610057e-07   2.9584321131564083e-06
-4.917846637507464e-06   8.863237472610057e-07   2.9584321131564083e-06
-4.917846637507464e-06   8.863237472610057e-07   2.9584321131564083e-06
-4.917846637507464e-06   8.863237472610057e-07   2.9584321131564083e-06
-5.080847282559101e-06   7.482448275647566e-07   9.498298697153962e-06
-5.080847282559101e-06   7.482448275647566e-07   9.498298697153962e-06
-5.080847282559101e-06   7.482448275647566e-07   9.498298697153962e-06
-5.080847282559101e-06   7.482448275647566e-07   9.498298697153962e-06
-1.1244992117279704e-06   7.262212767131996e-07   2.917599376279741e-06
-1.1244992117279704e-06   7.262212767131996e-07   2.917599376279741e-06
-1.1244992117279704e-06   7.262212767131996e-07   2.917599376279741e-06
-1.1244992117279704e-06   7.262212767131996e-07   2.917599376279741e-06
-3.028476795430705e-06   7.92533761292979e-07   6.051107858369995e-06
-3.028476795430705e-06   7.92533761292979e-07   6.051107858369995e-06
-3.028476795430705e-06   7.92533761292979e-07   6.051107858369995e-06
-3.028476795430705e-06   7.92533761292979e-07   6.051107858369995e-06
-1.1244992117279772e-06   7.482448275648651e-07   9.511512827664907e-06
-1.1244992117279772e-06   7.482448275648651e-07   9.511512827664907e-06
-1.1244992117279772e-06   7.482448275648651e-07   9.511512827664907e-06
-1.1244992117279772e-06   7.482448275648651e-07   9.511512827664907e-06
-5.080847282559101e-06   7.262212767131996e-07   2.9043852457688233e-06
-5.080847282559101e-06   7.262212767131996e-07   2.9043852457688233e-06
-5.080847282559101e-06   7.262212767131996e-07   2.9043852457688233e-06
-5.080847282559101e-06   7.262212767131996e-07   2.9043852457688233e-06
-5.247535190457983e-06   6.039183247469283e-07   9.542179748936626e-06
-5.247535190457983e-06   6.039183247469283e-07   9.542179748936626e-06
-5.247535190457983e-06   6.039183247469283e-07   9.542179748936626e-06
-5.247535190457983e-06   6.039183247469283e-07   9.542179748936626e-06
-1.2930891040287507e-06   5.680129803184246e-07   2.972979478211786e-06
-1.2930891040287507e-06   5.680129803184246e-07   2.972979478211786e-06
-1.2930891040287507e-06   5.680129803184246e-07   2.972979478211786e-06
-1.2930891040287507e-06   5.680129803184246e-07   2.972979478211786e-06
-3.177185756418355e-06   6.771055531196645e-07   6.047685021847181e-06
-3.177185756418355e-06   6.771055531196645e-07   6.047685021847181e-06
-3.177185756418355e-06   6.771055531196645e-07   6.047685021847181e-06
-3.177185756418355e-06   6.771055531196645e-07   6.047685021847181e-06
-1.2930891040287507e-06   6.039183247469283e-07   9.563722955593804e-06
-1.2930891040287507e-06   6.039183247469283e-07   9.563722955593804e-06
-1.2930891040287507e-06   6.039183247469283e-07   9.563722955593804e-06
-1.2930891040287507e-06   6.039183247469283e-07   9.563722955593804e-06
-5.247535190457983e-06   5.680129803184246e-07   2.9514362715546416e-06
-5.247535190457983e-06   5.680129803184246e-07   2.9514362715546416e-06
-5.247535190457983e-06   5.680129803184246e-07   2.9514362715546416e-06
-5.247535190457983e-06   5.680129803184246e-07   2.9514362715546416e-06
-5.412049990027615e-06   4.671143295034187e-07   9.66374679883255e-06
-5.412049990027615e-06   4.671143295034187e-07   9.66374679883255e-06
-5.412049990027615e-06   4.671143295034187e-07   9.66374679883255e-06
-5.412049990027615e-06   4.671143295034187e-07   9.66374679883255e-06
-1.4604636169857405e-06   4.159634753763872e-07   3.108460022905739e-06
-1.4604636169857405e-06   4.159634753763872e-07   3.108460022905739e-06
-1.4604636169857405e-06   4.159634753763872e-07   3.108460022905739e-06
-1.4604636169857405e-06   4.159634753763872e-07   3.108460022905739e-06
-3.333030963292887e-06   5.645956861151163e-07   6.140226273641092e-06
-3.333030963292887e-06   5.645956861151163e-07   6.140226273641092e-06
-3.333030963292887e-06   5.645956861151163e-07   6.140226273641092e-06
-3.333030963292887e-06   5.645956861151163e-07   6.140226273641092e-06
-4.917846637507464e-06   1.7733461819018819e-06   8.475103223749456e-06
-4.917846637507464e-06   1.7733461819018819e-06   8.475103223749456e-06
-4.917846637507464e-06   1.7733461819018819e-06   8.475103223749456e-06
-4.917846637507464e-06   1.7733461819018819e-06   8.475103223749456e-06
-8.821412434842262e-06   1.5323418923155635e-06   1.8245576544396222e-06
-8.821412434842262e-06   1.5323418923155635e-06   1.8245576544396222e-06
-8.821412434842262e-06   1.5323418923155635e-06   1.8245576544396222e-06
-8.821412434842262e-06   1.5323418923155635e-06   1.8245576544396222e-06
-8.996944150487182e-06   1.634485492448142e-06   8.368315920079293e-06
-8.996944150487182e-06   1.634485492448142e-06   8.368315920079293e-06
-8.996944150487182e-06   1.634485492448142e-06   8.368315920079293e-06
-8.996944150487182e-06   1.634485492448142e-06   8.368315920079293e-06
-5.080847282559081e-06   1.3772119499799165e-06   1.9958519323467003e-06
-5.080847282559081e-06   1.3772119499799165e-06   1.9958519323467003e-06
-5.080847282559081e-06   1.3772119499799165e-06   1.9958519323467003e-06
-5.080847282559081e-06   1.3772119499799165e-06   1.9958519323467003e-06
-6.934212158050783e-06   1.5505285398209698e-06   4.9808034375952044e-06
-6.934212158050783e-06   1.5505285398209698e-06   4.9808034375952044e-06
-6.934212158050783e-06   1.5505285398209698e-06   4.9808034375952044e-06
-6.934212158050783e-06   1.5505285398209698e-06   4.9808034375952044e-06
-5.080847282559101e-06   1.6344854924480335e-06   8.52268004556024e-06
-5.080847282559101e-06   1.6344854924480335e-06   8.52268004556024e-06
-5.080847282559101e-06   1.6344854924480335e-06   8.52268004556024e-06
-5.080847282559101e-06   1.6344854924480335e-06   8.52268004556024e-06
-8.996944150487155e-06   1.3772119499799165e-06   1.841487806865822e-06
-8.996944150487155e-06   1.3772119499799165e-06   1.841487806865822e-06
-8.996944150487155e-06   1.3772119499799165e-06   1.841487806865822e-06
-8.996944150487155e-06   1.3772119499799165e-06   1.841487806865822e-06
-9.19386153380242e-06   1.503534298672067e-06   8.655589370676169e-06
-9.19386153380242e-06   1.503534298672067e-06   8.655589370676169e-06
-9.19386153380242e-06   1.503534298672067e-06   8.655589370676169e-06
-9.19386153380242e-06   1.503534298672067e-06   8.655589370676169e-06
-5.247535190457963e-06   1.2323194852175692e-06   2.241107686508129e-06
-5.247535190457963e-06   1.2323194852175692e-06   2.241107686508129e-06
-5.247535190457963e-06   1.2323194852175692e-06   2.241107686508129e-06
-5.247535190457963e-06   1.2323194852175692e-06   2.241107686508129e-06
-7.052995815084353e-06   1.4454382412225374e-06   5.122337473949335e-06
-7.052995815084353e-06   1.4454382412225374e-06   5.122337473949335e-06
-7.052995815084353e-06   1.4454382412225374e-06   5.122337473949335e-06
-7.052995815084353e-06   1.4454382412225374e-06   5.122337473949335e-06
-5.24753519045797e-06   1.503534298672067e-06   8.818318258748737e-06
-5.24753519045797e-06   1.503534298672067e-06   8.818318258748737e-06
-5.24753519045797e-06   1.503534298672067e-06   8.818318258748737e-06
-5.24753519045797e-06   1.503534298672067e-06   8.818318258748737e-06
-9.193861533802406e-06   1.2323194852175692e-06   2.0783787984354925e-06
-9.193861533802406e-06   1.2323194852175692e-06   2.0783787984354925e-06
-9.193861533802406e-06   1.2323194852175692e-06   2.0783787984354925e-06
-9.193861533802406e-06   1.2323194852175692e-06   2.0783787984354925e-06
-9.367932475392969e-06   1.3496003902432625e-06   8.892409816974825e-06
-9.367932475392969e-06   1.3496003902432625e-06   8.892409816974825e-06
-9.367932475392969e-06   1.3496003902432625e-06   8.892409816974825e-06
-9.367932475392969e-06   1.3496003902432625e-06   8.892409816974825e-06
-5.412049990027595e-06   1.0690158318205274e-06   2.4676230764195356e-06
-5.412049990027595e-06   1.0690158318205274e-06   2.4676230764195356e-06
-5.412049990027595e-06   1.0690158318205274e-06   2.4676230764195356e-06
-5.412049990027595e-06   1.0690158318205274e-06   2.4676230764195356e-06
-7.251932676175009e-06   1.3333070964504376e-06   5.375519461220805e-06
-7.251932676175009e-06   1.3333070964504376e-06   5.375519461220805e-06
-7.251932676175009e-06   1.3333070964504376e-06   5.375519461220805e-06
-7.251932676175009e-06   1.3333070964504376e-06   5.375519461220805e-06
-8.821412434842262e-06   2.464519496419063e-06   4.0979100671600845e-06
-8.821412434842262e-06   2.464519496419063e-06   4.0979100671600845e-06
-8.821412434842262e-06   2.464519496419063e-06   4.0979100671600845e-06
-8.821412434842262e-06   2.464519496419063e-06   4.0979100671600845e-06
-1.251750395395493e-05   2.0297154303484445e-06   -2.3231249043368036e-06
-1.251750395395493e-05   2.0297154303484445e-06   -2.3231249043368036e-06
-1.251750395395493e-05   2.0297154303484445e-06   -2.3231249043368036e-06
-1.251750395395493e-05   2.0297154303484445e-06   -2.3231249043368036e-06
-1.2887111525994413e-05   2.45824279950966e-06   5.288127175019533e-06
-1.2887111525994413e-05   2.45824279950966e-06   5.288127175019533e-06
-1.2887111525994413e-05   2.45824279950966e-06   5.288127175019533e-06
-1.2887111525994413e-05   2.45824279950966e-06   5.288127175019533e-06
-8.996944150487142e-06   1.9833954856587595e-06   -9.105767291820062e-07
-8.996944150487142e-06   1.9833954856587595e-06   -9.105767291820062e-07
-8.996944150487142e-06   1.9833954856587595e-06   -9.105767291820062e-07
-8.996944150487142e-06   1.9833954856587595e-06   -9.105767291820062e-07
-1.0399885676645332e-05   2.1910723384780013e-06   1.3030530360569077e-06
-1.0399885676645332e-05   2.1910723384780013e-06   1.3030530360569077e-06
-1.0399885676645332e-05   2.1910723384780013e-06   1.3030530360569077e-06
-1.0399885676645332e-05   2.1910723384780013e-06   1.3030530360569077e-06
-8.996944150487169e-06   2.45824279950966e-06   5.573035563330041e-06
-8.996944150487169e-06   2.45824279950966e-06   5.573035563330041e-06
-8.996944150487169e-06   2.45824279950966e-06   5.573035563330041e-06
-8.996944150487169e-06   2.45824279950966e-06   5.573035563330041e-06
-1.2887111525994427e-05   1.9833954856587595e-06   -1.1954851174925411e-06
-1.2887111525994427e-05   1.9833954856587595e-06   -1.1954851174925411e-06
-1.2887111525994427e-05   1.9833954856587595e-06   -1.1954851174925411e-06
-1.2887111525994427e-05   1.9833954856587595e-06   -1.1954851174925411e-06
-1.320786046214515e-05   2.410158721117628e-06   6.303524450947606e-06
-1.320786046214515e-05   2.410158721117628e-06   6.303524450947606e-06
-1.320786046214515e-05   2.410158721117628e-06   6.303524450947606e-06
-1.320786046214515e-05   2.410158721117628e-06   6.303524450947606e-06
-9.193861533802393e-06   1.921669857592569e-06   -9.338044484191732e-08
-9.193861533802393e-06   1.921669857592569e-06   -9.338044484191732e-08
-9.193861533802393e-06   1.921669857592569e-06   -9.338044484191732e-08
-9.193861533802393e-06   1.921669857592569e-06   -9.338044484191732e-08
-1.0797151086678994e-05   2.195021445447606e-06   2.4147578572397807e-06
-1.0797151086678994e-05   2.195021445447606e-06   2.4147578572397807e-06
-1.0797151086678994e-05   2.195021445447606e-06   2.4147578572397807e-06
-1.0797151086678994e-05   2.195021445447606e-06   2.4147578572397807e-06
-9.19386153380242e-06   2.410158721117628e-06   6.596617769062674e-06
-9.19386153380242e-06   2.410158721117628e-06   6.596617769062674e-06
-9.19386153380242e-06   2.410158721117628e-06   6.596617769062674e-06
-9.19386153380242e-06   2.410158721117628e-06   6.596617769062674e-06
-1.320786046214515e-05   1.921669857592569e-06   -3.8647376295693116e-07
-1.320786046214515e-05   1.921669857592569e-06   -3.8647376295693116e-07
-1.320786046214515e-05   1.921669857592569e-06   -3.8647376295693116e-07
-1.320786046214515e-05   1.921669857592569e-06   -3.8647376295693116e-07
-1.3578421980888272e-05   2.1932222775156726e-06   8.06179370162446e-06
-1.3578421980888272e-05   2.1932222775156726e-06   8.06179370162446e-06
-1.3578421980888272e-05   2.1932222775156726e-06   8.06179370162446e-06
-1.3578421980888272e-05   2.1932222775156726e-06   8.06179370162446e-06
-9.367932475392928e-06   1.7105521061315737e-06   1.3339132952961156e-06
-9.367932475392928e-06   1.7105521061315737e-06   1.3339132952961156e-06
-9.367932475392928e-06   1.7105521061315737e-06   1.3339132952961156e-06
-9.367932475392928e-06   1.7105521061315737e-06   1.3339132952961156e-06
-1.0874953323866854e-05   2.1027025723445144e-06   3.610324429691419e-06
-1.0874953323866854e-05   2.1027025723445144e-06   3.610324429691419e-06
-1.0874953323866854e-05   2.1027025723445144e-06   3.610324429691419e-06
-1.0874953323866854e-05   2.1027025723445144e-06   3.610324429691419e-06
4.251374482138232e-06   -4.891698246660501e-07   5.785393360746387e-06
4.251374482138232e-06   -4.891698246660501e-07   5.785393360746387e-06
4.251374482138232e-06   -4.891698246660501e-07   5.785393360746387e-06
4.251374482138232e-06   -4.891698246660501e-07   5.785393360746387e-06
1.1725069105779764e-06   -2.3739001018131378e-08   9.332059023346782e-07
1.1725069105779764e-06   -2.3739001018131378e-08   9.332059023346782e-07
1.1725069105779764e-06   -2.3739001018131378e-08   9.332059023346782e-07
1.1725069105779764e-06   -2.3739001018131378e-08   9.332059023346782e-07
1.0363987692250228e-06   -6.673425371716266e-07   5.3731705428424934e-06
1.0363987692250228e-06   -6.673425371716266e-07   5.3731705428424934e-06
1.0363987692250228e-06   -6.673425371716266e-07   5.3731705428424934e-06
1.0363987692250228e-06   -6.673425371716266e-07   5.3731705428424934e-06
3.913144565238078e-06   -1.84906919415567e-07   2.8913284550046597e-07
3.913144565238078e-06   -1.84906919415567e-07   2.8913284550046597e-07
3.913144565238078e-06   -1.84906919415567e-07   2.8913284550046597e-07
3.913144565238078e-06   -1.84906919415567e-07   2.8913284550046597e-07
2.443111506290408e-06   -3.6406653086278095e-07   2.8466837106150787e-06
2.443111506290408e-06   -3.6406653086278095e-07   2.8466837106150787e-06
2.443111506290408e-06   -3.6406653086278095e-07   2.8466837106150787e-06
2.443111506290408e-06   -3.6406653086278095e-07   2.8466837106150787e-06
3.9131445652380845e-06   -6.673425371716266e-07   5.08370917218882e-06
3.9131445652380845e-06   -6.673425371716266e-07   5.08370917218882e-06
3.9131445652380845e-06   -6.673425371716266e-07   5.08370917218882e-06
3.9131445652380845e-06   -6.673425371716266e-07   5.08370917218882e-06
1.036398769225021e-06   -1.84906919415567e-07   5.785942161541397e-07
1.036398769225021e-06   -1.84906919415567e-07   5.785942161541397e-07
1.036398769225021e-06   -1.84906919415567e-07   5.785942161541397e-07
1.036398769225021e-06   -1.84906919415567e-07   5.785942161541397e-07
8.766736771667187e-07   -7.274473789465057e-07   5.0290177216656695e-06
8.766736771667187e-07   -7.274473789465057e-07   5.0290177216656695e-06
8.766736771667187e-07   -7.274473789465057e-07   5.0290177216656695e-06
8.766736771667187e-07   -7.274473789465057e-07   5.0290177216656695e-06
3.6254997193389273e-06   -2.526490830018213e-07   1.6276200714517074e-07
3.6254997193389273e-06   -2.526490830018213e-07   1.6276200714517074e-07
3.6254997193389273e-06   -2.526490830018213e-07   1.6276200714517074e-07
3.6254997193389273e-06   -2.526490830018213e-07   1.6276200714517074e-07
2.2838915102702926e-06   -4.3458891423926336e-07   2.507939587668647e-06
2.2838915102702926e-06   -4.3458891423926336e-07   2.507939587668647e-06
2.2838915102702926e-06   -4.3458891423926336e-07   2.507939587668647e-06
2.2838915102702926e-06   -4.3458891423926336e-07   2.507939587668647e-06
3.625499719338934e-06   -7.274473789465057e-07   4.7441387440987776e-06
3.625499719338934e-06   -7.274473789465057e-07   4.7441387440987776e-06
3.625499719338934e-06   -7.274473789465057e-07   4.7441387440987776e-06
3.625499719338934e-06   -7.274473789465057e-07   4.7441387440987776e-06
8.766736771667153e-07   -2.526490830018213e-07   4.476409847119678e-07
8.766736771667153e-07   -2.526490830018213e-07   4.476409847119678e-07
8.766736771667153e-07   -2.526490830018213e-07   4.476409847119678e-07
8.766736771667153e-07   -2.526490830018213e-07   4.476409847119678e-07
7.377113339586008e-07   -8.029456062114398e-07   4.620584128166701e-06
7.377113339586008e-07   -8.029456062114398e-07   4.620584128166701e-06
7.377113339586008e-07   -8.029456062114398e-07   4.620584128166701e-06
7.377113339586008e-07   -8.029456062114398e-07   4.620584128166701e-06
3.2868464320674673e-06   -3.621837310907334e-07   1.0756850624622013e-07
3.2868464320674673e-06   -3.621837310907334e-07   1.0756850624622013e-07
3.2868464320674673e-06   -3.621837310907334e-07   1.0756850624622013e-07
3.2868464320674673e-06   -3.621837310907334e-07   1.0756850624622013e-07
2.0374683177885366e-06   -4.677775367993575e-07   2.2532216468030404e-06
2.0374683177885366e-06   -4.677775367993575e-07   2.2532216468030404e-06
2.0374683177885366e-06   -4.677775367993575e-07   2.2532216468030404e-06
2.0374683177885366e-06   -4.677775367993575e-07   2.2532216468030404e-06
1.1725069105779798e-06   2.2370718000437606e-07   7.838169009146334e-06
1.1725069105779798e-06   2.2370718000437606e-07   7.838169009146334e-06
1.1725069105779798e-06   2.2370718000437606e-07   7.838169009146334e-06
1.1725069105779798e-06   2.2370718000437606e-07   7.838169009146334e-06
-1.6222227419104187e-06   4.380329273470044e-07   3.308881703404558e-06
-1.6222227419104187e-06   4.380329273470044e-07   3.308881703404558e-06
-1.6222227419104187e-06   4.380329273470044e-07   3.308881703404558e-06
-1.6222227419104187e-06   4.380329273470044e-07   3.308881703404558e-06
-1.7423925025782683e-06   4.5511986165544006e-08   7.858159516231297e-06
-1.7423925025782683e-06   4.5511986165544006e-08   7.858159516231297e-06
-1.7423925025782683e-06   4.5511986165544006e-08   7.858159516231297e-06
-1.7423925025782683e-06   4.5511986165544006e-08   7.858159516231297e-06
1.036398769225021e-06   2.582372705168699e-07   3.0992055592817226e-06
1.036398769225021e-06   2.582372705168699e-07   3.0992055592817226e-06
1.036398769225021e-06   2.582372705168699e-07   3.0992055592817226e-06
1.036398769225021e-06   2.582372705168699e-07   3.0992055592817226e-06
-3.1056692082132667e-07   2.2244646349277525e-07   5.365622860240334e-06
-3.1056692082132667e-07   2.2244646349277525e-07   5.365622860240334e-06
-3.1056692082132667e-07   2.2244646349277525e-07   5.365622860240334e-06
-3.1056692082132667e-07   2.2244646349277525e-07   5.365622860240334e-06
1.036398769225022e-06   4.5511986165544006e-08   7.73052434562048e-06
1.036398769225022e-06   4.5511986165544006e-08   7.73052434562048e-06
1.036398769225022e-06   4.5511986165544006e-08   7.73052434562048e-06
1.036398769225022e-06   4.5511986165544006e-08   7.73052434562048e-06
-1.7423925025782683e-06   2.582372705168699e-07   3.226840729892523e-06
-1.7423925025782683e-06   2.582372705168699e-07   3.226840729892523e-06
-1.7423925025782683e-06   2.582372705168699e-07   3.226840729892523e-06
-1.7423925025782683e-06   2.582372705168699e-07   3.226840729892523e-06
-1.8663242065830536e-06   -9.866321905429914e-08   7.79817587832492e-06
-1.8663242065830536e-06   -9.866321905429914e-08   7.79817587832492e-06
-1.8663242065830536e-06   -9.866321905429914e-08   7.79817587832492e-06
-1.8663242065830536e-06   -9.866321905429914e-08   7.79817587832492e-06
8.766736771667153e-07   1.0758382973412783e-07   3.1027645094689505e-06
8.766736771667153e-07   1.0758382973412783e-07   3.1027645094689505e-06
8.766736771667153e-07   1.0758382973412783e-07   3.1027645094689505e-06
8.766736771667153e-07   1.0758382973412783e-07   3.1027645094689505e-06
-4.395634922286338e-07   9.813614289158178e-08   5.3021617372335145e-06
-4.395634922286338e-07   9.813614289158178e-08   5.3021617372335145e-06
-4.395634922286338e-07   9.813614289158178e-08   5.3021617372335145e-06
-4.395634922286338e-07   9.813614289158178e-08   5.3021617372335145e-06
8.766736771667187e-07   -9.866321905429914e-08   7.674427649051962e-06
8.766736771667187e-07   -9.866321905429914e-08   7.674427649051962e-06
8.766736771667187e-07   -9.866321905429914e-08   7.674427649051962e-06
8.766736771667187e-07   -9.866321905429914e-08   7.674427649051962e-06
-1.8663242065830604e-06   1.0758382973407362e-07   3.2265127387420074e-06
-1.8663242065830604e-06   1.0758382973407362e-07   3.2265127387420074e-06
-1.8663242065830604e-06   1.0758382973407362e-07   3.2265127387420074e-06
-1.8663242065830604e-06   1.0758382973407362e-07   3.2265127387420074e-06
-1.9886957249050363e-06   -2.3866560318422944e-07   7.891039492163388e-06
-1.9886957249050363e-06   -2.3866560318422944e-07   7.891039492163388e-06
-1.9886957249050363e-06   -2.3866560318422944e-07   7.891039492163388e-06
-1.9886957249050363e-06   -2.3866560318422944e-07   7.891039492163388e-06
7.377113339585991e-07   -4.426410365917762e-08   3.2303868276757004e-06
7.377113339585991e-07   -4.426410365917762e-08   3.2303868276757004e-06
7.377113339585991e-07   -4.426410365917762e-08   3.2303868276757004e-06
7.377113339585991e-07   -4.426410365917762e-08   3.2303868276757004e-06
-5.476268716607723e-07   -1.1443853549465352e-08   5.352925020308912e-06
-5.476268716607723e-07   -1.1443853549465352e-08   5.352925020308912e-06
-5.476268716607723e-07   -1.1443853549465352e-08   5.352925020308912e-06
-5.476268716607723e-07   -1.1443853549465352e-08   5.352925020308912e-06
-1.6222227419104187e-06   8.863237472610057e-07   8.670181984968446e-06
-1.6222227419104187e-06   8.863237472610057e-07   8.670181984968446e-06
-1.6222227419104187e-06   8.863237472610057e-07   8.670181984968446e-06
-1.6222227419104187e-06   8.863237472610057e-07   8.670181984968446e-06
-4.362844166426211e-06   8.409975612160849e-07   4.075283899148525e-06
-4.362844166426211e-06   8.409975612160849e-07   4.075283899148525e-06
-4.362844166426211e-06   8.409975612160849e-07   4.075283899148525e-06
-4.362844166426211e-06   8.409975612160849e-07   4.075283899148525e-06
-4.47868300180259e-06   7.262212767131454e-07   8.593110930216392e-06
-4.47868300180259e-06   7.262212767131454e-07   8.593110930216392e-06
-4.47868300180259e-06   7.262212767131454e-07   8.593110930216392e-06
-4.47868300180259e-06   7.262212767131454e-07   8.593110930216392e-06
-1.7423925025782683e-06   6.769985653929354e-07   4.0621603916347435e-06
-1.7423925025782683e-06   6.769985653929354e-07   4.0621603916347435e-06
-1.7423925025782683e-06   6.769985653929354e-07   4.0621603916347435e-06
-1.7423925025782683e-06   6.769985653929354e-07   4.0621603916347435e-06
-3.0577567426694853e-06   7.623351630634987e-07   6.203232166518074e-06
-3.0577567426694853e-06   7.623351630634987e-07   6.203232166518074e-06
-3.0577567426694853e-06   7.623351630634987e-07   6.203232166518074e-06
-3.0577567426694853e-06   7.623351630634987e-07   6.203232166518074e-06
-1.7423925025782683e-06   7.262212767131454e-07   8.622644557008529e-06
-1.7423925025782683e-06   7.262212767131454e-07   8.622644557008529e-06
-1.7423925025782683e-06   7.262212767131454e-07   8.622644557008529e-06
-1.7423925025782683e-06   7.262212767131454e-07   8.622644557008529e-06
-4.478683001802583e-06   6.769985653929896e-07   4.032626764842613e-06
-4.478683001802583e-06   6.769985653929896e-07   4.032626764842613e-06
-4.478683001802583e-06   6.769985653929896e-07   4.032626764842613e-06
-4.478683001802583e-06   6.769985653929896e-07   4.032626764842613e-06
-4.598112255616782e-06   5.680129803184246e-07   8.644798525640177e-06
-4.598112255616782e-06   5.680129803184246e-07   8.644798525640177e-06
-4.598112255616782e-06   5.680129803184246e-07   8.644798525640177e-06
-4.598112255616782e-06   5.680129803184246e-07   8.644798525640177e-06
-1.8663242065830536e-06   5.138911555194409e-07   4.124291538796661e-06
-1.8663242065830536e-06   5.138911555194409e-07   4.124291538796661e-06
-1.8663242065830536e-06   5.138911555194409e-07   4.124291538796661e-06
-1.8663242065830536e-06   5.138911555194409e-07   4.124291538796661e-06
-3.1604699422219507e-06   6.384053332766167e-07   6.2064925915405024e-06
-3.1604699422219507e-06   6.384053332766167e-07   6.2064925915405024e-06
-3.1604699422219507e-06   6.384053332766167e-07   6.2064925915405024e-06
-3.1604699422219507e-06   6.384053332766167e-07   6.2064925915405024e-06
-1.8663242065830604e-06   5.680129803184246e-07   8.677271620519491e-06
-1.8663242065830604e-06   5.680129803184246e-07   8.677271620519491e-06
-1.8663242065830604e-06   5.680129803184246e-07   8.677271620519491e-06
-1.8663242065830604e-06   5.680129803184246e-07   8.677271620519491e-06
-4.598112255616775e-06   5.138911555194951e-07   4.091818443917306e-06
-4.598112255616775e-06   5.138911555194951e-07   4.091818443917306e-06
-4.598112255616775e-06   5.138911555194951e-07   4.091818443917306e-06
-4.598112255616775e-06   5.138911555194951e-07   4.091818443917306e-06
-4.71553471319554e-06   4.159634753763872e-07   8.777407115644054e-06
-4.71553471319554e-06   4.159634753763872e-07   8.777407115644054e-06
-4.71553471319554e-06   4.159634753763872e-07   8.777407115644054e-06
-4.71553471319554e-06   4.159634753763872e-07   8.777407115644054e-06
-1.9886957249050363e-06   3.58170565183287e-07   4.2673512146090974e-06
-1.9886957249050363e-06   3.58170565183287e-07   4.2673512146090974e-06
-1.9886957249050363e-06   3.58170565183287e-07   4.2673512146090974e-06
-1.9886957249050363e-06   3.58170565183287e-07   4.2673512146090974e-06
-3.2699610194603287e-06   5.171888059264142e-07   6.3073824277554575e-06
-3.2699610194603287e-06   5.171888059264142e-07   6.3073824277554575e-06
-3.2699610194603287e-06   5.171888059264142e-07   6.3073824277554575e-06
-3.2699610194603287e-06   5.171888059264142e-07   6.3073824277554575e-06
-4.362844166426211e-06   1.5323418923155635e-06   7.653714388376515e-06
-4.362844166426211e-06   1.5323418923155635e-06   7.653714388376515e-06
-4.362844166426211e-06   1.5323418923155635e-06   7.653714388376515e-06
-4.362844166426211e-06   1.5323418923155635e-06   7.653714388376515e-06
-7.063128785742836e-06   1.2613709573938313e-06   2.990657461895849e-06
-7.063128785742836e-06   1.2613709573938313e-06   2.990657461895849e-06
-7.063128785742836e-06   1.2613709573938313e-06   2.990657461895849e-06
-7.063128785742836e-06   1.2613709573938313e-06   2.990657461895849e-06
-7.18998275068785e-06   1.3772119499799707e-06   7.516321351466217e-06
-7.18998275068785e-06   1.3772119499799707e-06   7.516321351466217e-06
-7.18998275068785e-06   1.3772119499799707e-06   7.516321351466217e-06
-7.18998275068785e-06   1.3772119499799707e-06   7.516321351466217e-06
-4.478683001802576e-06   1.0967848410997345e-06   3.165744701985707e-06
-4.478683001802576e-06   1.0967848410997345e-06   3.165744701985707e-06
-4.478683001802576e-06   1.0967848410997345e-06   3.165744701985707e-06
-4.478683001802576e-06   1.0967848410997345e-06   3.165744701985707e-06
-5.7594957579071285e-06   1.2932891108065054e-06   5.182530067002829e-06
-5.7594957579071285e-06   1.2932891108065054e-06   5.182530067002829e-06
-5.7594957579071285e-06   1.2932891108065054e-06   5.182530067002829e-06
-5.7594957579071285e-06   1.2932891108065054e-06   5.182530067002829e-06
-4.47868300180259e-06   1.3772119499799707e-06   7.684577616794445e-06
-4.47868300180259e-06   1.3772119499799707e-06   7.684577616794445e-06
-4.47868300180259e-06   1.3772119499799707e-06   7.684577616794445e-06
-4.47868300180259e-06   1.3772119499799707e-06   7.684577616794445e-06
-7.189982750687837e-06   1.0967848410996803e-06   2.9974884366575734e-06
-7.189982750687837e-06   1.0967848410996803e-06   2.9974884366575734e-06
-7.189982750687837e-06   1.0967848410996803e-06   2.9974884366575734e-06
-7.189982750687837e-06   1.0967848410996803e-06   2.9974884366575734e-06
-7.3395040503740225e-06   1.2323194852176234e-06   7.762680731011786e-06
-7.3395040503740225e-06   1.2323194852176234e-06   7.762680731011786e-06
-7.3395040503740225e-06   1.2323194852176234e-06   7.762680731011786e-06
-7.3395040503740225e-06   1.2323194852176234e-06   7.762680731011786e-06
-4.598112255616768e-06   9.460041359145798e-07   3.3654836159982196e-06
-4.598112255616768e-06   9.460041359145798e-07   3.3654836159982196e-06
-4.598112255616768e-06   9.460041359145798e-07   3.3654836159982196e-06
-4.598112255616768e-06   9.460041359145798e-07   3.3654836159982196e-06
-5.83984967070008e-06   1.1775076033681848e-06   5.296143893998223e-06
-5.83984967070008e-06   1.1775076033681848e-06   5.296143893998223e-06
-5.83984967070008e-06   1.1775076033681848e-06   5.296143893998223e-06
-5.83984967070008e-06   1.1775076033681848e-06   5.296143893998223e-06
-4.598112255616782e-06   1.2323194852176234e-06   7.934469940593515e-06
-4.598112255616782e-06   1.2323194852176234e-06   7.934469940593515e-06
-4.598112255616782e-06   1.2323194852176234e-06   7.934469940593515e-06
-4.598112255616782e-06   1.2323194852176234e-06   7.934469940593515e-06
-7.339504050373982e-06   9.460041359145798e-07   3.193694406416437e-06
-7.339504050373982e-06   9.460041359145798e-07   3.193694406416437e-06
-7.339504050373982e-06   9.460041359145798e-07   3.193694406416437e-06
-7.339504050373982e-06   9.460041359145798e-07   3.193694406416437e-06
-7.466916585402574e-06   1.0690158318205274e-06   7.996047801558308e-06
-7.466916585402574e-06   1.0690158318205274e-06   7.996047801558308e-06
-7.466916585402574e-06   1.0690158318205274e-06   7.996047801558308e-06
-7.466916585402574e-06   1.0690158318205274e-06   7.996047801558308e-06
-4.7155347131955266e-06   7.836610316941947e-07   3.5816242279558297e-06
-4.7155347131955266e-06   7.836610316941947e-07   3.5816242279558297e-06
-4.7155347131955266e-06   7.836610316941947e-07   3.5816242279558297e-06
-4.7155347131955266e-06   7.836610316941947e-07   3.5816242279558297e-06
-5.981491334769663e-06   1.0602517489344092e-06   5.525597500235485e-06
-5.981491334769663e-06   1.0602517489344092e-06   5.525597500235485e-06
-5.981491334769663e-06   1.0602517489344092e-06   5.525597500235485e-06
-5.981491334769663e-06   1.0602517489344092e-06   5.525597500235485e-06
-7.063128785742863e-06   2.0297154303484445e-06   3.604331708289513e-06
-7.063128785742863e-06   2.0297154303484445e-06   3.604331708289513e-06
-7.063128785742863e-06   2.0297154303484445e-06   3.604331708289513e-06
-7.063128785742863e-06   2.0297154303484445e-06   3.604331708289513e-06
-9.534969231983972e-06   1.570654470998392e-06   -7.908389443890269e-07
-9.534969231983972e-06   1.570654470998392e-06   -7.908389443890269e-07
-9.534969231983972e-06   1.570654470998392e-06   -7.908389443890269e-07
-9.534969231983972e-06   1.570654470998392e-06   -7.908389443890269e-07
-9.861758729790671e-06   1.9833954856587595e-06   4.467123924679732e-06
-9.861758729790671e-06   1.9833954856587595e-06   4.467123924679732e-06
-9.861758729790671e-06   1.9833954856587595e-06   4.467123924679732e-06
-9.861758729790671e-06   1.9833954856587595e-06   4.467123924679732e-06
-7.189982750687823e-06   1.4881740010944133e-06   3.112968502469839e-07
-7.189982750687823e-06   1.4881740010944133e-06   3.112968502469839e-07
-7.189982750687823e-06   1.4881740010944133e-06   3.112968502469839e-07
-7.189982750687823e-06   1.4881740010944133e-06   3.112968502469839e-07
-8.105105382191049e-06   1.7329423728410062e-06   1.6896402130380504e-06
-8.105105382191049e-06   1.7329423728410062e-06   1.6896402130380504e-06
-8.105105382191049e-06   1.7329423728410062e-06   1.6896402130380504e-06
-8.105105382191049e-06   1.7329423728410062e-06   1.6896402130380504e-06
-7.189982750687823e-06   1.9833954856587595e-06   4.764256815418307e-06
-7.189982750687823e-06   1.9833954856587595e-06   4.764256815418307e-06
-7.189982750687823e-06   1.9833954856587595e-06   4.764256815418307e-06
-7.189982750687823e-06   1.9833954856587595e-06   4.764256815418307e-06
-9.861758729790671e-06   1.4881740010944133e-06   1.4163959508408687e-08
-9.861758729790671e-06   1.4881740010944133e-06   1.4163959508408687e-08
-9.861758729790671e-06   1.4881740010944133e-06   1.4163959508408687e-08
-9.861758729790671e-06   1.4881740010944133e-06   1.4163959508408687e-08
-1.0141497960707835e-05   1.921669857592569e-06   5.288071890608369e-06
-1.0141497960707835e-05   1.921669857592569e-06   5.288071890608369e-06
-1.0141497960707835e-05   1.921669857592569e-06   5.288071890608369e-06
-1.0141497960707835e-05   1.921669857592569e-06   5.288071890608369e-06
-7.339504050373982e-06   1.416920529049323e-06   9.209316371780051e-07
-7.339504050373982e-06   1.416920529049323e-06   9.209316371780051e-07
-7.339504050373982e-06   1.416920529049323e-06   9.209316371780051e-07
-7.339504050373982e-06   1.416920529049323e-06   9.209316371780051e-07
-8.42240491247842e-06   1.7131134475636012e-06   2.5480506562436346e-06
-8.42240491247842e-06   1.7131134475636012e-06   2.5480506562436346e-06
-8.42240491247842e-06   1.7131134475636012e-06   2.5480506562436346e-06
-8.42240491247842e-06   1.7131134475636012e-06   2.5480506562436346e-06
-7.339504050373995e-06   1.921669857592569e-06   5.5909214877343494e-06
-7.339504050373995e-06   1.921669857592569e-06   5.5909214877343494e-06
-7.339504050373995e-06   1.921669857592569e-06   5.5909214877343494e-06
-7.339504050373995e-06   1.921669857592569e-06   5.5909214877343494e-06
-1.0141497960707835e-05   1.416920529049323e-06   6.180820400520249e-07
-1.0141497960707835e-05   1.416920529049323e-06   6.180820400520249e-07
-1.0141497960707835e-05   1.416920529049323e-06   6.180820400520249e-07
-1.0141497960707835e-05   1.416920529049323e-06   6.180820400520249e-07
-1.047449986972513e-05   1.7105521061315737e-06   6.735943379170364e-06
-1.047449986972513e-05   1.7105521061315737e-06   6.735943379170364e-06
-1.047449986972513e-05   1.7105521061315737e-06   6.735943379170364e-06
-1.047449986972513e-05   1.7105521061315737e-06   6.735943379170364e-06
-7.466916585402547e-06   1.2193098122682908e-06   2.0180499482841223e-06
-7.466916585402547e-06   1.2193098122682908e-06   2.0180499482841223e-06
-7.466916585402547e-06   1.2193098122682908e-06   2.0180499482841223e-06
-7.466916585402547e-06   1.2193098122682908e-06   2.0180499482841223e-06
-8.49405881514737e-06   1.6232315999972855e-06   3.48760059188825e-06
-8.49405881514737e-06   1.6232315999972855e-06   3.48760059188825e-06
-8.49405881514737e-06   1.6232315999972855e-06   3.48760059188825e-06
-8.49405881514737e-06   1.6232315999972855e-06   3.48760059188825e-06
1.0830116783308992e-06   -2.3739001018185588e-08   4.399294765358453e-06
1.0830116783308992e-06   -2.3739001018185588e-08   4.399294765358453e-06
1.0830116783308992e-06   -2.3739001018185588e-08   4.399294765358453e-06
1.0830116783308992e-06   -2.3739001018185588e-08   4.399294765358453e-06
-7.47955375919798e-07   4.288878707269352e-07   1.6192591313210145e-06
-7.47955375919798e-07   4.288878707269352e-07   1.6192591313210145e-06
-7.47955375919798e-07   4.288878707269352e-07   1.6192591313210145e-06
-7.47955375919798e-07   4.288878707269352e-07   1.6192591313210145e-06
-8.478849666103642e-07   -1.84906919415567e-07   4.309695275103769e-06
-8.478849666103642e-07   -1.84906919415567e-07   4.309695275103769e-06
-8.478849666103642e-07   -1.84906919415567e-07   4.309695275103769e-06
-8.478849666103642e-07   -1.84906919415567e-07   4.309695275103769e-06
7.817860614982324e-07   2.782974508700733e-07   1.315654272751398e-06
7.817860614982324e-07   2.782974508700733e-07   1.315654272751398e-06
7.817860614982324e-07   2.782974508700733e-07   1.315654272751398e-06
7.817860614982324e-07   2.782974508700733e-07   1.315654272751398e-06
1.7849124242643562e-08   9.799477461983801e-08   2.697064107260834e-06
1.7849124242643562e-08   9.799477461983801e-08   2.697064107260834e-06
1.7849124242643562e-08   9.799477461983801e-08   2.697064107260834e-06
1.7849124242643562e-08   9.799477461983801e-08   2.697064107260834e-06
7.817860614982324e-07   -1.84906919415567e-07   4.031772652932374e-06
7.817860614982324e-07   -1.84906919415567e-07   4.031772652932374e-06
7.817860614982324e-07   -1.84906919415567e-07   4.031772652932374e-06
7.817860614982324e-07   -1.84906919415567e-07   4.031772652932374e-06
-8.478849666103642e-07   2.782974508700733e-07   1.593576894922793e-06
-8.478849666103642e-07   2.782974508700733e-07   1.593576894922793e-06
-8.478849666103642e-07   2.782974508700733e-07   1.593576894922793e-06
-8.478849666103642e-07   2.782974508700733e-07   1.593576894922793e-06
-9.719227761973684e-07   -2.526490830018213e-07   4.17826690375745e-06
-9.719227761973684e-07   -2.526490830018213e-07   4.17826690375745e-06
-9.719227761973684e-07   -2.526490830018213e-07   4.17826690375745e-06
-9.719227761973684e-07   -2.526490830018213e-07   4.17826690375745e-06
5.188495500224434e-07   1.9788144153983205e-07   1.4233280453327836e-06
5.188495500224434e-07   1.9788144153983205e-07   1.4233280453327836e-06
5.188495500224434e-07   1.9788144153983205e-07   1.4233280453327836e-06
5.188495500224434e-07   1.9788144153983205e-07   1.4233280453327836e-06
-1.4212609136125338e-07   3.401646895574966e-08   2.623273097856038e-06
-1.4212609136125338e-07   3.401646895574966e-08   2.623273097856038e-06
-1.4212609136125338e-07   3.401646895574966e-08   2.623273097856038e-06
-1.4212609136125338e-07   3.401646895574966e-08   2.623273097856038e-06
5.188495500224434e-07   -2.526490830018213e-07   3.9079485890323984e-06
5.188495500224434e-07   -2.526490830018213e-07   3.9079485890323984e-06
5.188495500224434e-07   -2.526490830018213e-07   3.9079485890323984e-06
5.188495500224434e-07   -2.526490830018213e-07   3.9079485890323984e-06
-9.719227761973676e-07   1.9788144153983205e-07   1.6936463600577471e-06
-9.719227761973676e-07   1.9788144153983205e-07   1.6936463600577471e-06
-9.719227761973676e-07   1.9788144153983205e-07   1.6936463600577471e-06
-9.719227761973676e-07   1.9788144153983205e-07   1.6936463600577471e-06
-1.076591528551801e-06   -3.621837310907334e-07   4.10401427310337e-06
-1.076591528551801e-06   -3.621837310907334e-07   4.10401427310337e-06
-1.076591528551801e-06   -3.621837310907334e-07   4.10401427310337e-06
-1.076591528551801e-06   -3.621837310907334e-07   4.10401427310337e-06
1.8775627497838544e-07   2.9722004829481254e-08   1.7616244923343151e-06
1.8775627497838544e-07   2.9722004829481254e-08   1.7616244923343151e-06
1.8775627497838544e-07   2.9722004829481254e-08   1.7616244923343151e-06
1.8775627497838544e-07   2.9722004829481254e-08   1.7616244923343151e-06
-3.2316272609323697e-07   -2.0995734685558265e-08   2.6435868044960297e-06
-3.2316272609323697e-07   -2.0995734685558265e-08   2.6435868044960297e-06
-3.2316272609323697e-07   -2.0995734685558265e-08   2.6435868044960297e-06
-3.2316272609323697e-07   -2.0995734685558265e-08   2.6435868044960297e-06
-7.47955375919798e-07   4.380329273470044e-07   6.917951241069829e-06
-7.47955375919798e-07   4.380329273470044e-07   6.917951241069829e-06
-7.47955375919798e-07   4.380329273470044e-07   6.917951241069829e-06
-7.47955375919798e-07   4.380329273470044e-07   6.917951241069829e-06
-2.2755927989588068e-06   5.320612532356932e-07   4.428305864871332e-06
-2.2755927989588068e-06   5.320612532356932e-07   4.428305864871332e-06
-2.2755927989588068e-06   5.320612532356932e-07   4.428305864871332e-06
-2.2755927989588068e-06   5.320612532356932e-07   4.428305864871332e-06
-2.352199604141545e-06   2.582372705168699e-07   6.89450092626983e-06
-2.352199604141545e-06   2.582372705168699e-07   6.89450092626983e-06
-2.352199604141545e-06   2.582372705168699e-07   6.89450092626983e-06
-2.352199604141545e-06   2.582372705168699e-07   6.89450092626983e-06
-8.478849666103642e-07   3.652277839142357e-07   4.323115555679433e-06
-8.478849666103642e-07   3.652277839142357e-07   4.323115555679433e-06
-8.478849666103642e-07   3.652277839142357e-07   4.323115555679433e-06
-8.478849666103642e-07   3.652277839142357e-07   4.323115555679433e-06
-1.567732424509297e-06   3.7763465459480106e-07   5.515417196435985e-06
-1.567732424509297e-06   3.7763465459480106e-07   5.515417196435985e-06
-1.567732424509297e-06   3.7763465459480106e-07   5.515417196435985e-06
-1.567732424509297e-06   3.7763465459480106e-07   5.515417196435985e-06
-8.47884966610365e-07   2.582372705168699e-07   6.830306618231362e-06
-8.47884966610365e-07   2.582372705168699e-07   6.830306618231362e-06
-8.47884966610365e-07   2.582372705168699e-07   6.830306618231362e-06
-8.47884966610365e-07   2.582372705168699e-07   6.830306618231362e-06
-2.3521996041415383e-06   3.652277839142357e-07   4.3873098637178115e-06
-2.3521996041415383e-06   3.652277839142357e-07   4.3873098637178115e-06
-2.3521996041415383e-06   3.652277839142357e-07   4.3873098637178115e-06
-2.3521996041415383e-06   3.652277839142357e-07   4.3873098637178115e-06
-2.4313936637756337e-06   1.0758382973407362e-07   6.8969123315092455e-06
-2.4313936637756337e-06   1.0758382973407362e-07   6.8969123315092455e-06
-2.4313936637756337e-06   1.0758382973407362e-07   6.8969123315092455e-06
-2.4313936637756337e-06   1.0758382973407362e-07   6.8969123315092455e-06
-9.719227761973676e-07   2.1345366805873307e-07   4.400938949217321e-06
-9.719227761973676e-07   2.1345366805873307e-07   4.400938949217321e-06
-9.719227761973676e-07   2.1345366805873307e-07   4.400938949217321e-06
-9.719227761973676e-07   2.1345366805873307e-07   4.400938949217321e-06
-1.6463433947158566e-06   2.5703775430942514e-07   5.498822861664495e-06
-1.6463433947158566e-06   2.5703775430942514e-07   5.498822861664495e-06
-1.6463433947158566e-06   2.5703775430942514e-07   5.498822861664495e-06
-1.6463433947158566e-06   2.5703775430942514e-07   5.498822861664495e-06
-9.719227761973684e-07   1.0758382973407362e-07   6.833390428514423e-06
-9.719227761973684e-07   1.0758382973407362e-07   6.833390428514423e-06
-9.719227761973684e-07   1.0758382973407362e-07   6.833390428514423e-06
-9.719227761973684e-07   1.0758382973407362e-07   6.833390428514423e-06
-2.4313936637756337e-06   2.1345366805873307e-07   4.464460852212108e-06
-2.4313936637756337e-06   2.1345366805873307e-07   4.464460852212108e-06
-2.4313936637756337e-06   2.1345366805873307e-07   4.464460852212108e-06
-2.4313936637756337e-06   2.1345366805873307e-07   4.464460852212108e-06
-2.5095495785379103e-06   -4.426410365917762e-08   7.019768532765485e-06
-2.5095495785379103e-06   -4.426410365917762e-08   7.019768532765485e-06
-2.5095495785379103e-06   -4.426410365917762e-08   7.019768532765485e-06
-2.5095495785379103e-06   -4.426410365917762e-08   7.019768532765485e-06
-1.076591528551801e-06   5.1391001849269025e-08   4.5741120528169515e-06
-1.076591528551801e-06   5.1391001849269025e-08   4.5741120528169515e-06
-1.076591528551801e-06   5.1391001849269025e-08   4.5741120528169515e-06
-1.076591528551801e-06   5.1391001849269025e-08   4.5741120528169515e-06
-1.724056612716182e-06   1.4064282588153662e-07   5.599669432004864e-06
-1.724056612716182e-06   1.4064282588153662e-07   5.599669432004864e-06
-1.724056612716182e-06   1.4064282588153662e-07   5.599669432004864e-06
-1.724056612716182e-06   1.4064282588153662e-07   5.599669432004864e-06
-2.2755927989588068e-06   8.409975612160849e-07   7.767966143973901e-06
-2.2755927989588068e-06   8.409975612160849e-07   7.767966143973901e-06
-2.2755927989588068e-06   8.409975612160849e-07   7.767966143973901e-06
-2.2755927989588068e-06   8.409975612160849e-07   7.767966143973901e-06
-3.7855453801586555e-06   6.527789462806529e-07   5.138447339679626e-06
-3.7855453801586555e-06   6.527789462806529e-07   5.138447339679626e-06
-3.7855453801586555e-06   6.527789462806529e-07   5.138447339679626e-06
-3.7855453801586555e-06   6.527789462806529e-07   5.138447339679626e-06
-3.851202913823779e-06   6.769985653929896e-07   7.623586222882796e-06
-3.851202913823779e-06   6.769985653929896e-07   7.623586222882796e-06
-3.851202913823779e-06   6.769985653929896e-07   7.623586222882796e-06
-3.851202913823779e-06   6.769985653929896e-07   7.623586222882796e-06
-2.3521996041415383e-06   4.99941290177581e-07   5.231481738541586e-06
-2.3521996041415383e-06   4.99941290177581e-07   5.231481738541586e-06
-2.3521996041415383e-06   4.99941290177581e-07   5.231481738541586e-06
-2.3521996041415383e-06   4.99941290177581e-07   5.231481738541586e-06
-3.0685362645585384e-06   6.529548184153796e-07   6.333568055627272e-06
-3.0685362645585384e-06   6.529548184153796e-07   6.333568055627272e-06
-3.0685362645585384e-06   6.529548184153796e-07   6.333568055627272e-06
-3.0685362645585384e-06   6.529548184153796e-07   6.333568055627272e-06
-2.3521996041415383e-06   6.769985653929896e-07   7.729820588012003e-06
-2.3521996041415383e-06   6.769985653929896e-07   7.729820588012003e-06
-2.3521996041415383e-06   6.769985653929896e-07   7.729820588012003e-06
-2.3521996041415383e-06   6.769985653929896e-07   7.729820588012003e-06
-3.851202913823779e-06   4.99941290177581e-07   5.125247373412379e-06
-3.851202913823779e-06   4.99941290177581e-07   5.125247373412379e-06
-3.851202913823779e-06   4.99941290177581e-07   5.125247373412379e-06
-3.851202913823779e-06   4.99941290177581e-07   5.125247373412379e-06
-3.921240957062495e-06   5.138911555194951e-07   7.69323009319555e-06
-3.921240957062495e-06   5.138911555194951e-07   7.69323009319555e-06
-3.921240957062495e-06   5.138911555194951e-07   7.69323009319555e-06
-3.921240957062495e-06   5.138911555194951e-07   7.69323009319555e-06
-2.4313936637756337e-06   3.447894249055403e-07   5.311612309419128e-06
-2.4313936637756337e-06   3.447894249055403e-07   5.311612309419128e-06
-2.4313936637756337e-06   3.447894249055403e-07   5.311612309419128e-06
-2.4313936637756337e-06   3.447894249055403e-07   5.311612309419128e-06
-3.124686618631149e-06   5.315259426345626e-07   6.355058656874242e-06
-3.124686618631149e-06   5.315259426345626e-07   6.355058656874242e-06
-3.124686618631149e-06   5.315259426345626e-07   6.355058656874242e-06
-3.124686618631149e-06   5.315259426345626e-07   6.355058656874242e-06
-2.4313936637756337e-06   5.138911555194409e-07   7.794691131563858e-06
-2.4313936637756337e-06   5.138911555194409e-07   7.794691131563858e-06
-2.4313936637756337e-06   5.138911555194409e-07   7.794691131563858e-06
-2.4313936637756337e-06   5.138911555194409e-07   7.794691131563858e-06
-3.9212409570624814e-06   3.447894249054861e-07   5.210151271050766e-06
-3.9212409570624814e-06   3.447894249054861e-07   5.210151271050766e-06
-3.9212409570624814e-06   3.447894249054861e-07   5.210151271050766e-06
-3.9212409570624814e-06   3.447894249054861e-07   5.210151271050766e-06
-3.989852577508692e-06   3.58170565183287e-07   7.844341717256936e-06
-3.989852577508692e-06   3.58170565183287e-07   7.844341717256936e-06
-3.989852577508692e-06   3.58170565183287e-07   7.844341717256936e-06
-3.989852577508692e-06   3.58170565183287e-07   7.844341717256936e-06
-2.5095495785379103e-06   1.985867273050063e-07   5.472920355032614e-06
-2.5095495785379103e-06   1.985867273050063e-07   5.472920355032614e-06
-2.5095495785379103e-06   1.985867273050063e-07   5.472920355032614e-06
-2.5095495785379103e-06   1.985867273050063e-07   5.472920355032614e-06
-3.1871801498415828e-06   4.122869850940367e-07   6.474084485865331e-06
-3.1871801498415828e-06   4.122869850940367e-07   6.474084485865331e-06
-3.1871801498415828e-06   4.122869850940367e-07   6.474084485865331e-06
-3.1871801498415828e-06   4.122869850940367e-07   6.474084485865331e-06
-3.7855453801586555e-06   1.2613709573938855e-06   6.732991098713044e-06
-3.7855453801586555e-06   1.2613709573938855e-06   6.732991098713044e-06
-3.7855453801586555e-06   1.2613709573938855e-06   6.732991098713044e-06
-3.7855453801586555e-06   1.2613709573938855e-06   6.732991098713044e-06
-5.276525709393859e-06   8.920463625146889e-07   4.02642912639351e-06
-5.276525709393859e-06   8.920463625146889e-07   4.02642912639351e-06
-5.276525709393859e-06   8.920463625146889e-07   4.02642912639351e-06
-5.276525709393859e-06   8.920463625146889e-07   4.02642912639351e-06
-5.348949390269271e-06   1.0967848410997345e-06   6.5375111887426844e-06
-5.348949390269271e-06   1.0967848410997345e-06   6.5375111887426844e-06
-5.348949390269271e-06   1.0967848410997345e-06   6.5375111887426844e-06
-5.348949390269271e-06   1.0967848410997345e-06   6.5375111887426844e-06
-3.851202913823779e-06   7.314632222944154e-07   4.260460032616699e-06
-3.851202913823779e-06   7.314632222944154e-07   4.260460032616699e-06
-3.851202913823779e-06   7.314632222944154e-07   4.260460032616699e-06
-3.851202913823779e-06   7.314632222944154e-07   4.260460032616699e-06
-4.5558372493483825e-06   9.844831524226817e-07   5.283038633747375e-06
-4.5558372493483825e-06   9.844831524226817e-07   5.283038633747375e-06
-4.5558372493483825e-06   9.844831524226817e-07   5.283038633747375e-06
-4.5558372493483825e-06   9.844831524226817e-07   5.283038633747375e-06
-3.851202913823779e-06   1.0967848410996803e-06   6.756704160025849e-06
-3.851202913823779e-06   1.0967848410996803e-06   6.756704160025849e-06
-3.851202913823779e-06   1.0967848410996803e-06   6.756704160025849e-06
-3.851202913823779e-06   1.0967848410996803e-06   6.756704160025849e-06
-5.348949390269258e-06   7.314632222943612e-07   4.041267061333521e-06
-5.348949390269258e-06   7.314632222943612e-07   4.041267061333521e-06
-5.348949390269258e-06   7.314632222943612e-07   4.041267061333521e-06
-5.348949390269258e-06   7.314632222943612e-07   4.041267061333521e-06
-5.447349504477921e-06   9.460041359145798e-07   6.751923360375834e-06
-5.447349504477921e-06   9.460041359145798e-07   6.751923360375834e-06
-5.447349504477921e-06   9.460041359145798e-07   6.751923360375834e-06
-5.447349504477921e-06   9.460041359145798e-07   6.751923360375834e-06
-3.921240957062495e-06   5.877176277468044e-07   4.42338101958411e-06
-3.921240957062495e-06   5.877176277468044e-07   4.42338101958411e-06
-3.921240957062495e-06   5.877176277468044e-07   4.42338101958411e-06
-3.921240957062495e-06   5.877176277468044e-07   4.42338101958411e-06
-4.595078376698631e-06   8.668609542092126e-07   5.378957389766859e-06
-4.595078376698631e-06   8.668609542092126e-07   5.378957389766859e-06
-4.595078376698631e-06   8.668609542092126e-07   5.378957389766859e-06
-4.595078376698631e-06   8.668609542092126e-07   5.378957389766859e-06
-3.9212409570624814e-06   9.460041359145798e-07   6.966895265276369e-06
-3.9212409570624814e-06   9.460041359145798e-07   6.966895265276369e-06
-3.9212409570624814e-06   9.460041359145798e-07   6.966895265276369e-06
-3.9212409570624814e-06   9.460041359145798e-07   6.966895265276369e-06
-5.447349504477907e-06   5.877176277468044e-07   4.20840911468344e-06
-5.447349504477907e-06   5.877176277468044e-07   4.20840911468344e-06
-5.447349504477907e-06   5.877176277468044e-07   4.20840911468344e-06
-5.447349504477907e-06   5.877176277468044e-07   4.20840911468344e-06
-5.525842009961957e-06   7.836610316941947e-07   6.987296225984083e-06
-5.525842009961957e-06   7.836610316941947e-07   6.987296225984083e-06
-5.525842009961957e-06   7.836610316941947e-07   6.987296225984083e-06
-5.525842009961957e-06   7.836610316941947e-07   6.987296225984083e-06
-3.989852577508692e-06   4.403372804685172e-07   4.633308089297422e-06
-3.989852577508692e-06   4.403372804685172e-07   4.633308089297422e-06
-3.989852577508692e-06   4.403372804685172e-07   4.633308089297422e-06
-3.989852577508692e-06   4.403372804685172e-07   4.633308089297422e-06
-4.677513436497124e-06   7.539776982411987e-07   5.591225270281346e-06
-4.677513436497124e-06   7.539776982411987e-07   5.591225270281346e-06
-4.677513436497124e-06   7.539776982411987e-07   5.591225270281346e-06
-4.677513436497124e-06   7.539776982411987e-07   5.591225270281346e-06
-5.276525709393859e-06   1.570654470998392e-06   3.0053365111106596e-06
-5.276525709393859e-06   1.570654470998392e-06   3.0053365111106596e-06
-5.276525709393859e-06   1.570654470998392e-06   3.0053365111106596e-06
-5.276525709393859e-06   1.570654470998392e-06   3.0053365111106596e-06
-6.490795632564837e-06   1.0705068777714603e-06   6.814647498895761e-07
-6.490795632564837e-06   1.0705068777714603e-06   6.814647498895761e-07
-6.490795632564837e-06   1.0705068777714603e-06   6.814647498895761e-07
-6.490795632564837e-06   1.0705068777714603e-06   6.814647498895761e-07
-6.7599894972372065e-06   1.4881740010944675e-06   3.5367552506912524e-06
-6.7599894972372065e-06   1.4881740010944675e-06   3.5367552506912524e-06
-6.7599894972372065e-06   1.4881740010944675e-06   3.5367552506912524e-06
-6.7599894972372065e-06   1.4881740010944675e-06   3.5367552506912524e-06
-5.348949390269271e-06   9.639000816931355e-07   1.499586090718838e-06
-5.348949390269271e-06   9.639000816931355e-07   1.499586090718838e-06
-5.348949390269271e-06   9.639000816931355e-07   1.499586090718838e-06
-5.348949390269271e-06   9.639000816931355e-07   1.499586090718838e-06
-5.760886994170677e-06   1.2573448269612608e-06   2.010081916727026e-06
-5.760886994170677e-06   1.2573448269612608e-06   2.010081916727026e-06
-5.760886994170677e-06   1.2573448269612608e-06   2.010081916727026e-06
-5.760886994170677e-06   1.2573448269612608e-06   2.010081916727026e-06
-5.348949390269271e-06   1.4881740010944675e-06   3.851319602332068e-06
-5.348949390269271e-06   1.4881740010944675e-06   3.851319602332068e-06
-5.348949390269271e-06   1.4881740010944675e-06   3.851319602332068e-06
-5.348949390269271e-06   1.4881740010944675e-06   3.851319602332068e-06
-6.75998949723722e-06   9.639000816931355e-07   1.1850217390780497e-06
-6.75998949723722e-06   9.639000816931355e-07   1.1850217390780497e-06
-6.75998949723722e-06   9.639000816931355e-07   1.1850217390780497e-06
-6.75998949723722e-06   9.639000816931355e-07   1.1850217390780497e-06
-6.989829986062216e-06   1.416920529049323e-06   4.1629344562325995e-06
-6.989829986062216e-06   1.416920529049323e-06   4.1629344562325995e-06
-6.989829986062216e-06   1.416920529049323e-06   4.1629344562325995e-06
-6.989829986062216e-06   1.416920529049323e-06   4.1629344562325995e-06
-5.447349504477907e-06   8.898769708746198e-07   1.9083597884968836e-06
-5.447349504477907e-06   8.898769708746198e-07   1.9083597884968836e-06
-5.447349504477907e-06   8.898769708746198e-07   1.9083597884968836e-06
-5.447349504477907e-06   8.898769708746198e-07   1.9083597884968836e-06
-5.991163210561816e-06   1.2171527610892858e-06   2.618350491174733e-06
-5.991163210561816e-06   1.2171527610892858e-06   2.618350491174733e-06
-5.991163210561816e-06   1.2171527610892858e-06   2.618350491174733e-06
-5.991163210561816e-06   1.2171527610892858e-06   2.618350491174733e-06
-5.447349504477907e-06   1.416920529049323e-06   4.479160591137335e-06
-5.447349504477907e-06   1.416920529049323e-06   4.479160591137335e-06
-5.447349504477907e-06   1.416920529049323e-06   4.479160591137335e-06
-5.447349504477907e-06   1.416920529049323e-06   4.479160591137335e-06
-6.9898299860622295e-06   8.89876970874674e-07   1.5921336535920942e-06
-6.9898299860622295e-06   8.89876970874674e-07   1.5921336535920942e-06
-6.9898299860622295e-06   8.89876970874674e-07   1.5921336535920942e-06
-6.9898299860622295e-06   8.89876970874674e-07   1.5921336535920942e-06
-7.2796795112959955e-06   1.2193098122682908e-06   5.2928964563994044e-06
-7.2796795112959955e-06   1.2193098122682908e-06   5.2928964563994044e-06
-7.2796795112959955e-06   1.2193098122682908e-06   5.2928964563994044e-06
-7.2796795112959955e-06   1.2193098122682908e-06   5.2928964563994044e-06
-5.525842009961957e-06   7.159125289535871e-07   2.6718723241648493e-06
-5.525842009961957e-06   7.159125289535871e-07   2.6718723241648493e-06
-5.525842009961957e-06   7.159125289535871e-07   2.6718723241648493e-06
-5.525842009961957e-06   7.159125289535871e-07   2.6718723241648493e-06
-6.053366049979144e-06   1.1347048975220999e-06   3.2998036363856653e-06
-6.053366049979144e-06   1.1347048975220999e-06   3.2998036363856653e-06
-6.053366049979144e-06   1.1347048975220999e-06   3.2998036363856653e-06
-6.053366049979144e-06   1.1347048975220999e-06   3.2998036363856653e-06
-2.263810325986543e-06   4.288878707269352e-07   3.2164969664979332e-06
-2.263810325986543e-06   4.288878707269352e-07   3.2164969664979332e-06
-2.263810325986543e-06   4.288878707269352e-07   3.2164969664979332e-06
-2.263810325986543e-06   4.288878707269352e-07   3.2164969664979332e-06
-2.647375057933381e-06   8.413274390007598e-07   2.824686154217468e-06
-2.647375057933381e-06   8.413274390007598e-07   2.824686154217468e-06
-2.647375057933381e-06   8.413274390007598e-07   2.824686154217468e-06
-2.647375057933381e-06   8.413274390007598e-07   2.824686154217468e-06
-2.7240950546834895e-06   2.782974508700733e-07   3.40821777582395e-06
-2.7240950546834895e-06   2.782974508700733e-07   3.40821777582395e-06
-2.7240950546834895e-06   2.782974508700733e-07   3.40821777582395e-06
-2.7240950546834895e-06   2.782974508700733e-07   3.40821777582395e-06
-2.569692234975642e-06   6.510697231957273e-07   2.927216379582154e-06
-2.569692234975642e-06   6.510697231957273e-07   2.927216379582154e-06
-2.569692234975642e-06   6.510697231957273e-07   2.927216379582154e-06
-2.569692234975642e-06   6.510697231957273e-07   2.927216379582154e-06
-2.49301890888159e-06   5.107661645328929e-07   2.8836096379564323e-06
-2.49301890888159e-06   5.107661645328929e-07   2.8836096379564323e-06
-2.49301890888159e-06   5.107661645328929e-07   2.8836096379564323e-06
-2.49301890888159e-06   5.107661645328929e-07   2.8836096379564323e-06
-2.5696922349756453e-06   2.782974508700733e-07   3.184554412428525e-06
-2.5696922349756453e-06   2.782974508700733e-07   3.184554412428525e-06
-2.5696922349756453e-06   2.782974508700733e-07   3.184554412428525e-06
-2.5696922349756453e-06   2.782974508700733e-07   3.184554412428525e-06
-2.7240950546834895e-06   6.510697231957273e-07   3.1508797429775177e-06
-2.7240950546834895e-06   6.510697231957273e-07   3.1508797429775177e-06
-2.7240950546834895e-06   6.510697231957273e-07   3.1508797429775177e-06
-2.7240950546834895e-06   6.510697231957273e-07   3.1508797429775177e-06
-2.823338174453911e-06   1.9788144153983205e-07   3.4888122480184695e-06
-2.823338174453911e-06   1.9788144153983205e-07   3.4888122480184695e-06
-2.823338174453911e-06   1.9788144153983205e-07   3.4888122480184695e-06
-2.823338174453911e-06   1.9788144153983205e-07   3.4888122480184695e-06
-2.8691846105263855e-06   5.220060481977561e-07   3.370748210811094e-06
-2.8691846105263855e-06   5.220060481977561e-07   3.370748210811094e-06
-2.8691846105263855e-06   5.220060481977561e-07   3.370748210811094e-06
-2.8691846105263855e-06   5.220060481977561e-07   3.370748210811094e-06
-2.6741235877820736e-06   4.294387066054457e-07   3.101186911192559e-06
-2.6741235877820736e-06   4.294387066054457e-07   3.101186911192559e-06
-2.6741235877820736e-06   4.294387066054457e-07   3.101186911192559e-06
-2.6741235877820736e-06   4.294387066054457e-07   3.101186911192559e-06
-2.869184610526389e-06   1.9788144153983205e-07   3.294337484023623e-06
-2.869184610526389e-06   1.9788144153983205e-07   3.294337484023623e-06
-2.869184610526389e-06   1.9788144153983205e-07   3.294337484023623e-06
-2.869184610526389e-06   1.9788144153983205e-07   3.294337484023623e-06
-2.823338174453911e-06   5.220060481977561e-07   3.5652229748058526e-06
-2.823338174453911e-06   5.220060481977561e-07   3.5652229748058526e-06
-2.823338174453911e-06   5.220060481977561e-07   3.5652229748058526e-06
-2.823338174453911e-06   5.220060481977561e-07   3.5652229748058526e-06
-2.889635499497241e-06   2.9722004829481254e-08   3.7867803325643604e-06
-2.889635499497241e-06   2.9722004829481254e-08   3.7867803325643604e-06
-2.889635499497241e-06   2.9722004829481254e-08   3.7867803325643604e-06
-2.889635499497241e-06   2.9722004829481254e-08   3.7867803325643604e-06
-3.1893219840507866e-06   2.0592364623501906e-07   4.180536821976903e-06
-3.1893219840507866e-06   2.0592364623501906e-07   4.180536821976903e-06
-3.1893219840507866e-06   2.0592364623501906e-07   4.180536821976903e-06
-3.1893219840507866e-06   2.0592364623501906e-07   4.180536821976903e-06
-2.8104895304955595e-06   3.327248622009933e-07   3.4730686698051755e-06
-2.8104895304955595e-06   3.327248622009933e-07   3.4730686698051755e-06
-2.8104895304955595e-06   3.327248622009933e-07   3.4730686698051755e-06
-2.8104895304955595e-06   3.327248622009933e-07   3.4730686698051755e-06
-2.647375057933377e-06   5.320612532356932e-07   6.216590445479316e-06
-2.647375057933377e-06   5.320612532356932e-07   6.216590445479316e-06
-2.647375057933377e-06   5.320612532356932e-07   6.216590445479316e-06
-2.647375057933377e-06   5.320612532356932e-07   6.216590445479316e-06
-2.7885235452490927e-06   2.1936036114533525e-07   5.793722431365615e-06
-2.7885235452490927e-06   2.1936036114533525e-07   5.793722431365615e-06
-2.7885235452490927e-06   2.1936036114533525e-07   5.793722431365615e-06
-2.7885235452490927e-06   2.1936036114533525e-07   5.793722431365615e-06
-2.8168785928910824e-06   3.652277839141815e-07   5.9788564193818255e-06
-2.8168785928910824e-06   3.652277839141815e-07   5.9788564193818255e-06
-2.8168785928910824e-06   3.652277839141815e-07   5.9788564193818255e-06
-2.8168785928910824e-06   3.652277839141815e-07   5.9788564193818255e-06
-2.7240950546834895e-06   1.003944219161914e-07   5.983117206234623e-06
-2.7240950546834895e-06   1.003944219161914e-07   5.983117206234623e-06
-2.7240950546834895e-06   1.003944219161914e-07   5.983117206234623e-06
-2.7240950546834895e-06   1.003944219161914e-07   5.983117206234623e-06
-2.7381203671369457e-06   2.671815571734051e-07   5.906420445836059e-06
-2.7381203671369457e-06   2.671815571734051e-07   5.906420445836059e-06
-2.7381203671369457e-06   2.671815571734051e-07   5.906420445836059e-06
-2.7381203671369457e-06   2.671815571734051e-07   5.906420445836059e-06
-2.7240950546834878e-06   3.652277839141815e-07   6.1377564365805e-06
-2.7240950546834878e-06   3.652277839141815e-07   6.1377564365805e-06
-2.7240950546834878e-06   3.652277839141815e-07   6.1377564365805e-06
-2.7240950546834878e-06   3.652277839141815e-07   6.1377564365805e-06
-2.8168785928910756e-06   1.003944219161914e-07   5.82421718903583e-06
-2.8168785928910756e-06   1.003944219161914e-07   5.82421718903583e-06
-2.8168785928910756e-06   1.003944219161914e-07   5.82421718903583e-06
-2.8168785928910756e-06   1.003944219161914e-07   5.82421718903583e-06
-2.8511071048118193e-06   2.1345366805873307e-07   6.048104261832736e-06
-2.8511071048118193e-06   2.1345366805873307e-07   6.048104261832736e-06
-2.8511071048118193e-06   2.1345366805873307e-07   6.048104261832736e-06
-2.8511071048118193e-06   2.1345366805873307e-07   6.048104261832736e-06
-2.823338174453911e-06   -3.3213957516774455e-08   6.149823286581478e-06
-2.823338174453911e-06   -3.3213957516774455e-08   6.149823286581478e-06
-2.823338174453911e-06   -3.3213957516774455e-08   6.149823286581478e-06
-2.823338174453911e-06   -3.3213957516774455e-08   6.149823286581478e-06
-2.7718832842940547e-06   1.709700374364102e-07   5.941554739343074e-06
-2.7718832842940547e-06   1.709700374364102e-07   5.941554739343074e-06
-2.7718832842940547e-06   1.709700374364102e-07   5.941554739343074e-06
-2.7718832842940547e-06   1.709700374364102e-07   5.941554739343074e-06
-2.823338174453911e-06   2.1345366805873307e-07   6.1961048371779535e-06
-2.823338174453911e-06   2.1345366805873307e-07   6.1961048371779535e-06
-2.823338174453911e-06   2.1345366805873307e-07   6.1961048371779535e-06
-2.823338174453911e-06   2.1345366805873307e-07   6.1961048371779535e-06
-2.8511071048118057e-06   -3.3213957516774455e-08   6.0018227112361585e-06
-2.8511071048118057e-06   -3.3213957516774455e-08   6.0018227112361585e-06
-2.8511071048118057e-06   -3.3213957516774455e-08   6.0018227112361585e-06
-2.8511071048118057e-06   -3.3213957516774455e-08   6.0018227112361585e-06
-2.8786409851490344e-06   5.1391001849214815e-08   6.209620482257311e-06
-2.8786409851490344e-06   5.1391001849214815e-08   6.209620482257311e-06
-2.8786409851490344e-06   5.1391001849214815e-08   6.209620482257311e-06
-2.8786409851490344e-06   5.1391001849214815e-08   6.209620482257311e-06
-2.8896354994972375e-06   -2.0611561354672188e-07   6.382448642075172e-06
-2.8896354994972375e-06   -2.0611561354672188e-07   6.382448642075172e-06
-2.8896354994972375e-06   -2.0611561354672188e-07   6.382448642075172e-06
-2.8896354994972375e-06   -2.0611561354672188e-07   6.382448642075172e-06
-2.8210535963539444e-06   6.052986294336664e-08   6.108158184275476e-06
-2.8210535963539444e-06   6.052986294336664e-08   6.108158184275476e-06
-2.8210535963539444e-06   6.052986294336664e-08   6.108158184275476e-06
-2.8210535963539444e-06   6.052986294336664e-08   6.108158184275476e-06
-2.7885235452490995e-06   6.527789462807071e-07   6.852042553994679e-06
-2.7885235452490995e-06   6.527789462807071e-07   6.852042553994679e-06
-2.7885235452490995e-06   6.527789462807071e-07   6.852042553994679e-06
-2.7885235452490995e-06   6.527789462807071e-07   6.852042553994679e-06
-3.087760901294371e-06   6.329867675920384e-08   5.999625465539653e-06
-3.087760901294371e-06   6.329867675920384e-08   5.999625465539653e-06
-3.087760901294371e-06   6.329867675920384e-08   5.999625465539653e-06
-3.087760901294371e-06   6.329867675920384e-08   5.999625465539653e-06
-3.1018769232408192e-06   4.99941290177581e-07   6.502360700029442e-06
-3.1018769232408192e-06   4.99941290177581e-07   6.502360700029442e-06
-3.1018769232408192e-06   4.99941290177581e-07   6.502360700029442e-06
-3.1018769232408192e-06   4.99941290177581e-07   6.502360700029442e-06
-2.8168785928910756e-06   -3.450470011592149e-08   6.348031076955978e-06
-2.8168785928910756e-06   -3.450470011592149e-08   6.348031076955978e-06
-2.8168785928910756e-06   -3.450470011592149e-08   6.348031076955978e-06
-2.8168785928910756e-06   -3.450470011592149e-08   6.348031076955978e-06
-2.944864006653401e-06   2.8402460772601243e-07   6.370222515188033e-06
-2.944864006653401e-06   2.8402460772601243e-07   6.370222515188033e-06
-2.944864006653401e-06   2.8402460772601243e-07   6.370222515188033e-06
-2.944864006653401e-06   2.8402460772601243e-07   6.370222515188033e-06
-2.8168785928910824e-06   4.999412901776352e-07   6.82302829420556e-06
-2.8168785928910824e-06   4.999412901776352e-07   6.82302829420556e-06
-2.8168785928910824e-06   4.999412901776352e-07   6.82302829420556e-06
-2.8168785928910824e-06   4.999412901776352e-07   6.82302829420556e-06
-3.1018769232408192e-06   -3.450470011592149e-08   6.027363482779833e-06
-3.1018769232408192e-06   -3.450470011592149e-08   6.027363482779833e-06
-3.1018769232408192e-06   -3.450470011592149e-08   6.027363482779833e-06
-3.1018769232408192e-06   -3.450470011592149e-08   6.027363482779833e-06
-3.12224514065501e-06   3.447894249055403e-07   6.597531154380141e-06
-3.12224514065501e-06   3.447894249055403e-07   6.597531154380141e-06
-3.12224514065501e-06   3.447894249055403e-07   6.597531154380141e-06
-3.12224514065501e-06   3.447894249055403e-07   6.597531154380141e-06
-2.8511071048118193e-06   -1.5141818286048387e-07   6.443358992634386e-06
-2.8511071048118193e-06   -1.5141818286048387e-07   6.443358992634386e-06
-2.8511071048118193e-06   -1.5141818286048387e-07   6.443358992634386e-06
-2.8511071048118193e-06   -1.5141818286048387e-07   6.443358992634386e-06
-2.952950196604479e-06   1.88307546107483e-07   6.4092620415745006e-06
-2.952950196604479e-06   1.88307546107483e-07   6.4092620415745006e-06
-2.952950196604479e-06   1.88307546107483e-07   6.4092620415745006e-06
-2.952950196604479e-06   1.88307546107483e-07   6.4092620415745006e-06
-2.8511071048118193e-06   3.447894249055403e-07   6.895255719039674e-06
-2.8511071048118193e-06   3.447894249055403e-07   6.895255719039674e-06
-2.8511071048118193e-06   3.447894249055403e-07   6.895255719039674e-06
-2.8511071048118193e-06   3.447894249055403e-07   6.895255719039674e-06
-3.1222451406549964e-06   -1.5141818286048387e-07   6.145634427974785e-06
-3.1222451406549964e-06   -1.5141818286048387e-07   6.145634427974785e-06
-3.1222451406549964e-06   -1.5141818286048387e-07   6.145634427974785e-06
-3.1222451406549964e-06   -1.5141818286048387e-07   6.145634427974785e-06
-3.137923778603316e-06   1.9858672730506052e-07   6.771604821730927e-06
-3.137923778603316e-06   1.9858672730506052e-07   6.771604821730927e-06
-3.137923778603316e-06   1.9858672730506052e-07   6.771604821730927e-06
-3.137923778603316e-06   1.9858672730506052e-07   6.771604821730927e-06
-2.8786409851490344e-06   -2.6713143842335327e-07   6.618897732077448e-06
-2.8786409851490344e-06   -2.6713143842335327e-07   6.618897732077448e-06
-2.8786409851490344e-06   -2.6713143842335327e-07   6.618897732077448e-06
-2.8786409851490344e-06   -2.6713143842335327e-07   6.618897732077448e-06
-2.966300323748941e-06   9.027033401822642e-08   6.550555566278796e-06
-2.966300323748941e-06   9.027033401822642e-08   6.550555566278796e-06
-2.966300323748941e-06   9.027033401822642e-08   6.550555566278796e-06
-2.966300323748941e-06   9.027033401822642e-08   6.550555566278796e-06
-3.087760901294371e-06   8.920463625146889e-07   5.6079309359231865e-06
-3.087760901294371e-06   8.920463625146889e-07   5.6079309359231865e-06
-3.087760901294371e-06   8.920463625146889e-07   5.6079309359231865e-06
-3.087760901294371e-06   8.920463625146889e-07   5.6079309359231865e-06
-3.4829512049658725e-06   2.975394369728339e-07   4.5925762744788735e-06
-3.4829512049658725e-06   2.975394369728339e-07   4.5925762744788735e-06
-3.4829512049658725e-06   2.975394369728339e-07   4.5925762744788735e-06
-3.4829512049658725e-06   2.975394369728339e-07   4.5925762744788735e-06
-3.4955563546148908e-06   7.314632222943612e-07   5.299356266961737e-06
-3.4955563546148908e-06   7.314632222943612e-07   5.299356266961737e-06
-3.4955563546148908e-06   7.314632222943612e-07   5.299356266961737e-06
-3.4955563546148908e-06   7.314632222943612e-07   5.299356266961737e-06
-3.1018769232408192e-06   1.6776806850766677e-07   4.981440973610328e-06
-3.1018769232408192e-06   1.6776806850766677e-07   4.981440973610328e-06
-3.1018769232408192e-06   1.6776806850766677e-07   4.981440973610328e-06
-3.1018769232408192e-06   1.6776806850766677e-07   4.981440973610328e-06
-3.283631565694188e-06   5.323118397688249e-07   5.065639114942589e-06
-3.283631565694188e-06   5.323118397688249e-07   5.065639114942589e-06
-3.283631565694188e-06   5.323118397688249e-07   5.065639114942589e-06
-3.283631565694188e-06   5.323118397688249e-07   5.065639114942589e-06
-3.1018769232408192e-06   7.314632222943612e-07   5.6375733592337214e-06
-3.1018769232408192e-06   7.314632222943612e-07   5.6375733592337214e-06
-3.1018769232408192e-06   7.314632222943612e-07   5.6375733592337214e-06
-3.1018769232408192e-06   7.314632222943612e-07   5.6375733592337214e-06
-3.4955563546148908e-06   1.6776806850763966e-07   4.643223881338303e-06
-3.4955563546148908e-06   1.6776806850763966e-07   4.643223881338303e-06
-3.4955563546148908e-06   1.6776806850763966e-07   4.643223881338303e-06
-3.4955563546148908e-06   1.6776806850763966e-07   4.643223881338303e-06
-3.5390455493522483e-06   5.877176277467502e-07   5.491810950647392e-06
-3.5390455493522483e-06   5.877176277467502e-07   5.491810950647392e-06
-3.5390455493522483e-06   5.877176277467502e-07   5.491810950647392e-06
-3.5390455493522483e-06   5.877176277467502e-07   5.491810950647392e-06
-3.1222451406549964e-06   5.613437396997326e-08   5.1160935550846555e-06
-3.1222451406549964e-06   5.613437396997326e-08   5.1160935550846555e-06
-3.1222451406549964e-06   5.613437396997326e-08   5.1160935550846555e-06
-3.1222451406549964e-06   5.613437396997326e-08   5.1160935550846555e-06
-3.280444439329268e-06   4.269639818448815e-07   5.157261288149962e-06
-3.280444439329268e-06   4.269639818448815e-07   5.157261288149962e-06
-3.280444439329268e-06   4.269639818448815e-07   5.157261288149962e-06
-3.280444439329268e-06   4.269639818448815e-07   5.157261288149962e-06
-3.1222451406549964e-06   5.877176277468044e-07   5.810760902913323e-06
-3.1222451406549964e-06   5.877176277468044e-07   5.810760902913323e-06
-3.1222451406549964e-06   5.877176277468044e-07   5.810760902913323e-06
-3.1222451406549964e-06   5.877176277468044e-07   5.810760902913323e-06
-3.5390455493522483e-06   5.613437396997326e-08   4.797143602818603e-06
-3.5390455493522483e-06   5.613437396997326e-08   4.797143602818603e-06
-3.5390455493522483e-06   5.613437396997326e-08   4.797143602818603e-06
-3.5390455493522483e-06   5.613437396997326e-08   4.797143602818603e-06
-3.566854974368551e-06   4.403372804685172e-07   5.729499093391234e-06
-3.566854974368551e-06   4.403372804685172e-07   5.729499093391234e-06
-3.566854974368551e-06   4.403372804685172e-07   5.729499093391234e-06
-3.566854974368551e-06   4.403372804685172e-07   5.729499093391234e-06
-3.1379237786033023e-06   -5.6735661750498614e-08   5.312857532447171e-06
-3.1379237786033023e-06   -5.6735661750498614e-08   5.312857532447171e-06
-3.1379237786033023e-06   -5.6735661750498614e-08   5.312857532447171e-06
-3.1379237786033023e-06   -5.6735661750498614e-08   5.312857532447171e-06
-3.303462453015598e-06   3.3217704479410453e-07   5.355407699207475e-06
-3.303462453015598e-06   3.3217704479410453e-07   5.355407699207475e-06
-3.303462453015598e-06   3.3217704479410453e-07   5.355407699207475e-06
-3.303462453015598e-06   3.3217704479410453e-07   5.355407699207475e-06
-3.4829512049658725e-06   1.0705068777714603e-06   2.2063509600302557e-06
-3.4829512049658725e-06   1.0705068777714603e-06   2.2063509600302557e-06
-3.4829512049658725e-06   1.0705068777714603e-06   2.2063509600302557e-06
-3.4829512049658725e-06   1.0705068777714603e-06   2.2063509600302557e-06
-3.5371817588352404e-06   5.019379865733419e-07   1.774825368862476e-06
-3.5371817588352404e-06   5.019379865733419e-07   1.774825368862476e-06
-3.5371817588352404e-06   5.019379865733419e-07   1.774825368862476e-06
-3.5371817588352404e-06   5.019379865733419e-07   1.774825368862476e-06
-3.719552691984257e-06   9.639000816931355e-07   2.4245179081024745e-06
-3.719552691984257e-06   9.639000816931355e-07   2.4245179081024745e-06
-3.719552691984257e-06   9.639000816931355e-07   2.4245179081024745e-06
-3.719552691984257e-06   9.639000816931355e-07   2.4245179081024745e-06
-3.495556354614877e-06   4.0863776795216507e-07   2.384348067398088e-06
-3.495556354614877e-06   4.0863776795216507e-07   2.384348067398088e-06
-3.495556354614877e-06   4.0863776795216507e-07   2.384348067398088e-06
-3.495556354614877e-06   4.0863776795216507e-07   2.384348067398088e-06
-3.442266431228688e-06   7.57382832997013e-07   2.0862844893941937e-06
-3.442266431228688e-06   7.57382832997013e-07   2.0862844893941937e-06
-3.442266431228688e-06   7.57382832997013e-07   2.0862844893941937e-06
-3.442266431228688e-06   7.57382832997013e-07   2.0862844893941937e-06
-3.495556354614877e-06   9.639000816931355e-07   2.757675296346959e-06
-3.495556354614877e-06   9.639000816931355e-07   2.757675296346959e-06
-3.495556354614877e-06   9.639000816931355e-07   2.757675296346959e-06
-3.495556354614877e-06   9.639000816931355e-07   2.757675296346959e-06
-3.719552691984284e-06   4.086377679521922e-07   2.051190679153522e-06
-3.719552691984284e-06   4.086377679521922e-07   2.051190679153522e-06
-3.719552691984284e-06   4.086377679521922e-07   2.051190679153522e-06
-3.719552691984284e-06   4.086377679521922e-07   2.051190679153522e-06
-3.8789497383176865e-06   8.89876970874674e-07   2.8666346940740676e-06
-3.8789497383176865e-06   8.89876970874674e-07   2.8666346940740676e-06
-3.8789497383176865e-06   8.89876970874674e-07   2.8666346940740676e-06
-3.8789497383176865e-06   8.89876970874674e-07   2.8666346940740676e-06
-3.5390455493522483e-06   3.479987535634022e-07   2.6252546428516955e-06
-3.5390455493522483e-06   3.479987535634022e-07   2.6252546428516955e-06
-3.5390455493522483e-06   3.479987535634022e-07   2.6252546428516955e-06
-3.5390455493522483e-06   3.479987535634022e-07   2.6252546428516955e-06
-3.5747467561705412e-06   7.051705513459012e-07   2.470453575545851e-06
-3.5747467561705412e-06   7.051705513459012e-07   2.470453575545851e-06
-3.5747467561705412e-06   7.051705513459012e-07   2.470453575545851e-06
-3.5747467561705412e-06   7.051705513459012e-07   2.470453575545851e-06
-3.5390455493522347e-06   8.89876970874674e-07   3.1917616244607277e-06
-3.5390455493522347e-06   8.89876970874674e-07   3.1917616244607277e-06
-3.5390455493522347e-06   8.89876970874674e-07   3.1917616244607277e-06
-3.5390455493522347e-06   8.89876970874674e-07   3.1917616244607277e-06
-3.878949738317714e-06   3.479987535633751e-07   2.300127712464927e-06
-3.878949738317714e-06   3.479987535633751e-07   2.300127712464927e-06
-3.878949738317714e-06   3.479987535633751e-07   2.300127712464927e-06
-3.878949738317714e-06   3.479987535633751e-07   2.300127712464927e-06
-4.110115792321518e-06   7.159125289535871e-07   3.6775740785339496e-06
-4.110115792321518e-06   7.159125289535871e-07   3.6775740785339496e-06
-4.110115792321518e-06   7.159125289535871e-07   3.6775740785339496e-06
-4.110115792321518e-06   7.159125289535871e-07   3.6775740785339496e-06
-3.5668549743685373e-06   2.2177336152012436e-07   3.0686228824057342e-06
-3.5668549743685373e-06   2.2177336152012436e-07   3.0686228824057342e-06
-3.5668549743685373e-06   2.2177336152012436e-07   3.0686228824057342e-06
-3.5668549743685373e-06   2.2177336152012436e-07   3.0686228824057342e-06
-3.620110722803914e-06   6.397663837722585e-07   2.9065866497798095e-06
-3.620110722803914e-06   6.397663837722585e-07   2.9065866497798095e-06
-3.620110722803914e-06   6.397663837722585e-07   2.9065866497798095e-06
-3.620110722803914e-06   6.397663837722585e-07   2.9065866497798095e-06
-6.338000519403933e-06   8.413274390007327e-07   2.7532008050915274e-06
-6.338000519403933e-06   8.413274390007327e-07   2.7532008050915274e-06
-6.338000519403933e-06   8.413274390007327e-07   2.7532008050915274e-06
-6.338000519403933e-06   8.413274390007327e-07   2.7532008050915274e-06
-4.358000833514926e-06   1.1552625693665567e-06   6.241561359792685e-06
-4.358000833514926e-06   1.1552625693665567e-06   6.241561359792685e-06
-4.358000833514926e-06   1.1552625693665567e-06   6.241561359792685e-06
-4.358000833514926e-06   1.1552625693665567e-06   6.241561359792685e-06
-4.361412611413223e-06   6.510697231957273e-07   3.0533888834992004e-06
-4.361412611413223e-06   6.510697231957273e-07   3.0533888834992004e-06
-4.361412611413223e-06   6.510697231957273e-07   3.0533888834992004e-06
-4.361412611413223e-06   6.510697231957273e-07   3.0533888834992004e-06
-7.025507485217381e-06   4.287681608200445e-07   7.626927943931599e-06
-7.025507485217381e-06   4.287681608200445e-07   7.626927943931599e-06
-7.025507485217381e-06   4.287681608200445e-07   7.626927943931599e-06
-7.025507485217381e-06   4.287681608200445e-07   7.626927943931599e-06
-5.2341918278356665e-06   6.754810420688115e-07   4.4933741195461345e-06
-5.2341918278356665e-06   6.754810420688115e-07   4.4933741195461345e-06
-5.2341918278356665e-06   6.754810420688115e-07   4.4933741195461345e-06
-5.2341918278356665e-06   6.754810420688115e-07   4.4933741195461345e-06
-7.025507485217394e-06   6.510697231957002e-07   3.18676982092461e-06
-7.025507485217394e-06   6.510697231957002e-07   3.18676982092461e-06
-7.025507485217394e-06   6.510697231957002e-07   3.18676982092461e-06
-7.025507485217394e-06   6.510697231957002e-07   3.18676982092461e-06
-4.361412611413223e-06   4.287681608200445e-07   7.493547006506189e-06
-4.361412611413223e-06   4.287681608200445e-07   7.493547006506189e-06
-4.361412611413223e-06   4.287681608200445e-07   7.493547006506189e-06
-4.361412611413223e-06   4.287681608200445e-07   7.493547006506189e-06
-4.434855037201e-06   5.220060481977561e-07   3.3803900203982457e-06
-4.434855037201e-06   5.220060481977561e-07   3.3803900203982457e-06
-4.434855037201e-06   5.220060481977561e-07   3.3803900203982457e-06
-4.434855037201e-06   5.220060481977561e-07   3.3803900203982457e-06
-7.062880163318635e-06   2.9374686424088177e-07   7.897387407635078e-06
-7.062880163318635e-06   2.9374686424088177e-07   7.897387407635078e-06
-7.062880163318635e-06   2.9374686424088177e-07   7.897387407635078e-06
-7.062880163318635e-06   2.9374686424088177e-07   7.897387407635078e-06
-5.607665016386329e-06   4.0756514963887695e-07   5.40373785817571e-06
-5.607665016386329e-06   4.0756514963887695e-07   5.40373785817571e-06
-5.607665016386329e-06   4.0756514963887695e-07   5.40373785817571e-06
-5.607665016386329e-06   4.0756514963887695e-07   5.40373785817571e-06
-7.062880163318645e-06   5.220060481977561e-07   3.5173455307723703e-06
-7.062880163318645e-06   5.220060481977561e-07   3.5173455307723703e-06
-7.062880163318645e-06   5.220060481977561e-07   3.5173455307723703e-06
-7.062880163318645e-06   5.220060481977561e-07   3.5173455307723703e-06
-4.4348550372009915e-06   2.9374686424088177e-07   7.76043189726095e-06
-4.4348550372009915e-06   2.9374686424088177e-07   7.76043189726095e-06
-4.4348550372009915e-06   2.9374686424088177e-07   7.76043189726095e-06
-4.4348550372009915e-06   2.9374686424088177e-07   7.76043189726095e-06
-4.4012548470973155e-06   2.0592364623501906e-07   3.949639479948065e-06
-4.4012548470973155e-06   2.0592364623501906e-07   3.949639479948065e-06
-4.4012548470973155e-06   2.0592364623501906e-07   3.949639479948065e-06
-4.4012548470973155e-06   2.0592364623501906e-07   3.949639479948065e-06
-7.16113275041111e-06   -2.8867901372435154e-07   8.846197581446643e-06
-7.16113275041111e-06   -2.8867901372435154e-07   8.846197581446643e-06
-7.16113275041111e-06   -2.8867901372435154e-07   8.846197581446643e-06
-7.16113275041111e-06   -2.8867901372435154e-07   8.846197581446643e-06
-5.536226956451191e-06   1.8020828053836647e-07   5.856688881622479e-06
-5.536226956451191e-06   1.8020828053836647e-07   5.856688881622479e-06
-5.536226956451191e-06   1.8020828053836647e-07   5.856688881622479e-06
-5.536226956451191e-06   1.8020828053836647e-07   5.856688881622479e-06
-4.358000833514935e-06   2.1936036114536235e-07   6.098218695713321e-06
-4.358000833514935e-06   2.1936036114536235e-07   6.098218695713321e-06
-4.358000833514935e-06   2.1936036114536235e-07   6.098218695713321e-06
-4.358000833514935e-06   2.1936036114536235e-07   6.098218695713321e-06
-2.7120554052381676e-06   -1.4307228310091099e-06   7.851411160881942e-06
-2.7120554052381676e-06   -1.4307228310091099e-06   7.851411160881942e-06
-2.7120554052381676e-06   -1.4307228310091099e-06   7.851411160881942e-06
-2.7120554052381676e-06   -1.4307228310091099e-06   7.851411160881942e-06
-2.726485179197532e-06   1.003944219162185e-07   5.114908430911243e-06
-2.726485179197532e-06   1.003944219162185e-07   5.114908430911243e-06
-2.726485179197532e-06   1.003944219162185e-07   5.114908430911243e-06
-2.726485179197532e-06   1.003944219162185e-07   5.114908430911243e-06
-4.361412611413223e-06   -1.184135437825581e-06   8.610505400449177e-06
-4.361412611413223e-06   -1.184135437825581e-06   8.610505400449177e-06
-4.361412611413223e-06   -1.184135437825581e-06   8.610505400449177e-06
-4.361412611413223e-06   -1.184135437825581e-06   8.610505400449177e-06
-3.5240540735268786e-06   -7.100726425524127e-07   6.930470160141406e-06
-3.5240540735268786e-06   -7.100726425524127e-07   6.930470160141406e-06
-3.5240540735268786e-06   -7.100726425524127e-07   6.930470160141406e-06
-3.5240540735268786e-06   -7.100726425524127e-07   6.930470160141406e-06
-4.361412611413226e-06   1.003944219162185e-07   5.885626346756269e-06
-4.361412611413226e-06   1.003944219162185e-07   5.885626346756269e-06
-4.361412611413226e-06   1.003944219162185e-07   5.885626346756269e-06
-4.361412611413226e-06   1.003944219162185e-07   5.885626346756269e-06
-2.7264851791975253e-06   -1.184135437825581e-06   7.839787484604114e-06
-2.7264851791975253e-06   -1.184135437825581e-06   7.839787484604114e-06
-2.7264851791975253e-06   -1.184135437825581e-06   7.839787484604114e-06
-2.7264851791975253e-06   -1.184135437825581e-06   7.839787484604114e-06
-2.7499286763332117e-06   -3.3213957516774455e-08   5.260865435864615e-06
-2.7499286763332117e-06   -3.3213957516774455e-08   5.260865435864615e-06
-2.7499286763332117e-06   -3.3213957516774455e-08   5.260865435864615e-06
-2.7499286763332117e-06   -3.3213957516774455e-08   5.260865435864615e-06
-4.4348550372009915e-06   -1.2067554513655145e-06   8.773200933620144e-06
-4.4348550372009915e-06   -1.2067554513655145e-06   8.773200933620144e-06
-4.4348550372009915e-06   -1.2067554513655145e-06   8.773200933620144e-06
-4.4348550372009915e-06   -1.2067554513655145e-06   8.773200933620144e-06
-3.5074455444947787e-06   -6.210024695946985e-07   6.876066656713908e-06
-3.5074455444947787e-06   -6.210024695946985e-07   6.876066656713908e-06
-3.5074455444947787e-06   -6.210024695946985e-07   6.876066656713908e-06
-3.5074455444947787e-06   -6.210024695946985e-07   6.876066656713908e-06
-4.434855037201e-06   -3.3213957516774455e-08   5.964990332173864e-06
-4.434855037201e-06   -3.3213957516774455e-08   5.964990332173864e-06
-4.434855037201e-06   -3.3213957516774455e-08   5.964990332173864e-06
-4.434855037201e-06   -3.3213957516774455e-08   5.964990332173864e-06
-2.749928676333205e-06   -1.2067554513655145e-06   8.069076037310901e-06
-2.749928676333205e-06   -1.2067554513655145e-06   8.069076037310901e-06
-2.749928676333205e-06   -1.2067554513655145e-06   8.069076037310901e-06
-2.749928676333205e-06   -1.2067554513655145e-06   8.069076037310901e-06
-2.7383628627664387e-06   -2.0611561354672188e-07   5.44597624679014e-06
-2.7383628627664387e-06   -2.0611561354672188e-07   5.44597624679014e-06
-2.7383628627664387e-06   -2.0611561354672188e-07   5.44597624679014e-06
-2.7383628627664387e-06   -2.0611561354672188e-07   5.44597624679014e-06
-4.401254847097305e-06   -1.2058723942348138e-06   8.817316955754412e-06
-4.401254847097305e-06   -1.2058723942348138e-06   8.817316955754412e-06
-4.401254847097305e-06   -1.2058723942348138e-06   8.817316955754412e-06
-4.401254847097305e-06   -1.2058723942348138e-06   8.817316955754412e-06
-3.537291244183126e-06   -6.891701505753849e-07   7.067356271368478e-06
-3.537291244183126e-06   -6.891701505753849e-07   7.067356271368478e-06
-3.537291244183126e-06   -6.891701505753849e-07   7.067356271368478e-06
-3.537291244183126e-06   -6.891701505753849e-07   7.067356271368478e-06
-2.7120554052381676e-06   6.329867675917674e-08   5.667759976307591e-06
-2.7120554052381676e-06   6.329867675917674e-08   5.667759976307591e-06
-2.7120554052381676e-06   6.329867675917674e-08   5.667759976307591e-06
-2.7120554052381676e-06   6.329867675917674e-08   5.667759976307591e-06
-2.041016115590202e-06   -1.1190603240201802e-06   6.076743391919922e-06
-2.041016115590202e-06   -1.1190603240201802e-06   6.076743391919922e-06
-2.041016115590202e-06   -1.1190603240201802e-06   6.076743391919922e-06
-2.041016115590202e-06   -1.1190603240201802e-06   6.076743391919922e-06
-2.0330098633992267e-06   -3.450470011592149e-08   4.999961287739077e-06
-2.0330098633992267e-06   -3.450470011592149e-08   4.999961287739077e-06
-2.0330098633992267e-06   -3.450470011592149e-08   4.999961287739077e-06
-2.0330098633992267e-06   -3.450470011592149e-08   4.999961287739077e-06
-2.7264851791975253e-06   -1.0991064186030667e-06   6.794514511828612e-06
-2.7264851791975253e-06   -1.0991064186030667e-06   6.794514511828612e-06
-2.7264851791975253e-06   -1.0991064186030667e-06   6.794514511828612e-06
-2.7264851791975253e-06   -1.0991064186030667e-06   6.794514511828612e-06
-2.3650768938793747e-06   -5.628123089279255e-07   5.8703909038266655e-06
-2.3650768938793747e-06   -5.628123089279255e-07   5.8703909038266655e-06
-2.3650768938793747e-06   -5.628123089279255e-07   5.8703909038266655e-06
-2.3650768938793747e-06   -5.628123089279255e-07   5.8703909038266655e-06
-2.7264851791975253e-06   -3.450470011592149e-08   5.638722318831391e-06
-2.7264851791975253e-06   -3.450470011592149e-08   5.638722318831391e-06
-2.7264851791975253e-06   -3.450470011592149e-08   5.638722318831391e-06
-2.7264851791975253e-06   -3.450470011592149e-08   5.638722318831391e-06
-2.0330098633992267e-06   -1.0991064186030667e-06   6.1557534807363455e-06
-2.0330098633992267e-06   -1.0991064186030667e-06   6.1557534807363455e-06
-2.0330098633992267e-06   -1.0991064186030667e-06   6.1557534807363455e-06
-2.0330098633992267e-06   -1.0991064186030667e-06   6.1557534807363455e-06
-2.02958975654799e-06   -1.5141818286048387e-07   5.1151192710103665e-06
-2.02958975654799e-06   -1.5141818286048387e-07   5.1151192710103665e-06
-2.02958975654799e-06   -1.5141818286048387e-07   5.1151192710103665e-06
-2.02958975654799e-06   -1.5141818286048387e-07   5.1151192710103665e-06
-2.749928676333205e-06   -1.1302222599479385e-06   6.902966583571479e-06
-2.749928676333205e-06   -1.1302222599479385e-06   6.902966583571479e-06
-2.749928676333205e-06   -1.1302222599479385e-06   6.902966583571479e-06
-2.749928676333205e-06   -1.1302222599479385e-06   6.902966583571479e-06
-2.3544956504509207e-06   -5.94691251955444e-07   5.922592935638727e-06
-2.3544956504509207e-06   -5.94691251955444e-07   5.922592935638727e-06
-2.3544956504509207e-06   -5.94691251955444e-07   5.922592935638727e-06
-2.3544956504509207e-06   -5.94691251955444e-07   5.922592935638727e-06
-2.749928676333205e-06   -1.5141818286048387e-07   5.702401717262842e-06
-2.749928676333205e-06   -1.5141818286048387e-07   5.702401717262842e-06
-2.749928676333205e-06   -1.5141818286048387e-07   5.702401717262842e-06
-2.749928676333205e-06   -1.5141818286048387e-07   5.702401717262842e-06
-2.0295897565480038e-06   -1.130222259947925e-06   6.315684137319031e-06
-2.0295897565480038e-06   -1.130222259947925e-06   6.315684137319031e-06
-2.0295897565480038e-06   -1.130222259947925e-06   6.315684137319031e-06
-2.0295897565480038e-06   -1.130222259947925e-06   6.315684137319031e-06
-2.004156292251632e-06   -2.6713143842332617e-07   5.295024531461114e-06
-2.004156292251632e-06   -2.6713143842332617e-07   5.295024531461114e-06
-2.004156292251632e-06   -2.6713143842332617e-07   5.295024531461114e-06
-2.004156292251632e-06   -2.6713143842332617e-07   5.295024531461114e-06
-2.7383628627664387e-06   -1.1703060627048744e-06   7.0606069235546435e-06
-2.7383628627664387e-06   -1.1703060627048744e-06   7.0606069235546435e-06
-2.7383628627664387e-06   -1.1703060627048744e-06   7.0606069235546435e-06
-2.7383628627664387e-06   -1.1703060627048744e-06   7.0606069235546435e-06
-2.3428997451393406e-06   -6.435967409019322e-07   6.0854761344277496e-06
-2.3428997451393406e-06   -6.435967409019322e-07   6.0854761344277496e-06
-2.3428997451393406e-06   -6.435967409019322e-07   6.0854761344277496e-06
-2.3428997451393406e-06   -6.435967409019322e-07   6.0854761344277496e-06
-2.041016115590202e-06   2.97539436972861e-07   3.9079995401043055e-06
-2.041016115590202e-06   2.97539436972861e-07   3.9079995401043055e-06
-2.041016115590202e-06   2.97539436972861e-07   3.9079995401043055e-06
-2.041016115590202e-06   2.97539436972861e-07   3.9079995401043055e-06
-1.7555095792394135e-06   -4.6380691837303375e-07   3.927035954148097e-06
-1.7555095792394135e-06   -4.6380691837303375e-07   3.927035954148097e-06
-1.7555095792394135e-06   -4.6380691837303375e-07   3.927035954148097e-06
-1.7555095792394135e-06   -4.6380691837303375e-07   3.927035954148097e-06
-1.7295793707896624e-06   1.6776806850766677e-07   3.530213772988015e-06
-1.7295793707896624e-06   1.6776806850766677e-07   3.530213772988015e-06
-1.7295793707896624e-06   1.6776806850766677e-07   3.530213772988015e-06
-1.7295793707896624e-06   1.6776806850766677e-07   3.530213772988015e-06
-2.0330098633992267e-06   -5.386069407949595e-07   4.4597562662522375e-06
-2.0330098633992267e-06   -5.386069407949595e-07   4.4597562662522375e-06
-2.0330098633992267e-06   -5.386069407949595e-07   4.4597562662522375e-06
-2.0330098633992267e-06   -5.386069407949595e-07   4.4597562662522375e-06
-1.8765152447807742e-06   -1.0656354877089684e-07   3.939705866673791e-06
-1.8765152447807742e-06   -1.0656354877089684e-07   3.939705866673791e-06
-1.8765152447807742e-06   -1.0656354877089684e-07   3.939705866673791e-06
-1.8765152447807742e-06   -1.0656354877089684e-07   3.939705866673791e-06
-2.0330098633992267e-06   1.6776806850766677e-07   3.954038778569585e-06
-2.0330098633992267e-06   1.6776806850766677e-07   3.954038778569585e-06
-2.0330098633992267e-06   1.6776806850766677e-07   3.954038778569585e-06
-2.0330098633992267e-06   1.6776806850766677e-07   3.954038778569585e-06
-1.7295793707896624e-06   -5.386069407949595e-07   4.035931260670667e-06
-1.7295793707896624e-06   -5.386069407949595e-07   4.035931260670667e-06
-1.7295793707896624e-06   -5.386069407949595e-07   4.035931260670667e-06
-1.7295793707896624e-06   -5.386069407949595e-07   4.035931260670667e-06
-1.7247334168989076e-06   5.613437396997326e-08   3.693857399598104e-06
-1.7247334168989076e-06   5.613437396997326e-08   3.693857399598104e-06
-1.7247334168989076e-06   5.613437396997326e-08   3.693857399598104e-06
-1.7247334168989076e-06   5.613437396997326e-08   3.693857399598104e-06
-2.02958975654799e-06   -5.967339569002534e-07   4.593672297535352e-06
-2.02958975654799e-06   -5.967339569002534e-07   4.593672297535352e-06
-2.02958975654799e-06   -5.967339569002534e-07   4.593672297535352e-06
-2.02958975654799e-06   -5.967339569002534e-07   4.593672297535352e-06
-1.8504153318433982e-06   -1.8391189541996878e-07   4.047355019472693e-06
-1.8504153318433982e-06   -1.8391189541996878e-07   4.047355019472693e-06
-1.8504153318433982e-06   -1.8391189541996878e-07   4.047355019472693e-06
-1.8504153318433982e-06   -1.8391189541996878e-07   4.047355019472693e-06
-2.02958975654799e-06   5.613437396997326e-08   4.08557839812021e-06
-2.02958975654799e-06   5.613437396997326e-08   4.08557839812021e-06
-2.02958975654799e-06   5.613437396997326e-08   4.08557839812021e-06
-2.02958975654799e-06   5.613437396997326e-08   4.08557839812021e-06
-1.7247334168989076e-06   -5.967339569002534e-07   4.201951299013219e-06
-1.7247334168989076e-06   -5.967339569002534e-07   4.201951299013219e-06
-1.7247334168989076e-06   -5.967339569002534e-07   4.201951299013219e-06
-1.7247334168989076e-06   -5.967339569002534e-07   4.201951299013219e-06
-1.7092536641075346e-06   -5.673566175052572e-08   3.899326504752079e-06
-1.7092536641075346e-06   -5.673566175052572e-08   3.899326504752079e-06
-1.7092536641075346e-06   -5.673566175052572e-08   3.899326504752079e-06
-1.7092536641075346e-06   -5.673566175052572e-08   3.899326504752079e-06
-2.004156292251632e-06   -6.718835392768375e-07   4.759919611507983e-06
-2.004156292251632e-06   -6.718835392768375e-07   4.759919611507983e-06
-2.004156292251632e-06   -6.718835392768375e-07   4.759919611507983e-06
-2.004156292251632e-06   -6.718835392768375e-07   4.759919611507983e-06
-1.8343994993655715e-06   -2.527944743697117e-07   4.225538184420377e-06
-1.8343994993655715e-06   -2.527944743697117e-07   4.225538184420377e-06
-1.8343994993655715e-06   -2.527944743697117e-07   4.225538184420377e-06
-1.8343994993655715e-06   -2.527944743697117e-07   4.225538184420377e-06
-1.7555095792394135e-06   5.019379865733419e-07   9.745821559992368e-07
-1.7555095792394135e-06   5.019379865733419e-07   9.745821559992368e-07
-1.7555095792394135e-06   5.019379865733419e-07   9.745821559992368e-07
-1.7555095792394135e-06   5.019379865733419e-07   9.745821559992368e-07
-1.0985758068408696e-06   -4.442126731443654e-08   1.741656224330825e-06
-1.0985758068408696e-06   -4.442126731443654e-08   1.741656224330825e-06
-1.0985758068408696e-06   -4.442126731443654e-08   1.741656224330825e-06
-1.0985758068408696e-06   -4.442126731443654e-08   1.741656224330825e-06
-1.170220167752943e-06   4.086377679521922e-07   9.871157275737736e-07
-1.170220167752943e-06   4.086377679521922e-07   9.871157275737736e-07
-1.170220167752943e-06   4.086377679521922e-07   9.871157275737736e-07
-1.170220167752943e-06   4.086377679521922e-07   9.871157275737736e-07
-1.7295793707896624e-06   -6.506595117124832e-08   2.2036032974424315e-06
-1.7295793707896624e-06   -6.506595117124832e-08   2.2036032974424315e-06
-1.7295793707896624e-06   -6.506595117124832e-08   2.2036032974424315e-06
-1.7295793707896624e-06   -6.506595117124832e-08   2.2036032974424315e-06
-1.3887622479998209e-06   2.5989189386284024e-07   1.4406000524389841e-06
-1.3887622479998209e-06   2.5989189386284024e-07   1.4406000524389841e-06
-1.3887622479998209e-06   2.5989189386284024e-07   1.4406000524389841e-06
-1.3887622479998209e-06   2.5989189386284024e-07   1.4406000524389841e-06
-1.7295793707896624e-06   4.0863776795216507e-07   1.2713379590477593e-06
-1.7295793707896624e-06   4.0863776795216507e-07   1.2713379590477593e-06
-1.7295793707896624e-06   4.0863776795216507e-07   1.2713379590477593e-06
-1.7295793707896624e-06   4.0863776795216507e-07   1.2713379590477593e-06
-1.170220167752916e-06   -6.506595117124832e-08   1.9193810659683645e-06
-1.170220167752916e-06   -6.506595117124832e-08   1.9193810659683645e-06
-1.170220167752916e-06   -6.506595117124832e-08   1.9193810659683645e-06
-1.170220167752916e-06   -6.506595117124832e-08   1.9193810659683645e-06
-1.2305462163300738e-06   3.479987535634022e-07   1.257985290338689e-06
-1.2305462163300738e-06   3.479987535634022e-07   1.257985290338689e-06
-1.2305462163300738e-06   3.479987535634022e-07   1.257985290338689e-06
-1.2305462163300738e-06   3.479987535634022e-07   1.257985290338689e-06
-1.7247334168989076e-06   -9.197316192419646e-08   2.3456137739125593e-06
-1.7247334168989076e-06   -9.197316192419646e-08   2.3456137739125593e-06
-1.7247334168989076e-06   -9.197316192419646e-08   2.3456137739125593e-06
-1.7247334168989076e-06   -9.197316192419646e-08   2.3456137739125593e-06
-1.4255104290621567e-06   2.1565669100650185e-07   1.6623308824260984e-06
-1.4255104290621567e-06   2.1565669100650185e-07   1.6623308824260984e-06
-1.4255104290621567e-06   2.1565669100650185e-07   1.6623308824260984e-06
-1.4255104290621567e-06   2.1565669100650185e-07   1.6623308824260984e-06
-1.7247334168989076e-06   3.479987535633751e-07   1.5219684396312102e-06
-1.7247334168989076e-06   3.479987535633751e-07   1.5219684396312102e-06
-1.7247334168989076e-06   3.479987535633751e-07   1.5219684396312102e-06
-1.7247334168989076e-06   3.479987535633751e-07   1.5219684396312102e-06
-1.2305462163300738e-06   -9.19731619241829e-08   2.0816306246200245e-06
-1.2305462163300738e-06   -9.19731619241829e-08   2.0816306246200245e-06
-1.2305462163300738e-06   -9.19731619241829e-08   2.0816306246200245e-06
-1.2305462163300738e-06   -9.19731619241829e-08   2.0816306246200245e-06
-1.3588076641789953e-06   2.2177336152012436e-07   1.7433791962349725e-06
-1.3588076641789953e-06   2.2177336152012436e-07   1.7433791962349725e-06
-1.3588076641789953e-06   2.2177336152012436e-07   1.7433791962349725e-06
-1.3588076641789953e-06   2.2177336152012436e-07   1.7433791962349725e-06
-1.7092536641075346e-06   -1.2815401149157137e-07   2.5374122865895455e-06
-1.7092536641075346e-06   -1.2815401149157137e-07   2.5374122865895455e-06
-1.7092536641075346e-06   -1.2815401149157137e-07   2.5374122865895455e-06
-1.7092536641075346e-06   -1.2815401149157137e-07   2.5374122865895455e-06
-1.4389789069997535e-06   1.838627059915594e-07   1.899744327586711e-06
-1.4389789069997535e-06   1.838627059915594e-07   1.899744327586711e-06
-1.4389789069997535e-06   1.838627059915594e-07   1.899744327586711e-06
-1.4389789069997535e-06   1.838627059915594e-07   1.899744327586711e-06
-1.528716769255977e-05   1.1552625693665703e-06   7.06640187052773e-06
-1.528716769255977e-05   1.1552625693665703e-06   7.06640187052773e-06
-1.528716769255977e-05   1.1552625693665703e-06   7.06640187052773e-06
-1.528716769255977e-05   1.1552625693665703e-06   7.06640187052773e-06
-3.53447580385725e-06   -8.102002599844476e-06   2.1099862583505324e-05
-3.53447580385725e-06   -8.102002599844476e-06   2.1099862583505324e-05
-3.53447580385725e-06   -8.102002599844476e-06   2.1099862583505324e-05
-3.53447580385725e-06   -8.102002599844476e-06   2.1099862583505324e-05
-4.189193386282858e-06   4.2876816082003096e-07   3.8271431352320155e-06
-4.189193386282858e-06   4.2876816082003096e-07   3.8271431352320155e-06
-4.189193386282858e-06   4.2876816082003096e-07   3.8271431352320155e-06
-4.189193386282858e-06   4.2876816082003096e-07   3.8271431352320155e-06
-1.3942755335518119e-05   -6.392715954260002e-06   2.417597018633877e-05
-1.3942755335518119e-05   -6.392715954260002e-06   2.417597018633877e-05
-1.3942755335518119e-05   -6.392715954260002e-06   2.417597018633877e-05
-1.3942755335518119e-05   -6.392715954260002e-06   2.417597018633877e-05
-9.280618207890803e-06   -3.178373390793432e-06   1.4477136102213301e-05
-9.280618207890803e-06   -3.178373390793432e-06   1.4477136102213301e-05
-9.280618207890803e-06   -3.178373390793432e-06   1.4477136102213301e-05
-9.280618207890803e-06   -3.178373390793432e-06   1.4477136102213301e-05
-1.3942755335518094e-05   4.2876816082003096e-07   7.920033604280029e-06
-1.3942755335518094e-05   4.2876816082003096e-07   7.920033604280029e-06
-1.3942755335518094e-05   4.2876816082003096e-07   7.920033604280029e-06
-1.3942755335518094e-05   4.2876816082003096e-07   7.920033604280029e-06
-4.189193386282865e-06   -6.392715954260002e-06   2.0083079717290742e-05
-4.189193386282865e-06   -6.392715954260002e-06   2.0083079717290742e-05
-4.189193386282865e-06   -6.392715954260002e-06   2.0083079717290742e-05
-4.189193386282865e-06   -6.392715954260002e-06   2.0083079717290742e-05
-4.3042238073776885e-06   2.9374686424088177e-07   4.209234367613007e-06
-4.3042238073776885e-06   2.9374686424088177e-07   4.209234367613007e-06
-4.3042238073776885e-06   2.9374686424088177e-07   4.209234367613007e-06
-4.3042238073776885e-06   2.9374686424088177e-07   4.209234367613007e-06
-1.3159851789770178e-05   -5.581818500662814e-06   2.249395355720934e-05
-1.3159851789770178e-05   -5.581818500662814e-06   2.249395355720934e-05
-1.3159851789770178e-05   -5.581818500662814e-06   2.249395355720934e-05
-1.3159851789770178e-05   -5.581818500662814e-06   2.249395355720934e-05
-9.019008200468282e-06   -3.0213012151909704e-06   1.405623720375642e-05
-9.019008200468282e-06   -3.0213012151909704e-06   1.405623720375642e-05
-9.019008200468282e-06   -3.0213012151909704e-06   1.405623720375642e-05
-9.019008200468282e-06   -3.0213012151909704e-06   1.405623720375642e-05
-1.3159851789770156e-05   2.9374686424088177e-07   7.734573586555217e-06
-1.3159851789770156e-05   2.9374686424088177e-07   7.734573586555217e-06
-1.3159851789770156e-05   2.9374686424088177e-07   7.734573586555217e-06
-1.3159851789770156e-05   2.9374686424088177e-07   7.734573586555217e-06
-4.304223807377695e-06   -5.581818500662814e-06   1.8968614338267122e-05
-4.304223807377695e-06   -5.581818500662814e-06   1.8968614338267122e-05
-4.304223807377695e-06   -5.581818500662814e-06   1.8968614338267122e-05
-4.304223807377695e-06   -5.581818500662814e-06   1.8968614338267122e-05
-4.756231743590836e-06   -2.8867901372435154e-07   5.251964431850117e-06
-4.756231743590836e-06   -2.8867901372435154e-07   5.251964431850117e-06
-4.756231743590836e-06   -2.8867901372435154e-07   5.251964431850117e-06
-4.756231743590836e-06   -2.8867901372435154e-07   5.251964431850117e-06
-1.2149500076968843e-05   -4.496787058240168e-06   2.009894314752292e-05
-1.2149500076968843e-05   -4.496787058240168e-06   2.009894314752292e-05
-1.2149500076968843e-05   -4.496787058240168e-06   2.009894314752292e-05
-1.2149500076968843e-05   -4.496787058240168e-06   2.009894314752292e-05
-8.696274829325626e-06   -2.7934374185372893e-06   1.3321557950962515e-05
-8.696274829325626e-06   -2.7934374185372893e-06   1.3321557950962515e-05
-8.696274829325626e-06   -2.7934374185372893e-06   1.3321557950962515e-05
-8.696274829325626e-06   -2.7934374185372893e-06   1.3321557950962515e-05
-3.534475803857245e-06   -1.4307228310091099e-06   4.111942485383034e-06
-3.534475803857245e-06   -1.4307228310091099e-06   4.111942485383034e-06
-3.534475803857245e-06   -1.4307228310091099e-06   4.111942485383034e-06
-3.534475803857245e-06   -1.4307228310091099e-06   4.111942485383034e-06
-1.2138346301313822e-06   -2.6861574659788118e-06   7.22641699394433e-06
-1.2138346301313822e-06   -2.6861574659788118e-06   7.22641699394433e-06
-1.2138346301313822e-06   -2.6861574659788118e-06   7.22641699394433e-06
-1.2138346301313822e-06   -2.6861574659788118e-06   7.22641699394433e-06
-1.3798593398134618e-06   -1.1841354378255674e-06   3.5615199004720408e-06
-1.3798593398134618e-06   -1.1841354378255674e-06   3.5615199004720408e-06
-1.3798593398134618e-06   -1.1841354378255674e-06   3.5615199004720408e-06
-1.3798593398134618e-06   -1.1841354378255674e-06   3.5615199004720408e-06
-4.189193386282865e-06   -3.4884381523304943e-06   9.626324939957312e-06
-4.189193386282865e-06   -3.4884381523304943e-06   9.626324939957312e-06
-4.189193386282865e-06   -3.4884381523304943e-06   9.626324939957312e-06
-4.189193386282865e-06   -3.4884381523304943e-06   9.626324939957312e-06
-2.4444876370365334e-06   -1.8013366629510285e-06   5.7062211309190594e-06
-2.4444876370365334e-06   -1.8013366629510285e-06   5.7062211309190594e-06
-2.4444876370365334e-06   -1.8013366629510285e-06   5.7062211309190594e-06
-2.4444876370365334e-06   -1.8013366629510285e-06   5.7062211309190594e-06
-4.189193386282853e-06   -1.1841354378255674e-06   4.944101529174945e-06
-4.189193386282853e-06   -1.1841354378255674e-06   4.944101529174945e-06
-4.189193386282853e-06   -1.1841354378255674e-06   4.944101529174945e-06
-4.189193386282853e-06   -1.1841354378255674e-06   4.944101529174945e-06
-1.379859339813455e-06   -3.4884381523304943e-06   8.243743311254367e-06
-1.379859339813455e-06   -3.4884381523304943e-06   8.243743311254367e-06
-1.379859339813455e-06   -3.4884381523304943e-06   8.243743311254367e-06
-1.379859339813455e-06   -3.4884381523304943e-06   8.243743311254367e-06
-1.5239350479901456e-06   -1.206755451365528e-06   4.007536751905784e-06
-1.5239350479901456e-06   -1.206755451365528e-06   4.007536751905784e-06
-1.5239350479901456e-06   -1.206755451365528e-06   4.007536751905784e-06
-1.5239350479901456e-06   -1.206755451365528e-06   4.007536751905784e-06
-4.304223807377695e-06   -3.2308665381428913e-06   9.855818002951409e-06
-4.304223807377695e-06   -3.2308665381428913e-06   9.855818002951409e-06
-4.304223807377695e-06   -3.2308665381428913e-06   9.855818002951409e-06
-4.304223807377695e-06   -3.2308665381428913e-06   9.855818002951409e-06
-2.7833396534320146e-06   -2.1793176581656415e-06   6.690081751722307e-06
-2.7833396534320146e-06   -2.1793176581656415e-06   6.690081751722307e-06
-2.7833396534320146e-06   -2.1793176581656415e-06   6.690081751722307e-06
-2.7833396534320146e-06   -2.1793176581656415e-06   6.690081751722307e-06
-4.3042238073776885e-06   -1.206755451365528e-06   5.222003403972191e-06
-4.3042238073776885e-06   -1.206755451365528e-06   5.222003403972191e-06
-4.3042238073776885e-06   -1.206755451365528e-06   5.222003403972191e-06
-4.3042238073776885e-06   -1.206755451365528e-06   5.222003403972191e-06
-1.5239350479901456e-06   -3.2308665381428913e-06   8.641351350884992e-06
-1.5239350479901456e-06   -3.2308665381428913e-06   8.641351350884992e-06
-1.5239350479901456e-06   -3.2308665381428913e-06   8.641351350884992e-06
-1.5239350479901456e-06   -3.2308665381428913e-06   8.641351350884992e-06
-1.7622938194526084e-06   -1.2058723942348274e-06   4.404899247146778e-06
-1.7622938194526084e-06   -1.2058723942348274e-06   4.404899247146778e-06
-1.7622938194526084e-06   -1.2058723942348274e-06   4.404899247146778e-06
-1.7622938194526084e-06   -1.2058723942348274e-06   4.404899247146778e-06
-4.756231743590839e-06   -3.064115985879403e-06   1.0509741942363864e-05
-4.756231743590839e-06   -3.064115985879403e-06   1.0509741942363864e-05
-4.756231743590839e-06   -3.064115985879403e-06   1.0509741942363864e-05
-4.756231743590839e-06   -3.064115985879403e-06   1.0509741942363864e-05
-2.994958295883016e-06   -1.993624379966166e-06   6.931991232636233e-06
-2.994958295883016e-06   -1.993624379966166e-06   6.931991232636233e-06
-2.994958295883016e-06   -1.993624379966166e-06   6.931991232636233e-06
-2.994958295883016e-06   -1.993624379966166e-06   6.931991232636233e-06
-1.2138346301313822e-06   -1.1190603240201802e-06   2.2934293359068124e-06
-1.2138346301313822e-06   -1.1190603240201802e-06   2.2934293359068124e-06
-1.2138346301313822e-06   -1.1190603240201802e-06   2.2934293359068124e-06
-1.2138346301313822e-06   -1.1190603240201802e-06   2.2934293359068124e-06
-6.879752008910438e-07   -8.491736153765815e-07   3.3317937431602145e-06
-6.879752008910438e-07   -8.491736153765815e-07   3.3317937431602145e-06
-6.879752008910438e-07   -8.491736153765815e-07   3.3317937431602145e-06
-6.879752008910438e-07   -8.491736153765815e-07   3.3317937431602145e-06
-6.736907637116369e-07   -1.0991064186030667e-06   2.5282412028804365e-06
-6.736907637116369e-07   -1.0991064186030667e-06   2.5282412028804365e-06
-6.736907637116369e-07   -1.0991064186030667e-06   2.5282412028804365e-06
-6.736907637116369e-07   -1.0991064186030667e-06   2.5282412028804365e-06
-1.379859339813455e-06   -1.079115959963309e-06   3.693194554532905e-06
-1.379859339813455e-06   -1.079115959963309e-06   3.693194554532905e-06
-1.379859339813455e-06   -1.079115959963309e-06   3.693194554532905e-06
-1.379859339813455e-06   -1.079115959963309e-06   3.693194554532905e-06
-9.250889434070172e-07   -9.652783530405767e-07   2.866941329701805e-06
-9.250889434070172e-07   -9.652783530405767e-07   2.866941329701805e-06
-9.250889434070172e-07   -9.652783530405767e-07   2.866941329701805e-06
-9.250889434070172e-07   -9.652783530405767e-07   2.866941329701805e-06
-1.379859339813455e-06   -1.0991064186030667e-06   2.516246927696573e-06
-1.379859339813455e-06   -1.0991064186030667e-06   2.516246927696573e-06
-1.379859339813455e-06   -1.0991064186030667e-06   2.516246927696573e-06
-1.379859339813455e-06   -1.0991064186030667e-06   2.516246927696573e-06
-6.736907637116369e-07   -1.079115959963309e-06   3.705188829716748e-06
-6.736907637116369e-07   -1.079115959963309e-06   3.705188829716748e-06
-6.736907637116369e-07   -1.079115959963309e-06   3.705188829716748e-06
-6.736907637116369e-07   -1.079115959963309e-06   3.705188829716748e-06
-6.876296156108839e-07   -1.130222259947925e-06   2.7115348802266937e-06
-6.876296156108839e-07   -1.130222259947925e-06   2.7115348802266937e-06
-6.876296156108839e-07   -1.130222259947925e-06   2.7115348802266937e-06
-6.876296156108839e-07   -1.130222259947925e-06   2.7115348802266937e-06
-1.5239350479901456e-06   -1.3467096231807382e-06   4.235269685465111e-06
-1.5239350479901456e-06   -1.3467096231807382e-06   4.235269685465111e-06
-1.5239350479901456e-06   -1.3467096231807382e-06   4.235269685465111e-06
-1.5239350479901456e-06   -1.3467096231807382e-06   4.235269685465111e-06
-9.967708582968811e-07   -1.0546288772095514e-06   3.1814142550602633e-06
-9.967708582968811e-07   -1.0546288772095514e-06   3.1814142550602633e-06
-9.967708582968811e-07   -1.0546288772095514e-06   3.1814142550602633e-06
-9.967708582968811e-07   -1.0546288772095514e-06   3.1814142550602633e-06
-1.5239350479901456e-06   -1.130222259947925e-06   2.8414272981663684e-06
-1.5239350479901456e-06   -1.130222259947925e-06   2.8414272981663684e-06
-1.5239350479901456e-06   -1.130222259947925e-06   2.8414272981663684e-06
-1.5239350479901456e-06   -1.130222259947925e-06   2.8414272981663684e-06
-6.876296156108839e-07   -1.3467096231807382e-06   4.1053772675254225e-06
-6.876296156108839e-07   -1.3467096231807382e-06   4.1053772675254225e-06
-6.876296156108839e-07   -1.3467096231807382e-06   4.1053772675254225e-06
-6.876296156108839e-07   -1.3467096231807382e-06   4.1053772675254225e-06
-7.211971447890415e-07   -1.1703060627048744e-06   2.990771628296195e-06
-7.211971447890415e-07   -1.1703060627048744e-06   2.990771628296195e-06
-7.211971447890415e-07   -1.1703060627048744e-06   2.990771628296195e-06
-7.211971447890415e-07   -1.1703060627048744e-06   2.990771628296195e-06
-1.7622938194526084e-06   -1.5990921544776577e-06   4.983204407799107e-06
-1.7622938194526084e-06   -1.5990921544776577e-06   4.983204407799107e-06
-1.7622938194526084e-06   -1.5990921544776577e-06   4.983204407799107e-06
-1.7622938194526084e-06   -1.5990921544776577e-06   4.983204407799107e-06
-1.0814895318717197e-06   -1.139912120990117e-06   3.5730225750717638e-06
-1.0814895318717197e-06   -1.139912120990117e-06   3.5730225750717638e-06
-1.0814895318717197e-06   -1.139912120990117e-06   3.5730225750717638e-06
-1.0814895318717197e-06   -1.139912120990117e-06   3.5730225750717638e-06
-6.879752008910438e-07   -4.6380691837303375e-07   7.624617365286816e-07
-6.879752008910438e-07   -4.6380691837303375e-07   7.624617365286816e-07
-6.879752008910438e-07   -4.6380691837303375e-07   7.624617365286816e-07
-6.879752008910438e-07   -4.6380691837303375e-07   7.624617365286816e-07
-5.352094061628819e-07   3.34090488639975e-08   1.3154009747511747e-06
-5.352094061628819e-07   3.34090488639975e-08   1.3154009747511747e-06
-5.352094061628819e-07   3.34090488639975e-08   1.3154009747511747e-06
-5.352094061628819e-07   3.34090488639975e-08   1.3154009747511747e-06
-4.4374620373230454e-07   -5.386069407949595e-07   1.1207304875448458e-06
-4.4374620373230454e-07   -5.386069407949595e-07   1.1207304875448458e-06
-4.4374620373230454e-07   -5.386069407949595e-07   1.1207304875448458e-06
-4.4374620373230454e-07   -5.386069407949595e-07   1.1207304875448458e-06
-6.736907637116369e-07   -5.779610888074948e-08   1.2154849216951594e-06
-6.736907637116369e-07   -5.779610888074948e-08   1.2154849216951594e-06
-6.736907637116369e-07   -5.779610888074948e-08   1.2154849216951594e-06
-6.736907637116369e-07   -5.779610888074948e-08   1.2154849216951594e-06
-5.481162257731282e-07   -2.519398496776451e-07   1.1226802696090562e-06
-5.481162257731282e-07   -2.519398496776451e-07   1.1226802696090562e-06
-5.481162257731282e-07   -2.519398496776451e-07   1.1226802696090562e-06
-5.481162257731282e-07   -2.519398496776451e-07   1.1226802696090562e-06
-6.736907637116369e-07   -5.386069407949595e-07   8.32243988396315e-07
-6.736907637116369e-07   -5.386069407949595e-07   8.32243988396315e-07
-6.736907637116369e-07   -5.386069407949595e-07   8.32243988396315e-07
-6.736907637116369e-07   -5.386069407949595e-07   8.32243988396315e-07
-4.4374620373230454e-07   -5.779610888074948e-08   1.503971420843697e-06
-4.4374620373230454e-07   -5.779610888074948e-08   1.503971420843697e-06
-4.4374620373230454e-07   -5.779610888074948e-08   1.503971420843697e-06
-4.4374620373230454e-07   -5.779610888074948e-08   1.503971420843697e-06
-3.981468122391424e-07   -5.967339569002669e-07   1.2323140013564013e-06
-3.981468122391424e-07   -5.967339569002669e-07   1.2323140013564013e-06
-3.981468122391424e-07   -5.967339569002669e-07   1.2323140013564013e-06
-3.981468122391424e-07   -5.967339569002669e-07   1.2323140013564013e-06
-6.876296156108839e-07   -1.920823553779502e-07   1.4719943793959224e-06
-6.876296156108839e-07   -1.920823553779502e-07   1.4719943793959224e-06
-6.876296156108839e-07   -1.920823553779502e-07   1.4719943793959224e-06
-6.876296156108839e-07   -1.920823553779502e-07   1.4719943793959224e-06
-5.067495561499616e-07   -3.153044153403876e-07   1.244460849605158e-06
-5.067495561499616e-07   -3.153044153403876e-07   1.244460849605158e-06
-5.067495561499616e-07   -3.153044153403876e-07   1.244460849605158e-06
-5.067495561499616e-07   -3.153044153403876e-07   1.244460849605158e-06
-6.876296156108975e-07   -5.967339569002669e-07   9.895230404429814e-07
-6.876296156108975e-07   -5.967339569002669e-07   9.895230404429814e-07
-6.876296156108975e-07   -5.967339569002669e-07   9.895230404429814e-07
-6.876296156108975e-07   -5.967339569002669e-07   9.895230404429814e-07
-3.981468122391424e-07   -1.920823553779502e-07   1.7147853403093083e-06
-3.981468122391424e-07   -1.920823553779502e-07   1.7147853403093083e-06
-3.981468122391424e-07   -1.920823553779502e-07   1.7147853403093083e-06
-3.981468122391424e-07   -1.920823553779502e-07   1.7147853403093083e-06
-3.2886477603296955e-07   -6.718835392768375e-07   1.3621216980020767e-06
-3.2886477603296955e-07   -6.718835392768375e-07   1.3621216980020767e-06
-3.2886477603296955e-07   -6.718835392768375e-07   1.3621216980020767e-06
-3.2886477603296955e-07   -6.718835392768375e-07   1.3621216980020767e-06
-7.211971447890415e-07   -4.549958606373818e-07   1.8858763720785168e-06
-7.211971447890415e-07   -4.549958606373818e-07   1.8858763720785168e-06
-7.211971447890415e-07   -4.549958606373818e-07   1.8858763720785168e-06
-7.211971447890415e-07   -4.549958606373818e-07   1.8858763720785168e-06
-4.78201840612242e-07   -4.072691868161257e-07   1.4522481941578653e-06
-4.78201840612242e-07   -4.072691868161257e-07   1.4522481941578653e-06
-4.78201840612242e-07   -4.072691868161257e-07   1.4522481941578653e-06
-4.78201840612242e-07   -4.072691868161257e-07   1.4522481941578653e-06
-5.352094061628819e-07   -4.442126731445009e-08   -7.96772860613727e-07
-5.352094061628819e-07   -4.442126731445009e-08   -7.96772860613727e-07
-5.352094061628819e-07   -4.442126731445009e-08   -7.96772860613727e-07
-5.352094061628819e-07   -4.442126731445009e-08   -7.96772860613727e-07
-1.2526077273688975e-07   6.629836674478242e-08   -4.709335780153233e-08
-1.2526077273688975e-07   6.629836674478242e-08   -4.709335780153233e-08
-1.2526077273688975e-07   6.629836674478242e-08   -4.709335780153233e-08
-1.2526077273688975e-07   6.629836674478242e-08   -4.709335780153233e-08
-3.6392920701696415e-08   -6.506595117126187e-08   -6.061896575317591e-07
-3.6392920701696415e-08   -6.506595117126187e-08   -6.061896575317591e-07
-3.6392920701696415e-08   -6.506595117126187e-08   -6.061896575317591e-07
-3.6392920701696415e-08   -6.506595117126187e-08   -6.061896575317591e-07
-4.4374620373230454e-07   1.1061374574814316e-07   -3.267533729906565e-08
-4.4374620373230454e-07   1.1061374574814316e-07   -3.267533729906565e-08
-4.4374620373230454e-07   1.1061374574814316e-07   -3.267533729906565e-08
-4.4374620373230454e-07   1.1061374574814316e-07   -3.267533729906565e-08
-2.6048582261683047e-07   3.375533550469174e-08   -2.9199425967884815e-07
-2.6048582261683047e-07   3.375533550469174e-08   -2.9199425967884815e-07
-2.6048582261683047e-07   3.375533550469174e-08   -2.9199425967884815e-07
-2.6048582261683047e-07   3.375533550469174e-08   -2.9199425967884815e-07
-4.43746203732291e-07   -6.506595117126187e-08   -7.115974756834441e-07
-4.43746203732291e-07   -6.506595117126187e-08   -7.115974756834441e-07
-4.43746203732291e-07   -6.506595117126187e-08   -7.115974756834441e-07
-4.43746203732291e-07   -6.506595117126187e-08   -7.115974756834441e-07
-3.6392920701696415e-08   1.1061374574814316e-07   7.273248085255162e-08
-3.6392920701696415e-08   1.1061374574814316e-07   7.273248085255162e-08
-3.6392920701696415e-08   1.1061374574814316e-07   7.273248085255162e-08
-3.6392920701696415e-08   1.1061374574814316e-07   7.273248085255162e-08
5.352433925709301e-09   -9.197316192419646e-08   -5.188058183814204e-07
5.352433925709301e-09   -9.197316192419646e-08   -5.188058183814204e-07
5.352433925709301e-09   -9.197316192419646e-08   -5.188058183814204e-07
5.352433925709301e-09   -9.197316192419646e-08   -5.188058183814204e-07
-3.981468122391424e-07   8.338968034719008e-08   4.847521986378264e-08
-3.981468122391424e-07   8.338968034719008e-08   4.847521986378264e-08
-3.981468122391424e-07   8.338968034719008e-08   4.847521986378264e-08
-3.981468122391424e-07   8.338968034719008e-08   4.847521986378264e-08
-1.97230521639529e-07   2.112248213808471e-08   -2.4902494554328845e-07
-1.97230521639529e-07   2.112248213808471e-08   -2.4902494554328845e-07
-1.97230521639529e-07   2.112248213808471e-08   -2.4902494554328845e-07
-1.97230521639529e-07   2.112248213808471e-08   -2.4902494554328845e-07
-3.981468122391424e-07   -9.197316192419646e-08   -6.240235237442448e-07
-3.981468122391424e-07   -9.197316192419646e-08   -6.240235237442448e-07
-3.981468122391424e-07   -9.197316192419646e-08   -6.240235237442448e-07
-3.981468122391424e-07   -9.197316192419646e-08   -6.240235237442448e-07
5.352433925709301e-09   8.338968034719008e-08   1.536929252266071e-07
5.352433925709301e-09   8.338968034719008e-08   1.536929252266071e-07
5.352433925709301e-09   8.338968034719008e-08   1.536929252266071e-07
5.352433925709301e-09   8.338968034719008e-08   1.536929252266071e-07
5.413126128028388e-08   -1.2815401149158493e-07   -3.8449180779633963e-07
5.413126128028388e-08   -1.2815401149158493e-07   -3.8449180779633963e-07
5.413126128028388e-08   -1.2815401149158493e-07   -3.8449180779633963e-07
5.413126128028388e-08   -1.2815401149158493e-07   -3.8449180779633963e-07
-3.2886477603296955e-07   4.985447618206695e-08   1.4702982845490225e-07
-3.2886477603296955e-07   4.985447618206695e-08   1.4702982845490225e-07
-3.2886477603296955e-07   4.985447618206695e-08   1.4702982845490225e-07
-3.2886477603296955e-07   4.985447618206695e-08   1.4702982845490225e-07
-1.41086742260365e-07   3.654417640201681e-09   -1.382135260410099e-07
-1.41086742260365e-07   3.654417640201681e-09   -1.382135260410099e-07
-1.41086742260365e-07   3.654417640201681e-09   -1.382135260410099e-07
-1.41086742260365e-07   3.654417640201681e-09   -1.382135260410099e-07
              </DataArray>   
             <DataArray type="Float64" NumberOfComponents="3" Name="Stress" format="ascii">   
-0.8027376327461834   -0.20068440818654584   -0.20068440818654584
-0.8027376327461834   -0.20068440818654584   -0.20068440818654584
-0.8027376327461834   -0.20068440818654584   -0.20068440818654584
-0.8027376327461834   -0.20068440818654584   -0.20068440818654584
-0.46418926130062543   -0.015439539082819614   -0.009594233512562434
-0.46418926130062543   -0.015439539082819614   -0.009594233512562434
-0.46418926130062543   -0.015439539082819614   -0.009594233512562434
-0.46418926130062543   -0.015439539082819614   -0.009594233512562434
-0.4997026411633034   -0.12492566029082584   -0.12492566029082584
-0.4997026411633034   -0.12492566029082584   -0.12492566029082584
-0.4997026411633034   -0.12492566029082584   -0.12492566029082584
-0.4997026411633034   -0.12492566029082584   -0.12492566029082584
-0.77339246418224   -0.06408951856250285   -0.024691094031181974
-0.77339246418224   -0.06408951856250285   -0.024691094031181974
-0.77339246418224   -0.06408951856250285   -0.024691094031181974
-0.77339246418224   -0.06408951856250285   -0.024691094031181974
-0.60639234739669   -0.09975667534750353   -0.0017144453396069235
-0.60639234739669   -0.09975667534750353   -0.0017144453396069235
-0.60639234739669   -0.09975667534750353   -0.0017144453396069235
-0.60639234739669   -0.09975667534750353   -0.0017144453396069235
-0.8395959351816714   -0.20989898379541785   -0.20989898379541785
-0.8395959351816714   -0.20989898379541785   -0.20989898379541785
-0.8395959351816714   -0.20989898379541785   -0.20989898379541785
-0.8395959351816714   -0.20989898379541785   -0.20989898379541785
-0.4492587821893117   0.005124192916650588   -0.0027562186283440135
-0.4492587821893117   0.005124192916650588   -0.0027562186283440135
-0.4492587821893117   0.005124192916650588   -0.0027562186283440135
-0.4492587821893117   0.005124192916650588   -0.0027562186283440135
-0.5006685636250156   -0.1251671409062539   -0.1251671409062539
-0.5006685636250156   -0.1251671409062539   -0.1251671409062539
-0.5006685636250156   -0.1251671409062539   -0.1251671409062539
-0.5006685636250156   -0.1251671409062539   -0.1251671409062539
-0.7988868142635029   -0.0645650084960568   -0.03611969619324591
-0.7988868142635029   -0.0645650084960568   -0.03611969619324591
-0.7988868142635029   -0.0645650084960568   -0.03611969619324591
-0.7988868142635029   -0.0645650084960568   -0.03611969619324591
-0.6285337517150299   -0.09376245290045408   -0.033311183359654245
-0.6285337517150299   -0.09376245290045408   -0.033311183359654245
-0.6285337517150299   -0.09376245290045408   -0.033311183359654245
-0.6285337517150299   -0.09376245290045408   -0.033311183359654245
-0.865277637028493   -0.21631940925712326   -0.21631940925712326
-0.865277637028493   -0.21631940925712326   -0.21631940925712326
-0.865277637028493   -0.21631940925712326   -0.21631940925712326
-0.865277637028493   -0.21631940925712326   -0.21631940925712326
-0.4475395728799713   0.013325427834868023   0.0019852440778452274
-0.4475395728799713   0.013325427834868023   0.0019852440778452274
-0.4475395728799713   0.013325427834868023   0.0019852440778452274
-0.4475395728799713   0.013325427834868023   0.0019852440778452274
-0.4999056473572361   -0.12497641183930902   -0.12497641183930902
-0.4999056473572361   -0.12497641183930902   -0.12497641183930902
-0.4999056473572361   -0.12497641183930902   -0.12497641183930902
-0.4999056473572361   -0.12497641183930902   -0.12497641183930902
-0.8445818922511544   -0.05631019229918577   -0.021905535184473107
-0.8445818922511544   -0.05631019229918577   -0.021905535184473107
-0.8445818922511544   -0.05631019229918577   -0.021905535184473107
-0.8445818922511544   -0.05631019229918577   -0.021905535184473107
-0.6447890100186718   -0.09216801512440165   -0.06011464510107236
-0.6447890100186718   -0.09216801512440165   -0.06011464510107236
-0.6447890100186718   -0.09216801512440165   -0.06011464510107236
-0.6447890100186718   -0.09216801512440165   -0.06011464510107236
-0.510202785312833   -0.12755069632820826   -0.12755069632820826
-0.510202785312833   -0.12755069632820826   -0.12755069632820826
-0.510202785312833   -0.12755069632820826   -0.12755069632820826
-0.510202785312833   -0.12755069632820826   -0.12755069632820826
-0.2134583659517978   -0.014685457238720875   -0.004728347994673551
-0.2134583659517978   -0.014685457238720875   -0.004728347994673551
-0.2134583659517978   -0.014685457238720875   -0.004728347994673551
-0.2134583659517978   -0.014685457238720875   -0.004728347994673551
-0.22353108486145964   -0.05588277121536491   -0.05588277121536491
-0.22353108486145964   -0.05588277121536491   -0.05588277121536491
-0.22353108486145964   -0.05588277121536491   -0.05588277121536491
-0.22353108486145964   -0.05588277121536491   -0.05588277121536491
-0.46420637289507616   -0.054883526021356   -0.017486453219159672
-0.46420637289507616   -0.054883526021356   -0.017486453219159672
-0.46420637289507616   -0.054883526021356   -0.017486453219159672
-0.46420637289507616   -0.054883526021356   -0.017486453219159672
-0.34267573855041866   -0.06508085151789897   0.0026033666579614945
-0.34267573855041866   -0.06508085151789897   0.0026033666579614945
-0.34267573855041866   -0.06508085151789897   0.0026033666579614945
-0.34267573855041866   -0.06508085151789897   0.0026033666579614945
-0.49970264116330293   -0.12492566029082573   -0.12492566029082573
-0.49970264116330293   -0.12492566029082573   -0.12492566029082573
-0.49970264116330293   -0.12492566029082573   -0.12492566029082573
-0.49970264116330293   -0.12492566029082573   -0.12492566029082573
-0.2009886045769244   0.0012055750704129606   -0.0002587160784665969
-0.2009886045769244   0.0012055750704129606   -0.0002587160784665969
-0.2009886045769244   0.0012055750704129606   -0.0002587160784665969
-0.2009886045769244   0.0012055750704129606   -0.0002587160784665969
-0.21810945627396897   -0.05452736406849224   -0.05452736406849224
-0.21810945627396897   -0.05452736406849224   -0.05452736406849224
-0.21810945627396897   -0.05452736406849224   -0.05452736406849224
-0.21810945627396897   -0.05452736406849224   -0.05452736406849224
-0.462609226238725   -0.044655374049581954   -0.015382220831473182
-0.462609226238725   -0.044655374049581954   -0.015382220831473182
-0.462609226238725   -0.044655374049581954   -0.015382220831473182
-0.462609226238725   -0.044655374049581954   -0.015382220831473182
-0.33747486495263535   -0.05469999903314143   -0.017597106496175782
-0.33747486495263535   -0.05469999903314143   -0.017597106496175782
-0.33747486495263535   -0.05469999903314143   -0.017597106496175782
-0.33747486495263535   -0.05469999903314143   -0.017597106496175782
-0.5006685636250156   -0.1251671409062539   -0.1251671409062539
-0.5006685636250156   -0.1251671409062539   -0.1251671409062539
-0.5006685636250156   -0.1251671409062539   -0.1251671409062539
-0.5006685636250156   -0.1251671409062539   -0.1251671409062539
-0.1925974795922587   0.013437042083599415   0.005068113187967365
-0.1925974795922587   0.013437042083599415   0.005068113187967365
-0.1925974795922587   0.013437042083599415   0.005068113187967365
-0.1925974795922587   0.013437042083599415   0.005068113187967365
-0.2130994035833643   -0.053274850895841074   -0.053274850895841074
-0.2130994035833643   -0.053274850895841074   -0.053274850895841074
-0.2130994035833643   -0.053274850895841074   -0.053274850895841074
-0.2130994035833643   -0.053274850895841074   -0.053274850895841074
-0.45873877465338586   -0.03433231526296773   -0.009786144896404964
-0.45873877465338586   -0.03433231526296773   -0.009786144896404964
-0.45873877465338586   -0.03433231526296773   -0.009786144896404964
-0.45873877465338586   -0.03433231526296773   -0.009786144896404964
-0.3386802279213756   -0.048283154030403286   -0.03914005935762055
-0.3386802279213756   -0.048283154030403286   -0.03914005935762055
-0.3386802279213756   -0.048283154030403286   -0.03914005935762055
-0.3386802279213756   -0.048283154030403286   -0.03914005935762055
-0.23286178322791032   -0.05821544580697758   -0.05821544580697758
-0.23286178322791032   -0.05821544580697758   -0.05821544580697758
-0.23286178322791032   -0.05821544580697758   -0.05821544580697758
-0.23286178322791032   -0.05821544580697758   -0.05821544580697758
0.026259066145690027   0.0014853498081742553   0.0002348149405367343
0.026259066145690027   0.0014853498081742553   0.0002348149405367343
0.026259066145690027   0.0014853498081742553   0.0002348149405367343
0.026259066145690027   0.0014853498081742553   0.0002348149405367343
0.034955757757540305   0.008738939439385076   0.008738939439385076
0.034955757757540305   0.008738939439385076   0.008738939439385076
0.034955757757540305   0.008738939439385076   0.008738939439385076
0.034955757757540305   0.008738939439385076   0.008738939439385076
-0.2101156486957489   -0.036304707088713695   -0.00838365451346228
-0.2101156486957489   -0.036304707088713695   -0.00838365451346228
-0.2101156486957489   -0.036304707088713695   -0.00838365451346228
-0.2101156486957489   -0.036304707088713695   -0.00838365451346228
-0.09064256805501616   -0.022965094452069235   0.015040811485319836
-0.09064256805501616   -0.022965094452069235   0.015040811485319836
-0.09064256805501616   -0.022965094452069235   0.015040811485319836
-0.09064256805501616   -0.022965094452069235   0.015040811485319836
-0.22353108486145964   -0.05588277121536491   -0.05588277121536491
-0.22353108486145964   -0.05588277121536491   -0.05588277121536491
-0.22353108486145964   -0.05588277121536491   -0.05588277121536491
-0.22353108486145964   -0.05588277121536491   -0.05588277121536491
0.035644388064615465   0.015590197707400638   0.005330832706745052
0.035644388064615465   0.015590197707400638   0.005330832706745052
0.035644388064615465   0.015590197707400638   0.005330832706745052
0.035644388064615465   0.015590197707400638   0.005330832706745052
0.03987722418138722   0.009969306045346805   0.009969306045346805
0.03987722418138722   0.009969306045346805   0.009969306045346805
0.03987722418138722   0.009969306045346805   0.009969306045346805
0.03987722418138722   0.009969306045346805   0.009969306045346805
-0.20228129125072045   -0.02429627882786264   -0.005617624192880979
-0.20228129125072045   -0.02429627882786264   -0.005617624192880979
-0.20228129125072045   -0.02429627882786264   -0.005617624192880979
-0.20228129125072045   -0.02429627882786264   -0.005617624192880979
-0.08652617444350927   -0.014132120199895456   -0.005277565487488183
-0.08652617444350927   -0.014132120199895456   -0.005277565487488183
-0.08652617444350927   -0.014132120199895456   -0.005277565487488183
-0.08652617444350927   -0.014132120199895456   -0.005277565487488183
-0.21810945627396897   -0.05452736406849224   -0.05452736406849224
-0.21810945627396897   -0.05452736406849224   -0.05452736406849224
-0.21810945627396897   -0.05452736406849224   -0.05452736406849224
-0.21810945627396897   -0.05452736406849224   -0.05452736406849224
0.04323575659798746   0.027730758679328366   0.009000515494366108
0.04323575659798746   0.027730758679328366   0.009000515494366108
0.04323575659798746   0.027730758679328366   0.009000515494366108
0.04323575659798746   0.027730758679328366   0.009000515494366108
0.046351915527221586   0.011587978881805397   0.011587978881805397
0.046351915527221586   0.011587978881805397   0.011587978881805397
0.046351915527221586   0.011587978881805397   0.011587978881805397
0.046351915527221586   0.011587978881805397   0.011587978881805397
-0.19376240013176182   -0.010010337664181163   0.00014565313051053547
-0.19376240013176182   -0.010010337664181163   0.00014565313051053547
-0.19376240013176182   -0.010010337664181163   0.00014565313051053547
-0.19376240013176182   -0.010010337664181163   0.00014565313051053547
-0.08349690749547684   -0.005616203372778666   -0.025413867424424738
-0.08349690749547684   -0.005616203372778666   -0.025413867424424738
-0.08349690749547684   -0.005616203372778666   -0.025413867424424738
-0.08349690749547684   -0.005616203372778666   -0.025413867424424738
0.02879448132883097   0.007198620332207742   0.007198620332207742
0.02879448132883097   0.007198620332207742   0.007198620332207742
0.02879448132883097   0.007198620332207742   0.007198620332207742
0.02879448132883097   0.007198620332207742   0.007198620332207742
0.2890243942775437   0.026574984327345286   0.009166924658555432
0.2890243942775437   0.026574984327345286   0.009166924658555432
0.2890243942775437   0.026574984327345286   0.009166924658555432
0.2890243942775437   0.026574984327345286   0.009166924658555432
0.31430460127289617   0.07857615031822404   0.07857615031822404
0.31430460127289617   0.07857615031822404   0.07857615031822404
0.31430460127289617   0.07857615031822404   0.07857615031822404
0.31430460127289617   0.07857615031822404   0.07857615031822404
0.02658716314497484   -0.020307048802347134   -0.0040580453817105795
0.02658716314497484   -0.020307048802347134   -0.0040580453817105795
0.02658716314497484   -0.020307048802347134   -0.0040580453817105795
0.02658716314497484   -0.020307048802347134   -0.0040580453817105795
0.16444914039577901   0.020499929327552603   0.02977283679745632
0.16444914039577901   0.020499929327552603   0.02977283679745632
0.16444914039577901   0.020499929327552603   0.02977283679745632
0.16444914039577901   0.020499929327552603   0.02977283679745632
0.03495575775754043   0.008738939439385108   0.008738939439385108
0.03495575775754043   0.008738939439385108   0.008738939439385108
0.03495575775754043   0.008738939439385108   0.008738939439385108
0.03495575775754043   0.008738939439385108   0.008738939439385108
0.2929881939015483   0.036582349317709484   0.013987914461999089
0.2929881939015483   0.036582349317709484   0.013987914461999089
0.2929881939015483   0.036582349317709484   0.013987914461999089
0.2929881939015483   0.036582349317709484   0.013987914461999089
0.3134342845643921   0.07835857114109802   0.07835857114109802
0.3134342845643921   0.07835857114109802   0.07835857114109802
0.3134342845643921   0.07835857114109802   0.07835857114109802
0.3134342845643921   0.07835857114109802   0.07835857114109802
0.034224079132190374   -0.008546537111725653   0.00021942395643472726
0.034224079132190374   -0.008546537111725653   0.00021942395643472726
0.034224079132190374   -0.008546537111725653   0.00021942395643472726
0.034224079132190374   -0.008546537111725653   0.00021942395643472726
0.163720130058743   0.027085057642196993   0.007637997427169781
0.163720130058743   0.027085057642196993   0.007637997427169781
0.163720130058743   0.027085057642196993   0.007637997427169781
0.163720130058743   0.027085057642196993   0.007637997427169781
0.03987722418138725   0.009969306045346812   0.009969306045346812
0.03987722418138725   0.009969306045346812   0.009969306045346812
0.03987722418138725   0.009969306045346812   0.009969306045346812
0.03987722418138725   0.009969306045346812   0.009969306045346812
0.2949604589309481   0.047022047399778444   0.01732596671519749
0.2949604589309481   0.047022047399778444   0.01732596671519749
0.2949604589309481   0.047022047399778444   0.01732596671519749
0.2949604589309481   0.047022047399778444   0.01732596671519749
0.31996174828737733   0.07999043707184433   0.07999043707184433
0.31996174828737733   0.07999043707184433   0.07999043707184433
0.31996174828737733   0.07999043707184433   0.07999043707184433
0.31996174828737733   0.07999043707184433   0.07999043707184433
0.044115061779903056   0.006967886860111837   0.005023802166905922
0.044115061779903056   0.006967886860111837   0.005023802166905922
0.044115061779903056   0.006967886860111837   0.005023802166905922
0.044115061779903056   0.006967886860111837   0.005023802166905922
0.1667233727209057   0.036862305141908955   -0.012883129592100136
0.1667233727209057   0.036862305141908955   -0.012883129592100136
0.1667233727209057   0.036862305141908955   -0.012883129592100136
0.1667233727209057   0.036862305141908955   -0.012883129592100136
0.31319556942262616   0.07829889235565654   0.07829889235565654
0.31319556942262616   0.07829889235565654   0.07829889235565654
0.31319556942262616   0.07829889235565654   0.07829889235565654
0.31319556942262616   0.07829889235565654   0.07829889235565654
0.65251793894487   0.04989107974864282   0.017685201456437524
0.65251793894487   0.04989107974864282   0.017685201456437524
0.65251793894487   0.04989107974864282   0.017685201456437524
0.65251793894487   0.04989107974864282   0.017685201456437524
0.6675245386539611   0.16688113466349028   0.16688113466349028
0.6675245386539611   0.16688113466349028   0.16688113466349028
0.6675245386539611   0.16688113466349028   0.16688113466349028
0.6675245386539611   0.16688113466349028   0.16688113466349028
0.2795022752764193   -0.01567236111566471   -0.0011869682302714409
0.2795022752764193   -0.01567236111566471   -0.0011869682302714409
0.2795022752764193   -0.01567236111566471   -0.0011869682302714409
0.2795022752764193   -0.01567236111566471   -0.0011869682302714409
0.4649796151283551   0.06597579322996464   0.052302039239489714
0.4649796151283551   0.06597579322996464   0.052302039239489714
0.4649796151283551   0.06597579322996464   0.052302039239489714
0.4649796151283551   0.06597579322996464   0.052302039239489714
0.3143046012728959   0.07857615031822397   0.07857615031822397
0.3143046012728959   0.07857615031822397   0.07857615031822397
0.3143046012728959   0.07857615031822397   0.07857615031822397
0.3143046012728959   0.07857615031822397   0.07857615031822397
0.6188276642098519   0.0587380747819711   0.0315398223244737
0.6188276642098519   0.0587380747819711   0.0315398223244737
0.6188276642098519   0.0587380747819711   0.0315398223244737
0.6188276642098519   0.0587380747819711   0.0315398223244737
0.648150946508391   0.16203773662709775   0.16203773662709775
0.648150946508391   0.16203773662709775   0.16203773662709775
0.648150946508391   0.16203773662709775   0.16203773662709775
0.648150946508391   0.16203773662709775   0.16203773662709775
0.2809293940765897   -0.008389162325234303   0.0025818521684185317
0.2809293940765897   -0.008389162325234303   0.0025818521684185317
0.2809293940765897   -0.008389162325234303   0.0025818521684185317
0.2809293940765897   -0.008389162325234303   0.0025818521684185317
0.45172081080661214   0.0680284491681267   0.025050622357039094
0.45172081080661214   0.0680284491681267   0.025050622357039094
0.45172081080661214   0.0680284491681267   0.025050622357039094
0.45172081080661214   0.0680284491681267   0.025050622357039094
0.3134342845643921   0.07835857114109802   0.07835857114109802
0.3134342845643921   0.07835857114109802   0.07835857114109802
0.3134342845643921   0.07835857114109802   0.07835857114109802
0.3134342845643921   0.07835857114109802   0.07835857114109802
0.5994254542759876   0.05906940141616618   0.02137861067602216
0.5994254542759876   0.05906940141616618   0.02137861067602216
0.5994254542759876   0.05906940141616618   0.02137861067602216
0.5994254542759876   0.05906940141616618   0.02137861067602216
0.6189765568650999   0.15474413921627497   0.15474413921627497
0.6189765568650999   0.15474413921627497   0.15474413921627497
0.6189765568650999   0.15474413921627497   0.15474413921627497
0.6189765568650999   0.15474413921627497   0.15474413921627497
0.29180823116952054   0.009935147392873551   0.009278141161530999
0.29180823116952054   0.009935147392873551   0.009278141161530999
0.29180823116952054   0.009935147392873551   0.009278141161530999
0.29180823116952054   0.009935147392873551   0.009278141161530999
0.4330316704553071   0.07393661478941779   -0.006702655729241898
0.4330316704553071   0.07393661478941779   -0.006702655729241898
0.4330316704553071   0.07393661478941779   -0.006702655729241898
0.4330316704553071   0.07393661478941779   -0.006702655729241898
-0.6303374249849137   -0.04521121001355029   0.0076955755180734935
-0.6303374249849137   -0.04521121001355029   0.0076955755180734935
-0.6303374249849137   -0.04521121001355029   0.0076955755180734935
-0.6303374249849137   -0.04521121001355029   0.0076955755180734935
-0.4018097596395388   -0.009837664784528341   -0.0028087299393145873
-0.4018097596395388   -0.009837664784528341   -0.0028087299393145873
-0.4018097596395388   -0.009837664784528341   -0.0028087299393145873
-0.4018097596395388   -0.009837664784528341   -0.0028087299393145873
-0.40405302884829775   0.01647997028064095   0.008816914850595225
-0.40405302884829775   0.01647997028064095   0.008816914850595225
-0.40405302884829775   0.01647997028064095   0.008816914850595225
-0.40405302884829775   0.01647997028064095   0.008816914850595225
-0.639480188364747   -0.043923391589370184   -0.007837191605469026
-0.639480188364747   -0.043923391589370184   -0.007837191605469026
-0.639480188364747   -0.043923391589370184   -0.007837191605469026
-0.639480188364747   -0.043923391589370184   -0.007837191605469026
-0.4985601861351115   -0.01720642536064286   -0.0022842502302911002
-0.4985601861351115   -0.01720642536064286   -0.0022842502302911002
-0.4985601861351115   -0.01720642536064286   -0.0022842502302911002
-0.4985601861351115   -0.01720642536064286   -0.0022842502302911002
-0.6345595626289636   -0.030680175290663178   0.0035227207747404975
-0.6345595626289636   -0.030680175290663178   0.0035227207747404975
-0.6345595626289636   -0.030680175290663178   0.0035227207747404975
-0.6345595626289636   -0.030680175290663178   0.0035227207747404975
-0.4096158183624572   0.002594590203559316   -0.005111652643113182
-0.4096158183624572   0.002594590203559316   -0.005111652643113182
-0.4096158183624572   0.002594590203559316   -0.005111652643113182
-0.4096158183624572   0.002594590203559316   -0.005111652643113182
-0.40424350933995123   0.023574990832231524   0.009936995524644072
-0.40424350933995123   0.023574990832231524   0.009936995524644072
-0.40424350933995123   0.023574990832231524   0.009936995524644072
-0.40424350933995123   0.023574990832231524   0.009936995524644072
-0.6429480162017728   -0.038580803364892405   -0.010316658023281206
-0.6429480162017728   -0.038580803364892405   -0.010316658023281206
-0.6429480162017728   -0.038580803364892405   -0.010316658023281206
-0.6429480162017728   -0.038580803364892405   -0.010316658023281206
-0.5121962837001048   -0.011400747335013658   -0.0050062289392384
-0.5121962837001048   -0.011400747335013658   -0.0050062289392384
-0.5121962837001048   -0.011400747335013658   -0.0050062289392384
-0.5121962837001048   -0.011400747335013658   -0.0050062289392384
-0.6311013667710168   -0.01809735217149179   0.028433137937093
-0.6311013667710168   -0.01809735217149179   0.028433137937093
-0.6311013667710168   -0.01809735217149179   0.028433137937093
-0.6311013667710168   -0.01809735217149179   0.028433137937093
-0.41122846133196184   0.007953237077576045   -0.00936601068074987
-0.41122846133196184   0.007953237077576045   -0.00936601068074987
-0.41122846133196184   0.007953237077576045   -0.00936601068074987
-0.41122846133196184   0.007953237077576045   -0.00936601068074987
-0.39656320231550174   0.041226811718325304   0.017760794967430375
-0.39656320231550174   0.041226811718325304   0.017760794967430375
-0.39656320231550174   0.041226811718325304   0.017760794967430375
-0.39656320231550174   0.041226811718325304   0.017760794967430375
-0.6245681153427675   -0.030876232728471564   -0.016736336909414333
-0.6245681153427675   -0.030876232728471564   -0.016736336909414333
-0.6245681153427675   -0.030876232728471564   -0.016736336909414333
-0.6245681153427675   -0.030876232728471564   -0.016736336909414333
-0.4921532066535366   0.004862290977518682   0.011006049522322914
-0.4921532066535366   0.004862290977518682   0.011006049522322914
-0.4921532066535366   0.004862290977518682   0.011006049522322914
-0.4921532066535366   0.004862290977518682   0.011006049522322914
-0.4116218085178836   -0.05476150331343058   -0.0069451358021362635
-0.4116218085178836   -0.05476150331343058   -0.0069451358021362635
-0.4116218085178836   -0.05476150331343058   -0.0069451358021362635
-0.4116218085178836   -0.05476150331343058   -0.0069451358021362635
-0.1903790403317759   -0.004604403895420835   0.0019318351772616583
-0.1903790403317759   -0.004604403895420835   0.0019318351772616583
-0.1903790403317759   -0.004604403895420835   0.0019318351772616583
-0.1903790403317759   -0.004604403895420835   0.0019318351772616583
-0.19284811667414123   0.003491223467065853   0.00302903800201516
-0.19284811667414123   0.003491223467065853   0.00302903800201516
-0.19284811667414123   0.003491223467065853   0.00302903800201516
-0.19284811667414123   0.003491223467065853   0.00302903800201516
-0.4195993288963297   -0.04002958689596396   -0.012405028212959888
-0.4195993288963297   -0.04002958689596396   -0.012405028212959888
-0.4195993288963297   -0.04002958689596396   -0.012405028212959888
-0.4195993288963297   -0.04002958689596396   -0.012405028212959888
-0.30363139315588883   -0.02483138542363096   -0.007112703187063484
-0.30363139315588883   -0.02483138542363096   -0.007112703187063484
-0.30363139315588883   -0.02483138542363096   -0.007112703187063484
-0.30363139315588883   -0.02483138542363096   -0.007112703187063484
-0.4191455236306943   -0.04367265273399788   -0.006492936046750424
-0.4191455236306943   -0.04367265273399788   -0.006492936046750424
-0.4191455236306943   -0.04367265273399788   -0.006492936046750424
-0.4191455236306943   -0.04367265273399788   -0.006492936046750424
-0.19256044254148755   0.007875768703388866   8.286342896207319e-05
-0.19256044254148755   0.007875768703388866   8.286342896207319e-05
-0.19256044254148755   0.007875768703388866   8.286342896207319e-05
-0.19256044254148755   0.007875768703388866   8.286342896207319e-05
-0.19186055468629976   0.013370791879492465   0.003999937261474138
-0.19186055468629976   0.013370791879492465   0.003999937261474138
-0.19186055468629976   0.013370791879492465   0.003999937261474138
-0.19186055468629976   0.013370791879492465   0.003999937261474138
-0.4194709361133341   -0.02918629439669833   -0.013438853113340279
-0.4194709361133341   -0.02918629439669833   -0.013438853113340279
-0.4194709361133341   -0.02918629439669833   -0.013438853113340279
-0.4194709361133341   -0.02918629439669833   -0.013438853113340279
-0.30277921886828213   -0.013757491584687323   -0.0033928266448330843
-0.30277921886828213   -0.013757491584687323   -0.0033928266448330843
-0.30277921886828213   -0.013757491584687323   -0.0033928266448330843
-0.30277921886828213   -0.013757491584687323   -0.0033928266448330843
-0.41778128833166167   -0.0328739366851751   -0.0013029719165017061
-0.41778128833166167   -0.0328739366851751   -0.0013029719165017061
-0.41778128833166167   -0.0328739366851751   -0.0013029719165017061
-0.41778128833166167   -0.0328739366851751   -0.0013029719165017061
-0.1921697417454296   0.018438894890512342   -0.002614101045191424
-0.1921697417454296   0.018438894890512342   -0.002614101045191424
-0.1921697417454296   0.018438894890512342   -0.002614101045191424
-0.1921697417454296   0.018438894890512342   -0.002614101045191424
-0.18839895734667816   0.023267665647632815   0.007873942349890108
-0.18839895734667816   0.023267665647632815   0.007873942349890108
-0.18839895734667816   0.023267665647632815   0.007873942349890108
-0.18839895734667816   0.023267665647632815   0.007873942349890108
-0.41468713447541855   -0.016653051157394766   -0.014979002956435457
-0.41468713447541855   -0.016653051157394766   -0.014979002956435457
-0.41468713447541855   -0.016653051157394766   -0.014979002956435457
-0.41468713447541855   -0.016653051157394766   -0.014979002956435457
-0.3012301735808741   -0.0032727258267634812   0.0014987648648111841
-0.3012301735808741   -0.0032727258267634812   0.0014987648648111841
-0.3012301735808741   -0.0032727258267634812   0.0014987648648111841
-0.3012301735808741   -0.0032727258267634812   0.0014987648648111841
-0.20063642114394878   -0.04561050432805497   -0.00834896845097057
-0.20063642114394878   -0.04561050432805497   -0.00834896845097057
-0.20063642114394878   -0.04561050432805497   -0.00834896845097057
-0.20063642114394878   -0.04561050432805497   -0.00834896845097057
0.01934996148849373   0.004383358777374086   0.00781414499468823
0.01934996148849373   0.004383358777374086   0.00781414499468823
0.01934996148849373   0.004383358777374086   0.00781414499468823
0.01934996148849373   0.004383358777374086   0.00781414499468823
0.01866749091429325   0.011263060127616343   0.000672041958145797
0.01866749091429325   0.011263060127616343   0.000672041958145797
0.01866749091429325   0.011263060127616343   0.000672041958145797
0.01866749091429325   0.011263060127616343   0.000672041958145797
-0.20124331187134795   -0.03011298013781994   -0.005342734379132666
-0.20124331187134795   -0.03011298013781994   -0.005342734379132666
-0.20124331187134795   -0.03011298013781994   -0.005342734379132666
-0.20124331187134795   -0.03011298013781994   -0.005342734379132666
-0.09185004064139095   -0.015224153186757617   -0.002984710432772161
-0.09185004064139095   -0.015224153186757617   -0.002984710432772161
-0.09185004064139095   -0.015224153186757617   -0.002984710432772161
-0.09185004064139095   -0.015224153186757617   -0.002984710432772161
-0.20264323124885156   -0.03468712914794658   -0.007768182256524026
-0.20264323124885156   -0.03468712914794658   -0.007768182256524026
-0.20264323124885156   -0.03468712914794658   -0.007768182256524026
-0.20264323124885156   -0.03468712914794658   -0.007768182256524026
0.020823502431268164   0.016593301277213972   0.006121858393422741
0.020823502431268164   0.016593301277213972   0.006121858393422741
0.020823502431268164   0.016593301277213972   0.006121858393422741
0.020823502431268164   0.016593301277213972   0.006121858393422741
0.020505205742881026   0.02210576744751818   0.0036061101904216247
0.020505205742881026   0.02210576744751818   0.0036061101904216247
0.020505205742881026   0.02210576744751818   0.0036061101904216247
0.020505205742881026   0.02210576744751818   0.0036061101904216247
-0.2003150115869271   -0.018215292701138804   -0.006686262661031373
-0.2003150115869271   -0.018215292701138804   -0.006686262661031373
-0.2003150115869271   -0.018215292701138804   -0.006686262661031373
-0.2003150115869271   -0.018215292701138804   -0.006686262661031373
-0.09016055549789743   -0.0037192073532953222   0.001015141613667515
-0.09016055549789743   -0.0037192073532953222   0.001015141613667515
-0.09016055549789743   -0.0037192073532953222   0.001015141613667515
-0.09016055549789743   -0.0037192073532953222   0.001015141613667515
-0.20087641586317098   -0.02369457855037872   -0.004013998193010865
-0.20087641586317098   -0.02369457855037872   -0.004013998193010865
-0.20087641586317098   -0.02369457855037872   -0.004013998193010865
-0.20087641586317098   -0.02369457855037872   -0.004013998193010865
0.02188283344334559   0.02840127672097876   0.004198739419283746
0.02188283344334559   0.02840127672097876   0.004198739419283746
0.02188283344334559   0.02840127672097876   0.004198739419283746
0.02188283344334559   0.02840127672097876   0.004198739419283746
0.021261309107958794   0.03414288376016636   0.005888051012527974
0.021261309107958794   0.03414288376016636   0.005888051012527974
0.021261309107958794   0.03414288376016636   0.005888051012527974
0.021261309107958794   0.03414288376016636   0.005888051012527974
-0.1974218746221461   -0.005517226484315546   -0.008455751895500303
-0.1974218746221461   -0.005517226484315546   -0.008455751895500303
-0.1974218746221461   -0.005517226484315546   -0.008455751895500303
-0.1974218746221461   -0.005517226484315546   -0.008455751895500303
-0.087639505385155   0.008311322276806903   0.005394659725833701
-0.087639505385155   0.008311322276806903   0.005394659725833701
-0.087639505385155   0.008311322276806903   0.005394659725833701
-0.087639505385155   0.008311322276806903   0.005394659725833701
0.008129026451726253   -0.033515757043236845   -0.01039141436853824
0.008129026451726253   -0.033515757043236845   -0.01039141436853824
0.008129026451726253   -0.033515757043236845   -0.01039141436853824
0.008129026451726253   -0.033515757043236845   -0.01039141436853824
0.23607617184533375   0.016129051798071954   0.01443315834679768
0.23607617184533375   0.016129051798071954   0.01443315834679768
0.23607617184533375   0.016129051798071954   0.01443315834679768
0.23607617184533375   0.016129051798071954   0.01443315834679768
0.23602660644599838   0.021919711437036728   -0.002363687485815294
0.23602660644599838   0.021919711437036728   -0.002363687485815294
0.23602660644599838   0.021919711437036728   -0.002363687485815294
0.23602660644599838   0.021919711437036728   -0.002363687485815294
0.012609692968813247   -0.019952755980762644   0.0015988683391247862
0.012609692968813247   -0.019952755980762644   0.0015988683391247862
0.012609692968813247   -0.019952755980762644   0.0015988683391247862
0.012609692968813247   -0.019952755980762644   0.0015988683391247862
0.12167493403051713   -0.0029903521983083436   0.0001679166777934435
0.12167493403051713   -0.0029903521983083436   0.0001679166777934435
0.12167493403051713   -0.0029903521983083436   0.0001679166777934435
0.12167493403051713   -0.0029903521983083436   0.0001679166777934435
0.009831368107195818   -0.02441308426958816   -0.007832427680136686
0.009831368107195818   -0.02441308426958816   -0.007832427680136686
0.009831368107195818   -0.02441308426958816   -0.007832427680136686
0.009831368107195818   -0.02441308426958816   -0.007832427680136686
0.24018054999087915   0.02775565840912519   0.012570083266498045
0.24018054999087915   0.02775565840912519   0.012570083266498045
0.24018054999087915   0.02775565840912519   0.012570083266498045
0.24018054999087915   0.02775565840912519   0.012570083266498045
0.2382306732945472   0.03266133856757321   0.0022522081905716742
0.2382306732945472   0.03266133856757321   0.0022522081905716742
0.2382306732945472   0.03266133856757321   0.0022522081905716742
0.2382306732945472   0.03266133856757321   0.0022522081905716742
0.013393659484035553   -0.009302569337350821   -0.0005432843189367388
0.013393659484035553   -0.009302569337350821   -0.0005432843189367388
0.013393659484035553   -0.009302569337350821   -0.0005432843189367388
0.013393659484035553   -0.009302569337350821   -0.0005432843189367388
0.12362833987705853   0.007266119513580877   0.0050860058193528245
0.12362833987705853   0.007266119513580877   0.0050860058193528245
0.12362833987705853   0.007266119513580877   0.0050860058193528245
0.12362833987705853   0.007266119513580877   0.0050860058193528245
0.011339804325173463   -0.014325252295446306   -0.005789877155151625
0.011339804325173463   -0.014325252295446306   -0.005789877155151625
0.011339804325173463   -0.014325252295446306   -0.005789877155151625
0.011339804325173463   -0.014325252295446306   -0.005789877155151625
0.24128273121995603   0.03868222429221499   0.011491612092969936
0.24128273121995603   0.03868222429221499   0.011491612092969936
0.24128273121995603   0.03868222429221499   0.011491612092969936
0.24128273121995603   0.03868222429221499   0.011491612092969936
0.23467678621263677   0.045050454012076385   0.004874913493994915
0.23467678621263677   0.045050454012076385   0.004874913493994915
0.23467678621263677   0.045050454012076385   0.004874913493994915
0.23467678621263677   0.045050454012076385   0.004874913493994915
0.013545514500507717   0.0038341178740987614   -0.002382156138659829
0.013545514500507717   0.0038341178740987614   -0.002382156138659829
0.013545514500507717   0.0038341178740987614   -0.002382156138659829
0.013545514500507717   0.0038341178740987614   -0.002382156138659829
0.1257784343766279   0.018981259101189276   0.009655817616570878
0.1257784343766279   0.018981259101189276   0.009655817616570878
0.1257784343766279   0.018981259101189276   0.009655817616570878
0.1257784343766279   0.018981259101189276   0.009655817616570878
0.21715344996427732   -0.044607615159038085   -0.019443784101374366
0.21715344996427732   -0.044607615159038085   -0.019443784101374366
0.21715344996427732   -0.044607615159038085   -0.019443784101374366
0.21715344996427732   -0.044607615159038085   -0.019443784101374366
0.448545116132032   0.02964385530715051   0.014334404457785065
0.448545116132032   0.02964385530715051   0.014334404457785065
0.448545116132032   0.02964385530715051   0.014334404457785065
0.448545116132032   0.02964385530715051   0.014334404457785065
0.45397579438619173   0.013603591324311229   -0.029280725140164696
0.45397579438619173   0.013603591324311229   -0.029280725140164696
0.45397579438619173   0.013603591324311229   -0.029280725140164696
0.45397579438619173   0.013603591324311229   -0.029280725140164696
0.2321034738926105   -0.008727039343633822   0.008667400527911779
0.2321034738926105   -0.008727039343633822   0.008667400527911779
0.2321034738926105   -0.008727039343633822   0.008667400527911779
0.2321034738926105   -0.008727039343633822   0.008667400527911779
0.3210869441464332   -0.005916866282372132   -0.008263973948433805
0.3210869441464332   -0.005916866282372132   -0.008263973948433805
0.3210869441464332   -0.005916866282372132   -0.008263973948433805
0.3210869441464332   -0.005916866282372132   -0.008263973948433805
0.22366666386563083   -0.029209022951576125   -0.013034665999041468
0.22366666386563083   -0.029209022951576125   -0.013034665999041468
0.22366666386563083   -0.029209022951576125   -0.013034665999041468
0.22366666386563083   -0.029209022951576125   -0.013034665999041468
0.46659623018847923   0.03826920070756197   0.009155844488022011
0.46659623018847923   0.03826920070756197   0.009155844488022011
0.46659623018847923   0.03826920070756197   0.009155844488022011
0.46659623018847923   0.03826920070756197   0.009155844488022011
0.45948795674818077   0.02540732599015555   -0.006994268926223762
0.45948795674818077   0.02540732599015555   -0.006994268926223762
0.45948795674818077   0.02540732599015555   -0.006994268926223762
0.45948795674818077   0.02540732599015555   -0.006994268926223762
0.23149248260144156   -0.003382287345144043   0.004604880637756683
0.23149248260144156   -0.003382287345144043   0.004604880637756683
0.23149248260144156   -0.003382287345144043   0.004604880637756683
0.23149248260144156   -0.003382287345144043   0.004604880637756683
0.3384549019919853   0.008484579118956642   0.005620433096497509
0.3384549019919853   0.008484579118956642   0.005620433096497509
0.3384549019919853   0.008484579118956642   0.005620433096497509
0.3384549019919853   0.008484579118956642   0.005620433096497509
0.22467497490180302   -0.0222745046958256   -0.010590440509752233
0.22467497490180302   -0.0222745046958256   -0.010590440509752233
0.22467497490180302   -0.0222745046958256   -0.010590440509752233
0.22467497490180302   -0.0222745046958256   -0.010590440509752233
0.4657851863364627   0.04377926522948093   0.006119939775860426
0.4657851863364627   0.04377926522948093   0.006119939775860426
0.4657851863364627   0.04377926522948093   0.006119939775860426
0.4657851863364627   0.04377926522948093   0.006119939775860426
0.4592985564397596   0.03946401497887895   -0.01056784617868107
0.4592985564397596   0.03946401497887895   -0.01056784617868107
0.4592985564397596   0.03946401497887895   -0.01056784617868107
0.4592985564397596   0.03946401497887895   -0.01056784617868107
0.22698824474240595   0.008821991846580009   0.0026606683083329214
0.22698824474240595   0.008821991846580009   0.0026606683083329214
0.22698824474240595   0.008821991846580009   0.0026606683083329214
0.22698824474240595   0.008821991846580009   0.0026606683083329214
0.33020231837314146   0.015071704528943491   0.004350840854285096
0.33020231837314146   0.015071704528943491   0.004350840854285096
0.33020231837314146   0.015071704528943491   0.004350840854285096
0.33020231837314146   0.015071704528943491   0.004350840854285096
-0.49207385573185564   -0.022128111840970535   0.026003130870789263
-0.49207385573185564   -0.022128111840970535   0.026003130870789263
-0.49207385573185564   -0.022128111840970535   0.026003130870789263
-0.49207385573185564   -0.022128111840970535   0.026003130870789263
-0.32783417164972156   -0.012888967104033748   -0.006765744959534555
-0.32783417164972156   -0.012888967104033748   -0.006765744959534555
-0.32783417164972156   -0.012888967104033748   -0.006765744959534555
-0.32783417164972156   -0.012888967104033748   -0.006765744959534555
-0.3156406125427276   0.02676092539949805   0.021744817516852925
-0.3156406125427276   0.02676092539949805   0.021744817516852925
-0.3156406125427276   0.02676092539949805   0.021744817516852925
-0.3156406125427276   0.02676092539949805   0.021744817516852925
-0.4942074876070849   -0.035436601419682134   -0.010559904176598675
-0.4942074876070849   -0.035436601419682134   -0.010559904176598675
-0.4942074876070849   -0.035436601419682134   -0.010559904176598675
-0.4942074876070849   -0.035436601419682134   -0.010559904176598675
-0.3909650430785614   -0.006036243103528419   -0.001023546596485382
-0.3909650430785614   -0.006036243103528419   -0.001023546596485382
-0.3909650430785614   -0.006036243103528419   -0.001023546596485382
-0.3909650430785614   -0.006036243103528419   -0.001023546596485382
-0.48013987657127505   -0.004682984160856926   0.02902453374362535
-0.48013987657127505   -0.004682984160856926   0.02902453374362535
-0.48013987657127505   -0.004682984160856926   0.02902453374362535
-0.48013987657127505   -0.004682984160856926   0.02902453374362535
-0.3274992872023633   -0.0017837554831523356   -0.009003874898675015
-0.3274992872023633   -0.0017837554831523356   -0.009003874898675015
-0.3274992872023633   -0.0017837554831523356   -0.009003874898675015
-0.3274992872023633   -0.0017837554831523356   -0.009003874898675015
-0.31420610264916143   0.03325123483547175   0.020101619425928263
-0.31420610264916143   0.03325123483547175   0.020101619425928263
-0.31420610264916143   0.03325123483547175   0.020101619425928263
-0.31420610264916143   0.03325123483547175   0.020101619425928263
-0.48622658779876116   -0.029537108942752563   -0.014410333274028426
-0.48622658779876116   -0.029537108942752563   -0.014410333274028426
-0.48622658779876116   -0.029537108942752563   -0.014410333274028426
-0.48622658779876116   -0.029537108942752563   -0.014410333274028426
-0.3915269696497862   0.0015850143889318546   0.004364405064874656
-0.3915269696497862   0.0015850143889318546   0.004364405064874656
-0.3915269696497862   0.0015850143889318546   0.004364405064874656
-0.3915269696497862   0.0015850143889318546   0.004364405064874656
-0.47314548145463003   0.0014455442416394376   0.020012545262235264
-0.47314548145463003   0.0014455442416394376   0.020012545262235264
-0.47314548145463003   0.0014455442416394376   0.020012545262235264
-0.47314548145463003   0.0014455442416394376   0.020012545262235264
-0.3265610685917202   0.0029947220526526652   -0.011416697504043286
-0.3265610685917202   0.0029947220526526652   -0.011416697504043286
-0.3265610685917202   0.0029947220526526652   -0.011416697504043286
-0.3265610685917202   0.0029947220526526652   -0.011416697504043286
-0.314377070339124   0.037699966327708834   0.015953613367844073
-0.314377070339124   0.037699966327708834   0.015953613367844073
-0.314377070339124   0.037699966327708834   0.015953613367844073
-0.314377070339124   0.037699966327708834   0.015953613367844073
-0.4759557570823796   -0.023185205092699224   -0.01833407178864409
-0.4759557570823796   -0.023185205092699224   -0.01833407178864409
-0.4759557570823796   -0.023185205092699224   -0.01833407178864409
-0.4759557570823796   -0.023185205092699224   -0.01833407178864409
-0.38004550166111184   0.008449634143429613   0.009340675336340584
-0.38004550166111184   0.008449634143429613   0.009340675336340584
-0.38004550166111184   0.008449634143429613   0.009340675336340584
-0.38004550166111184   0.008449634143429613   0.009340675336340584
-0.32861309024084745   -0.03112286826377251   0.007573563244574854
-0.32861309024084745   -0.03112286826377251   0.007573563244574854
-0.32861309024084745   -0.03112286826377251   0.007573563244574854
-0.32861309024084745   -0.03112286826377251   0.007573563244574854
-0.16692142592484716   -0.006280051361188671   0.00027307784189413084
-0.16692142592484716   -0.006280051361188671   0.00027307784189413084
-0.16692142592484716   -0.006280051361188671   0.00027307784189413084
-0.16692142592484716   -0.006280051361188671   0.00027307784189413084
-0.16200353191551106   0.016329314240324487   0.011793680487663692
-0.16200353191551106   0.016329314240324487   0.011793680487663692
-0.16200353191551106   0.016329314240324487   0.011793680487663692
-0.16200353191551106   0.016329314240324487   0.011793680487663692
-0.33378312788583764   -0.030690909177708073   -0.011515924621492816
-0.33378312788583764   -0.030690909177708073   -0.011515924621492816
-0.33378312788583764   -0.030690909177708073   -0.011515924621492816
-0.33378312788583764   -0.030690909177708073   -0.011515924621492816
-0.24698428006628972   -0.012123710898524008   -0.005148743175607923
-0.24698428006628972   -0.012123710898524008   -0.005148743175607923
-0.24698428006628972   -0.012123710898524008   -0.005148743175607923
-0.24698428006628972   -0.012123710898524008   -0.005148743175607923
-0.32741754638595294   -0.017656675009376552   0.007277748709600306
-0.32741754638595294   -0.017656675009376552   0.007277748709600306
-0.32741754638595294   -0.017656675009376552   0.007277748709600306
-0.32741754638595294   -0.017656675009376552   0.007277748709600306
-0.1670905139313153   0.0045736795560738785   -0.0018855949071054194
-0.1670905139313153   0.0045736795560738785   -0.0018855949071054194
-0.1670905139313153   0.0045736795560738785   -0.0018855949071054194
-0.1670905139313153   0.0045736795560738785   -0.0018855949071054194
-0.16136169298498185   0.0271591841370388   0.010179296426993108
-0.16136169298498185   0.0271591841370388   0.010179296426993108
-0.16136169298498185   0.0271591841370388   0.010179296426993108
-0.16136169298498185   0.0271591841370388   0.010179296426993108
-0.3317207245931629   -0.020607370148668938   -0.013612885309938157
-0.3317207245931629   -0.020607370148668938   -0.013612885309938157
-0.3317207245931629   -0.020607370148668938   -0.013612885309938157
-0.3317207245931629   -0.020607370148668938   -0.013612885309938157
-0.24414724855932343   -0.0012105537085910084   -9.722636488224135e-05
-0.24414724855932343   -0.0012105537085910084   -9.722636488224135e-05
-0.24414724855932343   -0.0012105537085910084   -9.722636488224135e-05
-0.24414724855932343   -0.0012105537085910084   -9.722636488224135e-05
-0.3252283323297228   -0.006668051537991146   0.004909757396584311
-0.3252283323297228   -0.006668051537991146   0.004909757396584311
-0.3252283323297228   -0.006668051537991146   0.004909757396584311
-0.3252283323297228   -0.006668051537991146   0.004909757396584311
-0.16681386540636287   0.014260085368421153   -0.004182466911291557
-0.16681386540636287   0.014260085368421153   -0.004182466911291557
-0.16681386540636287   0.014260085368421153   -0.004182466911291557
-0.16681386540636287   0.014260085368421153   -0.004182466911291557
-0.16118842491956595   0.03856392501399895   0.007607168344678627
-0.16118842491956595   0.03856392501399895   0.007607168344678627
-0.16118842491956595   0.03856392501399895   0.007607168344678627
-0.16118842491956595   0.03856392501399895   0.007607168344678627
-0.3299736936956813   -0.009692808459890984   -0.014636728627344244
-0.3299736936956813   -0.009692808459890984   -0.014636728627344244
-0.3299736936956813   -0.009692808459890984   -0.014636728627344244
-0.3299736936956813   -0.009692808459890984   -0.014636728627344244
-0.24415193860070694   0.008842170140506214   0.003784776112367383
-0.24415193860070694   0.008842170140506214   0.003784776112367383
-0.24415193860070694   0.008842170140506214   0.003784776112367383
-0.24415193860070694   0.008842170140506214   0.003784776112367383
-0.17305585093903142   -0.035830377020926715   -0.0008487215692906222
-0.17305585093903142   -0.035830377020926715   -0.0008487215692906222
-0.17305585093903142   -0.035830377020926715   -0.0008487215692906222
-0.17305585093903142   -0.035830377020926715   -0.0008487215692906222
-0.007427938128477887   0.0014516527994943166   0.007379572173135097
-0.007427938128477887   0.0014516527994943166   0.007379572173135097
-0.007427938128477887   0.0014516527994943166   0.007379572173135097
-0.007427938128477887   0.0014516527994943166   0.007379572173135097
-0.007937800888215916   0.010325680299382193   0.0035450568237479206
-0.007937800888215916   0.010325680299382193   0.0035450568237479206
-0.007937800888215916   0.010325680299382193   0.0035450568237479206
-0.007937800888215916   0.010325680299382193   0.0035450568237479206
-0.17304563142068777   -0.02282645817738261   -0.004261044620512777
-0.17304563142068777   -0.02282645817738261   -0.004261044620512777
-0.17304563142068777   -0.02282645817738261   -0.004261044620512777
-0.17304563142068777   -0.02282645817738261   -0.004261044620512777
-0.09065144962527391   -0.011327655306551344   -0.0029125749825086654
-0.09065144962527391   -0.011327655306551344   -0.0029125749825086654
-0.09065144962527391   -0.011327655306551344   -0.0029125749825086654
-0.09065144962527391   -0.011327655306551344   -0.0029125749825086654
-0.17285791559321576   -0.023830948948728378   -0.0023179747118070187
-0.17285791559321576   -0.023830948948728378   -0.0023179747118070187
-0.17285791559321576   -0.023830948948728378   -0.0023179747118070187
-0.17285791559321576   -0.023830948948728378   -0.0023179747118070187
-0.007174803525198822   0.012280884261216755   0.005404839676998923
-0.007174803525198822   0.012280884261216755   0.005404839676998923
-0.007174803525198822   0.012280884261216755   0.005404839676998923
-0.007174803525198822   0.012280884261216755   0.005404839676998923
-0.007018186670000394   0.022112809247914648   0.0016574221673091652
-0.007018186670000394   0.022112809247914648   0.0016574221673091652
-0.007018186670000394   0.022112809247914648   0.0016574221673091652
-0.007018186670000394   0.022112809247914648   0.0016574221673091652
-0.1724781779502501   -0.011971733866833981   -0.006272210395473955
-0.1724781779502501   -0.011971733866833981   -0.006272210395473955
-0.1724781779502501   -0.011971733866833981   -0.006272210395473955
-0.1724781779502501   -0.011971733866833981   -0.006272210395473955
-0.08964704497205775   -0.0004469161422923848   0.0011757375238669989
-0.08964704497205775   -0.0004469161422923848   0.0011757375238669989
-0.08964704497205775   -0.0004469161422923848   0.0011757375238669989
-0.08964704497205775   -0.0004469161422923848   0.0011757375238669989
-0.17222236831025256   -0.012210408938384706   -0.004754487123935425
-0.17222236831025256   -0.012210408938384706   -0.004754487123935425
-0.17222236831025256   -0.012210408938384706   -0.004754487123935425
-0.17222236831025256   -0.012210408938384706   -0.004754487123935425
-0.006490034586594288   0.023135446042869053   0.0032755457893853725
-0.006490034586594288   0.023135446042869053   0.0032755457893853725
-0.006490034586594288   0.023135446042869053   0.0032755457893853725
-0.006490034586594288   0.023135446042869053   0.0032755457893853725
-0.006719740625056703   0.034243692235920734   -0.0003532922914083192
-0.006719740625056703   0.034243692235920734   -0.0003532922914083192
-0.006719740625056703   0.034243692235920734   -0.0003532922914083192
-0.006719740625056703   0.034243692235920734   -0.0003532922914083192
-0.17227358278897492   -0.0009402237723915643   -0.008314472215976514
-0.17227358278897492   -0.0009402237723915643   -0.008314472215976514
-0.17227358278897492   -0.0009402237723915643   -0.008314472215976514
-0.17227358278897492   -0.0009402237723915643   -0.008314472215976514
-0.08883768194704121   0.010444897654915741   0.004927103990438517
-0.08883768194704121   0.010444897654915741   0.004927103990438517
-0.08883768194704121   0.010444897654915741   0.004927103990438517
-0.08883768194704121   0.010444897654915741   0.004927103990438517
-0.018800573830793005   -0.03944943309525179   -0.008582520443694295
-0.018800573830793005   -0.03944943309525179   -0.008582520443694295
-0.018800573830793005   -0.03944943309525179   -0.008582520443694295
-0.018800573830793005   -0.03944943309525179   -0.008582520443694295
0.1512380661774718   0.010462797367055635   0.01404813520096879
0.1512380661774718   0.010462797367055635   0.01404813520096879
0.1512380661774718   0.010462797367055635   0.01404813520096879
0.1512380661774718   0.010462797367055635   0.01404813520096879
0.14625236036010408   0.005317209341352103   -0.005693972441592319
0.14625236036010408   0.005317209341352103   -0.005693972441592319
0.14625236036010408   0.005317209341352103   -0.005693972441592319
0.14625236036010408   0.005317209341352103   -0.005693972441592319
-0.012939127280420251   -0.014269082183949362   0.003133187346057888
-0.012939127280420251   -0.014269082183949362   0.003133187346057888
-0.012939127280420251   -0.014269082183949362   0.003133187346057888
-0.012939127280420251   -0.014269082183949362   0.003133187346057888
0.06548354836936739   -0.009326508348610601   -0.0016761793367715185
0.06548354836936739   -0.009326508348610601   -0.0016761793367715185
0.06548354836936739   -0.009326508348610601   -0.0016761793367715185
0.06548354836936739   -0.009326508348610601   -0.0016761793367715185
-0.01861215662277549   -0.028680923230699068   -0.010820118318968598
-0.01861215662277549   -0.028680923230699068   -0.010820118318968598
-0.01861215662277549   -0.028680923230699068   -0.010820118318968598
-0.01861215662277549   -0.028680923230699068   -0.010820118318968598
0.1530076801056847   0.020811340791327165   0.012588494836335597
0.1530076801056847   0.020811340791327165   0.012588494836335597
0.1530076801056847   0.020811340791327165   0.012588494836335597
0.1530076801056847   0.020811340791327165   0.012588494836335597
0.1488363486305565   0.016296507935690017   -0.007990587100253518
0.1488363486305565   0.016296507935690017   -0.007990587100253518
0.1488363486305565   0.016296507935690017   -0.007990587100253518
0.1488363486305565   0.016296507935690017   -0.007990587100253518
-0.012484293419896247   -0.004539222650059464   0.0009789203158041943
-0.012484293419896247   -0.004539222650059464   0.0009789203158041943
-0.012484293419896247   -0.004539222650059464   0.0009789203158041943
-0.012484293419896247   -0.004539222650059464   0.0009789203158041943
0.0662398002243955   0.0005487257840901903   0.002398240586579905
0.0662398002243955   0.0005487257840901903   0.002398240586579905
0.0662398002243955   0.0005487257840901903   0.002398240586579905
0.0662398002243955   0.0005487257840901903   0.002398240586579905
-0.018005460776703324   -0.018089136957807523   -0.013077002160483294
-0.018005460776703324   -0.018089136957807523   -0.013077002160483294
-0.018005460776703324   -0.018089136957807523   -0.013077002160483294
-0.018005460776703324   -0.018089136957807523   -0.013077002160483294
0.15553800390762235   0.031026910163697113   0.010787287057068488
0.15553800390762235   0.031026910163697113   0.010787287057068488
0.15553800390762235   0.031026910163697113   0.010787287057068488
0.15553800390762235   0.031026910163697113   0.010787287057068488
0.15048821123107933   0.030019105307598964   -0.008399915701728513
0.15048821123107933   0.030019105307598964   -0.008399915701728513
0.15048821123107933   0.030019105307598964   -0.008399915701728513
0.15048821123107933   0.030019105307598964   -0.008399915701728513
-0.012374744378556327   0.006786555462162721   -0.0011711742851483013
-0.012374744378556327   0.006786555462162721   -0.0011711742851483013
-0.012374744378556327   0.006786555462162721   -0.0011711742851483013
-0.012374744378556327   0.006786555462162721   -0.0011711742851483013
0.06874106601178742   0.011511643665458232   0.007215955576797282
0.06874106601178742   0.011511643665458232   0.007215955576797282
0.06874106601178742   0.011511643665458232   0.007215955576797282
0.06874106601178742   0.011511643665458232   0.007215955576797282
0.13511210651743627   -0.03927783387812972   -0.016841031854022154
0.13511210651743627   -0.03927783387812972   -0.016841031854022154
0.13511210651743627   -0.03927783387812972   -0.016841031854022154
0.13511210651743627   -0.03927783387812972   -0.016841031854022154
0.2987483578605399   0.02222118827863686   0.015829908028384812
0.2987483578605399   0.02222118827863686   0.015829908028384812
0.2987483578605399   0.02222118827863686   0.015829908028384812
0.2987483578605399   0.02222118827863686   0.015829908028384812
0.29646610148567326   -0.0020729456637363503   -0.022424758665663676
0.29646610148567326   -0.0020729456637363503   -0.022424758665663676
0.29646610148567326   -0.0020729456637363503   -0.022424758665663676
0.29646610148567326   -0.0020729456637363503   -0.022424758665663676
0.1478673071190189   -0.0029862110179431287   0.010684181712278461
0.1478673071190189   -0.0029862110179431287   0.010684181712278461
0.1478673071190189   -0.0029862110179431287   0.010684181712278461
0.1478673071190189   -0.0029862110179431287   0.010684181712278461
0.20888037426271497   -0.00782733045399376   -0.006977999646952929
0.20888037426271497   -0.00782733045399376   -0.006977999646952929
0.20888037426271497   -0.00782733045399376   -0.006977999646952929
0.20888037426271497   -0.00782733045399376   -0.006977999646952929
0.13539235535537933   -0.03394841731786266   -0.02072837080599939
0.13539235535537933   -0.03394841731786266   -0.02072837080599939
0.13539235535537933   -0.03394841731786266   -0.02072837080599939
0.13539235535537933   -0.03394841731786266   -0.02072837080599939
0.30983265160608453   0.02978085899295528   0.012554187279701059
0.30983265160608453   0.02978085899295528   0.012554187279701059
0.30983265160608453   0.02978085899295528   0.012554187279701059
0.30983265160608453   0.02978085899295528   0.012554187279701059
0.304112644686406   0.004189402493246362   -0.03015683225525567
0.304112644686406   0.004189402493246362   -0.03015683225525567
0.304112644686406   0.004189402493246362   -0.03015683225525567
0.304112644686406   0.004189402493246362   -0.03015683225525567
0.14913672369316425   0.001796467294092878   0.008011328854384747
0.14913672369316425   0.001796467294092878   0.008011328854384747
0.14913672369316425   0.001796467294092878   0.008011328854384747
0.14913672369316425   0.001796467294092878   0.008011328854384747
0.21865427557401865   -0.001026574949474876   -0.002058191241599304
0.21865427557401865   -0.001026574949474876   -0.002058191241599304
0.21865427557401865   -0.001026574949474876   -0.002058191241599304
0.21865427557401865   -0.001026574949474876   -0.002058191241599304
0.13711042190317438   -0.027703681810536125   -0.022620030990936523
0.13711042190317438   -0.027703681810536125   -0.022620030990936523
0.13711042190317438   -0.027703681810536125   -0.022620030990936523
0.13711042190317438   -0.027703681810536125   -0.022620030990936523
0.31811388167556265   0.03566448679704242   0.008374268386733967
0.31811388167556265   0.03566448679704242   0.008374268386733967
0.31811388167556265   0.03566448679704242   0.008374268386733967
0.31811388167556265   0.03566448679704242   0.008374268386733967
0.316233708993241   0.020447613840983807   -0.028456685970483148
0.316233708993241   0.020447613840983807   -0.028456685970483148
0.316233708993241   0.020447613840983807   -0.028456685970483148
0.316233708993241   0.020447613840983807   -0.028456685970483148
0.14979154681875903   0.012252711614762712   0.005883155929508943
0.14979154681875903   0.012252711614762712   0.005883155929508943
0.14979154681875903   0.012252711614762712   0.005883155929508943
0.14979154681875903   0.012252711614762712   0.005883155929508943
0.22060173462419982   0.006703377610173165   0.0034321744388672807
0.22060173462419982   0.006703377610173165   0.0034321744388672807
0.22060173462419982   0.006703377610173165   0.0034321744388672807
0.22060173462419982   0.006703377610173165   0.0034321744388672807
-0.3488924037340976   -0.011072268700640618   0.023375979141807085
-0.3488924037340976   -0.011072268700640618   0.023375979141807085
-0.3488924037340976   -0.011072268700640618   0.023375979141807085
-0.3488924037340976   -0.011072268700640618   0.023375979141807085
-0.2454283150665592   -0.016733437116423493   -0.008748327908114308
-0.2454283150665592   -0.016733437116423493   -0.008748327908114308
-0.2454283150665592   -0.016733437116423493   -0.008748327908114308
-0.2454283150665592   -0.016733437116423493   -0.008748327908114308
-0.23079067896037453   0.02333634431750832   0.01988801586264327
-0.23079067896037453   0.02333634431750832   0.01988801586264327
-0.23079067896037453   0.02333634431750832   0.01988801586264327
-0.23079067896037453   0.02333634431750832   0.01988801586264327
-0.34890433147162325   -0.028795548789179115   -0.012813808893186094
-0.34890433147162325   -0.028795548789179115   -0.012813808893186094
-0.34890433147162325   -0.028795548789179115   -0.012813808893186094
-0.34890433147162325   -0.028795548789179115   -0.012813808893186094
-0.28155236756146224   -0.004410474685372867   -0.0008927346944015875
-0.28155236756146224   -0.004410474685372867   -0.0008927346944015875
-0.28155236756146224   -0.004410474685372867   -0.0008927346944015875
-0.28155236756146224   -0.004410474685372867   -0.0008927346944015875
-0.33557515464702   0.0028409594131506843   0.022195567027500474
-0.33557515464702   0.0028409594131506843   0.022195567027500474
-0.33557515464702   0.0028409594131506843   0.022195567027500474
-0.33557515464702   0.0028409594131506843   0.022195567027500474
-0.24302908868073972   -0.007209396780583098   -0.010758291641089508
-0.24302908868073972   -0.007209396780583098   -0.010758291641089508
-0.24302908868073972   -0.007209396780583098   -0.010758291641089508
-0.24302908868073972   -0.007209396780583098   -0.010758291641089508
-0.22860487961186798   0.028224636346503573   0.01677668498535523
-0.22860487961186798   0.028224636346503573   0.01677668498535523
-0.22860487961186798   0.028224636346503573   0.01677668498535523
-0.22860487961186798   0.028224636346503573   0.01677668498535523
-0.340476526491321   -0.023339490203462737   -0.0161569172155534
-0.340476526491321   -0.023339490203462737   -0.0161569172155534
-0.340476526491321   -0.023339490203462737   -0.0161569172155534
-0.340476526491321   -0.023339490203462737   -0.0161569172155534
-0.2794623368714176   0.002019745422757027   0.002774696252862672
-0.2794623368714176   0.002019745422757027   0.002774696252862672
-0.2794623368714176   0.002019745422757027   0.002774696252862672
-0.2794623368714176   0.002019745422757027   0.002774696252862672
-0.3272846066977481   0.008688326868355092   0.01777486468049296
-0.3272846066977481   0.008688326868355092   0.01777486468049296
-0.3272846066977481   0.008688326868355092   0.01777486468049296
-0.3272846066977481   0.008688326868355092   0.01777486468049296
-0.24081652861643016   -0.0028229099363032834   -0.013234013754646938
-0.24081652861643016   -0.0028229099363032834   -0.013234013754646938
-0.24081652861643016   -0.0028229099363032834   -0.013234013754646938
-0.24081652861643016   -0.0028229099363032834   -0.013234013754646938
-0.22740026511524847   0.0330791785568741   0.014432354492095248
-0.22740026511524847   0.0330791785568741   0.014432354492095248
-0.22740026511524847   0.0330791785568741   0.014432354492095248
-0.22740026511524847   0.0330791785568741   0.014432354492095248
-0.3292372663984875   -0.016083685798978647   -0.019318927778739347
-0.3292372663984875   -0.016083685798978647   -0.019318927778739347
-0.3292372663984875   -0.016083685798978647   -0.019318927778739347
-0.3292372663984875   -0.016083685798978647   -0.019318927778739347
-0.26888868153318496   0.00808545689645774   0.00786705703546908
-0.26888868153318496   0.00808545689645774   0.00786705703546908
-0.26888868153318496   0.00808545689645774   0.00786705703546908
-0.26888868153318496   0.00808545689645774   0.00786705703546908
-0.24247204088888516   -0.019654057291340843   0.00895366315517131
-0.24247204088888516   -0.019654057291340843   0.00895366315517131
-0.24247204088888516   -0.019654057291340843   0.00895366315517131
-0.24247204088888516   -0.019654057291340843   0.00895366315517131
-0.14181070362313522   -0.01083468414376712   -0.001417034011664483
-0.14181070362313522   -0.01083468414376712   -0.001417034011664483
-0.14181070362313522   -0.01083468414376712   -0.001417034011664483
-0.14181070362313522   -0.01083468414376712   -0.001417034011664483
-0.13457563663674926   0.01359731582370751   0.010717709136492852
-0.13457563663674926   0.01359731582370751   0.010717709136492852
-0.13457563663674926   0.01359731582370751   0.010717709136492852
-0.13457563663674926   0.01359731582370751   0.010717709136492852
-0.24618019005293776   -0.023475983167132657   -0.010247212115532048
-0.24618019005293776   -0.023475983167132657   -0.010247212115532048
-0.24618019005293776   -0.023475983167132657   -0.010247212115532048
-0.24618019005293776   -0.023475983167132657   -0.010247212115532048
-0.19052712031032515   -0.009208025108500509   -0.004006601827170501
-0.19052712031032515   -0.009208025108500509   -0.004006601827170501
-0.19052712031032515   -0.009208025108500509   -0.004006601827170501
-0.19052712031032515   -0.009208025108500509   -0.004006601827170501
-0.23958904695095345   -0.008085336684151234   0.00731785691140718
-0.23958904695095345   -0.008085336684151234   0.00731785691140718
-0.23958904695095345   -0.008085336684151234   0.00731785691140718
-0.23958904695095345   -0.008085336684151234   0.00731785691140718
-0.1403193551041576   -0.0009459060246987498   -0.003457661352142683
-0.1403193551041576   -0.0009459060246987498   -0.003457661352142683
-0.1403193551041576   -0.0009459060246987498   -0.003457661352142683
-0.1403193551041576   -0.0009459060246987498   -0.003457661352142683
-0.13286870470676598   0.02364001780824583   0.00877203458823883
-0.13286870470676598   0.02364001780824583   0.00877203458823883
-0.13286870470676598   0.02364001780824583   0.00877203458823883
-0.13286870470676598   0.02364001780824583   0.00877203458823883
-0.24282936549220266   -0.01403720035212392   -0.01208390771769045
-0.24282936549220266   -0.01403720035212392   -0.01208390771769045
-0.24282936549220266   -0.01403720035212392   -0.01208390771769045
-0.24282936549220266   -0.01403720035212392   -0.01208390771769045
-0.18685984115112186   0.0006167401239346934   0.00021717139339378147
-0.18685984115112186   0.0006167401239346934   0.00021717139339378147
-0.18685984115112186   0.0006167401239346934   0.00021717139339378147
-0.18685984115112186   0.0006167401239346934   0.00021717139339378147
-0.23574018107701045   0.00264689868148206   0.006677915324664441
-0.23574018107701045   0.00264689868148206   0.006677915324664441
-0.23574018107701045   0.00264689868148206   0.006677915324664441
-0.23574018107701045   0.00264689868148206   0.006677915324664441
-0.1389056775953211   0.008008130301277186   -0.00578094234756648
-0.1389056775953211   0.008008130301277186   -0.00578094234756648
-0.1389056775953211   0.008008130301277186   -0.00578094234756648
-0.1389056775953211   0.008008130301277186   -0.00578094234756648
-0.13121806952073956   0.034377705353120826   0.006960216262773038
-0.13121806952073956   0.034377705353120826   0.006960216262773038
-0.13121806952073956   0.034377705353120826   0.006960216262773038
-0.13121806952073956   0.034377705353120826   0.006960216262773038
-0.240335746264744   -0.0038271645012152022   -0.01333870819729209
-0.240335746264744   -0.0038271645012152022   -0.01333870819729209
-0.240335746264744   -0.0038271645012152022   -0.01333870819729209
-0.240335746264744   -0.0038271645012152022   -0.01333870819729209
-0.1854204006813205   0.009910832920523055   0.004257858794619072
-0.1854204006813205   0.009910832920523055   0.004257858794619072
-0.1854204006813205   0.009910832920523055   0.004257858794619072
-0.1854204006813205   0.009910832920523055   0.004257858794619072
-0.14474076129959174   -0.027389356314082174   0.0004873497763665113
-0.14474076129959174   -0.027389356314082174   0.0004873497763665113
-0.14474076129959174   -0.027389356314082174   0.0004873497763665113
-0.14474076129959174   -0.027389356314082174   0.0004873497763665113
-0.03914646368798836   -0.0034758307859933633   0.0058741647524979965
-0.03914646368798836   -0.0034758307859933633   0.0058741647524979965
-0.03914646368798836   -0.0034758307859933633   0.0058741647524979965
-0.03914646368798836   -0.0034758307859933633   0.0058741647524979965
-0.03824089418491116   0.0053875294523595685   0.002004156292421493
-0.03824089418491116   0.0053875294523595685   0.002004156292421493
-0.03824089418491116   0.0053875294523595685   0.002004156292421493
-0.03824089418491116   0.0053875294523595685   0.002004156292421493
-0.14315872525646053   -0.015900597190651046   -0.0026998209477063326
-0.14315872525646053   -0.015900597190651046   -0.0026998209477063326
-0.14315872525646053   -0.015900597190651046   -0.0026998209477063326
-0.14315872525646053   -0.015900597190651046   -0.0026998209477063326
-0.09148334150318703   -0.009894092982971146   -0.002862403341145737
-0.09148334150318703   -0.009894092982971146   -0.002862403341145737
-0.09148334150318703   -0.009894092982971146   -0.002862403341145737
-0.09148334150318703   -0.009894092982971146   -0.002862403341145737
-0.14291719931009886   -0.01618926709372672   -0.001203521312822252
-0.14291719931009886   -0.01618926709372672   -0.001203521312822252
-0.14291719931009886   -0.01618926709372672   -0.001203521312822252
-0.14291719931009886   -0.01618926709372672   -0.001203521312822252
-0.0376326174553487   0.006526002031359385   0.003907067361233979
-0.0376326174553487   0.006526002031359385   0.003907067361233979
-0.0376326174553487   0.006526002031359385   0.003907067361233979
-0.0376326174553487   0.006526002031359385   0.003907067361233979
-0.03617646610526037   0.016638246503131927   0.00047597960936964813
-0.03617646610526037   0.016638246503131927   0.00047597960936964813
-0.03617646610526037   0.016638246503131927   0.00047597960936964813
-0.03617646610526037   0.016638246503131927   0.00047597960936964813
-0.14144794085730464   -0.00582494254864702   -0.004659185807561546
-0.14144794085730464   -0.00582494254864702   -0.004659185807561546
-0.14144794085730464   -0.00582494254864702   -0.004659185807561546
-0.14144794085730464   -0.00582494254864702   -0.004659185807561546
-0.08927644729965678   0.00019659141296639662   0.0011267571954112722
-0.08927644729965678   0.00019659141296639662   0.0011267571954112722
-0.08927644729965678   0.00019659141296639662   0.0011267571954112722
-0.08927644729965678   0.00019659141296639662   0.0011267571954112722
-0.14091606329045692   -0.0049748474668127665   -0.002849893055157253
-0.14091606329045692   -0.0049748474668127665   -0.002849893055157253
-0.14091606329045692   -0.0049748474668127665   -0.002849893055157253
-0.14091606329045692   -0.0049748474668127665   -0.002849893055157253
-0.03592349168040843   0.016573003412997382   0.0018060948237642281
-0.03592349168040843   0.016573003412997382   0.0018060948237642281
-0.03592349168040843   0.016573003412997382   0.0018060948237642281
-0.03592349168040843   0.016573003412997382   0.0018060948237642281
-0.0343184937865024   0.028052334811941908   -0.001306768296781679
-0.0343184937865024   0.028052334811941908   -0.001306768296781679
-0.0343184937865024   0.028052334811941908   -0.001306768296781679
-0.0343184937865024   0.028052334811941908   -0.001306768296781679
-0.13995699589701327   0.004363434835570959   -0.006720145101046161
-0.13995699589701327   0.004363434835570959   -0.006720145101046161
-0.13995699589701327   0.004363434835570959   -0.006720145101046161
-0.13995699589701327   0.004363434835570959   -0.006720145101046161
-0.08726277195550411   0.010336048637048897   0.00497011729411786
-0.08726277195550411   0.010336048637048897   0.00497011729411786
-0.08726277195550411   0.010336048637048897   0.00497011729411786
-0.08726277195550411   0.010336048637048897   0.00497011729411786
-0.047923370998571545   -0.033730298021357595   -0.0077559045650540176
-0.047923370998571545   -0.033730298021357595   -0.0077559045650540176
-0.047923370998571545   -0.033730298021357595   -0.0077559045650540176
-0.047923370998571545   -0.033730298021357595   -0.0077559045650540176
0.06189524598699891   0.004751901344756835   0.012722868244769899
0.06189524598699891   0.004751901344756835   0.012722868244769899
0.06189524598699891   0.004751901344756835   0.012722868244769899
0.06189524598699891   0.004751901344756835   0.012722868244769899
0.05726831740921406   -0.002314484917138371   -0.007301271009521462
0.05726831740921406   -0.002314484917138371   -0.007301271009521462
0.05726831740921406   -0.002314484917138371   -0.007301271009521462
0.05726831740921406   -0.002314484917138371   -0.007301271009521462
-0.04030663942585591   -0.0077286135183883605   0.0047915730584456775
-0.04030663942585591   -0.0077286135183883605   0.0047915730584456775
-0.04030663942585591   -0.0077286135183883605   0.0047915730584456775
-0.04030663942585591   -0.0077286135183883605   0.0047915730584456775
0.007348810426741258   -0.009481612818604592   -0.002048281485488754
0.007348810426741258   -0.009481612818604592   -0.002048281485488754
0.007348810426741258   -0.009481612818604592   -0.002048281485488754
0.007348810426741258   -0.009481612818604592   -0.002048281485488754
-0.046333665556319736   -0.02349088460899433   -0.009581286503267478
-0.046333665556319736   -0.02349088460899433   -0.009581286503267478
-0.046333665556319736   -0.02349088460899433   -0.009581286503267478
-0.046333665556319736   -0.02349088460899433   -0.009581286503267478
0.06430543095415163   0.014457873587941197   0.011111938210085923
0.06430543095415163   0.014457873587941197   0.011111938210085923
0.06430543095415163   0.014457873587941197   0.011111938210085923
0.06430543095415163   0.014457873587941197   0.011111938210085923
0.06113031441570892   0.008331318293662243   -0.008282982801192443
0.06113031441570892   0.008331318293662243   -0.008282982801192443
0.06113031441570892   0.008331318293662243   -0.008282982801192443
0.06113031441570892   0.008331318293662243   -0.008282982801192443
-0.038818826964632715   0.001281497302112404   0.002620924513527779
-0.038818826964632715   0.001281497302112404   0.002620924513527779
-0.038818826964632715   0.001281497302112404   0.002620924513527779
-0.038818826964632715   0.001281497302112404   0.002620924513527779
0.009416202599350422   -0.00030461541997026673   0.00201875377481242
0.009416202599350422   -0.00030461541997026673   0.00201875377481242
0.009416202599350422   -0.00030461541997026673   0.00201875377481242
0.009416202599350422   -0.00030461541997026673   0.00201875377481242
-0.04463581384504264   -0.013501511096276252   -0.011681001490133357
-0.04463581384504264   -0.013501511096276252   -0.011681001490133357
-0.04463581384504264   -0.013501511096276252   -0.011681001490133357
-0.04463581384504264   -0.013501511096276252   -0.011681001490133357
0.06782415493915664   0.023991180335088513   0.009526357774618967
0.06782415493915664   0.023991180335088513   0.009526357774618967
0.06782415493915664   0.023991180335088513   0.009526357774618967
0.06782415493915664   0.023991180335088513   0.009526357774618967
0.06424860377662885   0.020427359322766132   -0.009590503137316407
0.06424860377662885   0.020427359322766132   -0.009590503137316407
0.06424860377662885   0.020427359322766132   -0.009590503137316407
0.06424860377662885   0.020427359322766132   -0.009590503137316407
-0.03723089229139569   0.01162796664310515   0.000555607347588331
-0.03723089229139569   0.01162796664310515   0.000555607347588331
-0.03723089229139569   0.01162796664310515   0.000555607347588331
-0.03723089229139569   0.01162796664310515   0.000555607347588331
0.012565609621794828   0.009625815888215896   0.006213057998406177
0.012565609621794828   0.009625815888215896   0.006213057998406177
0.012565609621794828   0.009625815888215896   0.006213057998406177
0.012565609621794828   0.009625815888215896   0.006213057998406177
0.048504073852580334   -0.03407489028762096   -0.015406200794944725
0.048504073852580334   -0.03407489028762096   -0.015406200794944725
0.048504073852580334   -0.03407489028762096   -0.015406200794944725
0.048504073852580334   -0.03407489028762096   -0.015406200794944725
0.15083664866857036   0.015034609065145508   0.01664793668435637
0.15083664866857036   0.015034609065145508   0.01664793668435637
0.15083664866857036   0.015034609065145508   0.01664793668435637
0.15083664866857036   0.015034609065145508   0.01664793668435637
0.14922685856401727   -0.008911315592424814   -0.020300892605132143
0.14922685856401727   -0.008911315592424814   -0.020300892605132143
0.14922685856401727   -0.008911315592424814   -0.020300892605132143
0.14922685856401727   -0.008911315592424814   -0.020300892605132143
0.06228181934051036   0.0030016259027502816   0.012450127827070879
0.06228181934051036   0.0030016259027502816   0.012450127827070879
0.06228181934051036   0.0030016259027502816   0.012450127827070879
0.06228181934051036   0.0030016259027502816   0.012450127827070879
0.09733982854100151   -0.007214201127370888   -0.005303209315479922
0.09733982854100151   -0.007214201127370888   -0.005303209315479922
0.09733982854100151   -0.007214201127370888   -0.005303209315479922
0.09733982854100151   -0.007214201127370888   -0.005303209315479922
0.04997057118080967   -0.028269409968147523   -0.017835077100534245
0.04997057118080967   -0.028269409968147523   -0.017835077100534245
0.04997057118080967   -0.028269409968147523   -0.017835077100534245
0.04997057118080967   -0.028269409968147523   -0.017835077100534245
0.16256782829073774   0.02338944184549253   0.014103198590554731
0.16256782829073774   0.02338944184549253   0.014103198590554731
0.16256782829073774   0.02338944184549253   0.014103198590554731
0.16256782829073774   0.02338944184549253   0.014103198590554731
0.15777320969437955   -0.002959662350820031   -0.024405805371395098
0.15777320969437955   -0.002959662350820031   -0.024405805371395098
0.15777320969437955   -0.002959662350820031   -0.024405805371395098
0.15777320969437955   -0.002959662350820031   -0.024405805371395098
0.06454180203409565   0.007365113229930066   0.009740660354472502
0.06454180203409565   0.007365113229930066   0.009740660354472502
0.06454180203409565   0.007365113229930066   0.009740660354472502
0.06454180203409565   0.007365113229930066   0.009740660354472502
0.10587509242620408   -0.0011860641530682982   -0.0005370303229420472
0.10587509242620408   -0.0011860641530682982   -0.0005370303229420472
0.10587509242620408   -0.0011860641530682982   -0.0005370303229420472
0.10587509242620408   -0.0011860641530682982   -0.0005370303229420472
0.05231215286006883   -0.023316005917124478   -0.020726466368606623
0.05231215286006883   -0.023316005917124478   -0.020726466368606623
0.05231215286006883   -0.023316005917124478   -0.020726466368606623
0.05231215286006883   -0.023316005917124478   -0.020726466368606623
0.17108099349296196   0.028799591420791446   0.010373859849909284
0.17108099349296196   0.028799591420791446   0.010373859849909284
0.17108099349296196   0.028799591420791446   0.010373859849909284
0.17108099349296196   0.028799591420791446   0.010373859849909284
0.1709515011925778   0.010072760718510806   -0.02617655292556934
0.1709515011925778   0.010072760718510806   -0.02617655292556934
0.1709515011925778   0.010072760718510806   -0.02617655292556934
0.1709515011925778   0.010072760718510806   -0.02617655292556934
0.06685114900596037   0.016096718175954094   0.007752864156152829
0.06685114900596037   0.016096718175954094   0.007752864156152829
0.06685114900596037   0.016096718175954094   0.007752864156152829
0.06685114900596037   0.016096718175954094   0.007752864156152829
0.11028949145661039   0.005412186722424696   0.00360614198243895
0.11028949145661039   0.005412186722424696   0.00360614198243895
0.11028949145661039   0.005412186722424696   0.00360614198243895
0.11028949145661039   0.005412186722424696   0.00360614198243895
-0.2066458180807536   -0.003070699405285468   0.020782863661766366
-0.2066458180807536   -0.003070699405285468   0.020782863661766366
-0.2066458180807536   -0.003070699405285468   0.020782863661766366
-0.2066458180807536   -0.003070699405285468   0.020782863661766366
-0.1628910439342048   -0.02095974239215895   -0.010150424780273996
-0.1628910439342048   -0.02095974239215895   -0.010150424780273996
-0.1628910439342048   -0.02095974239215895   -0.010150424780273996
-0.1628910439342048   -0.02095974239215895   -0.010150424780273996
-0.1473758824051256   0.017619450012758785   0.01773273605000964
-0.1473758824051256   0.017619450012758785   0.01773273605000964
-0.1473758824051256   0.017619450012758785   0.01773273605000964
-0.1473758824051256   0.017619450012758785   0.01773273605000964
-0.20585739897718308   -0.022489085469197267   -0.01386880325680082
-0.20585739897718308   -0.022489085469197267   -0.01386880325680082
-0.20585739897718308   -0.022489085469197267   -0.01386880325680082
-0.20585739897718308   -0.022489085469197267   -0.01386880325680082
-0.17385675629718583   -0.004697927117159557   -0.0028268545589120106
-0.17385675629718583   -0.004697927117159557   -0.0028268545589120106
-0.17385675629718583   -0.004697927117159557   -0.0028268545589120106
-0.17385675629718583   -0.004697927117159557   -0.0028268545589120106
-0.19283025542243012   0.008947995007374442   0.01982983404039241
-0.19283025542243012   0.008947995007374442   0.01982983404039241
-0.19283025542243012   0.008947995007374442   0.01982983404039241
-0.19283025542243012   0.008947995007374442   0.01982983404039241
-0.15948246875128494   -0.012897073255218963   -0.012283672412807464
-0.15948246875128494   -0.012897073255218963   -0.012283672412807464
-0.15948246875128494   -0.012897073255218963   -0.012283672412807464
-0.15948246875128494   -0.012897073255218963   -0.012283672412807464
-0.14381088954818205   0.02221923555894209   0.014971074653328016
-0.14381088954818205   0.02221923555894209   0.014971074653328016
-0.14381088954818205   0.02221923555894209   0.014971074653328016
-0.14381088954818205   0.02221923555894209   0.014971074653328016
-0.19631518396188113   -0.017272655243667223   -0.01728259566824339
-0.19631518396188113   -0.017272655243667223   -0.01728259566824339
-0.19631518396188113   -0.017272655243667223   -0.01728259566824339
-0.19631518396188113   -0.017272655243667223   -0.01728259566824339
-0.16886591387342123   0.0013029969896673418   0.0010285017226759757
-0.16886591387342123   0.0013029969896673418   0.0010285017226759757
-0.16886591387342123   0.0013029969896673418   0.0010285017226759757
-0.16886591387342123   0.0013029969896673418   0.0010285017226759757
-0.18330113164425768   0.014524978620251906   0.015990032055952723
-0.18330113164425768   0.014524978620251906   0.015990032055952723
-0.18330113164425768   0.014524978620251906   0.015990032055952723
-0.18330113164425768   0.014524978620251906   0.015990032055952723
-0.155959410164604   -0.008712866603775661   -0.014839426266062722
-0.155959410164604   -0.008712866603775661   -0.014839426266062722
-0.155959410164604   -0.008712866603775661   -0.014839426266062722
-0.155959410164604   -0.008712866603775661   -0.014839426266062722
-0.1409511098118056   0.02801881403418069   0.012907414800375532
-0.1409511098118056   0.02801881403418069   0.012907414800375532
-0.1409511098118056   0.02801881403418069   0.012907414800375532
-0.1409511098118056   0.02801881403418069   0.012907414800375532
-0.18350845959573672   -0.008907253314683235   -0.019982922564056524
-0.18350845959573672   -0.008907253314683235   -0.019982922564056524
-0.18350845959573672   -0.008907253314683235   -0.019982922564056524
-0.18350845959573672   -0.008907253314683235   -0.019982922564056524
-0.15886061153836412   0.007260373787246463   0.005778994611365999
-0.15886061153836412   0.007260373787246463   0.005778994611365999
-0.15886061153836412   0.007260373787246463   0.005778994611365999
-0.15886061153836412   0.007260373787246463   0.005778994611365999
-0.15699476557977723   -0.011594870677351363   0.00996609527705632
-0.15699476557977723   -0.011594870677351363   0.00996609527705632
-0.15699476557977723   -0.011594870677351363   0.00996609527705632
-0.15699476557977723   -0.011594870677351363   0.00996609527705632
-0.11677682199512787   -0.01587069216882519   -0.002995632846360499
-0.11677682199512787   -0.01587069216882519   -0.002995632846360499
-0.11677682199512787   -0.01587069216882519   -0.002995632846360499
-0.11677682199512787   -0.01587069216882519   -0.002995632846360499
-0.10819340230717818   0.007984884813731784   0.009070340043026707
-0.10819340230717818   0.007984884813731784   0.009070340043026707
-0.10819340230717818   0.007984884813731784   0.009070340043026707
-0.10819340230717818   0.007984884813731784   0.009070340043026707
-0.15947333570453723   -0.016550121481981147   -0.008584958952304725
-0.15947333570453723   -0.016550121481981147   -0.008584958952304725
-0.15947333570453723   -0.016550121481981147   -0.008584958952304725
-0.15947333570453723   -0.016550121481981147   -0.008584958952304725
-0.13502313277259984   -0.00827342571328479   -0.003727396559273571
-0.13502313277259984   -0.00827342571328479   -0.003727396559273571
-0.13502313277259984   -0.00827342571328479   -0.003727396559273571
-0.13502313277259984   -0.00827342571328479   -0.003727396559273571
-0.15296843770916113   -0.001088590305626646   0.008477999848217503
-0.15296843770916113   -0.001088590305626646   0.008477999848217503
-0.15296843770916113   -0.001088590305626646   0.008477999848217503
-0.15296843770916113   -0.001088590305626646   0.008477999848217503
-0.11395634064427133   -0.006734686704340399   -0.00502478012436688
-0.11395634064427133   -0.006734686704340399   -0.00502478012436688
-0.11395634064427133   -0.006734686704340399   -0.00502478012436688
-0.11395634064427133   -0.006734686704340399   -0.00502478012436688
-0.10512928884205197   0.01736823244009082   0.007243179593236365
-0.10512928884205197   0.01736823244009082   0.007243179593236365
-0.10512928884205197   0.01736823244009082   0.007243179593236365
-0.10512928884205197   0.01736823244009082   0.007243179593236365
-0.15482098708824218   -0.007573513382393742   -0.010286664105633867
-0.15482098708824218   -0.007573513382393742   -0.010286664105633867
-0.15482098708824218   -0.007573513382393742   -0.010286664105633867
-0.15482098708824218   -0.007573513382393742   -0.010286664105633867
-0.13054713952520686   0.0007288903562956174   0.0003037926890289916
-0.13054713952520686   0.0007288903562956174   0.0003037926890289916
-0.13054713952520686   0.0007288903562956174   0.0003037926890289916
-0.13054713952520686   0.0007288903562956174   0.0003037926890289916
-0.14793235503244184   0.008896316534633172   0.007686666256338015
-0.14793235503244184   0.008896316534633172   0.007686666256338015
-0.14793235503244184   0.008896316534633172   0.007686666256338015
-0.14793235503244184   0.008896316534633172   0.007686666256338015
-0.1111616085542746   0.001754714866639695   -0.007304901394426607
-0.1111616085542746   0.001754714866639695   -0.007304901394426607
-0.1111616085542746   0.001754714866639695   -0.007304901394426607
-0.1111616085542746   0.001754714866639695   -0.007304901394426607
-0.10207322949268943   0.02759360909916147   0.0055026430325367075
-0.10207322949268943   0.02759360909916147   0.0055026430325367075
-0.10207322949268943   0.02759360909916147   0.0055026430325367075
-0.10207322949268943   0.02759360909916147   0.0055026430325367075
-0.15101271675997852   0.0022714236317301975   -0.011653229538036457
-0.15101271675997852   0.0022714236317301975   -0.011653229538036457
-0.15101271675997852   0.0022714236317301975   -0.011653229538036457
-0.15101271675997852   0.0022714236317301975   -0.011653229538036457
-0.12732464906928842   0.009602446953591939   0.0042643643181108516
-0.12732464906928842   0.009602446953591939   0.0042643643181108516
-0.12732464906928842   0.009602446953591939   0.0042643643181108516
-0.12732464906928842   0.009602446953591939   0.0042643643181108516
-0.11658987650709467   -0.019771388179432133   0.0018397906044104382
-0.11658987650709467   -0.019771388179432133   0.0018397906044104382
-0.11658987650709467   -0.019771388179432133   0.0018397906044104382
-0.11658987650709467   -0.019771388179432133   0.0018397906044104382
-0.07117077392586758   -0.008589438867649502   0.00423669791170927
-0.07117077392586758   -0.008589438867649502   0.00423669791170927
-0.07117077392586758   -0.008589438867649502   0.00423669791170927
-0.07117077392586758   -0.008589438867649502   0.00423669791170927
-0.06892523653388376   -0.0004075208213446934   0.0005320721762486487
-0.06892523653388376   -0.0004075208213446934   0.0005320721762486487
-0.06892523653388376   -0.0004075208213446934   0.0005320721762486487
-0.06892523653388376   -0.0004075208213446934   0.0005320721762486487
-0.1135831205805507   -0.00892551031702005   -0.0009678561930840379
-0.1135831205805507   -0.00892551031702005   -0.0009678561930840379
-0.1135831205805507   -0.00892551031702005   -0.0009678561930840379
-0.1135831205805507   -0.00892551031702005   -0.0009678561930840379
-0.09271768849909987   -0.008977524148033059   -0.0027283779384555534
-0.09271768849909987   -0.008977524148033059   -0.0027283779384555534
-0.09271768849909987   -0.008977524148033059   -0.0027283779384555534
-0.09271768849909987   -0.008977524148033059   -0.0027283779384555534
-0.11343091283064095   -0.009367946723381022   0.00023561896282419835
-0.11343091283064095   -0.009367946723381022   0.00023561896282419835
-0.11343091283064095   -0.009367946723381022   0.00023561896282419835
-0.11343091283064095   -0.009367946723381022   0.00023561896282419835
-0.06833840321242365   0.0007739566563858945   0.0022847613058186445
-0.06833840321242365   0.0007739566563858945   0.0022847613058186445
-0.06833840321242365   0.0007739566563858945   0.0022847613058186445
-0.06833840321242365   0.0007739566563858945   0.0022847613058186445
-0.06558394225315999   0.010085432013307246   -0.0009713116019387088
-0.06558394225315999   0.010085432013307246   -0.0009713116019387088
-0.06558394225315999   0.010085432013307246   -0.0009713116019387088
-0.06558394225315999   0.010085432013307246   -0.0009713116019387088
-0.11051176763375992   0.0005732885468191715   -0.002874270472032682
-0.11051176763375992   0.0005732885468191715   -0.002874270472032682
-0.11051176763375992   0.0005732885468191715   -0.002874270472032682
-0.11051176763375992   0.0005732885468191715   -0.002874270472032682
-0.0891862210530472   0.00043579438973513976   0.0011908531867736915
-0.0891862210530472   0.00043579438973513976   0.0011908531867736915
-0.0891862210530472   0.00043579438973513976   0.0011908531867736915
-0.0891862210530472   0.00043579438973513976   0.0011908531867736915
-0.11011423197202744   0.0010924797221758993   -0.0014057833387280073
-0.11011423197202744   0.0010924797221758993   -0.0014057833387280073
-0.11011423197202744   0.0010924797221758993   -0.0014057833387280073
-0.11011423197202744   0.0010924797221758993   -0.0014057833387280073
-0.06531236881350583   0.010235349939337092   0.00023663767030283195
-0.06531236881350583   0.010235349939337092   0.00023663767030283195
-0.06531236881350583   0.010235349939337092   0.00023663767030283195
-0.06531236881350583   0.010235349939337092   0.00023663767030283195
-0.06242604146645667   0.020679012061126836   -0.0026732134038195323
-0.06242604146645667   0.020679012061126836   -0.0026732134038195323
-0.06242604146645667   0.020679012061126836   -0.0026732134038195323
-0.06242604146645667   0.020679012061126836   -0.0026732134038195323
-0.10764861102845516   0.01014382442955035   -0.00492447997668078
-0.10764861102845516   0.01014382442955035   -0.00492447997668078
-0.10764861102845516   0.01014382442955035   -0.00492447997668078
-0.10764861102845516   0.01014382442955035   -0.00492447997668078
-0.08585394589651021   0.00988355724241424   0.004951257171112693
-0.08585394589651021   0.00988355724241424   0.004951257171112693
-0.08585394589651021   0.00988355724241424   0.004951257171112693
-0.08585394589651021   0.00988355724241424   0.004951257171112693
-0.07693722244250571   -0.026830135581604367   -0.0063548479575276755
-0.07693722244250571   -0.026830135581604367   -0.0063548479575276755
-0.07693722244250571   -0.026830135581604367   -0.0063548479575276755
-0.07693722244250571   -0.026830135581604367   -0.0063548479575276755
-0.027141761821089582   -0.0008652044818006775   0.011084716178043342
-0.027141761821089582   -0.0008652044818006775   0.011084716178043342
-0.027141761821089582   -0.0008652044818006775   0.011084716178043342
-0.027141761821089582   -0.0008652044818006775   0.011084716178043342
-0.030464315015098702   -0.008394112596714808   -0.00837824674394376
-0.030464315015098702   -0.008394112596714808   -0.00837824674394376
-0.030464315015098702   -0.008394112596714808   -0.00837824674394376
-0.030464315015098702   -0.008394112596714808   -0.00837824674394376
-0.06787020478911623   -0.0010124911948735538   0.00641220127361454
-0.06787020478911623   -0.0010124911948735538   0.00641220127361454
-0.06787020478911623   -0.0010124911948735538   0.00641220127361454
-0.06787020478911623   -0.0010124911948735538   0.00641220127361454
-0.05056048059114477   -0.008875551865321279   -0.0019729734860209325
-0.05056048059114477   -0.008875551865321279   -0.0019729734860209325
-0.05056048059114477   -0.008875551865321279   -0.0019729734860209325
-0.05056048059114477   -0.008875551865321279   -0.0019729734860209325
-0.07397161028286992   -0.01703448814957159   -0.00807282924045646
-0.07397161028286992   -0.01703448814957159   -0.00807282924045646
-0.07397161028286992   -0.01703448814957159   -0.00807282924045646
-0.07397161028286992   -0.01703448814957159   -0.00807282924045646
-0.023536803229130734   0.00845399065019869   0.009411208938982583
-0.023536803229130734   0.00845399065019869   0.009411208938982583
-0.023536803229130734   0.00845399065019869   0.009411208938982583
-0.023536803229130734   0.00845399065019869   0.009411208938982583
-0.025513969400365936   0.001530813121436497   -0.00943735395411853
-0.025513969400365936   0.001530813121436497   -0.00943735395411853
-0.025513969400365936   0.001530813121436497   -0.00943735395411853
-0.025513969400365936   0.001530813121436497   -0.00943735395411853
-0.06504599118941352   0.007512852792464534   0.0042910229376363985
-0.06504599118941352   0.007512852792464534   0.0042910229376363985
-0.06504599118941352   0.007512852792464534   0.0042910229376363985
-0.06504599118941352   0.007512852792464534   0.0042910229376363985
-0.04677549983756738   -8.59041081598972e-05   0.0020289435421116148
-0.04677549983756738   -8.59041081598972e-05   0.0020289435421116148
-0.04677549983756738   -8.59041081598972e-05   0.0020289435421116148
-0.04677549983756738   -8.59041081598972e-05   0.0020289435421116148
-0.07095272085337619   -0.007679517413570423   -0.010050255176142886
-0.07095272085337619   -0.007679517413570423   -0.010050255176142886
-0.07095272085337619   -0.007679517413570423   -0.010050255176142886
-0.07095272085337619   -0.007679517413570423   -0.010050255176142886
-0.018837543615813343   0.017492879448060036   0.0079827086420214
-0.018837543615813343   0.017492879448060036   0.0079827086420214
-0.018837543615813343   0.017492879448060036   0.0079827086420214
-0.018837543615813343   0.017492879448060036   0.0079827086420214
-0.021332149711234295   0.012579131088672023   -0.010587313004742518
-0.021332149711234295   0.012579131088672023   -0.010587313004742518
-0.021332149711234295   0.012579131088672023   -0.010587313004742518
-0.021332149711234295   0.012579131088672023   -0.010587313004742518
-0.062153969703829984   0.017120758305058492   0.002245399165382281
-0.062153969703829984   0.017120758305058492   0.002245399165382281
-0.062153969703829984   0.017120758305058492   0.002245399165382281
-0.062153969703829984   0.017120758305058492   0.002245399165382281
-0.04288928682433705   0.009026142833622488   0.0060140485501766336
-0.04288928682433705   0.009026142833622488   0.0060140485501766336
-0.04288928682433705   0.009026142833622488   0.0060140485501766336
-0.04288928682433705   0.009026142833622488   0.0060140485501766336
-0.03772542385232588   -0.028789293723244055   -0.013909504736695236
-0.03772542385232588   -0.028789293723244055   -0.013909504736695236
-0.03772542385232588   -0.028789293723244055   -0.013909504736695236
-0.03772542385232588   -0.028789293723244055   -0.013909504736695236
0.00502175564680005   0.008002130114661651   0.017070302711742466
0.00502175564680005   0.008002130114661651   0.017070302711742466
0.00502175564680005   0.008002130114661651   0.017070302711742466
0.00502175564680005   0.008002130114661651   0.017070302711742466
0.004955414451293734   -0.014646590661388362   -0.018464550104405727
0.004955414451293734   -0.014646590661388362   -0.018464550104405727
0.004955414451293734   -0.014646590661388362   -0.018464550104405727
0.004955414451293734   -0.014646590661388362   -0.018464550104405727
-0.022518702915002135   0.00897777692016943   0.013977924239654854
-0.022518702915002135   0.00897777692016943   0.013977924239654854
-0.022518702915002135   0.00897777692016943   0.013977924239654854
-0.022518702915002135   0.00897777692016943   0.013977924239654854
-0.012686763340559659   -0.006279135608027737   -0.003122160069874572
-0.012686763340559659   -0.006279135608027737   -0.003122160069874572
-0.012686763340559659   -0.006279135608027737   -0.003122160069874572
-0.012686763340559659   -0.006279135608027737   -0.003122160069874572
-0.03472912744915728   -0.022091561102323166   -0.01600486040862873
-0.03472912744915728   -0.022091561102323166   -0.01600486040862873
-0.03472912744915728   -0.022091561102323166   -0.01600486040862873
-0.03472912744915728   -0.022091561102323166   -0.01600486040862873
0.018046517296713655   0.017303425672368936   0.015040947788936589
0.018046517296713655   0.017303425672368936   0.015040947788936589
0.018046517296713655   0.017303425672368936   0.015040947788936589
0.018046517296713655   0.017303425672368936   0.015040947788936589
0.014536603882097321   -0.00897942229522758   -0.021976819119317377
0.014536603882097321   -0.00897942229522758   -0.021976819119317377
0.014536603882097321   -0.00897942229522758   -0.021976819119317377
0.014536603882097321   -0.00897942229522758   -0.021976819119317377
-0.019067851527186055   0.013091539486571739   0.01123250904664613
-0.019067851527186055   0.013091539486571739   0.01123250904664613
-0.019067851527186055   0.013091539486571739   0.01123250904664613
-0.019067851527186055   0.013091539486571739   0.01123250904664613
-0.004913487586960553   -0.0004247428731672269   0.0011885945880937688
-0.004913487586960553   -0.0004247428731672269   0.0011885945880937688
-0.004913487586960553   -0.0004247428731672269   0.0011885945880937688
-0.004913487586960553   -0.0004247428731672269   0.0011885945880937688
-0.0311274259620366   -0.01742635764033163   -0.01854746600070371
-0.0311274259620366   -0.01742635764033163   -0.01854746600070371
-0.0311274259620366   -0.01742635764033163   -0.01854746600070371
-0.0311274259620366   -0.01742635764033163   -0.01854746600070371
0.0274818529920206   0.022424149506748443   0.011345854628322997
0.0274818529920206   0.022424149506748443   0.011345854628322997
0.0274818529920206   0.022424149506748443   0.011345854628322997
0.0274818529920206   0.022424149506748443   0.011345854628322997
0.02806023384469698   0.0020728335830100843   -0.023575643647299985
0.02806023384469698   0.0020728335830100843   -0.023575643647299985
0.02806023384469698   0.0020728335830100843   -0.023575643647299985
0.02806023384469698   0.0020728335830100843   -0.023575643647299985
-0.015852109535962028   0.020258999493259724   0.0091330194670316
-0.015852109535962028   0.020258999493259724   0.0091330194670316
-0.015852109535962028   0.020258999493259724   0.0091330194670316
-0.015852109535962028   0.020258999493259724   0.0091330194670316
0.0022606750636861355   0.005683466265704497   0.005439283361128179
0.0022606750636861355   0.005683466265704497   0.005439283361128179
0.0022606750636861355   0.005683466265704497   0.005439283361128179
0.0022606750636861355   0.005683466265704497   0.005439283361128179
-0.06577591093259924   0.004398366097300051   0.019524984665415416
-0.06577591093259924   0.004398366097300051   0.019524984665415416
-0.06577591093259924   0.004398366097300051   0.019524984665415416
-0.06577591093259924   0.004398366097300051   0.019524984665415416
-0.08140542850803908   -0.025290934203583394   -0.011356666528613574
-0.08140542850803908   -0.025290934203583394   -0.011356666528613574
-0.08140542850803908   -0.025290934203583394   -0.011356666528613574
-0.08140542850803908   -0.025290934203583394   -0.011356666528613574
-0.06499557343544679   0.011647045677177607   0.01595002693334492
-0.06499557343544679   0.011647045677177607   0.01595002693334492
-0.06499557343544679   0.011647045677177607   0.01595002693334492
-0.06499557343544679   0.011647045677177607   0.01595002693334492
-0.0639641058805171   -0.0162065326879118   -0.014703856769126
-0.0639641058805171   -0.0162065326879118   -0.014703856769126
-0.0639641058805171   -0.0162065326879118   -0.014703856769126
-0.0639641058805171   -0.0162065326879118   -0.014703856769126
-0.06739284827070355   -0.005165882961446879   -0.005487515304734849
-0.06739284827070355   -0.005165882961446879   -0.005487515304734849
-0.06739284827070355   -0.005165882961446879   -0.005487515304734849
-0.06739284827070355   -0.005165882961446879   -0.005487515304734849
-0.051176940223881584   0.014854878915041352   0.018170559911098425
-0.051176940223881584   0.014854878915041352   0.018170559911098425
-0.051176940223881584   0.014854878915041352   0.018170559911098425
-0.051176940223881584   0.014854878915041352   0.018170559911098425
-0.07695914936442895   -0.018590776198122022   -0.013630030836265244
-0.07695914936442895   -0.018590776198122022   -0.013630030836265244
-0.07695914936442895   -0.018590776198122022   -0.013630030836265244
-0.07695914936442895   -0.018590776198122022   -0.013630030836265244
-0.060091442829032504   0.0161077100011323   0.01339548942291328
-0.060091442829032504   0.0161077100011323   0.01339548942291328
-0.060091442829032504   0.0161077100011323   0.01339548942291328
-0.060091442829032504   0.0161077100011323   0.01339548942291328
-0.053187151596904174   -0.011165399514319642   -0.018261753846510423
-0.053187151596904174   -0.011165399514319642   -0.018261753846510423
-0.053187151596904174   -0.011165399514319642   -0.018261753846510423
-0.053187151596904174   -0.011165399514319642   -0.018261753846510423
-0.05944809805207678   0.000510540202033713   -0.0012808191185369354
-0.05944809805207678   0.000510540202033713   -0.0012808191185369354
-0.05944809805207678   0.000510540202033713   -0.0012808191185369354
-0.05944809805207678   0.000510540202033713   -0.0012808191185369354
-0.04034993416626881   0.02027391717297613   0.014485016619368744
-0.04034993416626881   0.02027391717297613   0.014485016619368744
-0.04034993416626881   0.02027391717297613   0.014485016619368744
-0.04034993416626881   0.02027391717297613   0.014485016619368744
-0.07215895926346039   -0.014561905689955029   -0.016272477058138824
-0.07215895926346039   -0.014561905689955029   -0.016272477058138824
-0.07215895926346039   -0.014561905689955029   -0.016272477058138824
-0.07215895926346039   -0.014561905689955029   -0.016272477058138824
-0.055627621425493864   0.022978541450707844   0.011565213092655999
-0.055627621425493864   0.022978541450707844   0.011565213092655999
-0.055627621425493864   0.022978541450707844   0.011565213092655999
-0.055627621425493864   0.022978541450707844   0.011565213092655999
-0.03879058963171788   -0.0015885685484510626   -0.020555425770748016
-0.03879058963171788   -0.0015885685484510626   -0.020555425770748016
-0.03879058963171788   -0.0015885685484510626   -0.020555425770748016
-0.03879058963171788   -0.0015885685484510626   -0.020555425770748016
-0.04996255020962746   0.006480686633564332   0.0031957815294310857
-0.04996255020962746   0.006480686633564332   0.0031957815294310857
-0.04996255020962746   0.006480686633564332   0.0031957815294310857
-0.04996255020962746   0.006480686633564332   0.0031957815294310857
-0.07266669504497965   -0.0042002724107530025   0.01124633899385223
-0.07266669504497965   -0.0042002724107530025   0.01124633899385223
-0.07266669504497965   -0.0042002724107530025   0.01124633899385223
-0.07266669504497965   -0.0042002724107530025   0.01124633899385223
-0.0923540076736328   -0.020644032474847362   -0.004432407235937923
-0.0923540076736328   -0.020644032474847362   -0.004432407235937923
-0.0923540076736328   -0.020644032474847362   -0.004432407235937923
-0.0923540076736328   -0.020644032474847362   -0.004432407235937923
-0.08263338805772857   0.0020169774091858446   0.007410587856721566
-0.08263338805772857   0.0020169774091858446   0.007410587856721566
-0.08263338805772857   0.0020169774091858446   0.007410587856721566
-0.08263338805772857   0.0020169774091858446   0.007410587856721566
-0.07372890161345488   -0.009421994975447177   -0.00664757330406968
-0.07372890161345488   -0.009421994975447177   -0.00664757330406968
-0.07372890161345488   -0.009421994975447177   -0.00664757330406968
-0.07372890161345488   -0.009421994975447177   -0.00664757330406968
-0.08043788180516477   -0.007425086791674045   -0.00378714848686071
-0.08043788180516477   -0.007425086791674045   -0.00378714848686071
-0.08043788180516477   -0.007425086791674045   -0.00378714848686071
-0.08043788180516477   -0.007425086791674045   -0.00378714848686071
-0.06744616066453442   0.005534277174580885   0.009809859290502612
-0.06744616066453442   0.005534277174580885   0.009809859290502612
-0.06744616066453442   0.005534277174580885   0.009809859290502612
-0.06744616066453442   0.005534277174580885   0.009809859290502612
-0.08826850963553712   -0.012291675369730696   -0.00645636725340503
-0.08826850963553712   -0.012291675369730696   -0.00645636725340503
-0.08826850963553712   -0.012291675369730696   -0.00645636725340503
-0.08826850963553712   -0.012291675369730696   -0.00645636725340503
-0.07826749151073396   0.010923441627996258   0.005644615368807925
-0.07826749151073396   0.010923441627996258   0.005644615368807925
-0.07826749151073396   0.010923441627996258   0.005644615368807925
-0.07826749151073396   0.010923441627996258   0.005644615368807925
-0.06782101339209817   -0.0008836708242569331   -0.00826098256702588
-0.06782101339209817   -0.0008836708242569331   -0.00826098256702588
-0.06782101339209817   -0.0008836708242569331   -0.00826098256702588
-0.06782101339209817   -0.0008836708242569331   -0.00826098256702588
-0.07518957004196974   0.0008450119713294853   8.224848637950356e-05
-0.07518957004196974   0.0008450119713294853   8.224848637950356e-05
-0.07518957004196974   0.0008450119713294853   8.224848637950356e-05
-0.07518957004196974   0.0008450119713294853   8.224848637950356e-05
-0.06122924580871438   0.014970837166471518   0.00884334735916463
-0.06122924580871438   0.014970837166471518   0.00884334735916463
-0.06122924580871438   0.014970837166471518   0.00884334735916463
-0.06122924580871438   0.014970837166471518   0.00884334735916463
-0.08416807625571143   -0.004239883524327304   -0.008694983203756796
-0.08416807625571143   -0.004239883524327304   -0.008694983203756796
-0.08416807625571143   -0.004239883524327304   -0.008694983203756796
-0.08416807625571143   -0.004239883524327304   -0.008694983203756796
-0.07387665566284847   0.020822407292572533   0.003965627669045187
-0.07387665566284847   0.020822407292572533   0.003965627669045187
-0.07387665566284847   0.020822407292572533   0.003965627669045187
-0.07387665566284847   0.020822407292572533   0.003965627669045187
-0.06276002322877479   0.0086350452001424   -0.00975329967318222
-0.06276002322877479   0.0086350452001424   -0.00975329967318222
-0.06276002322877479   0.0086350452001424   -0.00975329967318222
-0.06276002322877479   0.0086350452001424   -0.00975329967318222
-0.07022344217383202   0.009431909440050582   0.004036982662883141
-0.07022344217383202   0.009431909440050582   0.004036982662883141
-0.07022344217383202   0.009431909440050582   0.004036982662883141
-0.07022344217383202   0.009431909440050582   0.004036982662883141
-0.08917323127896949   -0.01239315122342139   0.003220593485951743
-0.08917323127896949   -0.01239315122342139   0.003220593485951743
-0.08917323127896949   -0.01239315122342139   0.003220593485951743
-0.08917323127896949   -0.01239315122342139   0.003220593485951743
-0.10315809875899142   -0.013276082828482716   0.0026536264281450416
-0.10315809875899142   -0.013276082828482716   0.0026536264281450416
-0.10315809875899142   -0.013276082828482716   0.0026536264281450416
-0.10315809875899142   -0.013276082828482716   0.0026536264281450416
-0.09970287168660844   -0.006152350076038156   -0.000982303882116821
-0.09970287168660844   -0.006152350076038156   -0.000982303882116821
-0.09970287168660844   -0.006152350076038156   -0.000982303882116821
-0.09970287168660844   -0.006152350076038156   -0.000982303882116821
-0.08467550391881887   -0.0016792617079485136   0.0008962476684044466
-0.08467550391881887   -0.0016792617079485136   0.0008962476684044466
-0.08467550391881887   -0.0016792617079485136   0.0008962476684044466
-0.08467550391881887   -0.0016792617079485136   0.0008962476684044466
-0.09431929883801392   -0.007901790408359411   -0.0025371943395908108
-0.09431929883801392   -0.007901790408359411   -0.0025371943395908108
-0.09431929883801392   -0.007901790408359411   -0.0025371943395908108
-0.09431929883801392   -0.007901790408359411   -0.0025371943395908108
-0.08471597057238248   -0.0026296487818685058   0.0016443014745054635
-0.08471597057238248   -0.0026296487818685058   0.0016443014745054635
-0.08471597057238248   -0.0026296487818685058   0.0016443014745054635
-0.08471597057238248   -0.0026296487818685058   0.0016443014745054635
-0.09904877674599534   -0.004588334715068695   0.000724155459980007
-0.09904877674599534   -0.004588334715068695   0.000724155459980007
-0.09904877674599534   -0.004588334715068695   0.000724155459980007
-0.09904877674599534   -0.004588334715068695   0.000724155459980007
-0.0951033420641534   0.0037346085374855356   -0.002476096088307376
-0.0951033420641534   0.0037346085374855356   -0.002476096088307376
-0.0951033420641534   0.0037346085374855356   -0.002476096088307376
-0.0951033420641534   0.0037346085374855356   -0.002476096088307376
-0.08032392276711843   0.007245846267214175   -0.0009599455523323199
-0.08032392276711843   0.007245846267214175   -0.0009599455523323199
-0.08032392276711843   0.007245846267214175   -0.0009599455523323199
-0.08032392276711843   0.007245846267214175   -0.0009599455523323199
-0.08950545353750691   0.0009171587196934727   0.0012938954628103887
-0.08950545353750691   0.0009171587196934727   0.0012938954628103887
-0.08950545353750691   0.0009171587196934727   0.0012938954628103887
-0.08950545353750691   0.0009171587196934727   0.0012938954628103887
-0.08013817725813906   0.007221488640254535   -6.860380476720468e-06
-0.08013817725813906   0.007221488640254535   -6.860380476720468e-06
-0.08013817725813906   0.007221488640254535   -6.860380476720468e-06
-0.08013817725813906   0.007221488640254535   -6.860380476720468e-06
-0.09475183575204038   0.004296217985537403   -0.0012801739757942196
-0.09475183575204038   0.004296217985537403   -0.0012801739757942196
-0.09475183575204038   0.004296217985537403   -0.0012801739757942196
-0.09475183575204038   0.004296217985537403   -0.0012801739757942196
-0.09069773402022649   0.013688952869531767   -0.004149714785002364
-0.09069773402022649   0.013688952869531767   -0.004149714785002364
-0.09069773402022649   0.013688952869531767   -0.004149714785002364
-0.09069773402022649   0.013688952869531767   -0.004149714785002364
-0.07619492004913316   0.01620757357314186   -0.0030108605429471132
-0.07619492004913316   0.01620757357314186   -0.0030108605429471132
-0.07619492004913316   0.01620757357314186   -0.0030108605429471132
-0.07619492004913316   0.01620757357314186   -0.0030108605429471132
-0.0849249334320817   0.009754042874715211   0.004944429592865792
-0.0849249334320817   0.009754042874715211   0.004944429592865792
-0.0849249334320817   0.009754042874715211   0.004944429592865792
-0.0849249334320817   0.009754042874715211   0.004944429592865792
-0.10599985688846472   -0.01985001345035465   -0.004981233597351377
-0.10599985688846472   -0.01985001345035465   -0.004981233597351377
-0.10599985688846472   -0.01985001345035465   -0.004981233597351377
-0.10599985688846472   -0.01985001345035465   -0.004981233597351377
-0.11501610709864976   -0.006050750717430362   0.009399332040471307
-0.11501610709864976   -0.006050750717430362   0.009399332040471307
-0.11501610709864976   -0.006050750717430362   0.009399332040471307
-0.11501610709864976   -0.006050750717430362   0.009399332040471307
-0.11701970014447174   -0.01402957983200065   -0.009523746556673086
-0.11701970014447174   -0.01402957983200065   -0.009523746556673086
-0.11701970014447174   -0.01402957983200065   -0.009523746556673086
-0.11701970014447174   -0.01402957983200065   -0.009523746556673086
-0.09549644967413183   0.0058802360778456055   0.008017220026382433
-0.09549644967413183   0.0058802360778456055   0.008017220026382433
-0.09549644967413183   0.0058802360778456055   0.008017220026382433
-0.09549644967413183   0.0058802360778456055   0.008017220026382433
-0.10791047111368697   -0.007977059090624765   -0.0016043404222825341
-0.10791047111368697   -0.007977059090624765   -0.0016043404222825341
-0.10791047111368697   -0.007977059090624765   -0.0016043404222825341
-0.10791047111368697   -0.007977059090624765   -0.0016043404222825341
-0.10167416762629293   -0.010378292290288273   -0.0066128413662900455
-0.10167416762629293   -0.010378292290288273   -0.0066128413662900455
-0.10167416762629293   -0.010378292290288273   -0.0066128413662900455
-0.10167416762629293   -0.010378292290288273   -0.0066128413662900455
-0.11019914153703894   0.002871789191404798   0.007677677457085505
-0.11019914153703894   0.002871789191404798   0.007677677457085505
-0.11019914153703894   0.002871789191404798   0.007677677457085505
-0.11019914153703894   0.002871789191404798   0.007677677457085505
-0.11092250561272024   -0.0046583339721657305   -0.010688396462208205
-0.11092250561272024   -0.0046583339721657305   -0.010688396462208205
-0.11092250561272024   -0.0046583339721657305   -0.010688396462208205
-0.11092250561272024   -0.0046583339721657305   -0.010688396462208205
-0.0913781428746279   0.013923799349614588   0.005960709047190151
-0.0913781428746279   0.013923799349614588   0.005960709047190151
-0.0913781428746279   0.013923799349614588   0.005960709047190151
-0.0913781428746279   0.013923799349614588   0.005960709047190151
-0.10239222463471222   0.0005323407692974132   0.0023583020249855783
-0.10239222463471222   0.0005323407692974132   0.0023583020249855783
-0.10239222463471222   0.0005323407692974132   0.0023583020249855783
-0.10239222463471222   0.0005323407692974132   0.0023583020249855783
-0.09736230286888875   -0.001513227038216207   -0.008523064536284411
-0.09736230286888875   -0.001513227038216207   -0.008523064536284411
-0.09736230286888875   -0.001513227038216207   -0.008523064536284411
-0.09736230286888875   -0.001513227038216207   -0.008523064536284411
-0.10428884520868804   0.011428192825435106   0.006393378760352881
-0.10428884520868804   0.011428192825435106   0.006393378760352881
-0.10428884520868804   0.011428192825435106   0.006393378760352881
-0.10428884520868804   0.011428192825435106   0.006393378760352881
-0.10559716487961517   0.005634876184119588   -0.011740816263527054
-0.10559716487961517   0.005634876184119588   -0.011740816263527054
-0.10559716487961517   0.005634876184119588   -0.011740816263527054
-0.10559716487961517   0.005634876184119588   -0.011740816263527054
-0.08724924416731228   0.022850488837547114   0.003931198511553345
-0.08724924416731228   0.022850488837547114   0.003931198511553345
-0.08724924416731228   0.022850488837547114   0.003931198511553345
-0.08724924416731228   0.022850488837547114   0.003931198511553345
-0.09777045952033454   0.008930781447631073   0.00613144392111697
-0.09777045952033454   0.008930781447631073   0.00613144392111697
-0.09777045952033454   0.008930781447631073   0.00613144392111697
-0.09777045952033454   0.008930781447631073   0.00613144392111697
-0.12290929599207104   -0.023518011153562113   -0.012599351990505239
-0.12290929599207104   -0.023518011153562113   -0.012599351990505239
-0.12290929599207104   -0.023518011153562113   -0.012599351990505239
-0.12290929599207104   -0.023518011153562113   -0.012599351990505239
-0.13814001002774898   0.0013020213665426404   0.017116992501822373
-0.13814001002774898   0.0013020213665426404   0.017116992501822373
-0.13814001002774898   0.0013020213665426404   0.017116992501822373
-0.13814001002774898   0.0013020213665426404   0.017116992501822373
-0.13661242775983073   -0.02000827593253173   -0.016858615179022367
-0.13661242775983073   -0.02000827593253173   -0.016858615179022367
-0.13661242775983073   -0.02000827593253173   -0.016858615179022367
-0.13661242775983073   -0.02000827593253173   -0.016858615179022367
-0.10626359409386485   0.014889349232870976   0.015337854631488363
-0.10626359409386485   0.014889349232870976   0.015337854631488363
-0.10626359409386485   0.014889349232870976   0.015337854631488363
-0.10626359409386485   0.014889349232870976   0.015337854631488363
-0.1208860962749929   -0.005222089839872383   -0.0006201234218714338
-0.1208860962749929   -0.005222089839872383   -0.0006201234218714338
-0.1208860962749929   -0.005222089839872383   -0.0006201234218714338
-0.1208860962749929   -0.005222089839872383   -0.0006201234218714338
-0.11836734315470539   -0.015871536886393898   -0.014420004553450867
-0.11836734315470539   -0.015871536886393898   -0.014420004553450867
-0.11836734315470539   -0.015871536886393898   -0.014420004553450867
-0.11836734315470539   -0.015871536886393898   -0.014420004553450867
-0.1238302367288913   0.011431052156830372   0.015613011886311801
-0.1238302367288913   0.011431052156830372   0.015613011886311801
-0.1238302367288913   0.011431052156830372   0.015613011886311801
-0.1238302367288913   0.011431052156830372   0.015613011886311801
-0.12593975308135358   -0.014554938456062073   -0.020127979112363067
-0.12593975308135358   -0.014554938456062073   -0.020127979112363067
-0.12593975308135358   -0.014554938456062073   -0.020127979112363067
-0.12593975308135358   -0.014554938456062073   -0.020127979112363067
-0.10159264721251428   0.01873161923578883   0.012570942330867052
-0.10159264721251428   0.01873161923578883   0.012570942330867052
-0.10159264721251428   0.01873161923578883   0.012570942330867052
-0.10159264721251428   0.01873161923578883   0.012570942330867052
-0.11381294068965189   0.0004995245872435536   0.0031600261267978142
-0.11381294068965189   0.0004995245872435536   0.0031600261267978142
-0.11381294068965189   0.0004995245872435536   0.0031600261267978142
-0.11381294068965189   0.0004995245872435536   0.0031600261267978142
-0.1134728857347577   -0.011379746144318935   -0.016718884900243265
-0.1134728857347577   -0.011379746144318935   -0.016718884900243265
-0.1134728857347577   -0.011379746144318935   -0.016718884900243265
-0.1134728857347577   -0.011379746144318935   -0.016718884900243265
-0.11334652909512855   0.016269412388027163   0.01201378997467297
-0.11334652909512855   0.016269412388027163   0.01201378997467297
-0.11334652909512855   0.016269412388027163   0.01201378997467297
-0.11334652909512855   0.016269412388027163   0.01201378997467297
-0.11182504147303361   -0.005169022521635373   -0.02203415867036461
-0.11182504147303361   -0.005169022521635373   -0.02203415867036461
-0.11182504147303361   -0.005169022521635373   -0.02203415867036461
-0.11182504147303361   -0.005169022521635373   -0.02203415867036461
-0.09743049569836822   0.02437332977458022   0.010354076052246064
-0.09743049569836822   0.02437332977458022   0.010354076052246064
-0.09743049569836822   0.02437332977458022   0.010354076052246064
-0.09743049569836822   0.02437332977458022   0.010354076052246064
-0.10383108536455914   0.006176116974778611   0.007575089504489922
-0.10383108536455914   0.006176116974778611   0.007575089504489922
-0.10383108536455914   0.006176116974778611   0.007575089504489922
-0.10383108536455914   0.006176116974778611   0.007575089504489922
0.07478257560486405   0.011953497018569237   0.01867748546924644
0.07478257560486405   0.011953497018569237   0.01867748546924644
0.07478257560486405   0.011953497018569237   0.01867748546924644
0.07478257560486405   0.011953497018569237   0.01867748546924644
-0.0009002666754236071   -0.02987488317863509   -0.012214713646109356
-0.0009002666754236071   -0.02987488317863509   -0.012214713646109356
-0.0009002666754236071   -0.02987488317863509   -0.012214713646109356
-0.0009002666754236071   -0.02987488317863509   -0.012214713646109356
0.01637934138837652   0.005681898935384759   0.014394854078463177
0.01637934138837652   0.005681898935384759   0.014394854078463177
0.01637934138837652   0.005681898935384759   0.014394854078463177
0.01637934138837652   0.005681898935384759   0.014394854078463177
0.07761207024847958   -0.010006422188363773   -0.015351952008626345
0.07761207024847958   -0.010006422188363773   -0.015351952008626345
0.07761207024847958   -0.010006422188363773   -0.015351952008626345
0.07761207024847958   -0.010006422188363773   -0.015351952008626345
0.03825393137914214   -0.005628849912589881   -0.00898641571340561
0.03825393137914214   -0.005628849912589881   -0.00898641571340561
0.03825393137914214   -0.005628849912589881   -0.00898641571340561
0.03825393137914214   -0.005628849912589881   -0.00898641571340561
0.090241887935906   0.020944650231022006   0.016846064009119942
0.090241887935906   0.020944650231022006   0.016846064009119942
0.090241887935906   0.020944650231022006   0.016846064009119942
0.090241887935906   0.020944650231022006   0.016846064009119942
0.004549260662036738   -0.02446943652291567   -0.014604214094935317
0.004549260662036738   -0.02446943652291567   -0.014604214094935317
0.004549260662036738   -0.02446943652291567   -0.014604214094935317
0.004549260662036738   -0.02446943652291567   -0.014604214094935317
0.02250618106457507   0.01002276654698988   0.01198574379855794
0.02250618106457507   0.01002276654698988   0.01198574379855794
0.02250618106457507   0.01002276654698988   0.01198574379855794
0.02250618106457507   0.01002276654698988   0.01198574379855794
0.08959969538497428   -0.005108822831964496   -0.019137455455441647
0.08959969538497428   -0.005108822831964496   -0.019137455455441647
0.08959969538497428   -0.005108822831964496   -0.019137455455441647
0.08959969538497428   -0.005108822831964496   -0.019137455455441647
0.049099287551222344   -0.000244696122978838   -0.004300987191110664
0.049099287551222344   -0.000244696122978838   -0.004300987191110664
0.049099287551222344   -0.000244696122978838   -0.004300987191110664
0.049099287551222344   -0.000244696122978838   -0.004300987191110664
0.10234460878040906   0.02624080089033188   0.01323748779943396
0.10234460878040906   0.02624080089033188   0.01323748779943396
0.10234460878040906   0.02624080089033188   0.01323748779943396
0.10234460878040906   0.02624080089033188   0.01323748779943396
0.010533312207350987   -0.02055481263709612   -0.017301021303476483
0.010533312207350987   -0.02055481263709612   -0.017301021303476483
0.010533312207350987   -0.02055481263709612   -0.017301021303476483
0.010533312207350987   -0.02055481263709612   -0.017301021303476483
0.02844172053626189   0.01804269442422273   0.010368578924641183
0.02844172053626189   0.01804269442422273   0.010368578924641183
0.02844172053626189   0.01804269442422273   0.010368578924641183
0.02844172053626189   0.01804269442422273   0.010368578924641183
0.10554071005705802   0.005837509067683048   -0.021083141133963576
0.10554071005705802   0.005837509067683048   -0.021083141133963576
0.10554071005705802   0.005837509067683048   -0.021083141133963576
0.10554071005705802   0.005837509067683048   -0.021083141133963576
0.05806823963162365   0.005827723978538559   9.696741405165656e-05
0.05806823963162365   0.005827723978538559   9.696741405165656e-05
0.05806823963162365   0.005827723978538559   9.696741405165656e-05
0.05806823963162365   0.005827723978538559   9.696741405165656e-05
0.010768463133021898   0.0034314613143064812   0.012822590903176596
0.010768463133021898   0.0034314613143064812   0.012822590903176596
0.010768463133021898   0.0034314613143064812   0.012822590903176596
0.010768463133021898   0.0034314613143064812   0.012822590903176596
-0.06890183641929737   -0.0254303014446068   -0.005616216350429525
-0.06890183641929737   -0.0254303014446068   -0.005616216350429525
-0.06890183641929737   -0.0254303014446068   -0.005616216350429525
-0.06890183641929737   -0.0254303014446068   -0.005616216350429525
-0.058099274550936296   -0.003809464297307704   0.005785453024109121
-0.058099274550936296   -0.003809464297307704   0.005785453024109121
-0.058099274550936296   -0.003809464297307704   0.005785453024109121
-0.058099274550936296   -0.003809464297307704   0.005785453024109121
0.01097460812469883   -0.002568459378485726   -0.004378453926054805
0.01097460812469883   -0.002568459378485726   -0.004378453926054805
0.01097460812469883   -0.002568459378485726   -0.004378453926054805
0.01097460812469883   -0.002568459378485726   -0.004378453926054805
-0.02690230274131032   -0.006444109871997508   -0.004282450292904936
-0.02690230274131032   -0.006444109871997508   -0.004282450292904936
-0.02690230274131032   -0.006444109871997508   -0.004282450292904936
-0.02690230274131032   -0.006444109871997508   -0.004282450292904936
0.017108115951869562   0.01234920697057856   0.011371418860734575
0.017108115951869562   0.01234920697057856   0.011371418860734575
0.017108115951869562   0.01234920697057856   0.011371418860734575
0.017108115951869562   0.01234920697057856   0.011371418860734575
-0.0636435599812319   -0.018137908249496865   -0.007607530175179759
-0.0636435599812319   -0.018137908249496865   -0.007607530175179759
-0.0636435599812319   -0.018137908249496865   -0.007607530175179759
-0.0636435599812319   -0.018137908249496865   -0.007607530175179759
-0.0525257104596883   0.004643428965386311   0.004079213448788134
-0.0525257104596883   0.004643428965386311   0.004079213448788134
-0.0525257104596883   0.004643428965386311   0.004079213448788134
-0.0525257104596883   0.004643428965386311   0.004079213448788134
0.017999034455420126   0.00541095777620716   -0.005938180476434073
0.017999034455420126   0.00541095777620716   -0.005938180476434073
0.017999034455420126   0.00541095777620716   -0.005938180476434073
0.017999034455420126   0.00541095777620716   -0.005938180476434073
-0.020987351451118245   0.000980459990391108   -0.0005539457480135731
-0.020987351451118245   0.000980459990391108   -0.0005539457480135731
-0.020987351451118245   0.000980459990391108   -0.0005539457480135731
-0.020987351451118245   0.000980459990391108   -0.0005539457480135731
0.024395094522770604   0.021251968999522575   0.010201108637002895
0.024395094522770604   0.021251968999522575   0.010201108637002895
0.024395094522770604   0.021251968999522575   0.010201108637002895
0.024395094522770604   0.021251968999522575   0.010201108637002895
-0.0583518716859866   -0.010627683416876935   -0.009780480300440146
-0.0583518716859866   -0.010627683416876935   -0.009780480300440146
-0.0583518716859866   -0.010627683416876935   -0.009780480300440146
-0.0583518716859866   -0.010627683416876935   -0.009780480300440146
-0.046912950061280614   0.014245753662786612   0.0024531694725523434
-0.046912950061280614   0.014245753662786612   0.0024531694725523434
-0.046912950061280614   0.014245753662786612   0.0024531694725523434
-0.046912950061280614   0.014245753662786612   0.0024531694725523434
0.02414680060202774   0.014503362312346689   -0.00756668863465257
0.02414680060202774   0.014503362312346689   -0.00756668863465257
0.02414680060202774   0.014503362312346689   -0.00756668863465257
0.02414680060202774   0.014503362312346689   -0.00756668863465257
-0.014400599433709358   0.009222438628179815   0.0034376182969198545
-0.014400599433709358   0.009222438628179815   0.0034376182969198545
-0.014400599433709358   0.009222438628179815   0.0034376182969198545
-0.014400599433709358   0.009222438628179815   0.0034376182969198545
-0.06271614416936531   -0.004785023754383334   0.004666967209008192
-0.06271614416936531   -0.004785023754383334   0.004666967209008192
-0.06271614416936531   -0.004785023754383334   0.004666967209008192
-0.06271614416936531   -0.004785023754383334   0.004666967209008192
-0.13563770095685324   -0.018318545115946848   0.0011065659958519984
-0.13563770095685324   -0.018318545115946848   0.0011065659958519984
-0.13563770095685324   -0.018318545115946848   0.0011065659958519984
-0.13563770095685324   -0.018318545115946848   0.0011065659958519984
-0.13080562325257478   -0.01159236196807719   -0.0025391342984907132
-0.13080562325257478   -0.01159236196807719   -0.0025391342984907132
-0.13080562325257478   -0.01159236196807719   -0.0025391342984907132
-0.13080562325257478   -0.01159236196807719   -0.0025391342984907132
-0.05696460893224041   0.004826689486982165   0.0028226273332996607
-0.05696460893224041   0.004826689486982165   0.0028226273332996607
-0.05696460893224041   0.004826689486982165   0.0028226273332996607
-0.05696460893224041   0.004826689486982165   0.0028226273332996607
-0.09667024685453966   -0.006869696086490091   -0.0025256580697937516
-0.09667024685453966   -0.006869696086490091   -0.0025256580697937516
-0.09667024685453966   -0.006869696086490091   -0.0025256580697937516
-0.09667024685453966   -0.006869696086490091   -0.0025256580697937516
-0.05701267497094561   0.004296543227747012   0.0031124433990088124
-0.05701267497094561   0.004296543227747012   0.0031124433990088124
-0.05701267497094561   0.004296543227747012   0.0031124433990088124
-0.05701267497094561   0.004296543227747012   0.0031124433990088124
-0.13024580729741564   -0.010550465792389392   -0.0007819506983828906
-0.13024580729741564   -0.010550465792389392   -0.0007819506983828906
-0.13024580729741564   -0.010550465792389392   -0.0007819506983828906
-0.13024580729741564   -0.010550465792389392   -0.0007819506983828906
-0.12493347088995949   -0.002282393262549365   -0.003991595078308958
-0.12493347088995949   -0.002282393262549365   -0.003991595078308958
-0.12493347088995949   -0.002282393262549365   -0.003991595078308958
-0.12493347088995949   -0.002282393262549365   -0.003991595078308958
-0.051448434758413965   0.01304162033438574   0.0010674005861603499
-0.051448434758413965   0.01304162033438574   0.0010674005861603499
-0.051448434758413965   0.01304162033438574   0.0010674005861603499
-0.051448434758413965   0.01304162033438574   0.0010674005861603499
-0.09059888106749947   0.0012920555504511606   0.0012421152646203675
-0.09059888106749947   0.0012920555504511606   0.0012421152646203675
-0.09059888106749947   0.0012920555504511606   0.0012421152646203675
-0.09059888106749947   0.0012920555504511606   0.0012421152646203675
-0.05127547974631591   0.013535235981707016   0.0014385599993293656
-0.05127547974631591   0.013535235981707016   0.0014385599993293656
-0.05127547974631591   0.013535235981707016   0.0014385599993293656
-0.05127547974631591   0.013535235981707016   0.0014385599993293656
-0.12469267500413371   -0.002362258011946932   -0.0027077508997832853
-0.12469267500413371   -0.002362258011946932   -0.0027077508997832853
-0.12469267500413371   -0.002362258011946932   -0.0027077508997832853
-0.12469267500413371   -0.002362258011946932   -0.0027077508997832853
-0.11929561427489663   0.0070624710219624985   -0.0056356790730804456
-0.11929561427489663   0.0070624710219624985   -0.0056356790730804456
-0.11929561427489663   0.0070624710219624985   -0.0056356790730804456
-0.11929561427489663   0.0070624710219624985   -0.0056356790730804456
-0.046189928234851636   0.02128048932860216   -0.0009664570611173338
-0.046189928234851636   0.02128048932860216   -0.0009664570611173338
-0.046189928234851636   0.02128048932860216   -0.0009664570611173338
-0.046189928234851636   0.02128048932860216   -0.0009664570611173338
-0.08485558579990385   0.009435713999371698   0.004764257624186286
-0.08485558579990385   0.009435713999371698   0.004764257624186286
-0.08485558579990385   0.009435713999371698   0.004764257624186286
-0.08485558579990385   0.009435713999371698   0.004764257624186286
-0.13549115374763732   -0.012767895891772109   -0.0037113471822422077
-0.13549115374763732   -0.012767895891772109   -0.0037113471822422077
-0.13549115374763732   -0.012767895891772109   -0.0037113471822422077
-0.13549115374763732   -0.012767895891772109   -0.0037113471822422077
-0.2020381867461741   -0.011622287157126897   0.007678819285430662
-0.2020381867461741   -0.011622287157126897   0.007678819285430662
-0.2020381867461741   -0.011622287157126897   0.007678819285430662
-0.2020381867461741   -0.011622287157126897   0.007678819285430662
-0.2023948493603919   -0.019245980331626184   -0.010715462334716472
-0.2023948493603919   -0.019245980331626184   -0.010715462334716472
-0.2023948493603919   -0.019245980331626184   -0.010715462334716472
-0.2023948493603919   -0.019245980331626184   -0.010715462334716472
-0.12367296582274057   0.011973807363949509   0.009557983518653609
-0.12367296582274057   0.011973807363949509   0.009557983518653609
-0.12367296582274057   0.011973807363949509   0.009557983518653609
-0.12367296582274057   0.011973807363949509   0.009557983518653609
-0.1649574730522266   -0.007137226960030503   -0.0010889279912699914
-0.1649574730522266   -0.007137226960030503   -0.0010889279912699914
-0.1649574730522266   -0.007137226960030503   -0.0010889279912699914
-0.1649574730522266   -0.007137226960030503   -0.0010889279912699914
-0.12974712117707105   -0.0036176161715223663   -0.00522136971752587
-0.12974712117707105   -0.0036176161715223663   -0.00522136971752587
-0.12974712117707105   -0.0036176161715223663   -0.00522136971752587
-0.12974712117707105   -0.0036176161715223663   -0.00522136971752587
-0.1958893461224818   -0.0032232089125730085   0.005789282435782268
-0.1958893461224818   -0.0032232089125730085   0.005789282435782268
-0.1958893461224818   -0.0032232089125730085   0.005789282435782268
-0.1958893461224818   -0.0032232089125730085   0.005789282435782268
-0.19497592238821299   -0.010373235075860951   -0.011926683566602451
-0.19497592238821299   -0.010373235075860951   -0.011926683566602451
-0.19497592238821299   -0.010373235075860951   -0.011926683566602451
-0.19497592238821299   -0.010373235075860951   -0.011926683566602451
-0.11826823078480406   0.01944046201858465   0.007611750166334235
-0.11826823078480406   0.01944046201858465   0.007611750166334235
-0.11826823078480406   0.01944046201858465   0.007611750166334235
-0.11826823078480406   0.01944046201858465   0.007611750166334235
-0.15760524031450987   0.0010984436268430542   0.002805078864091608
-0.15760524031450987   0.0010984436268430542   0.002805078864091608
-0.15760524031450987   0.0010984436268430542   0.002805078864091608
-0.15760524031450987   0.0010984436268430542   0.002805078864091608
-0.12413790477626178   0.00476706133781311   -0.007063219110183356
-0.12413790477626178   0.00476706133781311   -0.007063219110183356
-0.12413790477626178   0.00476706133781311   -0.007063219110183356
-0.12413790477626178   0.00476706133781311   -0.007063219110183356
-0.1886230608756646   0.004783353126001151   0.004681035794277304
-0.1886230608756646   0.004783353126001151   0.004681035794277304
-0.1886230608756646   0.004783353126001151   0.004681035794277304
-0.1886230608756646   0.004783353126001151   0.004681035794277304
-0.1883479879786537   -0.0007253305195596832   -0.01284915446263921
-0.1883479879786537   -0.0007253305195596832   -0.01284915446263921
-0.1883479879786537   -0.0007253305195596832   -0.01284915446263921
-0.1883479879786537   -0.0007253305195596832   -0.01284915446263921
-0.11292205675659217   0.02764646265690826   0.005648116883496061
-0.11292205675659217   0.02764646265690826   0.005648116883496061
-0.11292205675659217   0.02764646265690826   0.005648116883496061
-0.11292205675659217   0.02764646265690826   0.005648116883496061
-0.15220458865032255   0.008740732759869342   0.006283404561497395
-0.15220458865032255   0.008740732759869342   0.006283404561497395
-0.15220458865032255   0.008740732759869342   0.006283404561497395
-0.15220458865032255   0.008740732759869342   0.006283404561497395
-0.20718851228109003   -0.018225080578121014   -0.011470014968154876
-0.20718851228109003   -0.018225080578121014   -0.011470014968154876
-0.20718851228109003   -0.018225080578121014   -0.011470014968154876
-0.20718851228109003   -0.018225080578121014   -0.011470014968154876
-0.2780399130778964   -0.005303186158706473   0.016919522393924247
-0.2780399130778964   -0.005303186158706473   0.016919522393924247
-0.2780399130778964   -0.005303186158706473   0.016919522393924247
-0.2780399130778964   -0.005303186158706473   0.016919522393924247
-0.274591972334481   -0.024927768945956233   -0.015419358022023807
-0.274591972334481   -0.024927768945956233   -0.015419358022023807
-0.274591972334481   -0.024927768945956233   -0.015419358022023807
-0.274591972334481   -0.024927768945956233   -0.015419358022023807
-0.18900042526604682   0.020333207327084463   0.016677470478298203
-0.18900042526604682   0.020333207327084463   0.016677470478298203
-0.18900042526604682   0.020333207327084463   0.016677470478298203
-0.18900042526604682   0.020333207327084463   0.016677470478298203
-0.22694761731699853   -0.004073716899862842   0.0020218795394933726
-0.22694761731699853   -0.004073716899862842   0.0020218795394933726
-0.22694761731699853   -0.004073716899862842   0.0020218795394933726
-0.22694761731699853   -0.004073716899862842   0.0020218795394933726
-0.20094238840470469   -0.009711506777647837   -0.01298763111025817
-0.20094238840470469   -0.009711506777647837   -0.01298763111025817
-0.20094238840470469   -0.009711506777647837   -0.01298763111025817
-0.20094238840470469   -0.009711506777647837   -0.01298763111025817
-0.26225273422792417   0.005514220126674352   0.01583484343812504
-0.26225273422792417   0.005514220126674352   0.01583484343812504
-0.26225273422792417   0.005514220126674352   0.01583484343812504
-0.26225273422792417   0.005514220126674352   0.01583484343812504
-0.2626993188079101   -0.019680527647536833   -0.018383120490365404
-0.2626993188079101   -0.019680527647536833   -0.018383120490365404
-0.2626993188079101   -0.019680527647536833   -0.018383120490365404
-0.2626993188079101   -0.019680527647536833   -0.018383120490365404
-0.18300505672785966   0.023786356301733758   0.013768053357567853
-0.18300505672785966   0.023786356301733758   0.013768053357567853
-0.18300505672785966   0.023786356301733758   0.013768053357567853
-0.18300505672785966   0.023786356301733758   0.013768053357567853
-0.22042263497093667   0.0014555977807843776   0.005147833887051605
-0.22042263497093667   0.0014555977807843776   0.005147833887051605
-0.22042263497093667   0.0014555977807843776   0.005147833887051605
-0.22042263497093667   0.0014555977807843776   0.005147833887051605
-0.1946006347749332   -0.005390719048401035   -0.015032761527663375
-0.1946006347749332   -0.005390719048401035   -0.015032761527663375
-0.1946006347749332   -0.005390719048401035   -0.015032761527663375
-0.1946006347749332   -0.005390719048401035   -0.015032761527663375
-0.25062353683087696   0.009976751632556256   0.012338510114705343
-0.25062353683087696   0.009976751632556256   0.012338510114705343
-0.25062353683087696   0.009976751632556256   0.012338510114705343
-0.25062353683087696   0.009976751632556256   0.012338510114705343
-0.2479441871072461   -0.011908488061162216   -0.020541321717588226
-0.2479441871072461   -0.011908488061162216   -0.020541321717588226
-0.2479441871072461   -0.011908488061162216   -0.020541321717588226
-0.2479441871072461   -0.011908488061162216   -0.020541321717588226
-0.1777703237038449   0.02784910315700337   0.011464733234841686
-0.1777703237038449   0.02784910315700337   0.011464733234841686
-0.1777703237038449   0.02784910315700337   0.011464733234841686
-0.1777703237038449   0.02784910315700337   0.011464733234841686
-0.20763794465240532   0.0065970283508677285   0.009597425138702511
-0.20763794465240532   0.0065970283508677285   0.009597425138702511
-0.20763794465240532   0.0065970283508677285   0.009597425138702511
-0.20763794465240532   0.0065970283508677285   0.009597425138702511
0.21668511210430805   0.019768670277682844   0.018417674855748675
0.21668511210430805   0.019768670277682844   0.018417674855748675
0.21668511210430805   0.019768670277682844   0.018417674855748675
0.21668511210430805   0.019768670277682844   0.018417674855748675
0.07890540865291919   -0.03525369199202966   -0.012103546858402583
0.07890540865291919   -0.03525369199202966   -0.012103546858402583
0.07890540865291919   -0.03525369199202966   -0.012103546858402583
0.07890540865291919   -0.03525369199202966   -0.012103546858402583
0.09681344307261466   -0.00045328774371498556   0.01321234739048251
0.09681344307261466   -0.00045328774371498556   0.01321234739048251
0.09681344307261466   -0.00045328774371498556   0.01321234739048251
0.09681344307261466   -0.00045328774371498556   0.01321234739048251
0.22025502365163116   -0.00431875086378522   -0.015479444948067168
0.22025502365163116   -0.00431875086378522   -0.015479444948067168
0.22025502365163116   -0.00431875086378522   -0.015479444948067168
0.22025502365163116   -0.00431875086378522   -0.015479444948067168
0.14375078879334394   -0.006202317857251293   -0.013698851806433827
0.14375078879334394   -0.006202317857251293   -0.013698851806433827
0.14375078879334394   -0.006202317857251293   -0.013698851806433827
0.14375078879334394   -0.006202317857251293   -0.013698851806433827
0.23287904873711984   0.027318124861839148   0.016003804753748005
0.23287904873711984   0.027318124861839148   0.016003804753748005
0.23287904873711984   0.027318124861839148   0.016003804753748005
0.23287904873711984   0.027318124861839148   0.016003804753748005
0.08510110828127598   -0.031178473175189673   -0.014624141134734273
0.08510110828127598   -0.031178473175189673   -0.014624141134734273
0.08510110828127598   -0.031178473175189673   -0.014624141134734273
0.08510110828127598   -0.031178473175189673   -0.014624141134734273
0.10371745746588983   0.003715503322281908   0.01086641323487482
0.10371745746588983   0.003715503322281908   0.01086641323487482
0.10371745746588983   0.003715503322281908   0.01086641323487482
0.10371745746588983   0.003715503322281908   0.01086641323487482
0.23307138364364374   0.00040604953398159366   -0.01941542623828836
0.23307138364364374   0.00040604953398159366   -0.01941542623828836
0.23307138364364374   0.00040604953398159366   -0.01941542623828836
0.23307138364364374   0.00040604953398159366   -0.01941542623828836
0.15721576044161636   -0.0011216294477109992   -0.008348677265402058
0.15721576044161636   -0.0011216294477109992   -0.008348677265402058
0.15721576044161636   -0.0011216294477109992   -0.008348677265402058
0.15721576044161636   -0.0011216294477109992   -0.008348677265402058
0.24581471671145488   0.03241927520947478   0.012288013425274143
0.24581471671145488   0.03241927520947478   0.012288013425274143
0.24581471671145488   0.03241927520947478   0.012288013425274143
0.24581471671145488   0.03241927520947478   0.012288013425274143
0.09192772920827658   -0.027344117543010672   -0.017022607187897883
0.09192772920827658   -0.027344117543010672   -0.017022607187897883
0.09192772920827658   -0.027344117543010672   -0.017022607187897883
0.09192772920827658   -0.027344117543010672   -0.017022607187897883
0.11061574199570337   0.012952530331799456   0.009416933247973106
0.11061574199570337   0.012952530331799456   0.009416933247973106
0.11061574199570337   0.012952530331799456   0.009416933247973106
0.11061574199570337   0.012952530331799456   0.009416933247973106
0.2499432260475148   0.012717496342493625   -0.02091644802894025
0.2499432260475148   0.012717496342493625   -0.02091644802894025
0.2499432260475148   0.012717496342493625   -0.02091644802894025
0.2499432260475148   0.012717496342493625   -0.02091644802894025
0.16531008752317153   0.005100788462781305   -0.003768839608637415
0.16531008752317153   0.005100788462781305   -0.003768839608637415
0.16531008752317153   0.005100788462781305   -0.003768839608637415
0.16531008752317153   0.005100788462781305   -0.003768839608637415
0.09358918086835123   0.011169558106961863   0.014892064119765194
0.09358918086835123   0.011169558106961863   0.014892064119765194
0.09358918086835123   0.011169558106961863   0.014892064119765194
0.09358918086835123   0.011169558106961863   0.014892064119765194
-0.04645338427394621   -0.032925166435564035   -0.006370716523117697
-0.04645338427394621   -0.032925166435564035   -0.006370716523117697
-0.04645338427394621   -0.032925166435564035   -0.006370716523117697
-0.04645338427394621   -0.032925166435564035   -0.006370716523117697
-0.034249360033181936   -0.00985155664761243   0.004430027886192437
-0.034249360033181936   -0.00985155664761243   0.004430027886192437
-0.034249360033181936   -0.00985155664761243   0.004430027886192437
-0.034249360033181936   -0.00985155664761243   0.004430027886192437
0.09406032487337589   0.0008460782220667921   -0.0018526095714921443
0.09406032487337589   0.0008460782220667921   -0.0018526095714921443
0.09406032487337589   0.0008460782220667921   -0.0018526095714921443
0.09406032487337589   0.0008460782220667921   -0.0018526095714921443
0.025499875076940605   -0.006792382777683875   -0.005774148837941116
0.025499875076940605   -0.006792382777683875   -0.005774148837941116
0.025499875076940605   -0.006792382777683875   -0.005774148837941116
0.025499875076940605   -0.006792382777683875   -0.005774148837941116
0.10070518206446383   0.01891408092990092   0.013303673676113419
0.10070518206446383   0.01891408092990092   0.013303673676113419
0.10070518206446383   0.01891408092990092   0.013303673676113419
0.10070518206446383   0.01891408092990092   0.013303673676113419
-0.04033034457174715   -0.027355686702923838   -0.008470764751322246
-0.04033034457174715   -0.027355686702923838   -0.008470764751322246
-0.04033034457174715   -0.027355686702923838   -0.008470764751322246
-0.04033034457174715   -0.027355686702923838   -0.008470764751322246
-0.027829021488497023   -0.0020108598777459756   0.0027807871977173966
-0.027829021488497023   -0.0020108598777459756   0.0027807871977173966
-0.027829021488497023   -0.0020108598777459756   0.0027807871977173966
-0.027829021488497023   -0.0020108598777459756   0.0027807871977173966
0.10167024533556784   0.007850395828654648   -0.0035045399231068454
0.10167024533556784   0.007850395828654648   -0.0035045399231068454
0.10167024533556784   0.007850395828654648   -0.0035045399231068454
0.10167024533556784   0.007850395828654648   -0.0035045399231068454
0.03168145726493854   -0.0006138340300637637   -0.0022871518762766115
0.03168145726493854   -0.0006138340300637637   -0.0022871518762766115
0.03168145726493854   -0.0006138340300637637   -0.0022871518762766115
0.03168145726493854   -0.0006138340300637637   -0.0022871518762766115
0.10858510066131012   0.02708319468293634   0.011836937851321836
0.10858510066131012   0.02708319468293634   0.011836937851321836
0.10858510066131012   0.02708319468293634   0.011836937851321836
0.10858510066131012   0.02708319468293634   0.011836937851321836
-0.034181196593218124   -0.02068097851100922   -0.010309969692624873
-0.034181196593218124   -0.02068097851100922   -0.010309969692624873
-0.034181196593218124   -0.02068097851100922   -0.010309969692624873
-0.034181196593218124   -0.02068097851100922   -0.010309969692624873
-0.021479495756301818   0.007120153209780001   0.001143562210828198
-0.021479495756301818   0.007120153209780001   0.001143562210828198
-0.021479495756301818   0.007120153209780001   0.001143562210828198
-0.021479495756301818   0.007120153209780001   0.001143562210828198
0.10838500534919174   0.01623175733193931   -0.005015976984724854
0.10838500534919174   0.01623175733193931   -0.005015976984724854
0.10838500534919174   0.01623175733193931   -0.005015976984724854
0.10838500534919174   0.01623175733193931   -0.005015976984724854
0.039417056364284206   0.007003129827042549   0.001796185112853125
0.039417056364284206   0.007003129827042549   0.001796185112853125
0.039417056364284206   0.007003129827042549   0.001796185112853125
0.039417056364284206   0.007003129827042549   0.001796185112853125
-0.036816371563954106   0.002501869734765287   0.006387310856513546
-0.036816371563954106   0.002501869734765287   0.006387310856513546
-0.036816371563954106   0.002501869734765287   0.006387310856513546
-0.036816371563954106   0.002501869734765287   0.006387310856513546
-0.16934349789056038   -0.029178922273688276   -0.0009100616485774055
-0.16934349789056038   -0.029178922273688276   -0.0009100616485774055
-0.16934349789056038   -0.029178922273688276   -0.0009100616485774055
-0.16934349789056038   -0.029178922273688276   -0.0009100616485774055
-0.16177758393101443   -0.017491636765198732   -0.0039560289288308155
-0.16177758393101443   -0.017491636765198732   -0.0039560289288308155
-0.16177758393101443   -0.017491636765198732   -0.0039560289288308155
-0.16177758393101443   -0.017491636765198732   -0.0039560289288308155
-0.031361476026240696   0.004820994049791623   0.004196897223494539
-0.031361476026240696   0.004820994049791623   0.004196897223494539
-0.031361476026240696   0.004820994049791623   0.004196897223494539
-0.031361476026240696   0.004820994049791623   0.004196897223494539
-0.09999433227462831   -0.008915413432191434   -0.0036191652113177542
-0.09999433227462831   -0.008915413432191434   -0.0036191652113177542
-0.09999433227462831   -0.008915413432191434   -0.0036191652113177542
-0.09999433227462831   -0.008915413432191434   -0.0036191652113177542
-0.030071213290515392   0.010612236782541478   0.004856968169371212
-0.030071213290515392   0.010612236782541478   0.004856968169371212
-0.030071213290515392   0.010612236782541478   0.004856968169371212
-0.030071213290515392   0.010612236782541478   0.004856968169371212
-0.16267731883379868   -0.022892351665007547   -0.003053988542943325
-0.16267731883379868   -0.022892351665007547   -0.003053988542943325
-0.16267731883379868   -0.022892351665007547   -0.003053988542943325
-0.16267731883379868   -0.022892351665007547   -0.003053988542943325
-0.15469234830974374   -0.008888412126654102   -0.00533884816770145
-0.15469234830974374   -0.008888412126654102   -0.00533884816770145
-0.15469234830974374   -0.008888412126654102   -0.00533884816770145
-0.15469234830974374   -0.008888412126654102   -0.00533884816770145
-0.025117653956625262   0.011903211889203577   0.0024235530901276147
-0.025117653956625262   0.011903211889203577   0.0024235530901276147
-0.025117653956625262   0.011903211889203577   0.0024235530901276147
-0.025117653956625262   0.011903211889203577   0.0024235530901276147
-0.09284102758802673   -0.0017234344369456804   -4.715837565450777e-05
-0.09284102758802673   -0.0017234344369456804   -4.715837565450777e-05
-0.09284102758802673   -0.0017234344369456804   -4.715837565450777e-05
-0.09284102758802673   -0.0017234344369456804   -4.715837565450777e-05
-0.02355521386694355   0.01902881456749642   0.003110150860243327
-0.02355521386694355   0.01902881456749642   0.003110150860243327
-0.02355521386694355   0.01902881456749642   0.003110150860243327
-0.02355521386694355   0.01902881456749642   0.003110150860243327
-0.15589495661939373   -0.015654183024913993   -0.004586118817691733
-0.15589495661939373   -0.015654183024913993   -0.004586118817691733
-0.15589495661939373   -0.015654183024913993   -0.004586118817691733
-0.15589495661939373   -0.015654183024913993   -0.004586118817691733
-0.14809137678883688   -0.00030158010504151983   -0.006975355675342836
-0.14809137678883688   -0.00030158010504151983   -0.006975355675342836
-0.14809137678883688   -0.00030158010504151983   -0.006975355675342836
-0.14809137678883688   -0.00030158010504151983   -0.006975355675342836
-0.019177128154156883   0.01912376144495303   0.0006517919863798238
-0.019177128154156883   0.01912376144495303   0.0006517919863798238
-0.019177128154156883   0.01912376144495303   0.0006517919863798238
-0.019177128154156883   0.01912376144495303   0.0006517919863798238
-0.08628126513681274   0.005444473683972818   0.0033460729428282394
-0.08628126513681274   0.005444473683972818   0.0033460729428282394
-0.08628126513681274   0.005444473683972818   0.0033460729428282394
-0.08628126513681274   0.005444473683972818   0.0033460729428282394
-0.16504316746638786   -0.0062304279321134665   -0.0023569038692884473
-0.16504316746638786   -0.0062304279321134665   -0.0023569038692884473
-0.16504316746638786   -0.0062304279321134665   -0.0023569038692884473
-0.16504316746638786   -0.0062304279321134665   -0.0023569038692884473
-0.2899210291650505   -0.02383467521582957   0.005275659314801931
-0.2899210291650505   -0.02383467521582957   0.005275659314801931
-0.2899210291650505   -0.02383467521582957   0.005275659314801931
-0.2899210291650505   -0.02383467521582957   0.005275659314801931
-0.28649097124639616   -0.0248737983970313   -0.011862039862594823
-0.28649097124639616   -0.0248737983970313   -0.011862039862594823
-0.28649097124639616   -0.0248737983970313   -0.011862039862594823
-0.28649097124639616   -0.0248737983970313   -0.011862039862594823
-0.1531345625103181   0.011333276272703918   0.010434165136749492
-0.1531345625103181   0.011333276272703918   0.010434165136749492
-0.1531345625103181   0.011333276272703918   0.010434165136749492
-0.1531345625103181   0.011333276272703918   0.010434165136749492
-0.2221019593979416   -0.009570371720883916   -0.0012764961352837688
-0.2221019593979416   -0.009570371720883916   -0.0012764961352837688
-0.2221019593979416   -0.009570371720883916   -0.0012764961352837688
-0.2221019593979416   -0.009570371720883916   -0.0012764961352837688
-0.15771613761791387   0.0025212412295658668   -0.0036616753580912924
-0.15771613761791387   0.0025212412295658668   -0.0036616753580912924
-0.15771613761791387   0.0025212412295658668   -0.0036616753580912924
-0.15771613761791387   0.0025212412295658668   -0.0036616753580912924
-0.2818488827936251   -0.016001250008717494   0.00247585401294936
-0.2818488827936251   -0.016001250008717494   0.00247585401294936
-0.2818488827936251   -0.016001250008717494   0.00247585401294936
-0.2818488827936251   -0.016001250008717494   0.00247585401294936
-0.2771835875286204   -0.016489525183366285   -0.013122829099604105
-0.2771835875286204   -0.016489525183366285   -0.013122829099604105
-0.2771835875286204   -0.016489525183366285   -0.013122829099604105
-0.2771835875286204   -0.016489525183366285   -0.013122829099604105
-0.14656242017921656   0.01806243236442217   0.008359947993859045
-0.14656242017921656   0.01806243236442217   0.008359947993859045
-0.14656242017921656   0.01806243236442217   0.008359947993859045
-0.14656242017921656   0.01806243236442217   0.008359947993859045
-0.21258182010897372   -0.001633394192565342   0.00232385124948992
-0.21258182010897372   -0.001633394192565342   0.00232385124948992
-0.21258182010897372   -0.001633394192565342   0.00232385124948992
-0.21258182010897372   -0.001633394192565342   0.00232385124948992
-0.15086460865493867   0.010317603339354067   -0.005406165359684079
-0.15086460865493867   0.010317603339354067   -0.005406165359684079
-0.15086460865493867   0.010317603339354067   -0.005406165359684079
-0.15086460865493867   0.010317603339354067   -0.005406165359684079
-0.2726122739234262   -0.008475571028826165   0.0017197847718269463
-0.2726122739234262   -0.008475571028826165   0.0017197847718269463
-0.2726122739234262   -0.008475571028826165   0.0017197847718269463
-0.2726122739234262   -0.008475571028826165   0.0017197847718269463
-0.2688662806349634   -0.007434230470855965   -0.013811124876953866
-0.2688662806349634   -0.007434230470855965   -0.013811124876953866
-0.2688662806349634   -0.007434230470855965   -0.013811124876953866
-0.2688662806349634   -0.007434230470855965   -0.013811124876953866
-0.1401978427042187   0.025422161726984555   0.006768572915722986
-0.1401978427042187   0.025422161726984555   0.006768572915722986
-0.1401978427042187   0.025422161726984555   0.006768572915722986
-0.1401978427042187   0.025422161726984555   0.006768572915722986
-0.20628506508005434   0.0051211958963118046   0.005418545506098967
-0.20628506508005434   0.0051211958963118046   0.005418545506098967
-0.20628506508005434   0.0051211958963118046   0.005418545506098967
-0.20628506508005434   0.0051211958963118046   0.005418545506098967
-0.2909736383042223   -0.013365206668444811   -0.010456854928441598
-0.2909736383042223   -0.013365206668444811   -0.010456854928441598
-0.2909736383042223   -0.013365206668444811   -0.010456854928441598
-0.2909736383042223   -0.013365206668444811   -0.010456854928441598
-0.41569135843263916   -0.01513037610464299   0.018062215162427595
-0.41569135843263916   -0.01513037610464299   0.018062215162427595
-0.41569135843263916   -0.01513037610464299   0.018062215162427595
-0.41569135843263916   -0.01513037610464299   0.018062215162427595
-0.4083359710657111   -0.029672089919674474   -0.014013469955832119
-0.4083359710657111   -0.029672089919674474   -0.014013469955832119
-0.4083359710657111   -0.029672089919674474   -0.014013469955832119
-0.4083359710657111   -0.029672089919674474   -0.014013469955832119
-0.2708715567516451   0.02292395447790046   0.018437279736228836
-0.2708715567516451   0.02292395447790046   0.018437279736228836
-0.2708715567516451   0.02292395447790046   0.018437279736228836
-0.2708715567516451   0.02292395447790046   0.018437279736228836
-0.3310649014841526   -0.0040782424571296355   0.004045844069464021
-0.3310649014841526   -0.0040782424571296355   0.004045844069464021
-0.3310649014841526   -0.0040782424571296355   0.004045844069464021
-0.3310649014841526   -0.0040782424571296355   0.004045844069464021
-0.2822682285140156   -0.00398356028142785   -0.011638564316294512
-0.2822682285140156   -0.00398356028142785   -0.011638564316294512
-0.2822682285140156   -0.00398356028142785   -0.011638564316294512
-0.2822682285140156   -0.00398356028142785   -0.011638564316294512
-0.3967175458009608   -0.002542821657966765   0.016949388106208434
-0.3967175458009608   -0.002542821657966765   0.016949388106208434
-0.3967175458009608   -0.002542821657966765   0.016949388106208434
-0.3967175458009608   -0.002542821657966765   0.016949388106208434
-0.39408770322179754   -0.02449039848517269   -0.016533074083018833
-0.39408770322179754   -0.02449039848517269   -0.016533074083018833
-0.39408770322179754   -0.02449039848517269   -0.016533074083018833
-0.39408770322179754   -0.02449039848517269   -0.016533074083018833
-0.2631086561789163   0.026115127606596067   0.014647174858953813
-0.2631086561789163   0.026115127606596067   0.014647174858953813
-0.2631086561789163   0.026115127606596067   0.014647174858953813
-0.2631086561789163   0.026115127606596067   0.014647174858953813
-0.32402168215221366   0.001591433154129157   0.006987579362386056
-0.32402168215221366   0.001591433154129157   0.006987579362386056
-0.32402168215221366   0.001591433154129157   0.006987579362386056
-0.32402168215221366   0.001591433154129157   0.006987579362386056
-0.27387825899113993   0.00020080238204082945   -0.013286513977608858
-0.27387825899113993   0.00020080238204082945   -0.013286513977608858
-0.27387825899113993   0.00020080238204082945   -0.013286513977608858
-0.27387825899113993   0.00020080238204082945   -0.013286513977608858
-0.38308995994403167   0.0016520672049262636   0.012313176615704812
-0.38308995994403167   0.0016520672049262636   0.012313176615704812
-0.38308995994403167   0.0016520672049262636   0.012313176615704812
-0.38308995994403167   0.0016520672049262636   0.012313176615704812
-0.37841939690582954   -0.018350896433042857   -0.01888619151340481
-0.37841939690582954   -0.018350896433042857   -0.01888619151340481
-0.37841939690582954   -0.018350896433042857   -0.01888619151340481
-0.37841939690582954   -0.018350896433042857   -0.01888619151340481
-0.2563319968595264   0.028962590949168955   0.012463472580205918
-0.2563319968595264   0.028962590949168955   0.012463472580205918
-0.2563319968595264   0.028962590949168955   0.012463472580205918
-0.2563319968595264   0.028962590949168955   0.012463472580205918
-0.30807568154676224   0.00626680241018257   0.01152250617265834
-0.30807568154676224   0.00626680241018257   0.01152250617265834
-0.30807568154676224   0.00626680241018257   0.01152250617265834
-0.30807568154676224   0.00626680241018257   0.01152250617265834
0.35945493547378127   0.027001854439215926   0.018624658476963277
0.35945493547378127   0.027001854439215926   0.018624658476963277
0.35945493547378127   0.027001854439215926   0.018624658476963277
0.35945493547378127   0.027001854439215926   0.018624658476963277
0.157864393345441   -0.04154407942093565   -0.008737902663987277
0.157864393345441   -0.04154407942093565   -0.008737902663987277
0.157864393345441   -0.04154407942093565   -0.008737902663987277
0.157864393345441   -0.04154407942093565   -0.008737902663987277
0.17543394606632728   -0.007642184986141214   0.012724462025456726
0.17543394606632728   -0.007642184986141214   0.012724462025456726
0.17543394606632728   -0.007642184986141214   0.012724462025456726
0.17543394606632728   -0.007642184986141214   0.012724462025456726
0.36308299461888177   0.00012733231858308436   -0.013571451821001057
0.36308299461888177   0.00012733231858308436   -0.013571451821001057
0.36308299461888177   0.00012733231858308436   -0.013571451821001057
0.36308299461888177   0.00012733231858308436   -0.013571451821001057
0.24853443163484149   -0.007215763817165488   -0.01915620241903568
0.24853443163484149   -0.007215763817165488   -0.01915620241903568
0.24853443163484149   -0.007215763817165488   -0.01915620241903568
0.24853443163484149   -0.007215763817165488   -0.01915620241903568
0.3754729151664314   0.03293484422987791   0.015570639005448243
0.3754729151664314   0.03293484422987791   0.015570639005448243
0.3754729151664314   0.03293484422987791   0.015570639005448243
0.3754729151664314   0.03293484422987791   0.015570639005448243
0.16424110832928074   -0.039252614086933334   -0.011629297558982073
0.16424110832928074   -0.039252614086933334   -0.011629297558982073
0.16424110832928074   -0.039252614086933334   -0.011629297558982073
0.16424110832928074   -0.039252614086933334   -0.011629297558982073
0.18217402802693555   -0.0038386550539742173   0.010258406438640734
0.18217402802693555   -0.0038386550539742173   0.010258406438640734
0.18217402802693555   -0.0038386550539742173   0.010258406438640734
0.18217402802693555   -0.0038386550539742173   0.010258406438640734
0.37505673829769653   0.0043084002331901655   -0.016873558354959656
0.37505673829769653   0.0043084002331901655   -0.016873558354959656
0.37505673829769653   0.0043084002331901655   -0.016873558354959656
0.37505673829769653   0.0043084002331901655   -0.016873558354959656
0.2637021541154504   -0.0027759146644772   -0.013079939033471561
0.2637021541154504   -0.0027759146644772   -0.013079939033471561
0.2637021541154504   -0.0027759146644772   -0.013079939033471561
0.2637021541154504   -0.0027759146644772   -0.013079939033471561
0.38736259589838073   0.03745016934076407   0.011513960540887021
0.38736259589838073   0.03745016934076407   0.011513960540887021
0.38736259589838073   0.03745016934076407   0.011513960540887021
0.38736259589838073   0.03745016934076407   0.011513960540887021
0.17090845338555932   -0.03594014120224025   -0.013967980619974459
0.17090845338555932   -0.03594014120224025   -0.013967980619974459
0.17090845338555932   -0.03594014120224025   -0.013967980619974459
0.17090845338555932   -0.03594014120224025   -0.013967980619974459
0.18829735486094018   0.006370458334598109   0.008994233118156787
0.18829735486094018   0.006370458334598109   0.008994233118156787
0.18829735486094018   0.006370458334598109   0.008994233118156787
0.18829735486094018   0.006370458334598109   0.008994233118156787
0.389851345545122   0.016568972798580134   -0.01764075903198127
0.389851345545122   0.016568972798580134   -0.01764075903198127
0.389851345545122   0.016568972798580134   -0.01764075903198127
0.389851345545122   0.016568972798580134   -0.01764075903198127
0.26911505428651417   0.003251007939601508   -0.0089194651516889
0.26911505428651417   0.003251007939601508   -0.0089194651516889
0.26911505428651417   0.003251007939601508   -0.0089194651516889
0.26911505428651417   0.003251007939601508   -0.0089194651516889
0.1745802562730476   0.016012642907566745   0.017284689645542382
0.1745802562730476   0.016012642907566745   0.017284689645542382
0.1745802562730476   0.016012642907566745   0.017284689645542382
0.1745802562730476   0.016012642907566745   0.017284689645542382
-0.022971978310346017   -0.05086875040581114   -0.00502326480655252
-0.022971978310346017   -0.05086875040581114   -0.00502326480655252
-0.022971978310346017   -0.05086875040581114   -0.00502326480655252
-0.022971978310346017   -0.05086875040581114   -0.00502326480655252
-0.00798104865841869   -0.01834366436726094   0.004240051013648428
-0.00798104865841869   -0.01834366436726094   0.004240051013648428
-0.00798104865841869   -0.01834366436726094   0.004240051013648428
-0.00798104865841869   -0.01834366436726094   0.004240051013648428
0.17297280893055708   -0.008180004147298886   0.0009565955077632891
0.17297280893055708   -0.008180004147298886   0.0009565955077632891
0.17297280893055708   -0.008180004147298886   0.0009565955077632891
0.17297280893055708   -0.008180004147298886   0.0009565955077632891
0.07699794067820305   -0.013829229981734331   -0.008979574411774657
0.07699794067820305   -0.013829229981734331   -0.008979574411774657
0.07699794067820305   -0.013829229981734331   -0.008979574411774657
0.07699794067820305   -0.013829229981734331   -0.008979574411774657
0.18185161934433264   0.021840823097023586   0.015329820332319713
0.18185161934433264   0.021840823097023586   0.015329820332319713
0.18185161934433264   0.021840823097023586   0.015329820332319713
0.18185161934433264   0.021840823097023586   0.015329820332319713
-0.016214542581412153   -0.04771917512080113   -0.007551907847778704
-0.016214542581412153   -0.04771917512080113   -0.007551907847778704
-0.016214542581412153   -0.04771917512080113   -0.007551907847778704
-0.016214542581412153   -0.04771917512080113   -0.007551907847778704
-0.001115635813508023   -0.011497093279541829   0.002543895685001981
-0.001115635813508023   -0.011497093279541829   0.002543895685001981
-0.001115635813508023   -0.011497093279541829   0.002543895685001981
-0.001115635813508023   -0.011497093279541829   0.002543895685001981
0.18004344500728828   -0.003012380256313278   -0.00122078345725655
0.18004344500728828   -0.003012380256313278   -0.00122078345725655
0.18004344500728828   -0.003012380256313278   -0.00122078345725655
0.18004344500728828   -0.003012380256313278   -0.00122078345725655
0.0829087035023968   -0.009613278981356003   -0.005792661963452037
0.0829087035023968   -0.009613278981356003   -0.005792661963452037
0.0829087035023968   -0.009613278981356003   -0.005792661963452037
0.0829087035023968   -0.009613278981356003   -0.005792661963452037
0.1893995100625604   0.028838824226024642   0.01370833733676594
0.1893995100625604   0.028838824226024642   0.01370833733676594
0.1893995100625604   0.028838824226024642   0.01370833733676594
0.1893995100625604   0.028838824226024642   0.01370833733676594
-0.010075089036049225   -0.042951685929148865   -0.010798777778096992
-0.010075089036049225   -0.042951685929148865   -0.010798777778096992
-0.010075089036049225   -0.042951685929148865   -0.010798777778096992
-0.010075089036049225   -0.042951685929148865   -0.010798777778096992
0.004281923292204691   -0.003418639255396691   0.000835122135582195
0.004281923292204691   -0.003418639255396691   0.000835122135582195
0.004281923292204691   -0.003418639255396691   0.000835122135582195
0.004281923292204691   -0.003418639255396691   0.000835122135582195
0.18531301642821782   0.0036183658834465296   -0.0031753665943054024
0.18531301642821782   0.0036183658834465296   -0.0031753665943054024
0.18531301642821782   0.0036183658834465296   -0.0031753665943054024
0.18531301642821782   0.0036183658834465296   -0.0031753665943054024
0.09029850976851016   -0.0032832748093443755   -0.0023347985769114586
0.09029850976851016   -0.0032832748093443755   -0.0023347985769114586
0.09029850976851016   -0.0032832748093443755   -0.0023347985769114586
0.09029850976851016   -0.0032832748093443755   -0.0023347985769114586
-0.00911042161627016   0.004777382468737755   0.008638385789277872
-0.00911042161627016   0.004777382468737755   0.008638385789277872
-0.00911042161627016   0.004777382468737755   0.008638385789277872
-0.00911042161627016   0.004777382468737755   0.008638385789277872
-0.20234968684814192   -0.0635092089670907   -0.003949749696714801
-0.20234968684814192   -0.0635092089670907   -0.003949749696714801
-0.20234968684814192   -0.0635092089670907   -0.003949749696714801
-0.20234968684814192   -0.0635092089670907   -0.003949749696714801
-0.18735992267987356   -0.02807665328747326   -0.004292892809197037
-0.18735992267987356   -0.02807665328747326   -0.004292892809197037
-0.18735992267987356   -0.02807665328747326   -0.004292892809197037
-0.18735992267987356   -0.02807665328747326   -0.004292892809197037
-0.008441247177378625   -0.020384364541346144   0.003979758592933959
-0.008441247177378625   -0.020384364541346144   0.003979758592933959
-0.008441247177378625   -0.020384364541346144   0.003979758592933959
-0.008441247177378625   -0.020384364541346144   0.003979758592933959
-0.10224916371208147   -0.025356351464733754   -0.007980301012522877
-0.10224916371208147   -0.025356351464733754   -0.007980301012522877
-0.10224916371208147   -0.025356351464733754   -0.007980301012522877
-0.10224916371208147   -0.025356351464733754   -0.007980301012522877
-0.0014780423991199846   0.011367154099244218   0.007044263843636798
-0.0014780423991199846   0.011367154099244218   0.007044263843636798
-0.0014780423991199846   0.011367154099244218   0.007044263843636798
-0.0014780423991199846   0.011367154099244218   0.007044263843636798
-0.1938515588893547   -0.05935660335928614   -0.005471123784789934
-0.1938515588893547   -0.05935660335928614   -0.005471123784789934
-0.1938515588893547   -0.05935660335928614   -0.005471123784789934
-0.1938515588893547   -0.05935660335928614   -0.005471123784789934
-0.17883147538751587   -0.02048493012410117   -0.005803335545505487
-0.17883147538751587   -0.02048493012410117   -0.005803335545505487
-0.17883147538751587   -0.02048493012410117   -0.005803335545505487
-0.17883147538751587   -0.02048493012410117   -0.005803335545505487
-0.002058094287898619   -0.01540725566798088   0.0017417657014880527
-0.002058094287898619   -0.01540725566798088   0.0017417657014880527
-0.002058094287898619   -0.01540725566798088   0.0017417657014880527
-0.002058094287898619   -0.01540725566798088   0.0017417657014880527
-0.0939698344065257   -0.019877132690793643   -0.004379767972824228
-0.0939698344065257   -0.019877132690793643   -0.004379767972824228
-0.0939698344065257   -0.019877132690793643   -0.004379767972824228
-0.0939698344065257   -0.019877132690793643   -0.004379767972824228
0.00550125339231208   0.018640443689898048   0.00549080474466262
0.00550125339231208   0.018640443689898048   0.00549080474466262
0.00550125339231208   0.018640443689898048   0.00549080474466262
0.00550125339231208   0.018640443689898048   0.00549080474466262
-0.18636169206660072   -0.05450349848085638   -0.009435850584172033
-0.18636169206660072   -0.05450349848085638   -0.009435850584172033
-0.18636169206660072   -0.05450349848085638   -0.009435850584172033
-0.18636169206660072   -0.05450349848085638   -0.009435850584172033
-0.1727973596761168   -0.013226870647422541   -0.007481136953538059
-0.1727973596761168   -0.013226870647422541   -0.007481136953538059
-0.1727973596761168   -0.013226870647422541   -0.007481136953538059
-0.1727973596761168   -0.013226870647422541   -0.007481136953538059
0.0021141817391683235   -0.011376365373143855   -0.00204585951185248
0.0021141817391683235   -0.011376365373143855   -0.00204585951185248
0.0021141817391683235   -0.011376365373143855   -0.00204585951185248
0.0021141817391683235   -0.011376365373143855   -0.00204585951185248
-0.08790533633071018   -0.014738962439284232   -0.0020867985053301856
-0.08790533633071018   -0.014738962439284232   -0.0020867985053301856
-0.08790533633071018   -0.014738962439284232   -0.0020867985053301856
-0.08790533633071018   -0.014738962439284232   -0.0020867985053301856
-0.18987298870084146   -0.004912743809507632   -0.00016272411779748829
-0.18987298870084146   -0.004912743809507632   -0.00016272411779748829
-0.18987298870084146   -0.004912743809507632   -0.00016272411779748829
-0.18987298870084146   -0.004912743809507632   -0.00016272411779748829
-0.382866164267222   -0.06827984555756203   -0.0030891260432750426
-0.382866164267222   -0.06827984555756203   -0.0030891260432750426
-0.382866164267222   -0.06827984555756203   -0.0030891260432750426
-0.382866164267222   -0.06827984555756203   -0.0030891260432750426
-0.3669469990138866   -0.03602975414345787   -0.012568550440490937
-0.3669469990138866   -0.03602975414345787   -0.012568550440490937
-0.3669469990138866   -0.03602975414345787   -0.012568550440490937
-0.3669469990138866   -0.03602975414345787   -0.012568550440490937
-0.183476349873032   -0.02123203462849072   0.008280352566026989
-0.183476349873032   -0.02123203462849072   0.008280352566026989
-0.183476349873032   -0.02123203462849072   0.008280352566026989
-0.183476349873032   -0.02123203462849072   0.008280352566026989
-0.2783785467405181   -0.030658052372133586   -0.00560186110835776
-0.2783785467405181   -0.030658052372133586   -0.00560186110835776
-0.2783785467405181   -0.030658052372133586   -0.00560186110835776
-0.2783785467405181   -0.030658052372133586   -0.00560186110835776
-0.1804474312605337   0.0035187097460970124   -0.0013257987460694141
-0.1804474312605337   0.0035187097460970124   -0.0013257987460694141
-0.1804474312605337   0.0035187097460970124   -0.0013257987460694141
-0.1804474312605337   0.0035187097460970124   -0.0013257987460694141
-0.37007153625195494   -0.060876117143615176   -0.0033448736306723645
-0.37007153625195494   -0.060876117143615176   -0.0033448736306723645
-0.37007153625195494   -0.060876117143615176   -0.0033448736306723645
-0.37007153625195494   -0.060876117143615176   -0.0033448736306723645
-0.3547061454338519   -0.028143095820778334   -0.014523967677508179
-0.3547061454338519   -0.028143095820778334   -0.014523967677508179
-0.3547061454338519   -0.028143095820778334   -0.014523967677508179
-0.3547061454338519   -0.028143095820778334   -0.014523967677508179
-0.17523103354204508   -0.01534196533231617   0.00705590889006599
-0.17523103354204508   -0.01534196533231617   0.00705590889006599
-0.17523103354204508   -0.01534196533231617   0.00705590889006599
-0.17523103354204508   -0.01534196533231617   0.00705590889006599
-0.2657170502092396   -0.02308792726435875   -0.001727650306572048
-0.2657170502092396   -0.02308792726435875   -0.001727650306572048
-0.2657170502092396   -0.02308792726435875   -0.001727650306572048
-0.2657170502092396   -0.02308792726435875   -0.001727650306572048
-0.17190795919492063   0.010822665017652791   -0.002493349724283755
-0.17190795919492063   0.010822665017652791   -0.002493349724283755
-0.17190795919492063   0.010822665017652791   -0.002493349724283755
-0.17190795919492063   0.010822665017652791   -0.002493349724283755
-0.358574426149351   -0.054852932539121935   -0.007155534536656907
-0.358574426149351   -0.054852932539121935   -0.007155534536656907
-0.358574426149351   -0.054852932539121935   -0.007155534536656907
-0.358574426149351   -0.054852932539121935   -0.007155534536656907
-0.34486076735594573   -0.019865726800299792   -0.015007945068971696
-0.34486076735594573   -0.019865726800299792   -0.015007945068971696
-0.34486076735594573   -0.019865726800299792   -0.015007945068971696
-0.34486076735594573   -0.019865726800299792   -0.015007945068971696
-0.170512078533838   -0.011596978090097017   0.002315376200532384
-0.170512078533838   -0.011596978090097017   0.002315376200532384
-0.170512078533838   -0.011596978090097017   0.002315376200532384
-0.170512078533838   -0.011596978090097017   0.002315376200532384
-0.25895996884050687   -0.01848990419131316   -0.00043800088129069756
-0.25895996884050687   -0.01848990419131316   -0.00043800088129069756
-0.25895996884050687   -0.01848990419131316   -0.00043800088129069756
-0.25895996884050687   -0.01848990419131316   -0.00043800088129069756
-0.3727631186243997   -0.011939933210688161   -0.008913810176037703
-0.3727631186243997   -0.011939933210688161   -0.008913810176037703
-0.3727631186243997   -0.011939933210688161   -0.008913810176037703
-0.3727631186243997   -0.011939933210688161   -0.008913810176037703
-0.5622739916600331   -0.04694794034659973   0.02039572957962251
-0.5622739916600331   -0.04694794034659973   0.02039572957962251
-0.5622739916600331   -0.04694794034659973   0.02039572957962251
-0.5622739916600331   -0.04694794034659973   0.02039572957962251
-0.5439887230986405   -0.03781372005074292   -0.01213392655999266
-0.5439887230986405   -0.03781372005074292   -0.01213392655999266
-0.5439887230986405   -0.03781372005074292   -0.01213392655999266
-0.5439887230986405   -0.03781372005074292   -0.01213392655999266
-0.35135344109709277   0.010416747748128438   0.018952737251888712
-0.35135344109709277   0.010416747748128438   0.018952737251888712
-0.35135344109709277   0.010416747748128438   0.018952737251888712
-0.35135344109709277   0.010416747748128438   0.018952737251888712
-0.43702980862153706   -0.014500346659858554   0.002568497297471859
-0.43702980862153706   -0.014500346659858554   0.002568497297471859
-0.43702980862153706   -0.014500346659858554   0.002568497297471859
-0.43702980862153706   -0.014500346659858554   0.002568497297471859
-0.35929240609277363   -0.0004272827777063032   -0.009898057200676401
-0.35929240609277363   -0.0004272827777063032   -0.009898057200676401
-0.35929240609277363   -0.0004272827777063032   -0.009898057200676401
-0.35929240609277363   -0.0004272827777063032   -0.009898057200676401
-0.5347728404773978   -0.025692771899345587   0.021824538394823633
-0.5347728404773978   -0.025692771899345587   0.021824538394823633
-0.5347728404773978   -0.025692771899345587   0.021824538394823633
-0.5347728404773978   -0.025692771899345587   0.021824538394823633
-0.5243141046969733   -0.031945488476128214   -0.01445045703662597
-0.5243141046969733   -0.031945488476128214   -0.01445045703662597
-0.5243141046969733   -0.031945488476128214   -0.01445045703662597
-0.5243141046969733   -0.031945488476128214   -0.01445045703662597
-0.3392871072578364   0.016200743154097225   0.018227384227693825
-0.3392871072578364   0.016200743154097225   0.018227384227693825
-0.3392871072578364   0.016200743154097225   0.018227384227693825
-0.3392871072578364   0.016200743154097225   0.018227384227693825
-0.42583994404386427   -0.005842994492102571   0.00883639237256981
-0.42583994404386427   -0.005842994492102571   0.00883639237256981
-0.42583994404386427   -0.005842994492102571   0.00883639237256981
-0.42583994404386427   -0.005842994492102571   0.00883639237256981
-0.3474850425844195   0.004165087919569571   -0.010726637170690851
-0.3474850425844195   0.004165087919569571   -0.010726637170690851
-0.3474850425844195   0.004165087919569571   -0.010726637170690851
-0.3474850425844195   0.004165087919569571   -0.010726637170690851
-0.5158292900050452   -0.019622953876255803   0.015651081823137476
-0.5158292900050452   -0.019622953876255803   0.015651081823137476
-0.5158292900050452   -0.019622953876255803   0.015651081823137476
-0.5158292900050452   -0.019622953876255803   0.015651081823137476
-0.5039216480903366   -0.026546613233273522   -0.01749289710119632
-0.5039216480903366   -0.026546613233273522   -0.01749289710119632
-0.5039216480903366   -0.026546613233273522   -0.01749289710119632
-0.5039216480903366   -0.026546613233273522   -0.01749289710119632
-0.330506345517085   0.02289147435617607   0.014006962968855882
-0.330506345517085   0.02289147435617607   0.014006962968855882
-0.330506345517085   0.02289147435617607   0.014006962968855882
-0.330506345517085   0.02289147435617607   0.014006962968855882
-0.4036746643345064   0.0015046798198625339   0.015255366034454092
-0.4036746643345064   0.0015046798198625339   0.015255366034454092
-0.4036746643345064   0.0015046798198625339   0.015255366034454092
-0.4036746643345064   0.0015046798198625339   0.015255366034454092
0.4875193501147956   0.02957558648815181   0.017205470112095448
0.4875193501147956   0.02957558648815181   0.017205470112095448
0.4875193501147956   0.02957558648815181   0.017205470112095448
0.4875193501147956   0.02957558648815181   0.017205470112095448
0.23149338223973923   -0.04280526696621514   0.0033730070071518285
0.23149338223973923   -0.04280526696621514   0.0033730070071518285
0.23149338223973923   -0.04280526696621514   0.0033730070071518285
0.23149338223973923   -0.04280526696621514   0.0033730070071518285
0.2438451461428629   -0.01838805651717046   0.013089452476250138
0.2438451461428629   -0.01838805651717046   0.013089452476250138
0.2438451461428629   -0.01838805651717046   0.013089452476250138
0.2438451461428629   -0.01838805651717046   0.013089452476250138
0.48983105266947014   0.0050923821728968005   -0.004230343119898641
0.48983105266947014   0.0050923821728968005   -0.004230343119898641
0.48983105266947014   0.0050923821728968005   -0.004230343119898641
0.48983105266947014   0.0050923821728968005   -0.004230343119898641
0.3422265056033706   -0.008925155420683131   -0.02242493463287746
0.3422265056033706   -0.008925155420683131   -0.02242493463287746
0.3422265056033706   -0.008925155420683131   -0.02242493463287746
0.3422265056033706   -0.008925155420683131   -0.02242493463287746
0.49892028253704224   0.03272559828715596   0.01358259010370283
0.49892028253704224   0.03272559828715596   0.01358259010370283
0.49892028253704224   0.03272559828715596   0.01358259010370283
0.49892028253704224   0.03272559828715596   0.01358259010370283
0.23690509555232253   -0.04387209335439787   0.003873236360775658
0.23690509555232253   -0.04387209335439787   0.003873236360775658
0.23690509555232253   -0.04387209335439787   0.003873236360775658
0.23690509555232253   -0.04387209335439787   0.003873236360775658
0.24842052642639068   -0.015659071556785177   0.009925294566469546
0.24842052642639068   -0.015659071556785177   0.009925294566469546
0.24842052642639068   -0.015659071556785177   0.009925294566469546
0.24842052642639068   -0.015659071556785177   0.009925294566469546
0.4980852868855087   0.008151386595269788   -0.0016739950416238061
0.4980852868855087   0.008151386595269788   -0.0016739950416238061
0.4980852868855087   0.008151386595269788   -0.0016739950416238061
0.4980852868855087   0.008151386595269788   -0.0016739950416238061
0.3560122169502046   -0.006989971833737854   -0.015412232947464452
0.3560122169502046   -0.006989971833737854   -0.015412232947464452
0.3560122169502046   -0.006989971833737854   -0.015412232947464452
0.3560122169502046   -0.006989971833737854   -0.015412232947464452
0.5058072710675109   0.03570890079239693   0.009378411671259856
0.5058072710675109   0.03570890079239693   0.009378411671259856
0.5058072710675109   0.03570890079239693   0.009378411671259856
0.5058072710675109   0.03570890079239693   0.009378411671259856
0.24219263520459752   -0.0417224927937033   0.004849259694421952
0.24219263520459752   -0.0417224927937033   0.004849259694421952
0.24219263520459752   -0.0417224927937033   0.004849259694421952
0.24219263520459752   -0.0417224927937033   0.004849259694421952
0.25520239007821216   -0.005017603642299799   0.009075314230544206
0.25520239007821216   -0.005017603642299799   0.009075314230544206
0.25520239007821216   -0.005017603642299799   0.009075314230544206
0.25520239007821216   -0.005017603642299799   0.009075314230544206
0.5067441391220365   0.015333280954354003   -0.0006897427880182098
0.5067441391220365   0.015333280954354003   -0.0006897427880182098
0.5067441391220365   0.015333280954354003   -0.0006897427880182098
0.5067441391220365   0.015333280954354003   -0.0006897427880182098
0.35742599409438636   -0.0030281936108880886   -0.011647754545681909
0.35742599409438636   -0.0030281936108880886   -0.011647754545681909
0.35742599409438636   -0.0030281936108880886   -0.011647754545681909
0.35742599409438636   -0.0030281936108880886   -0.011647754545681909
0.24451324158191248   0.0073052949035904285   0.018361741848212227
0.24451324158191248   0.0073052949035904285   0.018361741848212227
0.24451324158191248   0.0073052949035904285   0.018361741848212227
0.24451324158191248   0.0073052949035904285   0.018361741848212227
0.010638946690685294   -0.08395365231897625   0.008172452273763297
0.010638946690685294   -0.08395365231897625   0.008172452273763297
0.010638946690685294   -0.08395365231897625   0.008172452273763297
0.010638946690685294   -0.08395365231897625   0.008172452273763297
0.026553811425472827   -0.0360874938599069   0.0078381444497921
0.026553811425472827   -0.0360874938599069   0.0078381444497921
0.026553811425472827   -0.0360874938599069   0.0078381444497921
0.026553811425472827   -0.0360874938599069   0.0078381444497921
0.23836519146443705   -0.03833899973198917   0.0056406222989367795
0.23836519146443705   -0.03833899973198917   0.0056406222989367795
0.23836519146443705   -0.03833899973198917   0.0056406222989367795
0.23836519146443705   -0.03833899973198917   0.0056406222989367795
0.12584820122271406   -0.036946084486596316   -0.014010417555499165
0.12584820122271406   -0.036946084486596316   -0.014010417555499165
0.12584820122271406   -0.036946084486596316   -0.014010417555499165
0.12584820122271406   -0.036946084486596316   -0.014010417555499165
0.2500073851004924   0.010115091778817614   0.015397498968410453
0.2500073851004924   0.010115091778817614   0.015397498968410453
0.2500073851004924   0.010115091778817614   0.015397498968410453
0.2500073851004924   0.010115091778817614   0.015397498968410453
0.017989987016654014   -0.08146321614347893   0.01039474468927103
0.017989987016654014   -0.08146321614347893   0.01039474468927103
0.017989987016654014   -0.08146321614347893   0.01039474468927103
0.017989987016654014   -0.08146321614347893   0.01039474468927103
0.03288777561741958   -0.031080082582919864   0.005596374299563896
0.03288777561741958   -0.031080082582919864   0.005596374299563896
0.03288777561741958   -0.031080082582919864   0.005596374299563896
0.03288777561741958   -0.031080082582919864   0.005596374299563896
0.24381521196451114   -0.03565835634483855   0.006898007045125248
0.24381521196451114   -0.03565835634483855   0.006898007045125248
0.24381521196451114   -0.03565835634483855   0.006898007045125248
0.24381521196451114   -0.03565835634483855   0.006898007045125248
0.13117045608845593   -0.03498381174632518   -0.007012447425267292
0.13117045608845593   -0.03498381174632518   -0.007012447425267292
0.13117045608845593   -0.03498381174632518   -0.007012447425267292
0.13117045608845593   -0.03498381174632518   -0.007012447425267292
0.2551473810207937   0.01486055236181584   0.013039943619883634
0.2551473810207937   0.01486055236181584   0.013039943619883634
0.2551473810207937   0.01486055236181584   0.013039943619883634
0.2551473810207937   0.01486055236181584   0.013039943619883634
0.02451145839188753   -0.0786431394588263   0.011277845047810098
0.02451145839188753   -0.0786431394588263   0.011277845047810098
0.02451145839188753   -0.0786431394588263   0.011277845047810098
0.02451145839188753   -0.0786431394588263   0.011277845047810098
0.04265303610927966   -0.02355324997304199   0.00362653444219016
0.04265303610927966   -0.02355324997304199   0.00362653444219016
0.04265303610927966   -0.02355324997304199   0.00362653444219016
0.04265303610927966   -0.02355324997304199   0.00362653444219016
0.249745335805733   -0.031609882622951   0.008382321848799508
0.249745335805733   -0.031609882622951   0.008382321848799508
0.249745335805733   -0.031609882622951   0.008382321848799508
0.249745335805733   -0.031609882622951   0.008382321848799508
0.14074548321416655   -0.030307218093960434   0.001158410025700319
0.14074548321416655   -0.030307218093960434   0.001158410025700319
0.14074548321416655   -0.030307218093960434   0.001158410025700319
0.14074548321416655   -0.030307218093960434   0.001158410025700319
0.025187862799298386   -0.014849227498905083   0.011812607996757572
0.025187862799298386   -0.014849227498905083   0.011812607996757572
0.025187862799298386   -0.014849227498905083   0.011812607996757572
0.025187862799298386   -0.014849227498905083   0.011812607996757572
-0.21168372191472806   -0.14322688640662432   0.012169796206157723
-0.21168372191472806   -0.14322688640662432   0.012169796206157723
-0.21168372191472806   -0.14322688640662432   0.012169796206157723
-0.21168372191472806   -0.14322688640662432   0.012169796206157723
-0.18669887234314766   -0.056724364889110736   0.0005373820198800398
-0.18669887234314766   -0.056724364889110736   0.0005373820198800398
-0.18669887234314766   -0.056724364889110736   0.0005373820198800398
-0.18669887234314766   -0.056724364889110736   0.0005373820198800398
0.012842631181712992   -0.10184097522056423   0.00503572459165124
0.012842631181712992   -0.10184097522056423   0.00503572459165124
0.012842631181712992   -0.10184097522056423   0.00503572459165124
0.012842631181712992   -0.10184097522056423   0.00503572459165124
-0.09270552821664563   -0.07970540276949543   -0.016792902314339348
-0.09270552821664563   -0.07970540276949543   -0.016792902314339348
-0.09270552821664563   -0.07970540276949543   -0.016792902314339348
-0.09270552821664563   -0.07970540276949543   -0.016792902314339348
0.03182152613838587   -0.011258263971574803   0.009347488126026164
0.03182152613838587   -0.011258263971574803   0.009347488126026164
0.03182152613838587   -0.011258263971574803   0.009347488126026164
0.03182152613838587   -0.011258263971574803   0.009347488126026164
-0.20116878333758992   -0.14279809217586925   0.014261554334429147
-0.20116878333758992   -0.14279809217586925   0.014261554334429147
-0.20116878333758992   -0.14279809217586925   0.014261554334429147
-0.20116878333758992   -0.14279809217586925   0.014261554334429147
-0.1770508315157881   -0.050835508105729475   -0.000406759259365461
-0.1770508315157881   -0.050835508105729475   -0.000406759259365461
-0.1770508315157881   -0.050835508105729475   -0.000406759259365461
-0.1770508315157881   -0.050835508105729475   -0.000406759259365461
0.019537834767864436   -0.09935864166611713   0.007125229134985471
0.019537834767864436   -0.09935864166611713   0.007125229134985471
0.019537834767864436   -0.09935864166611713   0.007125229134985471
0.019537834767864436   -0.09935864166611713   0.007125229134985471
-0.08288674239711563   -0.07675027475142722   -0.00612194841480404
-0.08288674239711563   -0.07675027475142722   -0.00612194841480404
-0.08288674239711563   -0.07675027475142722   -0.00612194841480404
-0.08288674239711563   -0.07675027475142722   -0.00612194841480404
0.037889071211279705   -0.006551351476044909   0.006074121161989585
0.037889071211279705   -0.006551351476044909   0.006074121161989585
0.037889071211279705   -0.006551351476044909   0.006074121161989585
0.037889071211279705   -0.006551351476044909   0.006074121161989585
-0.19138145743893234   -0.13962218777553032   0.016726790794716423
-0.19138145743893234   -0.13962218777553032   0.016726790794716423
-0.19138145743893234   -0.13962218777553032   0.016726790794716423
-0.19138145743893234   -0.13962218777553032   0.016726790794716423
-0.1611167670032192   -0.04407355874407891   -0.002300877624140229
-0.1611167670032192   -0.04407355874407891   -0.002300877624140229
-0.1611167670032192   -0.04407355874407891   -0.002300877624140229
-0.1611167670032192   -0.04407355874407891   -0.002300877624140229
0.029974858305251373   -0.09284729789436783   0.009529693343374557
0.029974858305251373   -0.09284729789436783   0.009529693343374557
0.029974858305251373   -0.09284729789436783   0.009529693343374557
0.029974858305251373   -0.09284729789436783   0.009529693343374557
-0.0701976472683764   -0.07048743569626574   0.004905537358464766
-0.0701976472683764   -0.07048743569626574   0.004905537358464766
-0.0701976472683764   -0.07048743569626574   0.004905537358464766
-0.0701976472683764   -0.07048743569626574   0.004905537358464766
-0.18993221486879766   -0.027945951219490416   0.005646396248674107
-0.18993221486879766   -0.027945951219490416   0.005646396248674107
-0.18993221486879766   -0.027945951219490416   0.005646396248674107
-0.18993221486879766   -0.027945951219490416   0.005646396248674107
-0.46636698592172166   -0.22155112456794157   -0.009408020662533684
-0.46636698592172166   -0.22155112456794157   -0.009408020662533684
-0.46636698592172166   -0.22155112456794157   -0.009408020662533684
-0.46636698592172166   -0.22155112456794157   -0.009408020662533684
-0.4253231409231512   -0.07379413937949242   -0.012683380138846966
-0.4253231409231512   -0.07379413937949242   -0.012683380138846966
-0.4253231409231512   -0.07379413937949242   -0.012683380138846966
-0.4253231409231512   -0.07379413937949242   -0.012683380138846966
-0.21133925999746725   -0.18356082250980266   0.004171901368974031
-0.21133925999746725   -0.18356082250980266   0.004171901368974031
-0.21133925999746725   -0.18356082250980266   0.004171901368974031
-0.21133925999746725   -0.18356082250980266   0.004171901368974031
-0.32291436056066203   -0.13113799303626028   -0.017747095828641368
-0.32291436056066203   -0.13113799303626028   -0.017747095828641368
-0.32291436056066203   -0.13113799303626028   -0.017747095828641368
-0.32291436056066203   -0.13113799303626028   -0.017747095828641368
-0.1785745082164883   -0.020850641047978437   0.005285478812044707
-0.1785745082164883   -0.020850641047978437   0.005285478812044707
-0.1785745082164883   -0.020850641047978437   0.005285478812044707
-0.1785745082164883   -0.020850641047978437   0.005285478812044707
-0.456822462228019   -0.2352388903652029   -0.00873523567747543
-0.456822462228019   -0.2352388903652029   -0.00873523567747543
-0.456822462228019   -0.2352388903652029   -0.00873523567747543
-0.456822462228019   -0.2352388903652029   -0.00873523567747543
-0.412355675439374   -0.06677434489342175   -0.012981347018117685
-0.412355675439374   -0.06677434489342175   -0.012981347018117685
-0.412355675439374   -0.06677434489342175   -0.012981347018117685
-0.412355675439374   -0.06677434489342175   -0.012981347018117685
-0.20189996786158   -0.18180240413238147   0.006314455038328302
-0.20189996786158   -0.18180240413238147   0.006314455038328302
-0.20189996786158   -0.18180240413238147   0.006314455038328302
-0.20189996786158   -0.18180240413238147   0.006314455038328302
-0.30911432799369726   -0.12721509954419247   -0.011924735759836054
-0.30911432799369726   -0.12721509954419247   -0.011924735759836054
-0.30911432799369726   -0.12721509954419247   -0.011924735759836054
-0.30911432799369726   -0.12721509954419247   -0.011924735759836054
-0.16949424029102245   -0.015248042256984302   0.0017887310157180389
-0.16949424029102245   -0.015248042256984302   0.0017887310157180389
-0.16949424029102245   -0.015248042256984302   0.0017887310157180389
-0.16949424029102245   -0.015248042256984302   0.0017887310157180389
-0.44455220869928186   -0.23311951245816884   -0.007618845752906715
-0.44455220869928186   -0.23311951245816884   -0.007618845752906715
-0.44455220869928186   -0.23311951245816884   -0.007618845752906715
-0.44455220869928186   -0.23311951245816884   -0.007618845752906715
-0.39201299781918436   -0.05930705172899551   -0.014734072708598304
-0.39201299781918436   -0.05930705172899551   -0.014734072708598304
-0.39201299781918436   -0.05930705172899551   -0.014734072708598304
-0.39201299781918436   -0.05930705172899551   -0.014734072708598304
-0.1814597256676147   -0.1622706703285672   0.014181440638372386
-0.1814597256676147   -0.1622706703285672   0.014181440638372386
-0.1814597256676147   -0.1622706703285672   0.014181440638372386
-0.1814597256676147   -0.1622706703285672   0.014181440638372386
-0.29388514455822706   -0.11462317003806918   -0.00598396341234707
-0.29388514455822706   -0.11462317003806918   -0.00598396341234707
-0.29388514455822706   -0.11462317003806918   -0.00598396341234707
-0.29388514455822706   -0.11462317003806918   -0.00598396341234707
-0.42559245541981644   -0.024256731298889722   -0.0028297614220594743
-0.42559245541981644   -0.024256731298889722   -0.0028297614220594743
-0.42559245541981644   -0.024256731298889722   -0.0028297614220594743
-0.42559245541981644   -0.024256731298889722   -0.0028297614220594743
-0.7460088765754533   -0.1476642132845607   0.007687810152649854
-0.7460088765754533   -0.1476642132845607   0.007687810152649854
-0.7460088765754533   -0.1476642132845607   0.007687810152649854
-0.7460088765754533   -0.1476642132845607   0.007687810152649854
-0.7173682027629463   -0.06960776765598754   -0.015155078102837494
-0.7173682027629463   -0.06960776765598754   -0.015155078102837494
-0.7173682027629463   -0.06960776765598754   -0.015155078102837494
-0.7173682027629463   -0.06960776765598754   -0.015155078102837494
-0.41775970740070323   -0.07773667655113439   0.029076324645031237
-0.41775970740070323   -0.07773667655113439   0.029076324645031237
-0.41775970740070323   -0.07773667655113439   0.029076324645031237
-0.41775970740070323   -0.07773667655113439   0.029076324645031237
-0.5534373273124036   -0.08523230758238076   0.007262621973341141
-0.5534373273124036   -0.08523230758238076   0.007262621973341141
-0.5534373273124036   -0.08523230758238076   0.007262621973341141
-0.5534373273124036   -0.08523230758238076   0.007262621973341141
-0.40899138958675496   -0.004887618306208902   6.885546984887816e-05
-0.40899138958675496   -0.004887618306208902   6.885546984887816e-05
-0.40899138958675496   -0.004887618306208902   6.885546984887816e-05
-0.40899138958675496   -0.004887618306208902   6.885546984887816e-05
-0.7287172870228416   -0.1450375923468581   0.0035293252885510995
-0.7287172870228416   -0.1450375923468581   0.0035293252885510995
-0.7287172870228416   -0.1450375923468581   0.0035293252885510995
-0.7287172870228416   -0.1450375923468581   0.0035293252885510995
-0.7020366842614247   -0.06384644196726943   -0.01925896437556634
-0.7020366842614247   -0.06384644196726943   -0.01925896437556634
-0.7020366842614247   -0.06384644196726943   -0.01925896437556634
-0.7020366842614247   -0.06384644196726943   -0.01925896437556634
-0.40442808705197164   -0.07409097283774935   0.03397322286322495
-0.40442808705197164   -0.07409097283774935   0.03397322286322495
-0.40442808705197164   -0.07409097283774935   0.03397322286322495
-0.40442808705197164   -0.07409097283774935   0.03397322286322495
-0.5457187914098424   -0.07035830521909855   0.00713575002380216
-0.5457187914098424   -0.07035830521909855   0.00713575002380216
-0.5457187914098424   -0.07035830521909855   0.00713575002380216
-0.5457187914098424   -0.07035830521909855   0.00713575002380216
-0.3971320897964177   0.00021559755124272995   -0.0038533612479973132
-0.3971320897964177   0.00021559755124272995   -0.0038533612479973132
-0.3971320897964177   0.00021559755124272995   -0.0038533612479973132
-0.3971320897964177   0.00021559755124272995   -0.0038533612479973132
-0.7101496679727772   -0.1389699988120634   0.015299673912460177
-0.7101496679727772   -0.1389699988120634   0.015299673912460177
-0.7101496679727772   -0.1389699988120634   0.015299673912460177
-0.7101496679727772   -0.1389699988120634   0.015299673912460177
-0.6701543143917187   -0.05218476923782395   -0.021726286126510563
-0.6701543143917187   -0.05218476923782395   -0.021726286126510563
-0.6701543143917187   -0.05218476923782395   -0.021726286126510563
-0.6701543143917187   -0.05218476923782395   -0.021726286126510563
-0.3835843314578004   -0.06924702068141186   0.037349228050741076
-0.3835843314578004   -0.06924702068141186   0.037349228050741076
-0.3835843314578004   -0.06924702068141186   0.037349228050741076
-0.3835843314578004   -0.06924702068141186   0.037349228050741076
-0.51418306079429   -0.05390557376365476   0.015262866817563735
-0.51418306079429   -0.05390557376365476   0.015262866817563735
-0.51418306079429   -0.05390557376365476   0.015262866817563735
-0.51418306079429   -0.05390557376365476   0.015262866817563735
0.5340893233767404   0.018499882059531195   0.007302810998882293
0.5340893233767404   0.018499882059531195   0.007302810998882293
0.5340893233767404   0.018499882059531195   0.007302810998882293
0.5340893233767404   0.018499882059531195   0.007302810998882293
0.27119612434627227   -0.014908027411799973   0.004967001937749564
0.27119612434627227   -0.014908027411799973   0.004967001937749564
0.27119612434627227   -0.014908027411799973   0.004967001937749564
0.27119612434627227   -0.014908027411799973   0.004967001937749564
0.26107439181775005   -0.037752946781529254   0.010299672959691166
0.26107439181775005   -0.037752946781529254   0.010299672959691166
0.26107439181775005   -0.037752946781529254   0.010299672959691166
0.26107439181775005   -0.037752946781529254   0.010299672959691166
0.5302732619536171   0.029806184441078284   0.0034463042488320633
0.5302732619536171   0.029806184441078284   0.0034463042488320633
0.5302732619536171   0.029806184441078284   0.0034463042488320633
0.5302732619536171   0.029806184441078284   0.0034463042488320633
0.3778944242419951   -0.005105692562751896   -0.014043184939568416
0.3778944242419951   -0.005105692562751896   -0.014043184939568416
0.3778944242419951   -0.005105692562751896   -0.014043184939568416
0.3778944242419951   -0.005105692562751896   -0.014043184939568416
0.5276505464965954   0.014608443202718216   0.0055304682020832115
0.5276505464965954   0.014608443202718216   0.0055304682020832115
0.5276505464965954   0.014608443202718216   0.0055304682020832115
0.5276505464965954   0.014608443202718216   0.0055304682020832115
0.2628956202407945   -0.02335669257714655   0.005009560870530519
0.2628956202407945   -0.02335669257714655   0.005009560870530519
0.2628956202407945   -0.02335669257714655   0.005009560870530519
0.2628956202407945   -0.02335669257714655   0.005009560870530519
0.2545414130028507   -0.03852875569644258   0.008469167382472359
0.2545414130028507   -0.03852875569644258   0.008469167382472359
0.2545414130028507   -0.03852875569644258   0.008469167382472359
0.2545414130028507   -0.03852875569644258   0.008469167382472359
0.5243662903923519   0.028628487760775853   0.006228448339453203
0.5243662903923519   0.028628487760775853   0.006228448339453203
0.5243662903923519   0.028628487760775853   0.006228448339453203
0.5243662903923519   0.028628487760775853   0.006228448339453203
0.3771237776921452   -0.0070242475516542335   -0.016023701908478138
0.3771237776921452   -0.0070242475516542335   -0.016023701908478138
0.3771237776921452   -0.0070242475516542335   -0.016023701908478138
0.3771237776921452   -0.0070242475516542335   -0.016023701908478138
0.5203731983645625   0.01326838590971724   0.0016230900515596322
0.5203731983645625   0.01326838590971724   0.0016230900515596322
0.5203731983645625   0.01326838590971724   0.0016230900515596322
0.5203731983645625   0.01326838590971724   0.0016230900515596322
0.2570614725453404   -0.024641686330684545   0.0071823957291627
0.2570614725453404   -0.024641686330684545   0.0071823957291627
0.2570614725453404   -0.024641686330684545   0.0071823957291627
0.2570614725453404   -0.024641686330684545   0.0071823957291627
0.24769494837743078   -0.03487475464522673   0.007319269958683917
0.24769494837743078   -0.03487475464522673   0.007319269958683917
0.24769494837743078   -0.03487475464522673   0.007319269958683917
0.24769494837743078   -0.03487475464522673   0.007319269958683917
0.515316370716447   0.02927068553904602   0.009168380397567864
0.515316370716447   0.02927068553904602   0.009168380397567864
0.515316370716447   0.02927068553904602   0.009168380397567864
0.515316370716447   0.02927068553904602   0.009168380397567864
0.3632942718253789   -0.006953279492601883   -0.021426867943562328
0.3632942718253789   -0.006953279492601883   -0.021426867943562328
0.3632942718253789   -0.006953279492601883   -0.021426867943562328
0.3632942718253789   -0.006953279492601883   -0.021426867943562328
0.2696268804458084   -0.031123337514981822   0.013336092538612326
0.2696268804458084   -0.031123337514981822   0.013336092538612326
0.2696268804458084   -0.031123337514981822   0.013336092538612326
0.2696268804458084   -0.031123337514981822   0.013336092538612326
0.048751294786295536   -0.032037547528292395   0.00240911334714314
0.048751294786295536   -0.032037547528292395   0.00240911334714314
0.048751294786295536   -0.032037547528292395   0.00240911334714314
0.048751294786295536   -0.032037547528292395   0.00240911334714314
0.031256128705462405   -0.07819959678694652   0.013446699783124665
0.031256128705462405   -0.07819959678694652   0.013446699783124665
0.031256128705462405   -0.07819959678694652   0.013446699783124665
0.031256128705462405   -0.07819959678694652   0.013446699783124665
0.2708926090635805   0.011458256703118994   0.010179555704195003
0.2708926090635805   0.011458256703118994   0.010179555704195003
0.2708926090635805   0.011458256703118994   0.010179555704195003
0.2708926090635805   0.011458256703118994   0.010179555704195003
0.15273023503254876   -0.03261374995159674   -0.0006600427826609911
0.15273023503254876   -0.03261374995159674   -0.0006600427826609911
0.15273023503254876   -0.03261374995159674   -0.0006600427826609911
0.15273023503254876   -0.03261374995159674   -0.0006600427826609911
0.2623296277124995   -0.032424713176485376   0.011247618828393365
0.2623296277124995   -0.032424713176485376   0.011247618828393365
0.2623296277124995   -0.032424713176485376   0.011247618828393365
0.2623296277124995   -0.032424713176485376   0.011247618828393365
0.03764794372715124   -0.0364877932367345   0.003693971341356782
0.03764794372715124   -0.0364877932367345   0.003693971341356782
0.03764794372715124   -0.0364877932367345   0.003693971341356782
0.03764794372715124   -0.0364877932367345   0.003693971341356782
0.023359593273235647   -0.07872585381068965   0.012016138407145209
0.023359593273235647   -0.07872585381068965   0.012016138407145209
0.023359593273235647   -0.07872585381068965   0.012016138407145209
0.023359593273235647   -0.07872585381068965   0.012016138407145209
0.2648750761501279   0.00960994737882443   0.011998780043591407
0.2648750761501279   0.00960994737882443   0.011998780043591407
0.2648750761501279   0.00960994737882443   0.011998780043591407
0.2648750761501279   0.00960994737882443   0.011998780043591407
0.14194893792037364   -0.03470103992883522   -0.0071418595934499805
0.14194893792037364   -0.03470103992883522   -0.0071418595934499805
0.14194893792037364   -0.03470103992883522   -0.0071418595934499805
0.14194893792037364   -0.03470103992883522   -0.0071418595934499805
0.2558798760355717   -0.03274873297477082   0.009381459824403283
0.2558798760355717   -0.03274873297477082   0.009381459824403283
0.2558798760355717   -0.03274873297477082   0.009381459824403283
0.2558798760355717   -0.03274873297477082   0.009381459824403283
0.0299880369027516   -0.03873392994213505   0.00516643268617036
0.0299880369027516   -0.03873392994213505   0.00516643268617036
0.0299880369027516   -0.03873392994213505   0.00516643268617036
0.0299880369027516   -0.03873392994213505   0.00516643268617036
0.014539883876701798   -0.07846354767834324   0.009319448500869562
0.014539883876701798   -0.07846354767834324   0.009319448500869562
0.014539883876701798   -0.07846354767834324   0.009319448500869562
0.014539883876701798   -0.07846354767834324   0.009319448500869562
0.2580451340909212   0.0099066488137457   0.014288795067164923
0.2580451340909212   0.0099066488137457   0.014288795067164923
0.2580451340909212   0.0099066488137457   0.014288795067164923
0.2580451340909212   0.0099066488137457   0.014288795067164923
0.13547761584181992   -0.03424895007624573   -0.01260586771171622
0.13547761584181992   -0.03424895007624573   -0.01260586771171622
0.13547761584181992   -0.03424895007624573   -0.01260586771171622
0.13547761584181992   -0.03424895007624573   -0.01260586771171622
0.038394227395726   -0.09327334167713719   0.011859570543139252
0.038394227395726   -0.09327334167713719   0.011859570543139252
0.038394227395726   -0.09327334167713719   0.011859570543139252
0.038394227395726   -0.09327334167713719   0.011859570543139252
-0.16535654438729333   -0.04918835784707622   -0.00020216730381930614
-0.16535654438729333   -0.04918835784707622   -0.00020216730381930614
-0.16535654438729333   -0.04918835784707622   -0.00020216730381930614
-0.16535654438729333   -0.04918835784707622   -0.00020216730381930614
-0.1970036477882026   -0.14173660236491675   0.015403867839804332
-0.1970036477882026   -0.14173660236491675   0.015403867839804332
-0.1970036477882026   -0.14173660236491675   0.015403867839804332
-0.1970036477882026   -0.14173660236491675   0.015403867839804332
0.04415864171070197   -0.006782020179422461   0.006541688201798413
0.04415864171070197   -0.006782020179422461   0.006541688201798413
0.04415864171070197   -0.006782020179422461   0.006541688201798413
0.04415864171070197   -0.006782020179422461   0.006541688201798413
-0.06908725649495787   -0.07170756545206926   0.0027793607104624543
-0.06908725649495787   -0.07170756545206926   0.0027793607104624543
-0.06908725649495787   -0.07170756545206926   0.0027793607104624543
-0.06908725649495787   -0.07170756545206926   0.0027793607104624543
0.026249882378973903   -0.09843624635557932   0.008652117719314928
0.026249882378973903   -0.09843624635557932   0.008652117719314928
0.026249882378973903   -0.09843624635557932   0.008652117719314928
0.026249882378973903   -0.09843624635557932   0.008652117719314928
-0.18216754851321074   -0.053155036245498846   0.001002798095344505
-0.18216754851321074   -0.053155036245498846   0.001002798095344505
-0.18216754851321074   -0.053155036245498846   0.001002798095344505
-0.18216754851321074   -0.053155036245498846   0.001002798095344505
-0.20794201121105607   -0.14373578255199623   0.012719370684510518
-0.20794201121105607   -0.14373578255199623   0.012719370684510518
-0.20794201121105607   -0.14373578255199623   0.012719370684510518
-0.20794201121105607   -0.14373578255199623   0.012719370684510518
0.03674562843597207   -0.008825505433608485   0.009045965843746149
0.03674562843597207   -0.008825505433608485   0.009045965843746149
0.03674562843597207   -0.008825505433608485   0.009045965843746149
0.03674562843597207   -0.008825505433608485   0.009045965843746149
-0.08278774479388548   -0.07590797299895397   -0.006331606560824061
-0.08278774479388548   -0.07590797299895397   -0.006331606560824061
-0.08278774479388548   -0.07590797299895397   -0.006331606560824061
-0.08278774479388548   -0.07590797299895397   -0.006331606560824061
0.017838631175081093   -0.0999886944921094   0.0056741685977921875
0.017838631175081093   -0.0999886944921094   0.0056741685977921875
0.017838631175081093   -0.0999886944921094   0.0056741685977921875
0.017838631175081093   -0.0999886944921094   0.0056741685977921875
-0.1927411457819193   -0.05627872532524732   0.0012666406034434101
-0.1927411457819193   -0.05627872532524732   0.0012666406034434101
-0.1927411457819193   -0.05627872532524732   0.0012666406034434101
-0.1927411457819193   -0.05627872532524732   0.0012666406034434101
-0.21986763228649103   -0.14263639167221778   0.010426715045867188
-0.21986763228649103   -0.14263639167221778   0.010426715045867188
-0.21986763228649103   -0.14263639167221778   0.010426715045867188
-0.21986763228649103   -0.14263639167221778   0.010426715045867188
0.02851439377793568   -0.009908366434115365   0.010636816762811113
0.02851439377793568   -0.009908366434115365   0.010636816762811113
0.02851439377793568   -0.009908366434115365   0.010636816762811113
0.02851439377793568   -0.009908366434115365   0.010636816762811113
-0.09395750179234652   -0.07743813820822945   -0.015542628299531179
-0.09395750179234652   -0.07743813820822945   -0.015542628299531179
-0.09395750179234652   -0.07743813820822945   -0.015542628299531179
-0.09395750179234652   -0.07743813820822945   -0.015542628299531179
-0.18476610078031114   -0.16053083735862456   0.014092530242640872
-0.18476610078031114   -0.16053083735862456   0.014092530242640872
-0.18476610078031114   -0.16053083735862456   0.014092530242640872
-0.18476610078031114   -0.16053083735862456   0.014092530242640872
-0.40692948968876924   -0.061076834574650074   -0.009154635304577215
-0.40692948968876924   -0.061076834574650074   -0.009154635304577215
-0.40692948968876924   -0.061076834574650074   -0.009154635304577215
-0.40692948968876924   -0.061076834574650074   -0.009154635304577215
-0.4623868162320308   -0.23694277749240794   -0.011690317309488801
-0.4623868162320308   -0.23694277749240794   -0.011690317309488801
-0.4623868162320308   -0.23694277749240794   -0.011690317309488801
-0.4623868162320308   -0.23694277749240794   -0.011690317309488801
-0.17305074681980395   -0.012220744551845332   0.005652514868724744
-0.17305074681980395   -0.012220744551845332   0.005652514868724744
-0.17305074681980395   -0.012220744551845332   0.005652514868724744
-0.17305074681980395   -0.012220744551845332   0.005652514868724744
-0.30374887424978303   -0.11281522531635539   -0.00898742203455468
-0.30374887424978303   -0.11281522531635539   -0.00898742203455468
-0.30374887424978303   -0.11281522531635539   -0.00898742203455468
-0.30374887424978303   -0.11281522531635539   -0.00898742203455468
-0.20722800691102874   -0.18255321516179868   0.005098685022555498
-0.20722800691102874   -0.18255321516179868   0.005098685022555498
-0.20722800691102874   -0.18255321516179868   0.005098685022555498
-0.20722800691102874   -0.18255321516179868   0.005098685022555498
-0.4274690201873998   -0.06586977092904811   -0.008174343649693354
-0.4274690201873998   -0.06586977092904811   -0.008174343649693354
-0.4274690201873998   -0.06586977092904811   -0.008174343649693354
-0.4274690201873998   -0.06586977092904811   -0.008174343649693354
-0.4754655035778809   -0.2404808494356133   -0.013512235761529899
-0.4754655035778809   -0.2404808494356133   -0.013512235761529899
-0.4754655035778809   -0.2404808494356133   -0.013512235761529899
-0.4754655035778809   -0.2404808494356133   -0.013512235761529899
-0.18321075137771342   -0.015654397893598494   0.008294285192824033
-0.18321075137771342   -0.015654397893598494   0.008294285192824033
-0.18321075137771342   -0.015654397893598494   0.008294285192824033
-0.18321075137771342   -0.015654397893598494   0.008294285192824033
-0.31980880166655323   -0.12531156252612807   -0.013365710243731718
-0.31980880166655323   -0.12531156252612807   -0.013365710243731718
-0.31980880166655323   -0.12531156252612807   -0.013365710243731718
-0.31980880166655323   -0.12531156252612807   -0.013365710243731718
-0.21853130474454338   -0.18598678201968727   0.002023902484762634
-0.21853130474454338   -0.18598678201968727   0.002023902484762634
-0.21853130474454338   -0.18598678201968727   0.002023902484762634
-0.21853130474454338   -0.18598678201968727   0.002023902484762634
-0.44042314679490074   -0.07042666189337493   -0.008354639388870842
-0.44042314679490074   -0.07042666189337493   -0.008354639388870842
-0.44042314679490074   -0.07042666189337493   -0.008354639388870842
-0.44042314679490074   -0.07042666189337493   -0.008354639388870842
-0.48653708531637246   -0.2291675146905536   -0.01522542152280179
-0.48653708531637246   -0.2291675146905536   -0.01522542152280179
-0.48653708531637246   -0.2291675146905536   -0.01522542152280179
-0.48653708531637246   -0.2291675146905536   -0.01522542152280179
-0.1959800544866621   -0.020538659628961637   0.007766872001751988
-0.1959800544866621   -0.020538659628961637   0.007766872001751988
-0.1959800544866621   -0.020538659628961637   0.007766872001751988
-0.1959800544866621   -0.020538659628961637   0.007766872001751988
-0.3347671225724513   -0.1294534853661478   -0.017686512843846435
-0.3347671225724513   -0.1294534853661478   -0.017686512843846435
-0.3347671225724513   -0.1294534853661478   -0.017686512843846435
-0.3347671225724513   -0.1294534853661478   -0.017686512843846435
-0.4009325503934141   -0.07352988729931215   0.03328311389685333
-0.4009325503934141   -0.07352988729931215   0.03328311389685333
-0.4009325503934141   -0.07352988729931215   0.03328311389685333
-0.4009325503934141   -0.07352988729931215   0.03328311389685333
-0.6989071722946856   -0.05147228816160565   -0.011640299398054471
-0.6989071722946856   -0.05147228816160565   -0.011640299398054471
-0.6989071722946856   -0.05147228816160565   -0.011640299398054471
-0.6989071722946856   -0.05147228816160565   -0.011640299398054471
-0.7405579951033329   -0.14630149291653058   0.009050530520679972
-0.7405579951033329   -0.14630149291653058   0.009050530520679972
-0.7405579951033329   -0.14630149291653058   0.009050530520679972
-0.7405579951033329   -0.14630149291653058   0.009050530520679972
-0.4106042565550196   0.0066282711217109935   0.0036514324614447397
-0.4106042565550196   0.0066282711217109935   0.0036514324614447397
-0.4106042565550196   0.0066282711217109935   0.0036514324614447397
-0.4106042565550196   0.0066282711217109935   0.0036514324614447397
-0.5359652581444991   -0.051337420673138914   0.010602494324951629
-0.5359652581444991   -0.051337420673138914   0.010602494324951629
-0.5359652581444991   -0.051337420673138914   0.010602494324951629
-0.5359652581444991   -0.051337420673138914   0.010602494324951629
-0.42248993173484234   -0.07860643400846706   0.029457761692507065
-0.42248993173484234   -0.07860643400846706   0.029457761692507065
-0.42248993173484234   -0.07860643400846706   0.029457761692507065
-0.42248993173484234   -0.07860643400846706   0.029457761692507065
-0.7269868761260099   -0.059381343988851476   -0.010014023520377419
-0.7269868761260099   -0.059381343988851476   -0.010014023520377419
-0.7269868761260099   -0.059381343988851476   -0.010014023520377419
-0.7269868761260099   -0.059381343988851476   -0.010014023520377419
-0.7577680400111463   -0.15230028059393427   -0.0037333629585250827
-0.7577680400111463   -0.15230028059393427   -0.0037333629585250827
-0.7577680400111463   -0.15230028059393427   -0.0037333629585250827
-0.7577680400111463   -0.15230028059393427   -0.0037333629585250827
-0.4228367285047495   0.0026872677465535344   0.00646352242195683
-0.4228367285047495   0.0026872677465535344   0.00646352242195683
-0.4228367285047495   0.0026872677465535344   0.00646352242195683
-0.4228367285047495   0.0026872677465535344   0.00646352242195683
-0.5669404094903049   -0.06753003988615312   0.004202739048689879
-0.5669404094903049   -0.06753003988615312   0.004202739048689879
-0.5669404094903049   -0.06753003988615312   0.004202739048689879
-0.5669404094903049   -0.06753003988615312   0.004202739048689879
-0.43632001324311753   -0.08243094112774121   0.024165307604411476
-0.43632001324311753   -0.08243094112774121   0.024165307604411476
-0.43632001324311753   -0.08243094112774121   0.024165307604411476
-0.43632001324311753   -0.08243094112774121   0.024165307604411476
-0.7407516541812277   -0.06364897062808672   -0.007302743774766307
-0.7407516541812277   -0.06364897062808672   -0.007302743774766307
-0.7407516541812277   -0.06364897062808672   -0.007302743774766307
-0.7407516541812277   -0.06364897062808672   -0.007302743774766307
-0.7722769307986783   -0.1545018145185387   -0.0002321417940151227
-0.7722769307986783   -0.1545018145185387   -0.0002321417940151227
-0.7722769307986783   -0.1545018145185387   -0.0002321417940151227
-0.7722769307986783   -0.1545018145185387   -0.0002321417940151227
-0.44010833042178654   -0.015035681670710746   0.0027865199302850203
-0.44010833042178654   -0.015035681670710746   0.0027865199302850203
-0.44010833042178654   -0.015035681670710746   0.0027865199302850203
-0.44010833042178654   -0.015035681670710746   0.0027865199302850203
-0.5730889794753129   -0.08130774164139773   0.006577066665435441
-0.5730889794753129   -0.08130774164139773   0.006577066665435441
-0.5730889794753129   -0.08130774164139773   0.006577066665435441
-0.5730889794753129   -0.08130774164139773   0.006577066665435441
0.47191791968975616   0.022297636511370553   -0.00972647378988177
0.47191791968975616   0.022297636511370553   -0.00972647378988177
0.47191791968975616   0.022297636511370553   -0.00972647378988177
0.47191791968975616   0.022297636511370553   -0.00972647378988177
0.23634600946416917   -0.005504573497964779   0.004570231681016999
0.23634600946416917   -0.005504573497964779   0.004570231681016999
0.23634600946416917   -0.005504573497964779   0.004570231681016999
0.23634600946416917   -0.005504573497964779   0.004570231681016999
0.2219198447323026   -0.0343073849515499   -0.008768125492994348
0.2219198447323026   -0.0343073849515499   -0.008768125492994348
0.2219198447323026   -0.0343073849515499   -0.008768125492994348
0.2219198447323026   -0.0343073849515499   -0.008768125492994348
0.4666226370554605   0.03375578046428972   0.005346991039702941
0.4666226370554605   0.03375578046428972   0.005346991039702941
0.4666226370554605   0.03375578046428972   0.005346991039702941
0.4666226370554605   0.03375578046428972   0.005346991039702941
0.3309026260988645   0.000826431266802985   -0.01276315025965876
0.3309026260988645   0.000826431266802985   -0.01276315025965876
0.3309026260988645   0.000826431266802985   -0.01276315025965876
0.3309026260988645   0.000826431266802985   -0.01276315025965876
0.4594166930355724   0.012966850073845154   -0.009893798669288842
0.4594166930355724   0.012966850073845154   -0.009893798669288842
0.4594166930355724   0.012966850073845154   -0.009893798669288842
0.4594166930355724   0.012966850073845154   -0.009893798669288842
0.22874317920838536   -0.013901064104910363   0.004942226040777608
0.22874317920838536   -0.013901064104910363   0.004942226040777608
0.22874317920838536   -0.013901064104910363   0.004942226040777608
0.22874317920838536   -0.013901064104910363   0.004942226040777608
0.21412649149451865   -0.03612473641597973   -0.007297873646491464
0.21412649149451865   -0.03612473641597973   -0.007297873646491464
0.21412649149451865   -0.03612473641597973   -0.007297873646491464
0.21412649149451865   -0.03612473641597973   -0.007297873646491464
0.4558484749247932   0.03113970995352805   0.007952662628540396
0.4558484749247932   0.03113970995352805   0.007952662628540396
0.4558484749247932   0.03113970995352805   0.007952662628540396
0.4558484749247932   0.03113970995352805   0.007952662628540396
0.32692994320226887   -0.0031152649220425738   -0.015034723255595732
0.32692994320226887   -0.0031152649220425738   -0.015034723255595732
0.32692994320226887   -0.0031152649220425738   -0.015034723255595732
0.32692994320226887   -0.0031152649220425738   -0.015034723255595732
0.44857791966511174   0.010644202670141142   -0.007904606386480145
0.44857791966511174   0.010644202670141142   -0.007904606386480145
0.44857791966511174   0.010644202670141142   -0.007904606386480145
0.44857791966511174   0.010644202670141142   -0.007904606386480145
0.22084551603590533   -0.016180759850887648   0.006353272495349765
0.22084551603590533   -0.016180759850887648   0.006353272495349765
0.22084551603590533   -0.016180759850887648   0.006353272495349765
0.22084551603590533   -0.016180759850887648   0.006353272495349765
0.20661864724801027   -0.035310522548945955   -0.005039936573955413
0.20661864724801027   -0.035310522548945955   -0.005039936573955413
0.20661864724801027   -0.035310522548945955   -0.005039936573955413
0.20661864724801027   -0.035310522548945955   -0.005039936573955413
0.44254545827148445   0.02959907308737697   0.01047676131382392
0.44254545827148445   0.02959907308737697   0.01047676131382392
0.44254545827148445   0.02959907308737697   0.01047676131382392
0.44254545827148445   0.02959907308737697   0.01047676131382392
0.3112388875522176   -0.005380466936123832   -0.019618730081353165
0.3112388875522176   -0.005380466936123832   -0.019618730081353165
0.3112388875522176   -0.005380466936123832   -0.019618730081353165
0.3112388875522176   -0.005380466936123832   -0.019618730081353165
0.23821424019614207   0.00587881771069268   0.0025279941322219664
0.23821424019614207   0.00587881771069268   0.0025279941322219664
0.23821424019614207   0.00587881771069268   0.0025279941322219664
0.23821424019614207   0.00587881771069268   0.0025279941322219664
0.020728657381434007   -0.014679500249924557   -0.0007829788016052485
0.020728657381434007   -0.014679500249924557   -0.0007829788016052485
0.020728657381434007   -0.014679500249924557   -0.0007829788016052485
0.020728657381434007   -0.014679500249924557   -0.0007829788016052485
0.0071285114436418755   -0.04503339658839232   -0.008514613133407577
0.0071285114436418755   -0.04503339658839232   -0.008514613133407577
0.0071285114436418755   -0.04503339658839232   -0.008514613133407577
0.0071285114436418755   -0.04503339658839232   -0.008514613133407577
0.2383854592062022   0.02764460466327901   0.011607957261672356
0.2383854592062022   0.02764460466327901   0.011607957261672356
0.2383854592062022   0.02764460466327901   0.011607957261672356
0.2383854592062022   0.02764460466327901   0.011607957261672356
0.12380419966275304   -0.005987481683353731   -0.004738895427174742
0.12380419966275304   -0.005987481683353731   -0.004738895427174742
0.12380419966275304   -0.005987481683353731   -0.004738895427174742
0.12380419966275304   -0.005987481683353731   -0.004738895427174742
0.23180149621450244   0.002392226988126668   0.003940519978326758
0.23180149621450244   0.002392226988126668   0.003940519978326758
0.23180149621450244   0.002392226988126668   0.003940519978326758
0.23180149621450244   0.002392226988126668   0.003940519978326758
0.013977327564259338   -0.019516165784322123   0.00021223666560955118
0.013977327564259338   -0.019516165784322123   0.00021223666560955118
0.013977327564259338   -0.019516165784322123   0.00021223666560955118
0.013977327564259338   -0.019516165784322123   0.00021223666560955118
-0.00038720178801709623   -0.04704725420873839   -0.006024949956077665
-0.00038720178801709623   -0.04704725420873839   -0.006024949956077665
-0.00038720178801709623   -0.04704725420873839   -0.006024949956077665
-0.00038720178801709623   -0.04704725420873839   -0.006024949956077665
0.23014310286530096   0.02388168599858121   0.01277876079285904
0.23014310286530096   0.02388168599858121   0.01277876079285904
0.23014310286530096   0.02388168599858121   0.01277876079285904
0.23014310286530096   0.02388168599858121   0.01277876079285904
0.11508039562887125   -0.00948462870857085   -0.006706350006942509
0.11508039562887125   -0.00948462870857085   -0.006706350006942509
0.11508039562887125   -0.00948462870857085   -0.006706350006942509
0.11508039562887125   -0.00948462870857085   -0.006706350006942509
0.22393824129287757   0.0001250434870983877   0.005511095442226915
0.22393824129287757   0.0001250434870983877   0.005511095442226915
0.22393824129287757   0.0001250434870983877   0.005511095442226915
0.22393824129287757   0.0001250434870983877   0.005511095442226915
0.005791089830424558   -0.023317181651239527   0.001136435578631743
0.005791089830424558   -0.023317181651239527   0.001136435578631743
0.005791089830424558   -0.023317181651239527   0.001136435578631743
0.005791089830424558   -0.023317181651239527   0.001136435578631743
-0.008431663578280832   -0.04708397293525993   -0.004187516008661102
-0.008431663578280832   -0.04708397293525993   -0.004187516008661102
-0.008431663578280832   -0.04708397293525993   -0.004187516008661102
-0.008431663578280832   -0.04708397293525993   -0.004187516008661102
0.22182377847860665   0.021575100063344576   0.014100096966736475
0.22182377847860665   0.021575100063344576   0.014100096966736475
0.22182377847860665   0.021575100063344576   0.014100096966736475
0.22182377847860665   0.021575100063344576   0.014100096966736475
0.10839021212068799   -0.010759762193059887   -0.008347239322641756
0.10839021212068799   -0.010759762193059887   -0.008347239322641756
0.10839021212068799   -0.010759762193059887   -0.008347239322641756
0.10839021212068799   -0.010759762193059887   -0.008347239322641756
0.021742878098234684   -0.01150526248559576   0.0011138870180702953
0.021742878098234684   -0.01150526248559576   0.0011138870180702953
0.021742878098234684   -0.01150526248559576   0.0011138870180702953
0.021742878098234684   -0.01150526248559576   0.0011138870180702953
-0.1879429977292479   -0.021574755513858478   -0.0058715281562324185
-0.1879429977292479   -0.021574755513858478   -0.0058715281562324185
-0.1879429977292479   -0.021574755513858478   -0.0058715281562324185
-0.1879429977292479   -0.021574755513858478   -0.0058715281562324185
-0.20306540174897367   -0.059496270784443056   -0.009805521363628935
-0.20306540174897367   -0.059496270784443056   -0.009805521363628935
-0.20306540174897367   -0.059496270784443056   -0.009805521363628935
-0.20306540174897367   -0.059496270784443056   -0.009805521363628935
0.02328250398940908   0.020465218697551205   0.006756734309484918
0.02328250398940908   0.020465218697551205   0.006756734309484918
0.02328250398940908   0.020465218697551205   0.006756734309484918
0.02328250398940908   0.020465218697551205   0.006756734309484918
-0.08672254837866789   -0.01717260143937172   -0.004651665528956589
-0.08672254837866789   -0.01717260143937172   -0.004651665528956589
-0.08672254837866789   -0.01717260143937172   -0.004651665528956589
-0.08672254837866789   -0.01717260143937172   -0.004651665528956589
0.01608119684259953   -0.012885636115670797   0.00410105338865918
0.01608119684259953   -0.012885636115670797   0.00410105338865918
0.01608119684259953   -0.012885636115670797   0.00410105338865918
0.01608119684259953   -0.012885636115670797   0.00410105338865918
-0.19529919495301915   -0.025580516322076093   -0.004890241846223348
-0.19529919495301915   -0.025580516322076093   -0.004890241846223348
-0.19529919495301915   -0.025580516322076093   -0.004890241846223348
-0.19529919495301915   -0.025580516322076093   -0.004890241846223348
-0.21186111845766342   -0.06168440594788961   -0.0066417898340239935
-0.21186111845766342   -0.06168440594788961   -0.0066417898340239935
-0.21186111845766342   -0.06168440594788961   -0.0066417898340239935
-0.21186111845766342   -0.06168440594788961   -0.0066417898340239935
0.015040284043240417   0.0164476365610011   0.007617588430470411
0.015040284043240417   0.0164476365610011   0.007617588430470411
0.015040284043240417   0.0164476365610011   0.007617588430470411
0.015040284043240417   0.0164476365610011   0.007617588430470411
-0.0940173703134375   -0.019519094531545135   -0.005563109165884552
-0.0940173703134375   -0.019519094531545135   -0.005563109165884552
-0.0940173703134375   -0.019519094531545135   -0.005563109165884552
-0.0940173703134375   -0.019519094531545135   -0.005563109165884552
0.008289095328966496   -0.015220124116448708   0.005529405536550608
0.008289095328966496   -0.015220124116448708   0.005529405536550608
0.008289095328966496   -0.015220124116448708   0.005529405536550608
0.008289095328966496   -0.015220124116448708   0.005529405536550608
-0.2049815278469361   -0.02988824337398658   -0.00403999935429146
-0.2049815278469361   -0.02988824337398658   -0.00403999935429146
-0.2049815278469361   -0.02988824337398658   -0.00403999935429146
-0.2049815278469361   -0.02988824337398658   -0.00403999935429146
-0.2216004841633873   -0.06323812685052323   -0.005897107377905177
-0.2216004841633873   -0.06323812685052323   -0.005897107377905177
-0.2216004841633873   -0.06323812685052323   -0.005897107377905177
-0.2216004841633873   -0.06323812685052323   -0.005897107377905177
0.006122253468659901   0.013026659711879931   0.008471436578902702
0.006122253468659901   0.013026659711879931   0.008471436578902702
0.006122253468659901   0.013026659711879931   0.008471436578902702
0.006122253468659901   0.013026659711879931   0.008471436578902702
-0.10347148033667716   -0.022326031258602923   -0.007784195102328146
-0.10347148033667716   -0.022326031258602923   -0.007784195102328146
-0.10347148033667716   -0.022326031258602923   -0.007784195102328146
-0.10347148033667716   -0.022326031258602923   -0.007784195102328146
-0.18471337789273398   -0.014218601710027149   0.0029204172225021805
-0.18471337789273398   -0.014218601710027149   0.0029204172225021805
-0.18471337789273398   -0.014218601710027149   0.0029204172225021805
-0.18471337789273398   -0.014218601710027149   0.0029204172225021805
-0.3923285224564456   -0.025289702317735634   -0.010196374801144452
-0.3923285224564456   -0.025289702317735634   -0.010196374801144452
-0.3923285224564456   -0.025289702317735634   -0.010196374801144452
-0.3923285224564456   -0.025289702317735634   -0.010196374801144452
-0.4094550349418742   -0.06262602149797705   -0.009969581739863604
-0.4094550349418742   -0.06262602149797705   -0.009969581739863604
-0.4094550349418742   -0.06262602149797705   -0.009969581739863604
-0.4094550349418742   -0.06262602149797705   -0.009969581739863604
-0.18562790847508087   0.015816027853347153   0.0020696463680419247
-0.18562790847508087   0.015816027853347153   0.0020696463680419247
-0.18562790847508087   0.015816027853347153   0.0020696463680419247
-0.18562790847508087   0.015816027853347153   0.0020696463680419247
-0.290651188454416   -0.020587797565079474   -0.0038030240754180246
-0.290651188454416   -0.020587797565079474   -0.0038030240754180246
-0.290651188454416   -0.020587797565079474   -0.0038030240754180246
-0.290651188454416   -0.020587797565079474   -0.0038030240754180246
-0.19097054344221626   -0.01558392247744178   0.006756421863154805
-0.19097054344221626   -0.01558392247744178   0.006756421863154805
-0.19097054344221626   -0.01558392247744178   0.006756421863154805
-0.19097054344221626   -0.01558392247744178   0.006756421863154805
-0.40302911416745013   -0.030142785359899754   -0.010323214005823318
-0.40302911416745013   -0.030142785359899754   -0.010323214005823318
-0.40302911416745013   -0.030142785359899754   -0.010323214005823318
-0.40302911416745013   -0.030142785359899754   -0.010323214005823318
-0.4215748857759527   -0.06640666075846556   -0.007102894733287416
-0.4215748857759527   -0.06640666075846556   -0.007102894733287416
-0.4215748857759527   -0.06640666075846556   -0.007102894733287416
-0.4215748857759527   -0.06640666075846556   -0.007102894733287416
-0.19541715157633166   0.011409473776012279   0.0024841648487318214
-0.19541715157633166   0.011409473776012279   0.0024841648487318214
-0.19541715157633166   0.011409473776012279   0.0024841648487318214
-0.19541715157633166   0.011409473776012279   0.0024841648487318214
-0.298185880603907   -0.022602040998389687   -0.0037628967388593903
-0.298185880603907   -0.022602040998389687   -0.0037628967388593903
-0.298185880603907   -0.022602040998389687   -0.0037628967388593903
-0.298185880603907   -0.022602040998389687   -0.0037628967388593903
-0.200662224176907   -0.01939157863969057   0.007059854261557225
-0.200662224176907   -0.01939157863969057   0.007059854261557225
-0.200662224176907   -0.01939157863969057   0.007059854261557225
-0.200662224176907   -0.01939157863969057   0.007059854261557225
-0.4155989970122131   -0.034874792179598595   -0.008755319493456438
-0.4155989970122131   -0.034874792179598595   -0.008755319493456438
-0.4155989970122131   -0.034874792179598595   -0.008755319493456438
-0.4155989970122131   -0.034874792179598595   -0.008755319493456438
-0.43524895199935176   -0.07145073660632315   -0.007524615372350496
-0.43524895199935176   -0.07145073660632315   -0.007524615372350496
-0.43524895199935176   -0.07145073660632315   -0.007524615372350496
-0.43524895199935176   -0.07145073660632315   -0.007524615372350496
-0.2060054057681548   0.005922736676223735   0.0029174210715067674
-0.2060054057681548   0.005922736676223735   0.0029174210715067674
-0.2060054057681548   0.005922736676223735   0.0029174210715067674
-0.2060054057681548   0.005922736676223735   0.0029174210715067674
-0.31194158286397167   -0.02786766354752787   -0.006251692607004686
-0.31194158286397167   -0.02786766354752787   -0.006251692607004686
-0.31194158286397167   -0.02786766354752787   -0.006251692607004686
-0.31194158286397167   -0.02786766354752787   -0.006251692607004686
-0.37940038677934157   0.017156707562001716   0.011997893704638288
-0.37940038677934157   0.017156707562001716   0.011997893704638288
-0.37940038677934157   0.017156707562001716   0.011997893704638288
-0.37940038677934157   0.017156707562001716   0.011997893704638288
-0.5876286166196066   -0.029217363830153192   -0.007458654301511901
-0.5876286166196066   -0.029217363830153192   -0.007458654301511901
-0.5876286166196066   -0.029217363830153192   -0.007458654301511901
-0.5876286166196066   -0.029217363830153192   -0.007458654301511901
-0.6013048725207255   -0.02979918221448688   0.012214781746161307
-0.6013048725207255   -0.02979918221448688   0.012214781746161307
-0.6013048725207255   -0.02979918221448688   0.012214781746161307
-0.6013048725207255   -0.02979918221448688   0.012214781746161307
-0.39296146044044056   0.012614409336434165   -0.002742140067109284
-0.39296146044044056   0.012614409336434165   -0.002742140067109284
-0.39296146044044056   0.012614409336434165   -0.002742140067109284
-0.39296146044044056   0.012614409336434165   -0.002742140067109284
-0.46742956227670485   0.00016845425644151923   0.011961217247657089
-0.46742956227670485   0.00016845425644151923   0.011961217247657089
-0.46742956227670485   0.00016845425644151923   0.011961217247657089
-0.46742956227670485   0.00016845425644151923   0.011961217247657089
-0.3892309462953329   0.01323134556694304   0.015293494427918261
-0.3892309462953329   0.01323134556694304   0.015293494427918261
-0.3892309462953329   0.01323134556694304   0.015293494427918261
-0.3892309462953329   0.01323134556694304   0.015293494427918261
-0.6047667782072657   -0.030147509986428525   -0.004746418914597653
-0.6047667782072657   -0.030147509986428525   -0.004746418914597653
-0.6047667782072657   -0.030147509986428525   -0.004746418914597653
-0.6047667782072657   -0.030147509986428525   -0.004746418914597653
-0.6184816094222215   -0.03439765958094301   0.01668376670196154
-0.6184816094222215   -0.03439765958094301   0.01668376670196154
-0.6184816094222215   -0.03439765958094301   0.01668376670196154
-0.6184816094222215   -0.03439765958094301   0.01668376670196154
-0.405558433755513   0.00947768788491414   -0.002904983274472913
-0.405558433755513   0.00947768788491414   -0.002904983274472913
-0.405558433755513   0.00947768788491414   -0.002904983274472913
-0.405558433755513   0.00947768788491414   -0.002904983274472913
-0.4899858180259967   -0.00516997836880323   0.006865774798170493
-0.4899858180259967   -0.00516997836880323   0.006865774798170493
-0.4899858180259967   -0.00516997836880323   0.006865774798170493
-0.4899858180259967   -0.00516997836880323   0.006865774798170493
-0.4021429631662524   0.00855277320100871   0.015097284355735555
-0.4021429631662524   0.00855277320100871   0.015097284355735555
-0.4021429631662524   0.00855277320100871   0.015097284355735555
-0.4021429631662524   0.00855277320100871   0.015097284355735555
-0.6225411683295334   -0.03411683321508628   -0.0038948542004546664
-0.6225411683295334   -0.03411683321508628   -0.0038948542004546664
-0.6225411683295334   -0.03411683321508628   -0.0038948542004546664
-0.6225411683295334   -0.03411683321508628   -0.0038948542004546664
-0.6430036345138642   -0.05330907876908515   0.014314838530506007
-0.6430036345138642   -0.05330907876908515   0.014314838530506007
-0.6430036345138642   -0.05330907876908515   0.014314838530506007
-0.6430036345138642   -0.05330907876908515   0.014314838530506007
-0.42008760385989735   -0.0004087740452796279   -0.0027598372361297037
-0.42008760385989735   -0.0004087740452796279   -0.0027598372361297037
-0.42008760385989735   -0.0004087740452796279   -0.0027598372361297037
-0.42008760385989735   -0.0004087740452796279   -0.0027598372361297037
-0.4989631742317289   -0.012001424660705862   0.00254465532614959
-0.4989631742317289   -0.012001424660705862   0.00254465532614959
-0.4989631742317289   -0.012001424660705862   0.00254465532614959
-0.4989631742317289   -0.012001424660705862   0.00254465532614959
0.38688117835479335   0.02106033602635308   -0.013140389588017895
0.38688117835479335   0.02106033602635308   -0.013140389588017895
0.38688117835479335   0.02106033602635308   -0.013140389588017895
0.38688117835479335   0.02106033602635308   -0.013140389588017895
0.19078306688033866   -0.0009003397654174933   0.004577852266542082
0.19078306688033866   -0.0009003397654174933   0.004577852266542082
0.19078306688033866   -0.0009003397654174933   0.004577852266542082
0.19078306688033866   -0.0009003397654174933   0.004577852266542082
0.17507350212252476   -0.02806262057060603   -0.012195879201840138
0.17507350212252476   -0.02806262057060603   -0.012195879201840138
0.17507350212252476   -0.02806262057060603   -0.012195879201840138
0.17507350212252476   -0.02806262057060603   -0.012195879201840138
0.3799434352155957   0.030951745114277368   0.005764713822737744
0.3799434352155957   0.030951745114277368   0.005764713822737744
0.3799434352155957   0.030951745114277368   0.005764713822737744
0.3799434352155957   0.030951745114277368   0.005764713822737744
0.26853037650007344   0.0023394363077608865   -0.008855979699369968
0.26853037650007344   0.0023394363077608865   -0.008855979699369968
0.26853037650007344   0.0023394363077608865   -0.008855979699369968
0.26853037650007344   0.0023394363077608865   -0.008855979699369968
0.3723104039474726   0.011278496795026793   -0.012727194198623868
0.3723104039474726   0.011278496795026793   -0.012727194198623868
0.3723104039474726   0.011278496795026793   -0.012727194198623868
0.3723104039474726   0.011278496795026793   -0.012727194198623868
0.18239304826299796   -0.008702857379005287   0.005042088308922256
0.18239304826299796   -0.008702857379005287   0.005042088308922256
0.18239304826299796   -0.008702857379005287   0.005042088308922256
0.18239304826299796   -0.008702857379005287   0.005042088308922256
0.16722315079860153   -0.030304375793185186   -0.010642441978834124
0.16722315079860153   -0.030304375793185186   -0.010642441978834124
0.16722315079860153   -0.030304375793185186   -0.010642441978834124
0.16722315079860153   -0.030304375793185186   -0.010642441978834124
0.36822315811531425   0.027836507588904116   0.007981662953185302
0.36822315811531425   0.027836507588904116   0.007981662953185302
0.36822315811531425   0.027836507588904116   0.007981662953185302
0.36822315811531425   0.027836507588904116   0.007981662953185302
0.2626445076856055   -0.0017759401553233273   -0.011420501984650049
0.2626445076856055   -0.0017759401553233273   -0.011420501984650049
0.2626445076856055   -0.0017759401553233273   -0.011420501984650049
0.2626445076856055   -0.0017759401553233273   -0.011420501984650049
0.36074039819791487   0.00850703022788675   -0.010102659272787851
0.36074039819791487   0.00850703022788675   -0.010102659272787851
0.36074039819791487   0.00850703022788675   -0.010102659272787851
0.36074039819791487   0.00850703022788675   -0.010102659272787851
0.17441250698152108   -0.011268302166646822   0.006268265309223829
0.17441250698152108   -0.011268302166646822   0.006268265309223829
0.17441250698152108   -0.011268302166646822   0.006268265309223829
0.17441250698152108   -0.011268302166646822   0.006268265309223829
0.16008770044459625   -0.030729435907620242   -0.008708025834258566
0.16008770044459625   -0.030729435907620242   -0.008708025834258566
0.16008770044459625   -0.030729435907620242   -0.008708025834258566
0.16008770044459625   -0.030729435907620242   -0.008708025834258566
0.3550112731311792   0.025287950553442157   0.010027272164902859
0.3550112731311792   0.025287950553442157   0.010027272164902859
0.3550112731311792   0.025287950553442157   0.010027272164902859
0.3550112731311792   0.025287950553442157   0.010027272164902859
0.2480970620789359   -0.004532436950774828   -0.01540941718713623
0.2480970620789359   -0.004532436950774828   -0.01540941718713623
0.2480970620789359   -0.004532436950774828   -0.01540941718713623
0.2480970620789359   -0.004532436950774828   -0.01540941718713623
0.19442321278953908   0.020493045834535727   0.0013851962125910784
0.19442321278953908   0.020493045834535727   0.0013851962125910784
0.19442321278953908   0.020493045834535727   0.0013851962125910784
0.19442321278953908   0.020493045834535727   0.0013851962125910784
0.005169114041773406   -0.0068773925763934525   -0.0009818315620671605
0.005169114041773406   -0.0068773925763934525   -0.0009818315620671605
0.005169114041773406   -0.0068773925763934525   -0.0009818315620671605
0.005169114041773406   -0.0068773925763934525   -0.0009818315620671605
-0.006680906550134039   -0.02537089400823906   -0.008403170339581758
-0.006680906550134039   -0.02537089400823906   -0.008403170339581758
-0.006680906550134039   -0.02537089400823906   -0.008403170339581758
-0.006680906550134039   -0.02537089400823906   -0.008403170339581758
0.19083963596154008   0.028169112822301372   0.01040305660032614
0.19083963596154008   0.028169112822301372   0.01040305660032614
0.19083963596154008   0.028169112822301372   0.01040305660032614
0.19083963596154008   0.028169112822301372   0.01040305660032614
0.0944360604528537   0.0040224771747308374   -0.0010029770512365215
0.0944360604528537   0.0040224771747308374   -0.0010029770512365215
0.0944360604528537   0.0040224771747308374   -0.0010029770512365215
0.0944360604528537   0.0040224771747308374   -0.0010029770512365215
0.18670014797162265   0.015467414048861445   0.0024073154241794252
0.18670014797162265   0.015467414048861445   0.0024073154241794252
0.18670014797162265   0.015467414048861445   0.0024073154241794252
0.18670014797162265   0.015467414048861445   0.0024073154241794252
-0.002462718794218678   -0.012590495468803675   -9.263009944033423e-05
-0.002462718794218678   -0.012590495468803675   -9.263009944033423e-05
-0.002462718794218678   -0.012590495468803675   -9.263009944033423e-05
-0.002462718794218678   -0.012590495468803675   -9.263009944033423e-05
-0.014114839618007686   -0.028985674353595125   -0.007300098484698646
-0.014114839618007686   -0.028985674353595125   -0.007300098484698646
-0.014114839618007686   -0.028985674353595125   -0.007300098484698646
-0.014114839618007686   -0.028985674353595125   -0.007300098484698646
0.18241337324680237   0.02351464140624947   0.011489653062734091
0.18241337324680237   0.02351464140624947   0.011489653062734091
0.18241337324680237   0.02351464140624947   0.011489653062734091
0.18241337324680237   0.02351464140624947   0.011489653062734091
0.0852868220388941   -0.0005909678369574803   -0.0036138541575681405
0.0852868220388941   -0.0005909678369574803   -0.0036138541575681405
0.0852868220388941   -0.0005909678369574803   -0.0036138541575681405
0.0852868220388941   -0.0005909678369574803   -0.0036138541575681405
0.17843546998258722   0.01167280241087119   0.003441975737038013
0.17843546998258722   0.01167280241087119   0.003441975737038013
0.17843546998258722   0.01167280241087119   0.003441975737038013
0.17843546998258722   0.01167280241087119   0.003441975737038013
-0.01013163860186742   -0.0171385376062915   0.0007687698486990536
-0.01013163860186742   -0.0171385376062915   0.0007687698486990536
-0.01013163860186742   -0.0171385376062915   0.0007687698486990536
-0.01013163860186742   -0.0171385376062915   0.0007687698486990536
-0.021462862497557723   -0.031075449204769744   -0.005866008397670756
-0.021462862497557723   -0.031075449204769744   -0.005866008397670756
-0.021462862497557723   -0.031075449204769744   -0.005866008397670756
-0.021462862497557723   -0.031075449204769744   -0.005866008397670756
0.1743965233858913   0.019656603284305768   0.012450049680288391
0.1743965233858913   0.019656603284305768   0.012450049680288391
0.1743965233858913   0.019656603284305768   0.012450049680288391
0.1743965233858913   0.019656603284305768   0.012450049680288391
0.0786317055374261   -0.0034477497008356395   -0.00550669787717175
0.0786317055374261   -0.0034477497008356395   -0.00550669787717175
0.0786317055374261   -0.0034477497008356395   -0.00550669787717175
0.0786317055374261   -0.0034477497008356395   -0.00550669787717175
0.01171088192033196   0.02041687424847806   0.0044327410058550565
0.01171088192033196   0.02041687424847806   0.0044327410058550565
0.01171088192033196   0.02041687424847806   0.0044327410058550565
0.01171088192033196   0.02041687424847806   0.0044327410058550565
-0.17489117716273808   -0.011671860034315074   -0.005970684142078937
-0.17489117716273808   -0.011671860034315074   -0.005970684142078937
-0.17489117716273808   -0.011671860034315074   -0.005970684142078937
-0.17489117716273808   -0.011671860034315074   -0.005970684142078937
-0.18413236924356408   -0.023466659460630417   -0.005487783248450038
-0.18413236924356408   -0.023466659460630417   -0.005487783248450038
-0.18413236924356408   -0.023466659460630417   -0.005487783248450038
-0.18413236924356408   -0.023466659460630417   -0.005487783248450038
0.005718984522835325   0.023101474973001745   0.005123916044024263
0.005718984522835325   0.023101474973001745   0.005123916044024263
0.005718984522835325   0.023101474973001745   0.005123916044024263
0.005718984522835325   0.023101474973001745   0.005123916044024263
-0.08528634142308246   0.0024478158308227083   0.00037118754141396773
-0.08528634142308246   0.0024478158308227083   0.00037118754141396773
-0.08528634142308246   0.0024478158308227083   0.00037118754141396773
-0.08528634142308246   0.0024478158308227083   0.00037118754141396773
0.004464722395865227   0.016450942994483794   0.00550313738769172
0.004464722395865227   0.016450942994483794   0.00550313738769172
0.004464722395865227   0.016450942994483794   0.00550313738769172
0.004464722395865227   0.016450942994483794   0.00550313738769172
-0.18267202110408606   -0.016610041469604552   -0.005042660542085814
-0.18267202110408606   -0.016610041469604552   -0.005042660542085814
-0.18267202110408606   -0.016610041469604552   -0.005042660542085814
-0.18267202110408606   -0.016610041469604552   -0.005042660542085814
-0.19210383062967284   -0.02742887208656285   -0.004620840134451438
-0.19210383062967284   -0.02742887208656285   -0.004620840134451438
-0.19210383062967284   -0.02742887208656285   -0.004620840134451438
-0.19210383062967284   -0.02742887208656285   -0.004620840134451438
-0.0019558554763439455   0.018318588510107908   0.006190559359917025
-0.0019558554763439455   0.018318588510107908   0.006190559359917025
-0.0019558554763439455   0.018318588510107908   0.006190559359917025
-0.0019558554763439455   0.018318588510107908   0.006190559359917025
-0.09293006161465561   -0.0014700428199180444   -0.0015701734045344608
-0.09293006161465561   -0.0014700428199180444   -0.0015701734045344608
-0.09293006161465561   -0.0014700428199180444   -0.0015701734045344608
-0.09293006161465561   -0.0014700428199180444   -0.0015701734045344608
-0.0030202844978719405   0.012624504765970506   0.00656249799641445
-0.0030202844978719405   0.012624504765970506   0.00656249799641445
-0.0030202844978719405   0.012624504765970506   0.00656249799641445
-0.0030202844978719405   0.012624504765970506   0.00656249799641445
-0.19086750168012898   -0.021562888414409235   -0.004305179058883676
-0.19086750168012898   -0.021562888414409235   -0.004305179058883676
-0.19086750168012898   -0.021562888414409235   -0.004305179058883676
-0.19086750168012898   -0.021562888414409235   -0.004305179058883676
-0.20001196913620206   -0.030529333242023424   -0.0031743055857521183
-0.20001196913620206   -0.030529333242023424   -0.0031743055857521183
-0.20001196913620206   -0.030529333242023424   -0.0031743055857521183
-0.20001196913620206   -0.030529333242023424   -0.0031743055857521183
-0.009911309797522663   0.013813135639090405   0.007003170258644386
-0.009911309797522663   0.013813135639090405   0.007003170258644386
-0.009911309797522663   0.013813135639090405   0.007003170258644386
-0.009911309797522663   0.013813135639090405   0.007003170258644386
-0.10115815404200748   -0.005451690088702565   -0.0037027014733323075
-0.10115815404200748   -0.005451690088702565   -0.0037027014733323075
-0.10115815404200748   -0.005451690088702565   -0.0037027014733323075
-0.10115815404200748   -0.005451690088702565   -0.0037027014733323075
-0.16505649268990766   0.023758461861127372   0.007772416326632612
-0.16505649268990766   0.023758461861127372   0.007772416326632612
-0.16505649268990766   0.023758461861127372   0.007772416326632612
-0.16505649268990766   0.023758461861127372   0.007772416326632612
-0.3496411228786185   -0.015939061862990246   -0.009701616761395035
-0.3496411228786185   -0.015939061862990246   -0.009701616761395035
-0.3496411228786185   -0.015939061862990246   -0.009701616761395035
-0.3496411228786185   -0.015939061862990246   -0.009701616761395035
-0.3568253324802299   -0.01921348488516858   -0.0018804933193877008
-0.3568253324802299   -0.01921348488516858   -0.0018804933193877008
-0.3568253324802299   -0.01921348488516858   -0.0018804933193877008
-0.3568253324802299   -0.01921348488516858   -0.0018804933193877008
-0.17484558846240245   0.017588879659897902   -0.00010941846316911766
-0.17484558846240245   0.017588879659897902   -0.00010941846316911766
-0.17484558846240245   0.017588879659897902   -0.00010941846316911766
-0.17484558846240245   0.017588879659897902   -0.00010941846316911766
-0.25969418440698433   0.002296595258046645   0.0019297403754854874
-0.25969418440698433   0.002296595258046645   0.0019297403754854874
-0.25969418440698433   0.002296595258046645   0.0019297403754854874
-0.25969418440698433   0.002296595258046645   0.0019297403754854874
-0.17265348392317836   0.019737483557240913   0.00870250033560821
-0.17265348392317836   0.019737483557240913   0.00870250033560821
-0.17265348392317836   0.019737483557240913   0.00870250033560821
-0.17265348392317836   0.019737483557240913   0.00870250033560821
-0.35875225727691534   -0.021096909039973452   -0.00963169314801295
-0.35875225727691534   -0.021096909039973452   -0.00963169314801295
-0.35875225727691534   -0.021096909039973452   -0.00963169314801295
-0.35875225727691534   -0.021096909039973452   -0.00963169314801295
-0.3666313463512442   -0.023680436273788547   -0.0017511906253596977
-0.3666313463512442   -0.023680436273788547   -0.0017511906253596977
-0.3666313463512442   -0.023680436273788547   -0.0017511906253596977
-0.3666313463512442   -0.023680436273788547   -0.0017511906253596977
-0.18292196747094222   0.013025204245147429   0.0008343993274934468
-0.18292196747094222   0.013025204245147429   0.0008343993274934468
-0.18292196747094222   0.013025204245147429   0.0008343993274934468
-0.18292196747094222   0.013025204245147429   0.0008343993274934468
-0.2664676894010752   -0.0012335461589803864   0.00034633462983032007
-0.2664676894010752   -0.0012335461589803864   0.00034633462983032007
-0.2664676894010752   -0.0012335461589803864   0.00034633462983032007
-0.2664676894010752   -0.0012335461589803864   0.00034633462983032007
-0.1805126463140154   0.015895653108486632   0.010010556248787324
-0.1805126463140154   0.015895653108486632   0.010010556248787324
-0.1805126463140154   0.015895653108486632   0.010010556248787324
-0.1805126463140154   0.015895653108486632   0.010010556248787324
-0.36848144641745645   -0.02599166404641378   -0.008690463183798377
-0.36848144641745645   -0.02599166404641378   -0.008690463183798377
-0.36848144641745645   -0.02599166404641378   -0.008690463183798377
-0.36848144641745645   -0.02599166404641378   -0.008690463183798377
-0.37563876363406623   -0.028484460403789914   0.0005147935373345635
-0.37563876363406623   -0.028484460403789914   0.0005147935373345635
-0.37563876363406623   -0.028484460403789914   0.0005147935373345635
-0.37563876363406623   -0.028484460403789914   0.0005147935373345635
-0.19148255701399858   0.007549195188350427   0.001394226594894337
-0.19148255701399858   0.007549195188350427   0.001394226594894337
-0.19148255701399858   0.007549195188350427   0.001394226594894337
-0.19148255701399858   0.007549195188350427   0.001394226594894337
-0.2772916992321321   -0.006311676438901091   -0.0018274954290803617
-0.2772916992321321   -0.006311676438901091   -0.0018274954290803617
-0.2772916992321321   -0.006311676438901091   -0.0018274954290803617
-0.2772916992321321   -0.006311676438901091   -0.0018274954290803617
-0.3374790522520005   0.024448512337842454   0.010721162170860186
-0.3374790522520005   0.024448512337842454   0.010721162170860186
-0.3374790522520005   0.024448512337842454   0.010721162170860186
-0.3374790522520005   0.024448512337842454   0.010721162170860186
-0.5167350362667774   -0.02399625812324023   -0.008673915448470158
-0.5167350362667774   -0.02399625812324023   -0.008673915448470158
-0.5167350362667774   -0.02399625812324023   -0.008673915448470158
-0.5167350362667774   -0.02399625812324023   -0.008673915448470158
-0.5233819873490906   -0.011119207466822476   0.009010302825257468
-0.5233819873490906   -0.011119207466822476   0.009010302825257468
-0.5233819873490906   -0.011119207466822476   0.009010302825257468
-0.5233819873490906   -0.011119207466822476   0.009010302825257468
-0.35135715285064106   0.010919941938824479   -0.004673021995436608
-0.35135715285064106   0.010919941938824479   -0.004673021995436608
-0.35135715285064106   0.010919941938824479   -0.004673021995436608
-0.35135715285064106   0.010919941938824479   -0.004673021995436608
-0.41306270470141376   0.004905098837346342   0.009668526260555529
-0.41306270470141376   0.004905098837346342   0.009668526260555529
-0.41306270470141376   0.004905098837346342   0.009668526260555529
-0.41306270470141376   0.004905098837346342   0.009668526260555529
-0.3450999588943553   0.025201429670029363   0.01233146005478147
-0.3450999588943553   0.025201429670029363   0.01233146005478147
-0.3450999588943553   0.025201429670029363   0.01233146005478147
-0.3450999588943553   0.025201429670029363   0.01233146005478147
-0.529271915158194   -0.025033429050844866   -0.006525114636230331
-0.529271915158194   -0.025033429050844866   -0.006525114636230331
-0.529271915158194   -0.025033429050844866   -0.006525114636230331
-0.529271915158194   -0.025033429050844866   -0.006525114636230331
-0.5355777657631611   -0.013459379945228264   0.012429009582463114
-0.5355777657631611   -0.013459379945228264   0.012429009582463114
-0.5355777657631611   -0.013459379945228264   0.012429009582463114
-0.5355777657631611   -0.013459379945228264   0.012429009582463114
-0.36071369069724335   0.008301041162450062   -0.00414438979159374
-0.36071369069724335   0.008301041162450062   -0.00414438979159374
-0.36071369069724335   0.008301041162450062   -0.00414438979159374
-0.36071369069724335   0.008301041162450062   -0.00414438979159374
-0.4302101843162862   0.0024566907550323397   0.006410427786046807
-0.4302101843162862   0.0024566907550323397   0.006410427786046807
-0.4302101843162862   0.0024566907550323397   0.006410427786046807
-0.4302101843162862   0.0024566907550323397   0.006410427786046807
-0.35379729840273366   0.023465528482537926   0.015273084360866638
-0.35379729840273366   0.023465528482537926   0.015273084360866638
-0.35379729840273366   0.023465528482537926   0.015273084360866638
-0.35379729840273366   0.023465528482537926   0.015273084360866638
-0.5421309016842657   -0.02826061089190951   -0.00553543907636931
-0.5421309016842657   -0.02826061089190951   -0.00553543907636931
-0.5421309016842657   -0.02826061089190951   -0.00553543907636931
-0.5421309016842657   -0.02826061089190951   -0.00553543907636931
-0.5521332502940344   -0.023816579869738147   0.012246780075714777
-0.5521332502940344   -0.023816579869738147   0.012246780075714777
-0.5521332502940344   -0.023816579869738147   0.012246780075714777
-0.5521332502940344   -0.023816579869738147   0.012246780075714777
-0.37078909741009797   0.0001936040220247709   -0.00391493976863868
-0.37078909741009797   0.0001936040220247709   -0.00391493976863868
-0.37078909741009797   0.0001936040220247709   -0.00391493976863868
-0.37078909741009797   0.0001936040220247709   -0.00391493976863868
-0.4347062397441831   -0.0011806998140969777   0.005437600058774247
-0.4347062397441831   -0.0011806998140969777   0.005437600058774247
-0.4347062397441831   -0.0011806998140969777   0.005437600058774247
-0.4347062397441831   -0.0011806998140969777   0.005437600058774247
0.29751034143701666   0.016819889480669772   -0.013548276059699589
0.29751034143701666   0.016819889480669772   -0.013548276059699589
0.29751034143701666   0.016819889480669772   -0.013548276059699589
0.29751034143701666   0.016819889480669772   -0.013548276059699589
0.14080787846087606   0.0022107057603119318   0.005019197627858095
0.14080787846087606   0.0022107057603119318   0.005019197627858095
0.14080787846087606   0.0022107057603119318   0.005019197627858095
0.14080787846087606   0.0022107057603119318   0.005019197627858095
0.12582806956477366   -0.02361550690534594   -0.012956180624556696
0.12582806956477366   -0.02361550690534594   -0.012956180624556696
0.12582806956477366   -0.02361550690534594   -0.012956180624556696
0.12582806956477366   -0.02361550690534594   -0.012956180624556696
0.2914409770453072   0.02701466344553593   0.006228161205704115
0.2914409770453072   0.02701466344553593   0.006228161205704115
0.2914409770453072   0.02701466344553593   0.006228161205704115
0.2914409770453072   0.02701466344553593   0.006228161205704115
0.20284973372675366   0.002718498039113504   -0.006015050335500755
0.20284973372675366   0.002718498039113504   -0.006015050335500755
0.20284973372675366   0.002718498039113504   -0.006015050335500755
0.20284973372675366   0.002718498039113504   -0.006015050335500755
0.28381930377199693   0.008000723098289877   -0.012866264813600911
0.28381930377199693   0.008000723098289877   -0.012866264813600911
0.28381930377199693   0.008000723098289877   -0.012866264813600911
0.28381930377199693   0.008000723098289877   -0.012866264813600911
0.13330439996800092   -0.004746909428183052   0.005556873914415466
0.13330439996800092   -0.004746909428183052   0.005556873914415466
0.13330439996800092   -0.004746909428183052   0.005556873914415466
0.13330439996800092   -0.004746909428183052   0.005556873914415466
0.11885911240111718   -0.02585152043969054   -0.01109443147559086
0.11885911240111718   -0.02585152043969054   -0.01109443147559086
0.11885911240111718   -0.02585152043969054   -0.01109443147559086
0.11885911240111718   -0.02585152043969054   -0.01109443147559086
0.2805970036396338   0.023797709747565128   0.008273624361333562
0.2805970036396338   0.023797709747565128   0.008273624361333562
0.2805970036396338   0.023797709747565128   0.008273624361333562
0.2805970036396338   0.023797709747565128   0.008273624361333562
0.19681511490328016   -0.001213406013114475   -0.00826997207679075
0.19681511490328016   -0.001213406013114475   -0.00826997207679075
0.19681511490328016   -0.001213406013114475   -0.00826997207679075
0.19681511490328016   -0.001213406013114475   -0.00826997207679075
0.273137199465165   0.0051478715962879895   -0.010375558359730709
0.273137199465165   0.0051478715962879895   -0.010375558359730709
0.273137199465165   0.0051478715962879895   -0.010375558359730709
0.273137199465165   0.0051478715962879895   -0.010375558359730709
0.12612324003776884   -0.007397358826232846   0.00677204509420864
0.12612324003776884   -0.007397358826232846   0.00677204509420864
0.12612324003776884   -0.007397358826232846   0.00677204509420864
0.12612324003776884   -0.007397358826232846   0.00677204509420864
0.11260657437261301   -0.027048224778226396   -0.009248905734873698
0.11260657437261301   -0.027048224778226396   -0.009248905734873698
0.11260657437261301   -0.027048224778226396   -0.009248905734873698
0.11260657437261301   -0.027048224778226396   -0.009248905734873698
0.26834308982648447   0.020445864378553294   0.009898408829122306
0.26834308982648447   0.020445864378553294   0.009898408829122306
0.26834308982648447   0.020445864378553294   0.009898408829122306
0.26834308982648447   0.020445864378553294   0.009898408829122306
0.18426237781373464   -0.004121004404333613   -0.011714256941012415
0.18426237781373464   -0.004121004404333613   -0.011714256941012415
0.18426237781373464   -0.004121004404333613   -0.011714256941012415
0.18426237781373464   -0.004121004404333613   -0.011714256941012415
0.14342612469560825   0.02086216898262797   -0.0005410344207949043
0.14342612469560825   0.02086216898262797   -0.0005410344207949043
0.14342612469560825   0.02086216898262797   -0.0005410344207949043
0.14342612469560825   0.02086216898262797   -0.0005410344207949043
-0.010032633468118399   -0.002477279038081014   -0.00024844643392769574
-0.010032633468118399   -0.002477279038081014   -0.00024844643392769574
-0.010032633468118399   -0.002477279038081014   -0.00024844643392769574
-0.010032633468118399   -0.002477279038081014   -0.00024844643392769574
-0.020589959326732635   -0.017863594895329515   -0.00833088669955558
-0.020589959326732635   -0.017863594895329515   -0.00833088669955558
-0.020589959326732635   -0.017863594895329515   -0.00833088669955558
-0.020589959326732635   -0.017863594895329515   -0.00833088669955558
0.13993757864715778   0.024644051140803896   0.00933180674121283
0.13993757864715778   0.024644051140803896   0.00933180674121283
0.13993757864715778   0.024644051140803896   0.00933180674121283
0.13993757864715778   0.024644051140803896   0.00933180674121283
0.06220244481875896   0.005999964476269722   0.0004897729042344402
0.06220244481875896   0.005999964476269722   0.0004897729042344402
0.06220244481875896   0.005999964476269722   0.0004897729042344402
0.06220244481875896   0.005999964476269722   0.0004897729042344402
0.1363317368680745   0.015313542900719554   0.0006331060858826261
0.1363317368680745   0.015313542900719554   0.0006331060858826261
0.1363317368680745   0.015313542900719554   0.0006331060858826261
0.1363317368680745   0.015313542900719554   0.0006331060858826261
-0.016925665406512594   -0.008474634514108109   0.0006016225203231986
-0.016925665406512594   -0.008474634514108109   0.0006016225203231986
-0.016925665406512594   -0.008474634514108109   0.0006016225203231986
-0.016925665406512594   -0.008474634514108109   0.0006016225203231986
-0.027147866445746887   -0.02208109297083774   -0.0069277791301526935
-0.027147866445746887   -0.02208109297083774   -0.0069277791301526935
-0.027147866445746887   -0.02208109297083774   -0.0069277791301526935
-0.027147866445746887   -0.02208109297083774   -0.0069277791301526935
0.13219529107916098   0.019542089543877046   0.010192851931059496
0.13219529107916098   0.019542089543877046   0.010192851931059496
0.13219529107916098   0.019542089543877046   0.010192851931059496
0.13219529107916098   0.019542089543877046   0.010192851931059496
0.05406037023839293   0.0009346701034080585   -0.002046487032364243
0.05406037023839293   0.0009346701034080585   -0.002046487032364243
0.05406037023839293   0.0009346701034080585   -0.002046487032364243
0.05406037023839293   0.0009346701034080585   -0.002046487032364243
0.12871296434091334   0.010784408807723165   0.0015388989759762802
0.12871296434091334   0.010784408807723165   0.0015388989759762802
0.12871296434091334   0.010784408807723165   0.0015388989759762802
0.12871296434091334   0.010784408807723165   0.0015388989759762802
-0.023723073822339562   -0.013380946349521432   0.0014960373655676317
-0.023723073822339562   -0.013380946349521432   0.0014960373655676317
-0.023723073822339562   -0.013380946349521432   0.0014960373655676317
-0.023723073822339562   -0.013380946349521432   0.0014960373655676317
-0.03361136009650609   -0.025557163264609856   -0.00561089958189235
-0.03361136009650609   -0.025557163264609856   -0.00561089958189235
-0.03361136009650609   -0.025557163264609856   -0.00561089958189235
-0.03361136009650609   -0.025557163264609856   -0.00561089958189235
0.12504597279005403   0.01488649847016023   0.011013363103944294
0.12504597279005403   0.01488649847016023   0.011013363103944294
0.12504597279005403   0.01488649847016023   0.011013363103944294
0.12504597279005403   0.01488649847016023   0.011013363103944294
0.047908114180981745   -0.002822991229040535   -0.004132031917049807
0.047908114180981745   -0.002822991229040535   -0.004132031917049807
0.047908114180981745   -0.002822991229040535   -0.004132031917049807
0.047908114180981745   -0.002822991229040535   -0.004132031917049807
-0.003913782534267283   0.024409551299370363   0.003458977897877465
-0.003913782534267283   0.024409551299370363   0.003458977897877465
-0.003913782534267283   0.024409551299370363   0.003458977897877465
-0.003913782534267283   0.024409551299370363   0.003458977897877465
-0.15770394815650407   -0.007257644237441088   -0.005225493796267522
-0.15770394815650407   -0.007257644237441088   -0.005225493796267522
-0.15770394815650407   -0.007257644237441088   -0.005225493796267522
-0.15770394815650407   -0.007257644237441088   -0.005225493796267522
-0.1645003000134782   -0.012790408837644377   -0.004116218472892823
-0.1645003000134782   -0.012790408837644377   -0.004116218472892823
-0.1645003000134782   -0.012790408837644377   -0.004116218472892823
-0.1645003000134782   -0.012790408837644377   -0.004116218472892823
-0.010548718706563421   0.019889940983301924   0.004121780522659983
-0.010548718706563421   0.019889940983301924   0.004121780522659983
-0.010548718706563421   0.019889940983301924   0.004121780522659983
-0.010548718706563421   0.019889940983301924   0.004121780522659983
-0.0839643959942681   0.006084502576537892   0.0016384802324158603
-0.0839643959942681   0.006084502576537892   0.0016384802324158603
-0.0839643959942681   0.006084502576537892   0.0016384802324158603
-0.0839643959942681   0.006084502576537892   0.0016384802324158603
-0.01043148456061924   0.019805146995535455   0.00479274524014738
-0.01043148456061924   0.019805146995535455   0.00479274524014738
-0.01043148456061924   0.019805146995535455   0.00479274524014738
-0.01043148456061924   0.019805146995535455   0.00479274524014738
-0.1644944797207522   -0.012582560411205167   -0.00429496543570204
-0.1644944797207522   -0.012582560411205167   -0.00429496543570204
-0.1644944797207522   -0.012582560411205167   -0.00429496543570204
-0.1644944797207522   -0.012582560411205167   -0.00429496543570204
-0.1712199143184843   -0.0173524805297005   -0.002900726996984648
-0.1712199143184843   -0.0173524805297005   -0.002900726996984648
-0.1712199143184843   -0.0173524805297005   -0.002900726996984648
-0.1712199143184843   -0.0173524805297005   -0.002900726996984648
-0.017392165835391823   0.014638651344514066   0.005130979606271788
-0.017392165835391823   0.014638651344514066   0.005130979606271788
-0.017392165835391823   0.014638651344514066   0.005130979606271788
-0.017392165835391823   0.014638651344514066   0.005130979606271788
-0.09075354906323842   0.00155002050977434   -0.0004047488051260239
-0.09075354906323842   0.00155002050977434   -0.0004047488051260239
-0.09075354906323842   0.00155002050977434   -0.0004047488051260239
-0.09075354906323842   0.00155002050977434   -0.0004047488051260239
-0.01713608757735329   0.015212028888431947   0.005837993352546569
-0.01713608757735329   0.015212028888431947   0.005837993352546569
-0.01713608757735329   0.015212028888431947   0.005837993352546569
-0.01713608757735329   0.015212028888431947   0.005837993352546569
-0.1714461171136638   -0.017895982610759358   -0.0034882388918233455
-0.1714461171136638   -0.017895982610759358   -0.0034882388918233455
-0.1714461171136638   -0.017895982610759358   -0.0034882388918233455
-0.1714461171136638   -0.017895982610759358   -0.0034882388918233455
-0.177850040613336   -0.021513610842010183   -0.0016918313310451813
-0.177850040613336   -0.021513610842010183   -0.0016918313310451813
-0.177850040613336   -0.021513610842010183   -0.0016918313310451813
-0.177850040613336   -0.021513610842010183   -0.0016918313310451813
-0.024270781439982222   0.009560121103478108   0.005974709332639008
-0.024270781439982222   0.009560121103478108   0.005974709332639008
-0.024270781439982222   0.009560121103478108   0.005974709332639008
-0.024270781439982222   0.009560121103478108   0.005974709332639008
-0.09786142531174033   -0.003018110818939407   -0.0026861744874229158
-0.09786142531174033   -0.003018110818939407   -0.0026861744874229158
-0.09786142531174033   -0.003018110818939407   -0.0026861744874229158
-0.09786142531174033   -0.003018110818939407   -0.0026861744874229158
-0.1482105202324177   0.027736818613227653   0.0072471829734936846
-0.1482105202324177   0.027736818613227653   0.0072471829734936846
-0.1482105202324177   0.027736818613227653   0.0072471829734936846
-0.1482105202324177   0.027736818613227653   0.0072471829734936846
-0.3024761346435531   -0.012174554267941971   -0.00932512143527304
-0.3024761346435531   -0.012174554267941971   -0.00932512143527304
-0.3024761346435531   -0.012174554267941971   -0.00932512143527304
-0.3024761346435531   -0.012174554267941971   -0.00932512143527304
-0.306169635366743   -0.00856036188085496   0.0004684207374071152
-0.306169635366743   -0.00856036188085496   0.0004684207374071152
-0.306169635366743   -0.00856036188085496   0.0004684207374071152
-0.306169635366743   -0.00856036188085496   0.0004684207374071152
-0.15845920391296686   0.014353224410077782   -0.0010543712180563092
-0.15845920391296686   0.014353224410077782   -0.0010543712180563092
-0.15845920391296686   0.014353224410077782   -0.0010543712180563092
-0.15845920391296686   0.014353224410077782   -0.0010543712180563092
-0.227317683595195   0.005601758424005891   0.0027673308492878676
-0.227317683595195   0.005601758424005891   0.0027673308492878676
-0.227317683595195   0.005601758424005891   0.0027673308492878676
-0.227317683595195   0.005601758424005891   0.0027673308492878676
-0.15474507366328294   0.023337306000369554   0.008532198440069635
-0.15474507366328294   0.023337306000369554   0.008532198440069635
-0.15474507366328294   0.023337306000369554   0.008532198440069635
-0.15474507366328294   0.023337306000369554   0.008532198440069635
-0.3098614612545012   -0.01752213910922134   -0.009028931473017565
-0.3098614612545012   -0.01752213910922134   -0.009028931473017565
-0.3098614612545012   -0.01752213910922134   -0.009028931473017565
-0.3098614612545012   -0.01752213910922134   -0.009028931473017565
-0.3140017392973022   -0.013177157848377481   0.0009023606862288824
-0.3140017392973022   -0.013177157848377481   0.0009023606862288824
-0.3140017392973022   -0.013177157848377481   0.0009023606862288824
-0.3140017392973022   -0.013177157848377481   0.0009023606862288824
-0.16527961889152243   0.009486458996450023   -3.81893883249565e-05
-0.16527961889152243   0.009486458996450023   -3.81893883249565e-05
-0.16527961889152243   0.009486458996450023   -3.81893883249565e-05
-0.16527961889152243   0.009486458996450023   -3.81893883249565e-05
-0.2329771779648538   0.0016028674904759663   0.0008758016401156452
-0.2329771779648538   0.0016028674904759663   0.0008758016401156452
-0.2329771779648538   0.0016028674904759663   0.0008758016401156452
-0.2329771779648538   0.0016028674904759663   0.0008758016401156452
-0.1614037428940913   0.01910624934506259   0.009721400250218322
-0.1614037428940913   0.01910624934506259   0.009721400250218322
-0.1614037428940913   0.01910624934506259   0.009721400250218322
-0.1614037428940913   0.01910624934506259   0.009721400250218322
-0.317683079229183   -0.022602412131439722   -0.008079084690113078
-0.317683079229183   -0.022602412131439722   -0.008079084690113078
-0.317683079229183   -0.022602412131439722   -0.008079084690113078
-0.317683079229183   -0.022602412131439722   -0.008079084690113078
-0.32108210148675437   -0.01817917844047355   0.0023519029235302656
-0.32108210148675437   -0.01817917844047355   0.0023519029235302656
-0.32108210148675437   -0.01817917844047355   0.0023519029235302656
-0.32108210148675437   -0.01817917844047355   0.0023519029235302656
-0.17229498239387656   0.003873886958298156   0.0006959619659457003
-0.17229498239387656   0.003873886958298156   0.0006959619659457003
-0.17229498239387656   0.003873886958298156   0.0006959619659457003
-0.17229498239387656   0.003873886958298156   0.0006959619659457003
-0.24181309915525234   -0.003508531807823699   -0.0015634975396334964
-0.24181309915525234   -0.003508531807823699   -0.0015634975396334964
-0.24181309915525234   -0.003508531807823699   -0.0015634975396334964
-0.24181309915525234   -0.003508531807823699   -0.0015634975396334964
-0.2911680126680291   0.024883430434237103   0.010157503740168116
-0.2911680126680291   0.024883430434237103   0.010157503740168116
-0.2911680126680291   0.024883430434237103   0.010157503740168116
-0.2911680126680291   0.024883430434237103   0.010157503740168116
-0.44111256206115623   -0.020478361913345497   -0.010008756248868652
-0.44111256206115623   -0.020478361913345497   -0.010008756248868652
-0.44111256206115623   -0.020478361913345497   -0.010008756248868652
-0.44111256206115623   -0.020478361913345497   -0.010008756248868652
-0.44569509570630517   -0.0051524764328819   0.009302829001695587
-0.44569509570630517   -0.0051524764328819   0.009302829001695587
-0.44569509570630517   -0.0051524764328819   0.009302829001695587
-0.44569509570630517   -0.0051524764328819   0.009302829001695587
-0.30417547249418453   0.007590792809296157   -0.005711919589951604
-0.30417547249418453   0.007590792809296157   -0.005711919589951604
-0.30417547249418453   0.007590792809296157   -0.005711919589951604
-0.30417547249418453   0.007590792809296157   -0.005711919589951604
-0.35408158293642694   0.005401987968857505   0.008811814282042526
-0.35408158293642694   0.005401987968857505   0.008811814282042526
-0.35408158293642694   0.005401987968857505   0.008811814282042526
-0.35408158293642694   0.005401987968857505   0.008811814282042526
-0.2971502420913358   0.02508077794707539   0.01192424728651273
-0.2971502420913358   0.02508077794707539   0.01192424728651273
-0.2971502420913358   0.02508077794707539   0.01192424728651273
-0.2971502420913358   0.02508077794707539   0.01192424728651273
-0.4526138415899431   -0.02253597705144947   -0.007907399797921086
-0.4526138415899431   -0.02253597705144947   -0.007907399797921086
-0.4526138415899431   -0.02253597705144947   -0.007907399797921086
-0.4526138415899431   -0.02253597705144947   -0.007907399797921086
-0.45597704265795946   -0.007598585558934709   0.011620828562198517
-0.45597704265795946   -0.007598585558934709   0.011620828562198517
-0.45597704265795946   -0.007598585558934709   0.011620828562198517
-0.45597704265795946   -0.007598585558934709   0.011620828562198517
-0.3115366219589261   0.004925271101491671   -0.004874481571759941
-0.3115366219589261   0.004925271101491671   -0.004874481571759941
-0.3115366219589261   0.004925271101491671   -0.004874481571759941
-0.3115366219589261   0.004925271101491671   -0.004874481571759941
-0.36875263895517146   0.0026956210322772733   0.005528001825558963
-0.36875263895517146   0.0026956210322772733   0.005528001825558963
-0.36875263895517146   0.0026956210322772733   0.005528001825558963
-0.36875263895517146   0.0026956210322772733   0.005528001825558963
-0.3040861953584157   0.02326333557915926   0.014039586953124565
-0.3040861953584157   0.02326333557915926   0.014039586953124565
-0.3040861953584157   0.02326333557915926   0.014039586953124565
-0.3040861953584157   0.02326333557915926   0.014039586953124565
-0.46323862351434714   -0.0257478042924785   -0.006537856986189774
-0.46323862351434714   -0.0257478042924785   -0.006537856986189774
-0.46323862351434714   -0.0257478042924785   -0.006537856986189774
-0.46323862351434714   -0.0257478042924785   -0.006537856986189774
-0.469555617870233   -0.016510795982615345   0.011329580668295779
-0.469555617870233   -0.016510795982615345   0.011329580668295779
-0.469555617870233   -0.016510795982615345   0.011329580668295779
-0.469555617870233   -0.016510795982615345   0.011329580668295779
-0.3193389948604883   -0.0026849641629389243   -0.004426778222673976
-0.3193389948604883   -0.0026849641629389243   -0.004426778222673976
-0.3193389948604883   -0.0026849641629389243   -0.004426778222673976
-0.3193389948604883   -0.0026849641629389243   -0.004426778222673976
-0.3721310128996724   -0.0007466740835401914   0.004503790352918747
-0.3721310128996724   -0.0007466740835401914   0.004503790352918747
-0.3721310128996724   -0.0007466740835401914   0.004503790352918747
-0.3721310128996724   -0.0007466740835401914   0.004503790352918747
0.20839652947698767   0.012049858581825362   -0.013373689280701708
0.20839652947698767   0.012049858581825362   -0.013373689280701708
0.20839652947698767   0.012049858581825362   -0.013373689280701708
0.20839652947698767   0.012049858581825362   -0.013373689280701708
0.08897962644075001   0.005075578492817048   0.005615796213581327
0.08897962644075001   0.005075578492817048   0.005615796213581327
0.08897962644075001   0.005075578492817048   0.005615796213581327
0.08897962644075001   0.005075578492817048   0.005615796213581327
0.07528967930646713   -0.019965151056656374   -0.012519613566417355
0.07528967930646713   -0.019965151056656374   -0.012519613566417355
0.07528967930646713   -0.019965151056656374   -0.012519613566417355
0.07528967930646713   -0.019965151056656374   -0.012519613566417355
0.20385225523950662   0.023252238254810376   0.0068379050443304265
0.20385225523950662   0.023252238254810376   0.0068379050443304265
0.20385225523950662   0.023252238254810376   0.0068379050443304265
0.20385225523950662   0.023252238254810376   0.0068379050443304265
0.13651078762281255   0.0029928247674818192   -0.003718152457434295
0.13651078762281255   0.0029928247674818192   -0.003718152457434295
0.13651078762281255   0.0029928247674818192   -0.003718152457434295
0.13651078762281255   0.0029928247674818192   -0.003718152457434295
0.19617011772165083   0.004208958734696483   -0.012529503024836757
0.19617011772165083   0.004208958734696483   -0.012529503024836757
0.19617011772165083   0.004208958734696483   -0.012529503024836757
0.19617011772165083   0.004208958734696483   -0.012529503024836757
0.08282646152793523   -0.0010672268329303299   0.00626637331719831
0.08282646152793523   -0.0010672268329303299   0.00626637331719831
0.08282646152793523   -0.0010672268329303299   0.00626637331719831
0.08282646152793523   -0.0010672268329303299   0.00626637331719831
0.06949267724698192   -0.02221781057506809   -0.010699650859165345
0.06949267724698192   -0.02221781057506809   -0.010699650859165345
0.06949267724698192   -0.02221781057506809   -0.010699650859165345
0.06949267724698192   -0.02221781057506809   -0.010699650859165345
0.194292505543467   0.020048706677396128   0.00888483196445189
0.194292505543467   0.020048706677396128   0.00888483196445189
0.194292505543467   0.020048706677396128   0.00888483196445189
0.194292505543467   0.020048706677396128   0.00888483196445189
0.13067230805653135   -0.0007620750235112703   -0.0058984678623874255
0.13067230805653135   -0.0007620750235112703   -0.0058984678623874255
0.13067230805653135   -0.0007620750235112703   -0.0058984678623874255
0.13067230805653135   -0.0007620750235112703   -0.0058984678623874255
0.18671872038774284   0.0013168756646352517   -0.010252262801409538
0.18671872038774284   0.0013168756646352517   -0.010252262801409538
0.18671872038774284   0.0013168756646352517   -0.010252262801409538
0.18671872038774284   0.0013168756646352517   -0.010252262801409538
0.07684436934548536   -0.0037080726195280536   0.007549071677812589
0.07684436934548536   -0.0037080726195280536   0.007549071677812589
0.07684436934548536   -0.0037080726195280536   0.007549071677812589
0.07684436934548536   -0.0037080726195280536   0.007549071677812589
0.06433262816411071   -0.024122115440417917   -0.008931028603359998
0.06433262816411071   -0.024122115440417917   -0.008931028603359998
0.06433262816411071   -0.024122115440417917   -0.008931028603359998
0.06433262816411071   -0.024122115440417917   -0.008931028603359998
0.1830940614172175   0.01593511631063997   0.010198323414901046
0.1830940614172175   0.01593511631063997   0.010198323414901046
0.1830940614172175   0.01593511631063997   0.010198323414901046
0.1830940614172175   0.01593511631063997   0.010198323414901046
0.12034131201779054   -0.0037873856697828064   -0.008969496702387466
0.12034131201779054   -0.0037873856697828064   -0.008969496702387466
0.12034131201779054   -0.0037873856697828064   -0.008969496702387466
0.12034131201779054   -0.0037873856697828064   -0.008969496702387466
0.08982217325662065   0.017103494459004533   -0.002199385673254372
0.08982217325662065   0.017103494459004533   -0.002199385673254372
0.08982217325662065   0.017103494459004533   -0.002199385673254372
0.08982217325662065   0.017103494459004533   -0.002199385673254372
-0.02681888473731553   0.0010937153997505151   0.0006328957654488903
-0.02681888473731553   0.0010937153997505151   0.0006328957654488903
-0.02681888473731553   0.0010937153997505151   0.0006328957654488903
-0.02681888473731553   0.0010937153997505151   0.0006328957654488903
-0.03618044462143471   -0.014002526492241775   -0.007783058155423014
-0.03618044462143471   -0.014002526492241775   -0.007783058155423014
-0.03618044462143471   -0.014002526492241775   -0.007783058155423014
-0.03618044462143471   -0.014002526492241775   -0.007783058155423014
0.08756646482213272   0.02048426230330083   0.008414900651954625
0.08756646482213272   0.02048426230330083   0.008414900651954625
0.08756646482213272   0.02048426230330083   0.008414900651954625
0.08756646482213272   0.02048426230330083   0.008414900651954625
0.027977079778695135   0.005862951473066164   0.0010921979307909036
0.027977079778695135   0.005862951473066164   0.0010921979307909036
0.027977079778695135   0.005862951473066164   0.0010921979307909036
0.027977079778695135   0.005862951473066164   0.0010921979307909036
0.08382835522053027   0.011331306747236888   -0.001122691799994678
0.08382835522053027   0.011331306747236888   -0.001122691799994678
0.08382835522053027   0.011331306747236888   -0.001122691799994678
0.08382835522053027   0.011331306747236888   -0.001122691799994678
-0.03250410928249968   -0.004911345198845417   0.0015074372458557883
-0.03250410928249968   -0.004911345198845417   0.0015074372458557883
-0.03250410928249968   -0.004911345198845417   0.0015074372458557883
-0.03250410928249968   -0.004911345198845417   0.0015074372458557883
-0.041564317536048626   -0.018515248714509637   -0.006334230745664313
-0.041564317536048626   -0.018515248714509637   -0.006334230745664313
-0.041564317536048626   -0.018515248714509637   -0.006334230745664313
-0.041564317536048626   -0.018515248714509637   -0.006334230745664313
0.08095195428174334   0.015228338754190347   0.009150584985384068
0.08095195428174334   0.015228338754190347   0.009150584985384068
0.08095195428174334   0.015228338754190347   0.009150584985384068
0.08095195428174334   0.015228338754190347   0.009150584985384068
0.021290871770159262   0.0006934094513174833   -0.0013901457480677577
0.021290871770159262   0.0006934094513174833   -0.0013901457480677577
0.021290871770159262   0.0006934094513174833   -0.0013901457480677577
0.021290871770159262   0.0006934094513174833   -0.0013901457480677577
0.07733222442473585   0.00648913393140607   -0.00020885947687026727
0.07733222442473585   0.00648913393140607   -0.00020885947687026727
0.07733222442473585   0.00648913393140607   -0.00020885947687026727
0.07733222442473585   0.00648913393140607   -0.00020885947687026727
-0.03809325523300893   -0.00992471144569335   0.002430543500717846
-0.03809325523300893   -0.00992471144569335   0.002430543500717846
-0.03809325523300893   -0.00992471144569335   0.002430543500717846
-0.03809325523300893   -0.00992471144569335   0.002430543500717846
-0.04687028020874595   -0.02269882049869843   -0.004996978741549047
-0.04687028020874595   -0.02269882049869843   -0.004996978741549047
-0.04687028020874595   -0.02269882049869843   -0.004996978741549047
-0.04687028020874595   -0.02269882049869843   -0.004996978741549047
0.07498350101499207   0.010235589729175657   0.009965630481454674
0.07498350101499207   0.010235589729175657   0.009965630481454674
0.07498350101499207   0.010235589729175657   0.009965630481454674
0.07498350101499207   0.010235589729175657   0.009965630481454674
0.015994476288766987   -0.0035252967366930024   -0.003560767679090795
0.015994476288766987   -0.0035252967366930024   -0.003560767679090795
0.015994476288766987   -0.0035252967366930024   -0.003560767679090795
0.015994476288766987   -0.0035252967366930024   -0.003560767679090795
-0.022520846572499774   0.021222862697054864   0.0019939392922233004
-0.022520846572499774   0.021222862697054864   0.0019939392922233004
-0.022520846572499774   0.021222862697054864   0.0019939392922233004
-0.022520846572499774   0.021222862697054864   0.0019939392922233004
-0.14082949135869066   -0.003947806451234246   -0.0043243511349129
-0.14082949135869066   -0.003947806451234246   -0.0043243511349129
-0.14082949135869066   -0.003947806451234246   -0.0043243511349129
-0.14082949135869066   -0.003947806451234246   -0.0043243511349129
-0.14616937752307946   -0.008699955259325143   -0.003207041873959313
-0.14616937752307946   -0.008699955259325143   -0.003207041873959313
-0.14616937752307946   -0.008699955259325143   -0.003207041873959313
-0.14616937752307946   -0.008699955259325143   -0.003207041873959313
-0.028045366389905783   0.015600791795831813   0.003289014714147099
-0.028045366389905783   0.015600791795831813   0.003289014714147099
-0.028045366389905783   0.015600791795831813   0.003289014714147099
-0.028045366389905783   0.015600791795831813   0.003289014714147099
-0.0841798165056473   0.005932349123752918   0.0016980349014553567
-0.0841798165056473   0.005932349123752918   0.0016980349014553567
-0.0841798165056473   0.005932349123752918   0.0016980349014553567
-0.0841798165056473   0.005932349123752918   0.0016980349014553567
-0.027898972123076113   0.016266574803580087   0.0033552030405481353
-0.027898972123076113   0.016266574803580087   0.0033552030405481353
-0.027898972123076113   0.016266574803580087   0.0033552030405481353
-0.027898972123076113   0.016266574803580087   0.0033552030405481353
-0.14633880238264615   -0.009388768859807717   -0.0033653525713101904
-0.14633880238264615   -0.009388768859807717   -0.0033653525713101904
-0.14633880238264615   -0.009388768859807717   -0.0033653525713101904
-0.14633880238264615   -0.009388768859807717   -0.0033653525713101904
-0.15161379232744893   -0.013617013593866419   -0.0019257185935735409
-0.15161379232744893   -0.013617013593866419   -0.0019257185935735409
-0.15161379232744893   -0.013617013593866419   -0.0019257185935735409
-0.15161379232744893   -0.013617013593866419   -0.0019257185935735409
-0.033697886414143986   0.010193104408376898   0.00428957174097139
-0.033697886414143986   0.010193104408376898   0.00428957174097139
-0.033697886414143986   0.010193104408376898   0.00428957174097139
-0.033697886414143986   0.010193104408376898   0.00428957174097139
-0.08977479643399022   0.0011222402826147303   -0.0004244379193686547
-0.08977479643399022   0.0011222402826147303   -0.0004244379193686547
-0.08977479643399022   0.0011222402826147303   -0.0004244379193686547
-0.08977479643399022   0.0011222402826147303   -0.0004244379193686547
-0.033436099051604634   0.0113016594770218   0.004489953485023264
-0.033436099051604634   0.0113016594770218   0.004489953485023264
-0.033436099051604634   0.0113016594770218   0.004489953485023264
-0.033436099051604634   0.0113016594770218   0.004489953485023264
-0.151973676905204   -0.014823665877727054   -0.0025184891984883365
-0.151973676905204   -0.014823665877727054   -0.0025184891984883365
-0.151973676905204   -0.014823665877727054   -0.0025184891984883365
-0.151973676905204   -0.014823665877727054   -0.0025184891984883365
-0.15695681730364386   -0.018306525434703645   -0.0006724874946081234
-0.15695681730364386   -0.018306525434703645   -0.0006724874946081234
-0.15695681730364386   -0.018306525434703645   -0.0006724874946081234
-0.15695681730364386   -0.018306525434703645   -0.0006724874946081234
-0.03931071618143771   0.0049416894134358   0.005160331482857921
-0.03931071618143771   0.0049416894134358   0.005160331482857921
-0.03931071618143771   0.0049416894134358   0.005160331482857921
-0.03931071618143771   0.0049416894134358   0.005160331482857921
-0.09560876355671638   -0.0036897350748442935   -0.002730201402794054
-0.09560876355671638   -0.0036897350748442935   -0.002730201402794054
-0.09560876355671638   -0.0036897350748442935   -0.002730201402794054
-0.09560876355671638   -0.0036897350748442935   -0.002730201402794054
-0.13298547714875   0.024815153508987057   0.006132759954569014
-0.13298547714875   0.024815153508987057   0.006132759954569014
-0.13298547714875   0.024815153508987057   0.006132759954569014
-0.13298547714875   0.024815153508987057   0.006132759954569014
-0.25318447466384053   -0.009008435115035122   -0.00868407867398732
-0.25318447466384053   -0.009008435115035122   -0.00868407867398732
-0.25318447466384053   -0.009008435115035122   -0.00868407867398732
-0.25318447466384053   -0.009008435115035122   -0.00868407867398732
-0.2551647561255113   -0.004440207046286546   0.0016840237126665037
-0.2551647561255113   -0.004440207046286546   0.0016840237126665037
-0.2551647561255113   -0.004440207046286546   0.0016840237126665037
-0.2551647561255113   -0.004440207046286546   0.0016840237126665037
-0.14209602938171786   0.01020653418566015   -0.0017467906121395559
-0.14209602938171786   0.01020653418566015   -0.0017467906121395559
-0.14209602938171786   0.01020653418566015   -0.0017467906121395559
-0.14209602938171786   0.01020653418566015   -0.0017467906121395559
-0.19466289103109788   0.005435577093710953   0.002440988114985415
-0.19466289103109788   0.005435577093710953   0.002440988114985415
-0.19466289103109788   0.005435577093710953   0.002440988114985415
-0.19466289103109788   0.005435577093710953   0.002440988114985415
-0.13827098065520038   0.020098950622051213   0.0074860365840596944
-0.13827098065520038   0.020098950622051213   0.0074860365840596944
-0.13827098065520038   0.020098950622051213   0.0074860365840596944
-0.13827098065520038   0.020098950622051213   0.0074860365840596944
-0.25916912939892256   -0.014511948029574152   -0.008266101671106339
-0.25916912939892256   -0.014511948029574152   -0.008266101671106339
-0.25916912939892256   -0.014511948029574152   -0.008266101671106339
-0.25916912939892256   -0.014511948029574152   -0.008266101671106339
-0.2615964767706354   -0.009316225054778762   0.002265248234644107
-0.2615964767706354   -0.009316225054778762   0.002265248234644107
-0.2615964767706354   -0.009316225054778762   0.002265248234644107
-0.2615964767706354   -0.009316225054778762   0.002265248234644107
-0.14760171679194545   0.005214855976069181   -0.0006972104859946735
-0.14760171679194545   0.005214855976069181   -0.0006972104859946735
-0.14760171679194545   0.005214855976069181   -0.0006972104859946735
-0.14760171679194545   0.005214855976069181   -0.0006972104859946735
-0.19931376592302666   0.0011076372382108485   0.00032244098109182953
-0.19931376592302666   0.0011076372382108485   0.00032244098109182953
-0.19931376592302666   0.0011076372382108485   0.00032244098109182953
-0.19931376592302666   0.0011076372382108485   0.00032244098109182953
-0.14363632829287815   0.015576393825771903   0.008768194159640134
-0.14363632829287815   0.015576393825771903   0.008768194159640134
-0.14363632829287815   0.015576393825771903   0.008768194159640134
-0.14363632829287815   0.015576393825771903   0.008768194159640134
-0.26558400349939815   -0.019699901134177036   -0.00728870932977309
-0.26558400349939815   -0.019699901134177036   -0.00728870932977309
-0.26558400349939815   -0.019699901134177036   -0.00728870932977309
-0.26558400349939815   -0.019699901134177036   -0.00728870932977309
-0.2672995143301634   -0.014544364248908967   0.0036092378661969904
-0.2672995143301634   -0.014544364248908967   0.0036092378661969904
-0.2672995143301634   -0.014544364248908967   0.0036092378661969904
-0.2672995143301634   -0.014544364248908967   0.0036092378661969904
-0.15320831429791806   -0.0003631786659998512   0.00012668076531419277
-0.15320831429791806   -0.0003631786659998512   0.00012668076531419277
-0.15320831429791806   -0.0003631786659998512   0.00012668076531419277
-0.15320831429791806   -0.0003631786659998512   0.00012668076531419277
-0.20646176950246134   -0.0039931981980445425   -0.0021671756354982898
-0.20646176950246134   -0.0039931981980445425   -0.0021671756354982898
-0.20646176950246134   -0.0039931981980445425   -0.0021671756354982898
-0.20646176950246134   -0.0039931981980445425   -0.0021671756354982898
-0.24312026931346073   0.023039625398785527   0.009588887564090934
-0.24312026931346073   0.023039625398785527   0.009588887564090934
-0.24312026931346073   0.023039625398785527   0.009588887564090934
-0.24312026931346073   0.023039625398785527   0.009588887564090934
-0.3597921458433045   -0.016720222030149834   -0.01101369770174964
-0.3597921458433045   -0.016720222030149834   -0.01101369770174964
-0.3597921458433045   -0.016720222030149834   -0.01101369770174964
-0.3597921458433045   -0.016720222030149834   -0.01101369770174964
-0.3630398124917813   -0.001145206315310232   0.009472424784613284
-0.3630398124917813   -0.001145206315310232   0.009472424784613284
-0.3630398124917813   -0.001145206315310232   0.009472424784613284
-0.3630398124917813   -0.001145206315310232   0.009472424784613284
-0.2551581895303372   0.0037948202221036523   -0.006518170579858996
-0.2551581895303372   0.0037948202221036523   -0.006518170579858996
-0.2551581895303372   0.0037948202221036523   -0.006518170579858996
-0.2551581895303372   0.0037948202221036523   -0.006518170579858996
-0.2917835727642208   0.0051531870924378526   0.007512772331772787
-0.2917835727642208   0.0051531870924378526   0.007512772331772787
-0.2917835727642208   0.0051531870924378526   0.007512772331772787
-0.2917835727642208   0.0051531870924378526   0.007512772331772787
-0.247899449447027   0.02225204279039822   0.01131830726840119
-0.247899449447027   0.02225204279039822   0.01131830726840119
-0.247899449447027   0.02225204279039822   0.01131830726840119
-0.247899449447027   0.02225204279039822   0.01131830726840119
-0.37045561259241144   -0.01975948890092382   -0.008992293132922142
-0.37045561259241144   -0.01975948890092382   -0.008992293132922142
-0.37045561259241144   -0.01975948890092382   -0.008992293132922142
-0.37045561259241144   -0.01975948890092382   -0.008992293132922142
-0.37216659682690134   -0.003841644421620813   0.011920915680652903
-0.37216659682690134   -0.003841644421620813   0.011920915680652903
-0.37216659682690134   -0.003841644421620813   0.011920915680652903
-0.37216659682690134   -0.003841644421620813   0.011920915680652903
-0.2610810430116578   0.0010602389687400307   -0.005534046993990547
-0.2610810430116578   0.0010602389687400307   -0.005534046993990547
-0.2610810430116578   0.0010602389687400307   -0.005534046993990547
-0.2610810430116578   0.0010602389687400307   -0.005534046993990547
-0.3043228485197054   0.002075887029613588   0.004106749136937093
-0.3043228485197054   0.002075887029613588   0.004106749136937093
-0.3043228485197054   0.002075887029613588   0.004106749136937093
-0.3043228485197054   0.002075887029613588   0.004106749136937093
-0.25348878339910935   0.020172694279421796   0.013314795758073959
-0.25348878339910935   0.020172694279421796   0.013314795758073959
-0.25348878339910935   0.020172694279421796   0.013314795758073959
-0.25348878339910935   0.020172694279421796   0.013314795758073959
-0.3798704959471763   -0.02306573924002843   -0.00737448510231432
-0.3798704959471763   -0.02306573924002843   -0.00737448510231432
-0.3798704959471763   -0.02306573924002843   -0.00737448510231432
-0.3798704959471763   -0.02306573924002843   -0.00737448510231432
-0.38437493033546766   -0.012426986574774646   0.011899045193126796
-0.38437493033546766   -0.012426986574774646   0.011899045193126796
-0.38437493033546766   -0.012426986574774646   0.011899045193126796
-0.38437493033546766   -0.012426986574774646   0.011899045193126796
-0.2672981277816706   -0.006030533067384415   -0.004897660572869153
-0.2672981277816706   -0.006030533067384415   -0.004897660572869153
-0.2672981277816706   -0.006030533067384415   -0.004897660572869153
-0.2672981277816706   -0.006030533067384415   -0.004897660572869153
-0.3075508453175913   -0.0014944604319399174   0.002546129171142931
-0.3075508453175913   -0.0014944604319399174   0.002546129171142931
-0.3075508453175913   -0.0014944604319399174   0.002546129171142931
-0.3075508453175913   -0.0014944604319399174   0.002546129171142931
0.11911919213485157   0.0073213555660505865   -0.013294884114352546
0.11911919213485157   0.0073213555660505865   -0.013294884114352546
0.11911919213485157   0.0073213555660505865   -0.013294884114352546
0.11911919213485157   0.0073213555660505865   -0.013294884114352546
0.03598673737595231   0.007775271294144101   0.006248687738833782
0.03598673737595231   0.007775271294144101   0.006248687738833782
0.03598673737595231   0.007775271294144101   0.006248687738833782
0.03598673737595231   0.007775271294144101   0.006248687738833782
0.02367758391699541   -0.016502315225525577   -0.011760191034838118
0.02367758391699541   -0.016502315225525577   -0.011760191034838118
0.02367758391699541   -0.016502315225525577   -0.011760191034838118
0.02367758391699541   -0.016502315225525577   -0.011760191034838118
0.11614436494536848   0.019498650765620015   0.007513217980034326
0.11614436494536848   0.019498650765620015   0.007513217980034326
0.11614436494536848   0.019498650765620015   0.007513217980034326
0.11614436494536848   0.019498650765620015   0.007513217980034326
0.06948323601084827   0.003280620634652221   -0.0015647187205036599
0.06948323601084827   0.003280620634652221   -0.0015647187205036599
0.06948323601084827   0.003280620634652221   -0.0015647187205036599
0.06948323601084827   0.003280620634652221   -0.0015647187205036599
0.10836076680646482   0.00033761264130246355   -0.01224373459016732
0.10836076680646482   0.00033761264130246355   -0.01224373459016732
0.10836076680646482   0.00033761264130246355   -0.01224373459016732
0.10836076680646482   0.00033761264130246355   -0.01224373459016732
0.031219049886348733   0.0024165907292415297   0.007028232857161642
0.031219049886348733   0.0024165907292415297   0.007028232857161642
0.031219049886348733   0.0024165907292415297   0.007028232857161642
0.031219049886348733   0.0024165907292415297   0.007028232857161642
0.019046451613689924   -0.018784069959646953   -0.010032997290994121
0.019046451613689924   -0.018784069959646953   -0.010032997290994121
0.019046451613689924   -0.018784069959646953   -0.010032997290994121
0.019046451613689924   -0.018784069959646953   -0.010032997290994121
0.10781588411798938   0.01635620819612007   0.00971500210736867
0.10781588411798938   0.01635620819612007   0.00971500210736867
0.10781588411798938   0.01635620819612007   0.00971500210736867
0.10781588411798938   0.01635620819612007   0.00971500210736867
0.06380120131523097   -0.00030962869611939753   -0.0038550134309721902
0.06380120131523097   -0.00030962869611939753   -0.0038550134309721902
0.06380120131523097   -0.00030962869611939753   -0.0038550134309721902
0.06380120131523097   -0.00030962869611939753   -0.0038550134309721902
0.10005897090953075   -0.002598031491700875   -0.010115324247104568
0.10005897090953075   -0.002598031491700875   -0.010115324247104568
0.10005897090953075   -0.002598031491700875   -0.010115324247104568
0.10005897090953075   -0.002598031491700875   -0.010115324247104568
0.02647388786859604   -0.0001593072253786151   0.008479421249268603
0.02647388786859604   -0.0001593072253786151   0.008479421249268603
0.02647388786859604   -0.0001593072253786151   0.008479421249268603
0.02647388786859604   -0.0001593072253786151   0.008479421249268603
0.014918715189153057   -0.0214151109831904   -0.008377466826186342
0.014918715189153057   -0.0214151109831904   -0.008377466826186342
0.014918715189153057   -0.0214151109831904   -0.008377466826186342
0.014918715189153057   -0.0214151109831904   -0.008377466826186342
0.09746758642404903   0.01141129174290146   0.010837870239797046
0.09746758642404903   0.01141129174290146   0.010837870239797046
0.09746758642404903   0.01141129174290146   0.010837870239797046
0.09746758642404903   0.01141129174290146   0.010837870239797046
0.055626923003069845   -0.0034551250676279933   -0.006712026884100723
0.055626923003069845   -0.0034551250676279933   -0.006712026884100723
0.055626923003069845   -0.0034551250676279933   -0.006712026884100723
0.055626923003069845   -0.0034551250676279933   -0.006712026884100723
0.03496206963844974   0.012586209325755587   -0.0036855889802910194
0.03496206963844974   0.012586209325755587   -0.0036855889802910194
0.03496206963844974   0.012586209325755587   -0.0036855889802910194
0.03496206963844974   0.012586209325755587   -0.0036855889802910194
-0.044882501715048526   0.0037051944849390422   0.0014268149201426103
-0.044882501715048526   0.0037051944849390422   0.0014268149201426103
-0.044882501715048526   0.0037051944849390422   0.0014268149201426103
-0.044882501715048526   0.0037051944849390422   0.0014268149201426103
-0.05282580901400367   -0.010661061487795422   -0.0069194444673979245
-0.05282580901400367   -0.010661061487795422   -0.0069194444673979245
-0.05282580901400367   -0.010661061487795422   -0.0069194444673979245
-0.05282580901400367   -0.010661061487795422   -0.0069194444673979245
0.03392353928797626   0.015571897276775697   0.007395373317765131
0.03392353928797626   0.015571897276775697   0.007395373317765131
0.03392353928797626   0.015571897276775697   0.007395373317765131
0.03392353928797626   0.015571897276775697   0.007395373317765131
-0.007500482955731909   0.005069749357675662   0.001373055159882518
-0.007500482955731909   0.005069749357675662   0.001373055159882518
-0.007500482955731909   0.005069749357675662   0.001373055159882518
-0.007500482955731909   0.005069749357675662   0.001373055159882518
0.030145237850820746   0.006776824550334719   -0.002701061141571623
0.030145237850820746   0.006776824550334719   -0.002701061141571623
0.030145237850820746   0.006776824550334719   -0.002701061141571623
0.030145237850820746   0.006776824550334719   -0.002701061141571623
-0.04925967241482932   -0.002078153599335643   0.0023283306400140166
-0.04925967241482932   -0.002078153599335643   0.0023283306400140166
-0.04925967241482932   -0.002078153599335643   0.0023283306400140166
-0.04925967241482932   -0.002078153599335643   0.0023283306400140166
-0.056963761428420426   -0.015276423139200631   -0.005457508771399403
-0.056963761428420426   -0.015276423139200631   -0.005457508771399403
-0.056963761428420426   -0.015276423139200631   -0.005457508771399403
-0.056963761428420426   -0.015276423139200631   -0.005457508771399403
0.028495885380775493   0.010358183145490304   0.00807191843929694
0.028495885380775493   0.010358183145490304   0.00807191843929694
0.028495885380775493   0.010358183145490304   0.00807191843929694
0.028495885380775493   0.010358183145490304   0.00807191843929694
-0.012640008140367217   4.074158788453311e-05   -0.0010425481393689395
-0.012640008140367217   4.074158788453311e-05   -0.0010425481393689395
-0.012640008140367217   4.074158788453311e-05   -0.0010425481393689395
-0.012640008140367217   4.074158788453311e-05   -0.0010425481393689395
0.02482475096907138   0.0018230558331923767   -0.001748626306926169
0.02482475096907138   0.0018230558331923767   -0.001748626306926169
0.02482475096907138   0.0018230558331923767   -0.001748626306926169
0.02482475096907138   0.0018230558331923767   -0.001748626306926169
-0.053568060989365764   -0.007016729799553358   0.0032613000842275624
-0.053568060989365764   -0.007016729799553358   0.0032613000842275624
-0.053568060989365764   -0.007016729799553358   0.0032613000842275624
-0.053568060989365764   -0.007016729799553358   0.0032613000842275624
-0.06106679327580708   -0.01979524957189139   -0.004138271733081391
-0.06106679327580708   -0.01979524957189139   -0.004138271733081391
-0.06106679327580708   -0.01979524957189139   -0.004138271733081391
-0.06106679327580708   -0.01979524957189139   -0.004138271733081391
0.023742431664217793   0.005300844260398557   0.009025160305548627
0.023742431664217793   0.005300844260398557   0.009025160305548627
0.023742431664217793   0.005300844260398557   0.009025160305548627
0.023742431664217793   0.005300844260398557   0.009025160305548627
-0.017037138585302727   -0.004392155741511069   -0.00330433484500327
-0.017037138585302727   -0.004392155741511069   -0.00330433484500327
-0.017037138585302727   -0.004392155741511069   -0.00330433484500327
-0.017037138585302727   -0.004392155741511069   -0.00330433484500327
-0.04243742297328085   0.016722465063011914   0.0006349380509081065
-0.04243742297328085   0.016722465063011914   0.0006349380509081065
-0.04243742297328085   0.016722465063011914   0.0006349380509081065
-0.04243742297328085   0.016722465063011914   0.0006349380509081065
-0.12453010423967913   -0.0018061701627816347   -0.00350190148630507
-0.12453010423967913   -0.0018061701627816347   -0.00350190148630507
-0.12453010423967913   -0.0018061701627816347   -0.00350190148630507
-0.12453010423967913   -0.0018061701627816347   -0.00350190148630507
-0.1282788181238886   -0.0055298255555592014   -0.0021306203088174826
-0.1282788181238886   -0.0055298255555592014   -0.0021306203088174826
-0.1282788181238886   -0.0055298255555592014   -0.0021306203088174826
-0.1282788181238886   -0.0055298255555592014   -0.0021306203088174826
-0.04678263764585428   0.010274668373799945   0.0023606825117536397
-0.04678263764585428   0.010274668373799945   0.0023606825117536397
-0.04678263764585428   0.010274668373799945   0.0023606825117536397
-0.04678263764585428   0.010274668373799945   0.0023606825117536397
-0.08529561673421032   0.00479488404265923   0.0013996113740213784
-0.08529561673421032   0.00479488404265923   0.0013996113740213784
-0.08529561673421032   0.00479488404265923   0.0013996113740213784
-0.08529561673421032   0.00479488404265923   0.0013996113740213784
-0.04658228917187588   0.0116358524564133   0.002001240799032292
-0.04658228917187588   0.0116358524564133   0.002001240799032292
-0.04658228917187588   0.0116358524564133   0.002001240799032292
-0.04658228917187588   0.0116358524564133   0.002001240799032292
-0.12866712148289394   -0.007078964523198356   -0.0025229981362058793
-0.12866712148289394   -0.007078964523198356   -0.0025229981362058793
-0.12866712148289394   -0.007078964523198356   -0.0025229981362058793
-0.12866712148289394   -0.007078964523198356   -0.0025229981362058793
-0.1324031606432299   -0.01056870716242463   -0.0008142118839503257
-0.1324031606432299   -0.01056870716242463   -0.0008142118839503257
-0.1324031606432299   -0.01056870716242463   -0.0008142118839503257
-0.1324031606432299   -0.01056870716242463   -0.0008142118839503257
-0.051146912400320675   0.004986499889263153   0.003363813340635553
-0.051146912400320675   0.004986499889263153   0.003363813340635553
-0.051146912400320675   0.004986499889263153   0.003363813340635553
-0.051146912400320675   0.004986499889263153   0.003363813340635553
-0.0895935798356985   -3.4379218572730408e-06   -0.0007579644322291326
-0.0895935798356985   -3.4379218572730408e-06   -0.0007579644322291326
-0.0895935798356985   -3.4379218572730408e-06   -0.0007579644322291326
-0.0895935798356985   -3.4379218572730408e-06   -0.0007579644322291326
-0.050877498890481286   0.006532286433945406   0.003165094345151223
-0.050877498890481286   0.006532286433945406   0.003165094345151223
-0.050877498890481286   0.006532286433945406   0.003165094345151223
-0.050877498890481286   0.006532286433945406   0.003165094345151223
-0.1329388792471784   -0.012380798801214697   -0.0016807132649036445
-0.1329388792471784   -0.012380798801214697   -0.0016807132649036445
-0.1329388792471784   -0.012380798801214697   -0.0016807132649036445
-0.1329388792471784   -0.012380798801214697   -0.0016807132649036445
-0.13644049550624598   -0.015422663225757997   0.0004683476116971786
-0.13644049550624598   -0.015422663225757997   0.0004683476116971786
-0.13644049550624598   -0.015422663225757997   0.0004683476116971786
-0.13644049550624598   -0.015422663225757997   0.0004683476116971786
-0.05544607522848661   -9.914522057032082e-05   0.004269214152199904
-0.05544607522848661   -9.914522057032082e-05   0.004269214152199904
-0.05544607522848661   -9.914522057032082e-05   0.004269214152199904
-0.05544607522848661   -9.914522057032082e-05   0.004269214152199904
-0.09412251506814077   -0.004808898352770086   -0.0031041927342972614
-0.09412251506814077   -0.004808898352770086   -0.0031041927342972614
-0.09412251506814077   -0.004808898352770086   -0.0031041927342972614
-0.09412251506814077   -0.004808898352770086   -0.0031041927342972614
-0.11829932657217905   0.0207288113131478   0.005117005375265828
-0.11829932657217905   0.0207288113131478   0.005117005375265828
-0.11829932657217905   0.0207288113131478   0.005117005375265828
-0.11829932657217905   0.0207288113131478   0.005117005375265828
-0.20274472250908962   -0.006425270233449874   -0.007865619129386868
-0.20274472250908962   -0.006425270233449874   -0.007865619129386868
-0.20274472250908962   -0.006425270233449874   -0.007865619129386868
-0.20274472250908962   -0.006425270233449874   -0.007865619129386868
-0.20310456830878987   -0.001061559951373775   0.0029212776297551715
-0.20310456830878987   -0.001061559951373775   0.0029212776297551715
-0.20310456830878987   -0.001061559951373775   0.0029212776297551715
-0.20310456830878987   -0.001061559951373775   0.0029212776297551715
-0.1261618198352061   0.005326296793240037   -0.0024017512142061343
-0.1261618198352061   0.005326296793240037   -0.0024017512142061343
-0.1261618198352061   0.005326296793240037   -0.0024017512142061343
-0.1261618198352061   0.005326296793240037   -0.0024017512142061343
-0.1617102979431622   0.004617878544001024   0.0017992814840467608
-0.1617102979431622   0.004617878544001024   0.0017992814840467608
-0.1617102979431622   0.004617878544001024   0.0017992814840467608
-0.1617102979431622   0.004617878544001024   0.0017992814840467608
-0.12228657109512205   0.015814951517749996   0.006485837761706172
-0.12228657109512205   0.015814951517749996   0.006485837761706172
-0.12228657109512205   0.015814951517749996   0.006485837761706172
-0.12228657109512205   0.015814951517749996   0.006485837761706172
-0.20733671005401041   -0.011907107681021455   -0.007393883366701616
-0.20733671005401041   -0.011907107681021455   -0.007393883366701616
-0.20733671005401041   -0.011907107681021455   -0.007393883366701616
-0.20733671005401041   -0.011907107681021455   -0.007393883366701616
-0.20819086201557988   -0.006038690301210216   0.003624203351235091
-0.20819086201557988   -0.006038690301210216   0.003624203351235091
-0.20819086201557988   -0.006038690301210216   0.003624203351235091
-0.20819086201557988   -0.006038690301210216   0.003624203351235091
-0.13030782534011748   0.0004409195601634691   -0.0013471620909782222
-0.13030782534011748   0.0004409195601634691   -0.0013471620909782222
-0.13030782534011748   0.0004409195601634691   -0.0013471620909782222
-0.13030782534011748   0.0004409195601634691   -0.0013471620909782222
-0.16532559988702644   0.00016707582641678487   -0.0004563468574877681
-0.16532559988702644   0.00016707582641678487   -0.0004563468574877681
-0.16532559988702644   0.00016707582641678487   -0.0004563468574877681
-0.16532559988702644   0.00016707582641678487   -0.0004563468574877681
-0.12633074626279528   0.011170268958549424   0.007808883897248703
-0.12633074626279528   0.011170268958549424   0.007808883897248703
-0.12633074626279528   0.011170268958549424   0.007808883897248703
-0.12633074626279528   0.011170268958549424   0.007808883897248703
-0.2123916822001953   -0.016991780806890067   -0.006426807066168069
-0.2123916822001953   -0.016991780806890067   -0.006426807066168069
-0.2123916822001953   -0.016991780806890067   -0.006426807066168069
-0.2123916822001953   -0.016991780806890067   -0.006426807066168069
-0.21256492717503014   -0.011259187668851985   0.005003248628165613
-0.21256492717503014   -0.011259187668851985   0.005003248628165613
-0.21256492717503014   -0.011259187668851985   0.005003248628165613
-0.21256492717503014   -0.011259187668851985   0.005003248628165613
-0.1345104722200036   -0.004821105903021004   -0.00048309327982998945
-0.1345104722200036   -0.004821105903021004   -0.00048309327982998945
-0.1345104722200036   -0.004821105903021004   -0.00048309327982998945
-0.1345104722200036   -0.004821105903021004   -0.00048309327982998945
-0.17081307517766037   -0.004745300786972655   -0.002939051231421819
-0.17081307517766037   -0.004745300786972655   -0.002939051231421819
-0.17081307517766037   -0.004745300786972655   -0.002939051231421819
-0.17081307517766037   -0.004745300786972655   -0.002939051231421819
-0.19398631349595644   0.020453262600196892   0.009047893102635991
-0.19398631349595644   0.020453262600196892   0.009047893102635991
-0.19398631349595644   0.020453262600196892   0.009047893102635991
-0.19398631349595644   0.020453262600196892   0.009047893102635991
-0.27474052607509286   -0.012832900413092069   -0.011671583636640007
-0.27474052607509286   -0.012832900413092069   -0.011671583636640007
-0.27474052607509286   -0.012832900413092069   -0.011671583636640007
-0.27474052607509286   -0.012832900413092069   -0.011671583636640007
-0.27664783891533884   0.002700381332343557   0.009499284356342163
-0.27664783891533884   0.002700381332343557   0.009499284356342163
-0.27664783891533884   0.002700381332343557   0.009499284356342163
-0.27664783891533884   0.002700381332343557   0.009499284356342163
-0.2049506510354913   -0.00029078763929354934   -0.007079908315835937
-0.2049506510354913   -0.00029078763929354934   -0.007079908315835937
-0.2049506510354913   -0.00029078763929354934   -0.007079908315835937
-0.2049506510354913   -0.00029078763929354934   -0.007079908315835937
-0.2273019942678686   0.004711965288304067   0.005650474952386525
-0.2273019942678686   0.004711965288304067   0.005650474952386525
-0.2273019942678686   0.004711965288304067   0.005650474952386525
-0.2273019942678686   0.004711965288304067   0.005650474952386525
-0.1975849559219793   0.01875388081852758   0.010703898793902761
-0.1975849559219793   0.01875388081852758   0.010703898793902761
-0.1975849559219793   0.01875388081852758   0.010703898793902761
-0.1975849559219793   0.01875388081852758   0.010703898793902761
-0.28439668188117684   -0.0167274349778036   -0.009817114162700619
-0.28439668188117684   -0.0167274349778036   -0.009817114162700619
-0.28439668188117684   -0.0167274349778036   -0.009817114162700619
-0.28439668188117684   -0.0167274349778036   -0.009817114162700619
-0.2846065513934757   -0.00011684367855780559   0.01210604815133812
-0.2846065513934757   -0.00011684367855780559   0.01210604815133812
-0.2846065513934757   -0.00011684367855780559   0.01210604815133812
-0.2846065513934757   -0.00011684367855780559   0.01210604815133812
-0.20952170204164838   -0.0030160223769154365   -0.006052664703408005
-0.20952170204164838   -0.0030160223769154365   -0.006052664703408005
-0.20952170204164838   -0.0030160223769154365   -0.006052664703408005
-0.20952170204164838   -0.0030160223769154365   -0.006052664703408005
-0.23762675303122074   0.0014025549597702566   0.00223397499982245
-0.23762675303122074   0.0014025549597702566   0.00223397499982245
-0.23762675303122074   0.0014025549597702566   0.00223397499982245
-0.23762675303122074   0.0014025549597702566   0.00223397499982245
-0.20185570275986794   0.01655364856967686   0.012707660758903724
-0.20185570275986794   0.01655364856967686   0.012707660758903724
-0.20185570275986794   0.01655364856967686   0.012707660758903724
-0.20185570275986794   0.01655364856967686   0.012707660758903724
-0.2926287169903043   -0.020042680940198024   -0.008078942571164975
-0.2926287169903043   -0.020042680940198024   -0.008078942571164975
-0.2926287169903043   -0.020042680940198024   -0.008078942571164975
-0.2926287169903043   -0.020042680940198024   -0.008078942571164975
-0.29558111075395405   -0.008216968323333441   0.012453146119669134
-0.29558111075395405   -0.008216968323333441   0.012453146119669134
-0.29558111075395405   -0.008216968323333441   0.012453146119669134
-0.29558111075395405   -0.008216968323333441   0.012453146119669134
-0.214249612290313   -0.009399439745242384   -0.005279924871862069
-0.214249612290313   -0.009399439745242384   -0.005279924871862069
-0.214249612290313   -0.009399439745242384   -0.005279924871862069
-0.214249612290313   -0.009399439745242384   -0.005279924871862069
-0.2407645245410369   -0.0021650922505420667   0.0002517918887106462
-0.2407645245410369   -0.0021650922505420667   0.0002517918887106462
-0.2407645245410369   -0.0021650922505420667   0.0002517918887106462
-0.2407645245410369   -0.0021650922505420667   0.0002517918887106462
0.02841936752668882   0.002318497338706235   -0.013467812189084383
0.02841936752668882   0.002318497338706235   -0.013467812189084383
0.02841936752668882   0.002318497338706235   -0.013467812189084383
0.02841936752668882   0.002318497338706235   -0.013467812189084383
-0.01782397024153337   0.009929916325218755   0.006785918159765809
-0.01782397024153337   0.009929916325218755   0.006785918159765809
-0.01782397024153337   0.009929916325218755   0.006785918159765809
-0.01782397024153337   0.009929916325218755   0.006785918159765809
-0.02881032167637195   -0.013175089396694654   -0.010900796209798582
-0.02881032167637195   -0.013175089396694654   -0.010900796209798582
-0.02881032167637195   -0.013175089396694654   -0.010900796209798582
-0.02881032167637195   -0.013175089396694654   -0.010900796209798582
0.026756038285452814   0.014882098551472062   0.008275365173792123
0.026756038285452814   0.014882098551472062   0.008275365173792123
0.026756038285452814   0.014882098551472062   0.008275365173792123
0.026756038285452814   0.014882098551472062   0.008275365173792123
0.0013864349795728894   0.0032765365676350583   0.0011299872498953243
0.0013864349795728894   0.0032765365676350583   0.0011299872498953243
0.0013864349795728894   0.0032765365676350583   0.0011299872498953243
0.0013864349795728894   0.0032765365676350583   0.0011299872498953243
0.018929416662968376   -0.003868426136915397   -0.012107218250242628
0.018929416662968376   -0.003868426136915397   -0.012107218250242628
0.018929416662968376   -0.003868426136915397   -0.012107218250242628
0.018929416662968376   -0.003868426136915397   -0.012107218250242628
-0.021431912076575958   0.005127223269004361   0.007688939123482383
-0.021431912076575958   0.005127223269004361   0.007688939123482383
-0.021431912076575958   0.005127223269004361   0.007688939123482383
-0.021431912076575958   0.005127223269004361   0.007688939123482383
-0.032464034050124956   -0.015501162785596632   -0.009291934633100487
-0.032464034050124956   -0.015501162785596632   -0.009291934633100487
-0.032464034050124956   -0.015501162785596632   -0.009291934633100487
-0.032464034050124956   -0.015501162785596632   -0.009291934633100487
0.019315370468267378   0.01174587257655246   0.01141376843660868
0.019315370468267378   0.01174587257655246   0.01141376843660868
0.019315370468267378   0.01174587257655246   0.01141376843660868
0.019315370468267378   0.01174587257655246   0.01141376843660868
-0.004370943380842124   -0.00021691466669946985   -0.001526960309893801
-0.004370943380842124   -0.00021691466669946985   -0.001526960309893801
-0.004370943380842124   -0.00021691466669946985   -0.001526960309893801
-0.004370943380842124   -0.00021691466669946985   -0.001526960309893801
0.011290526283332216   -0.006903983145490028   -0.010060596766024638
0.011290526283332216   -0.006903983145490028   -0.010060596766024638
0.011290526283332216   -0.006903983145490028   -0.010060596766024638
0.011290526283332216   -0.006903983145490028   -0.010060596766024638
-0.025067808235588504   0.0025200745660471195   0.009667957087937865
-0.025067808235588504   0.0025200745660471195   0.009667957087937865
-0.025067808235588504   0.0025200745660471195   0.009667957087937865
-0.025067808235588504   0.0025200745660471195   0.009667957087937865
-0.035806515417029526   -0.018958398193572677   -0.007736477601495084
-0.035806515417029526   -0.018958398193572677   -0.007736477601495084
-0.035806515417029526   -0.018958398193572677   -0.007736477601495084
-0.035806515417029526   -0.018958398193572677   -0.007736477601495084
0.008978196643492363   0.005251221772480705   0.01307224853553957
0.008978196643492363   0.005251221772480705   0.01307224853553957
0.008978196643492363   0.005251221772480705   0.01307224853553957
0.008978196643492363   0.005251221772480705   0.01307224853553957
-0.01081030601457192   -0.003684201133874164   -0.004639803196792405
-0.01081030601457192   -0.003684201133874164   -0.004639803196792405
-0.01081030601457192   -0.003684201133874164   -0.004639803196792405
-0.01081030601457192   -0.003684201133874164   -0.004639803196792405
-0.02077109186260727   0.007198465622768153   -0.005218239243153084
-0.02077109186260727   0.007198465622768153   -0.005218239243153084
-0.02077109186260727   0.007198465622768153   -0.005218239243153084
-0.02077109186260727   0.007198465622768153   -0.005218239243153084
-0.0635169048375967   0.0026969365599902543   0.0017149203046973897
-0.0635169048375967   0.0026969365599902543   0.0017149203046973897
-0.0635169048375967   0.0026969365599902543   0.0017149203046973897
-0.0635169048375967   0.0026969365599902543   0.0017149203046973897
-0.06924961224084193   -0.0076868092801476405   -0.005725007938033359
-0.06924961224084193   -0.0076868092801476405   -0.005725007938033359
-0.06924961224084193   -0.0076868092801476405   -0.005725007938033359
-0.06924961224084193   -0.0076868092801476405   -0.005725007938033359
-0.021466639720136557   0.007142602646401919   0.005499921528281804
-0.021466639720136557   0.007142602646401919   0.005499921528281804
-0.021466639720136557   0.007142602646401919   0.005499921528281804
-0.021466639720136557   0.007142602646401919   0.005499921528281804
-0.04368596552037573   0.0021922747618292517   0.0012120357043576332
-0.04368596552037573   0.0021922747618292517   0.0012120357043576332
-0.04368596552037573   0.0021922747618292517   0.0012120357043576332
-0.04368596552037573   0.0021922747618292517   0.0012120357043576332
-0.024547599647395023   0.0015384497781889368   -0.004300725239797387
-0.024547599647395023   0.0015384497781889368   -0.004300725239797387
-0.024547599647395023   0.0015384497781889368   -0.004300725239797387
-0.024547599647395023   0.0015384497781889368   -0.004300725239797387
-0.06654665944702866   -0.002460663545379981   0.002563610296264394
-0.06654665944702866   -0.002460663545379981   0.002563610296264394
-0.06654665944702866   -0.002460663545379981   0.002563610296264394
-0.06654665944702866   -0.002460663545379981   0.002563610296264394
-0.07210923458752234   -0.012231682032251747   -0.0042722874811078095
-0.07210923458752234   -0.012231682032251747   -0.0042722874811078095
-0.07210923458752234   -0.012231682032251747   -0.0042722874811078095
-0.07210923458752234   -0.012231682032251747   -0.0042722874811078095
-0.02584195627068977   0.0021131715396832734   0.0062041199387954035
-0.02584195627068977   0.0021131715396832734   0.0062041199387954035
-0.02584195627068977   0.0021131715396832734   0.0062041199387954035
-0.02584195627068977   0.0021131715396832734   0.0062041199387954035
-0.04729487300528138   -0.0024068009074351554   -0.0011099737666780476
-0.04729487300528138   -0.0024068009074351554   -0.0011099737666780476
-0.04729487300528138   -0.0024068009074351554   -0.0011099737666780476
-0.04729487300528138   -0.0024068009074351554   -0.0011099737666780476
-0.028822369656511797   -0.003364005533295288   -0.0032207699173360596
-0.028822369656511797   -0.003364005533295288   -0.0032207699173360596
-0.028822369656511797   -0.003364005533295288   -0.0032207699173360596
-0.028822369656511797   -0.003364005533295288   -0.0032207699173360596
-0.06953678036419735   -0.007162464121770191   0.003520765725035663
-0.06953678036419735   -0.007162464121770191   0.003520765725035663
-0.06953678036419735   -0.007162464121770191   0.003520765725035663
-0.06953678036419735   -0.007162464121770191   0.003520765725035663
-0.0749876189394541   -0.016847969823563992   -0.002988859510592232
-0.0749876189394541   -0.016847969823563992   -0.002988859510592232
-0.0749876189394541   -0.016847969823563992   -0.002988859510592232
-0.0749876189394541   -0.016847969823563992   -0.002988859510592232
-0.02951063662718984   -0.002909048618564604   0.007693566772695254
-0.02951063662718984   -0.002909048618564604   0.007693566772695254
-0.02951063662718984   -0.002909048618564604   0.007693566772695254
-0.02951063662718984   -0.002909048618564604   0.007693566772695254
-0.05085749501768155   -0.006881666590752025   -0.0034517977983160074
-0.05085749501768155   -0.006881666590752025   -0.0034517977983160074
-0.05085749501768155   -0.006881666590752025   -0.0034517977983160074
-0.05085749501768155   -0.006881666590752025   -0.0034517977983160074
-0.06225961041487701   0.011239978912580858   -0.000541649934294724
-0.06225961041487701   0.011239978912580858   -0.000541649934294724
-0.06225961041487701   0.011239978912580858   -0.000541649934294724
-0.06225961041487701   0.011239978912580858   -0.000541649934294724
-0.10853493693341944   -0.0038644549015590737   -0.003155558473088335
-0.10853493693341944   -0.0038644549015590737   -0.003155558473088335
-0.10853493693341944   -0.0038644549015590737   -0.003155558473088335
-0.10853493693341944   -0.0038644549015590737   -0.003155558473088335
-0.10973104362501199   -0.002940958740149841   -0.0007690470788452803
-0.10973104362501199   -0.002940958740149841   -0.0007690470788452803
-0.10973104362501199   -0.002940958740149841   -0.0007690470788452803
-0.10973104362501199   -0.002940958740149841   -0.0007690470788452803
-0.06617826186571608   0.0010847275586431445   0.0008602070988040925
-0.06617826186571608   0.0010847275586431445   0.0008602070988040925
-0.06617826186571608   0.0010847275586431445   0.0008602070988040925
-0.06617826186571608   0.0010847275586431445   0.0008602070988040925
-0.08648510040614898   0.0012800643006525905   0.0004923151036357017
-0.08648510040614898   0.0012800643006525905   0.0004923151036357017
-0.08648510040614898   0.0012800643006525905   0.0004923151036357017
-0.08648510040614898   0.0012800643006525905   0.0004923151036357017
-0.0651427888737093   0.006295801291146642   0.0008264983263344761
-0.0651427888737093   0.006295801291146642   0.0008264983263344761
-0.0651427888737093   0.006295801291146642   0.0008264983263344761
-0.0651427888737093   0.006295801291146642   0.0008264983263344761
-0.1111336911066092   -0.008519206962243786   -0.002204036264737451
-0.1111336911066092   -0.008519206962243786   -0.002204036264737451
-0.1111336911066092   -0.008519206962243786   -0.002204036264737451
-0.1111336911066092   -0.008519206962243786   -0.002204036264737451
-0.11242087154812781   -0.007825672559735871   0.0005769102434398932
-0.11242087154812781   -0.007825672559735871   0.0005769102434398932
-0.11242087154812781   -0.007825672559735871   0.0005769102434398932
-0.11242087154812781   -0.007825672559735871   0.0005769102434398932
-0.06919754086661913   -0.0037258896918880985   0.0017803887830446763
-0.06919754086661913   -0.0037258896918880985   0.0017803887830446763
-0.06919754086661913   -0.0037258896918880985   0.0017803887830446763
-0.06919754086661913   -0.0037258896918880985   0.0017803887830446763
-0.08938887022472661   -0.003163190654876906   -0.0016380039324485184
-0.08938887022472661   -0.003163190654876906   -0.0016380039324485184
-0.08938887022472661   -0.003163190654876906   -0.0016380039324485184
-0.08938887022472661   -0.003163190654876906   -0.0016380039324485184
-0.06814232911005283   0.0013173045449893506   0.0020132533289986924
-0.06814232911005283   0.0013173045449893506   0.0020132533289986924
-0.06814232911005283   0.0013173045449893506   0.0020132533289986924
-0.06814232911005283   0.0013173045449893506   0.0020132533289986924
-0.11391998482131736   -0.01331276831323946   -0.0014315603690062176
-0.11391998482131736   -0.01331276831323946   -0.0014315603690062176
-0.11391998482131736   -0.01331276831323946   -0.0014315603690062176
-0.11391998482131736   -0.01331276831323946   -0.0014315603690062176
-0.11503662845403385   -0.01249574933888134   0.0018767467861920354
-0.11503662845403385   -0.01249574933888134   0.0018767467861920354
-0.11503662845403385   -0.01249574933888134   0.0018767467861920354
-0.11503662845403385   -0.01249574933888134   0.0018767467861920354
-0.07211122035709183   -0.008244339144296384   0.0027895027219515265
-0.07211122035709183   -0.008244339144296384   0.0027895027219515265
-0.07211122035709183   -0.008244339144296384   0.0027895027219515265
-0.07211122035709183   -0.008244339144296384   0.0027895027219515265
-0.0925132460473208   -0.007625812781755765   -0.00395442625226422
-0.0925132460473208   -0.007625812781755765   -0.00395442625226422
-0.0925132460473208   -0.007625812781755765   -0.00395442625226422
-0.0925132460473208   -0.007625812781755765   -0.00395442625226422
-0.10307266265153492   0.015950447642412505   0.0043409103923626475
-0.10307266265153492   0.015950447642412505   0.0043409103923626475
-0.10307266265153492   0.015950447642412505   0.0043409103923626475
-0.10307266265153492   0.015950447642412505   0.0043409103923626475
-0.15204343568777473   -0.006567944325264828   -0.007020846234377891
-0.15204343568777473   -0.006567944325264828   -0.007020846234377891
-0.15204343568777473   -0.006567944325264828   -0.007020846234377891
-0.15204343568777473   -0.006567944325264828   -0.007020846234377891
-0.15013713348784385   0.0018747654686085274   0.004315905815274057
-0.15013713348784385   0.0018747654686085274   0.004315905815274057
-0.15013713348784385   0.0018747654686085274   0.004315905815274057
-0.15013713348784385   0.0018747654686085274   0.004315905815274057
-0.10998095576667014   -0.0019064127232160458   -0.003053153804069869
-0.10998095576667014   -0.0019064127232160458   -0.003053153804069869
-0.10998095576667014   -0.0019064127232160458   -0.003053153804069869
-0.10998095576667014   -0.0019064127232160458   -0.003053153804069869
-0.12831996947587307   0.002339253332561197   0.0007118700708695974
-0.12831996947587307   0.002339253332561197   0.0007118700708695974
-0.12831996947587307   0.002339253332561197   0.0007118700708695974
-0.12831996947587307   0.002339253332561197   0.0007118700708695974
-0.1056363721601995   0.011053672393412078   0.005709679111655144
-0.1056363721601995   0.011053672393412078   0.005709679111655144
-0.1056363721601995   0.011053672393412078   0.005709679111655144
-0.1056363721601995   0.011053672393412078   0.005709679111655144
-0.1550191506637753   -0.011622753217483284   -0.006596661378293229
-0.1550191506637753   -0.011622753217483284   -0.006596661378293229
-0.1550191506637753   -0.011622753217483284   -0.006596661378293229
-0.1550191506637753   -0.011622753217483284   -0.006596661378293229
-0.15372587963339254   -0.002949289614136076   0.005119846330799123
-0.15372587963339254   -0.002949289614136076   0.005119846330799123
-0.15372587963339254   -0.002949289614136076   0.005119846330799123
-0.15372587963339254   -0.002949289614136076   0.005119846330799123
-0.11264597892366854   -0.00630970563191589   -0.0020645935620837406
-0.11264597892366854   -0.00630970563191589   -0.0020645935620837406
-0.11264597892366854   -0.00630970563191589   -0.0020645935620837406
-0.11264597892366854   -0.00630970563191589   -0.0020645935620837406
-0.1307472428787947   -0.0019365069915513872   -0.0015961170995658367
-0.1307472428787947   -0.0019365069915513872   -0.0015961170995658367
-0.1307472428787947   -0.0019365069915513872   -0.0015961170995658367
-0.1307472428787947   -0.0019365069915513872   -0.0015961170995658367
-0.10825814915230982   0.006527714290399219   0.007037135372392858
-0.10825814915230982   0.006527714290399219   0.007037135372392858
-0.10825814915230982   0.006527714290399219   0.007037135372392858
-0.10825814915230982   0.006527714290399219   0.007037135372392858
-0.15853815285934203   -0.01621115299104256   -0.005679656422043593
-0.15853815285934203   -0.01621115299104256   -0.005679656422043593
-0.15853815285934203   -0.01621115299104256   -0.005679656422043593
-0.15853815285934203   -0.01621115299104256   -0.005679656422043593
-0.15663828410986075   -0.007839170710803173   0.0065543945711163225
-0.15663828410986075   -0.007839170710803173   0.0065543945711163225
-0.15663828410986075   -0.007839170710803173   0.0065543945711163225
-0.15663828410986075   -0.007839170710803173   0.0065543945711163225
-0.11532632679967215   -0.010847682649042964   -0.001219811631837851
-0.11532632679967215   -0.010847682649042964   -0.001219811631837851
-0.11532632679967215   -0.010847682649042964   -0.001219811631837851
-0.11532632679967215   -0.010847682649042964   -0.001219811631837851
-0.13443897708194721   -0.006346311154368435   -0.003980422991024575
-0.13443897708194721   -0.006346311154368435   -0.003980422991024575
-0.13443897708194721   -0.006346311154368435   -0.003980422991024575
-0.13443897708194721   -0.006346311154368435   -0.003980422991024575
-0.14413466926528035   0.017344663322303576   0.008610378230525722
-0.14413466926528035   0.017344663322303576   0.008610378230525722
-0.14413466926528035   0.017344663322303576   0.008610378230525722
-0.14413466926528035   0.017344663322303576   0.008610378230525722
-0.1879078955726793   -0.009587178037248296   -0.0115047178182238
-0.1879078955726793   -0.009587178037248296   -0.0115047178182238
-0.1879078955726793   -0.009587178037248296   -0.0115047178182238
-0.1879078955726793   -0.009587178037248296   -0.0115047178182238
-0.1881312181098004   0.006387971059188244   0.00949445225087445
-0.1881312181098004   0.006387971059188244   0.00949445225087445
-0.1881312181098004   0.006387971059188244   0.00949445225087445
-0.1881312181098004   0.006387971059188244   0.00949445225087445
-0.1537559080273155   -0.00487787464686874   -0.007025326766606876
-0.1537559080273155   -0.00487787464686874   -0.007025326766606876
-0.1537559080273155   -0.00487787464686874   -0.007025326766606876
-0.1537559080273155   -0.00487787464686874   -0.007025326766606876
-0.16158616619552071   0.003927134252840837   0.0033075444447065085
-0.16158616619552071   0.003927134252840837   0.0033075444447065085
-0.16158616619552071   0.003927134252840837   0.0033075444447065085
-0.16158616619552071   0.003927134252840837   0.0033075444447065085
-0.1463696851575565   0.014872474822105027   0.010155438113214465
-0.1463696851575565   0.014872474822105027   0.010155438113214465
-0.1463696851575565   0.014872474822105027   0.010155438113214465
-0.1463696851575565   0.014872474822105027   0.010155438113214465
-0.19608276275318073   -0.013927700183406503   -0.00994759972343046
-0.19608276275318073   -0.013927700183406503   -0.00994759972343046
-0.19608276275318073   -0.013927700183406503   -0.00994759972343046
-0.19608276275318073   -0.013927700183406503   -0.00994759972343046
-0.19465060951140323   0.0036085901366438924   0.012199305334143505
-0.19465060951140323   0.0036085901366438924   0.012199305334143505
-0.19465060951140323   0.0036085901366438924   0.012199305334143505
-0.19465060951140323   0.0036085901366438924   0.012199305334143505
-0.15686797950921913   -0.007415055132155356   -0.006124887530316358
-0.15686797950921913   -0.007415055132155356   -0.006124887530316358
-0.15686797950921913   -0.007415055132155356   -0.006124887530316358
-0.15686797950921913   -0.007415055132155356   -0.006124887530316358
-0.16942568907112387   0.0005704292603146144   5.0719678563022896e-05
-0.16942568907112387   0.0005704292603146144   5.0719678563022896e-05
-0.16942568907112387   0.0005704292603146144   5.0719678563022896e-05
-0.16942568907112387   0.0005704292603146144   5.0719678563022896e-05
-0.14919200761098728   0.01269036067969656   0.012149556148990909
-0.14919200761098728   0.01269036067969656   0.012149556148990909
-0.14919200761098728   0.01269036067969656   0.012149556148990909
-0.14919200761098728   0.01269036067969656   0.012149556148990909
-0.20289345901709838   -0.01706370328266972   -0.008342648775016615
-0.20289345901709838   -0.01706370328266972   -0.008342648775016615
-0.20289345901709838   -0.01706370328266972   -0.008342648775016615
-0.20289345901709838   -0.01706370328266972   -0.008342648775016615
-0.20419386554904964   -0.003759367334991874   0.0128646904381271
-0.20419386554904964   -0.003759367334991874   0.0128646904381271
-0.20419386554904964   -0.003759367334991874   0.0128646904381271
-0.20419386554904964   -0.003759367334991874   0.0128646904381271
-0.15999855172507602   -0.012797173848984447   -0.0052889403667787695
-0.15999855172507602   -0.012797173848984447   -0.0052889403667787695
-0.15999855172507602   -0.012797173848984447   -0.0052889403667787695
-0.15999855172507602   -0.012797173848984447   -0.0052889403667787695
-0.17231319341957577   -0.0027945202410047595   -0.0022201507848251586
-0.17231319341957577   -0.0027945202410047595   -0.0022201507848251586
-0.17231319341957577   -0.0027945202410047595   -0.0022201507848251586
-0.17231319341957577   -0.0027945202410047595   -0.0022201507848251586
-0.06782724009824923   -0.004324440959089709   -0.014482598405060642
-0.06782724009824923   -0.004324440959089709   -0.014482598405060642
-0.06782724009824923   -0.004324440959089709   -0.014482598405060642
-0.06782724009824923   -0.004324440959089709   -0.014482598405060642
-0.07147091898507445   0.010804314900955708   0.006444660871245474
-0.07147091898507445   0.010804314900955708   0.006444660871245474
-0.07147091898507445   0.010804314900955708   0.006444660871245474
-0.07147091898507445   0.010804314900955708   0.006444660871245474
-0.08114639260764422   -0.010339969351672697   -0.00993254344883465
-0.08114639260764422   -0.010339969351672697   -0.00993254344883465
-0.08114639260764422   -0.010339969351672697   -0.00993254344883465
-0.08114639260764422   -0.010339969351672697   -0.00993254344883465
-0.06954063995221957   0.006415662894655234   0.009492588593300329
-0.06954063995221957   0.006415662894655234   0.009492588593300329
-0.06954063995221957   0.006415662894655234   0.009492588593300329
-0.06954063995221957   0.006415662894655234   0.009492588593300329
-0.06883582568063899   0.0020034389673859038   0.006579608236164156
-0.06883582568063899   0.0020034389673859038   0.006579608236164156
-0.06883582568063899   0.0020034389673859038   0.006579608236164156
-0.06883582568063899   0.0020034389673859038   0.006579608236164156
-0.07716995091999312   -0.010004860828798262   -0.012233442522113554
-0.07716995091999312   -0.010004860828798262   -0.012233442522113554
-0.07716995091999312   -0.010004860828798262   -0.012233442522113554
-0.07716995091999312   -0.010004860828798262   -0.012233442522113554
-0.07441783290606789   0.005179803105583639   0.008190482601790679
-0.07441783290606789   0.005179803105583639   0.008190482601790679
-0.07441783290606789   0.005179803105583639   0.008190482601790679
-0.07441783290606789   0.005179803105583639   0.008190482601790679
-0.0841810999076691   -0.01293067063048333   -0.008472477222633785
-0.0841810999076691   -0.01293067063048333   -0.008472477222633785
-0.0841810999076691   -0.01293067063048333   -0.008472477222633785
-0.0841810999076691   -0.01293067063048333   -0.008472477222633785
-0.0770389408031274   0.0029366388984502795   0.017858279475396296
-0.0770389408031274   0.0029366388984502795   0.017858279475396296
-0.0770389408031274   0.0029366388984502795   0.017858279475396296
-0.0770389408031274   0.0029366388984502795   0.017858279475396296
-0.07562026151120463   -0.0024279174018989637   0.002715097517039241
-0.07562026151120463   -0.0024279174018989637   0.002715097517039241
-0.07562026151120463   -0.0024279174018989637   0.002715097517039241
-0.07562026151120463   -0.0024279174018989637   0.002715097517039241
-0.08582369118435139   -0.013492050123123014   -0.00963678340914991
-0.08582369118435139   -0.013492050123123014   -0.00963678340914991
-0.08582369118435139   -0.013492050123123014   -0.00963678340914991
-0.08582369118435139   -0.013492050123123014   -0.00963678340914991
-0.07759609236827848   0.001298275549256659   0.010223614294579294
-0.07759609236827848   0.001298275549256659   0.010223614294579294
-0.07759609236827848   0.001298275549256659   0.010223614294579294
-0.07759609236827848   0.001298275549256659   0.010223614294579294
-0.08669113944015756   -0.01784295829645236   -0.006729315725475841
-0.08669113944015756   -0.01784295829645236   -0.006729315725475841
-0.08669113944015756   -0.01784295829645236   -0.006729315725475841
-0.08669113944015756   -0.01784295829645236   -0.006729315725475841
-0.08863521979471727   -0.008564010347143663   0.016676972116743738
-0.08863521979471727   -0.008564010347143663   0.016676972116743738
-0.08863521979471727   -0.008564010347143663   0.016676972116743738
-0.08863521979471727   -0.008564010347143663   0.016676972116743738
-0.08176836251873588   -0.007640889757642185   -0.0035166542709155865
-0.08176836251873588   -0.007640889757642185   -0.0035166542709155865
-0.08176836251873588   -0.007640889757642185   -0.0035166542709155865
-0.08176836251873588   -0.007640889757642185   -0.0035166542709155865
-0.07673910948568317   -0.0017574031472792663   -0.007334573583563756
-0.07673910948568317   -0.0017574031472792663   -0.007334573583563756
-0.07673910948568317   -0.0017574031472792663   -0.007334573583563756
-0.07673910948568317   -0.0017574031472792663   -0.007334573583563756
-0.08102191195652071   -0.010085983164052119   -0.00044749496580481947
-0.08102191195652071   -0.010085983164052119   -0.00044749496580481947
-0.08102191195652071   -0.010085983164052119   -0.00044749496580481947
-0.08102191195652071   -0.010085983164052119   -0.00044749496580481947
-0.0818488323528557   -0.006804156966531562   -0.003851683903658796
-0.0818488323528557   -0.006804156966531562   -0.003851683903658796
-0.0818488323528557   -0.006804156966531562   -0.003851683903658796
-0.0818488323528557   -0.006804156966531562   -0.003851683903658796
-0.07970789343385376   -0.013097016610711294   1.6999679156209533e-05
-0.07970789343385376   -0.013097016610711294   1.6999679156209533e-05
-0.07970789343385376   -0.013097016610711294   1.6999679156209533e-05
-0.07970789343385376   -0.013097016610711294   1.6999679156209533e-05
-0.07916244627582161   -0.008287409227502507   -8.079020172773723e-05
-0.07916244627582161   -0.008287409227502507   -8.079020172773723e-05
-0.07916244627582161   -0.008287409227502507   -8.079020172773723e-05
-0.07916244627582161   -0.008287409227502507   -8.079020172773723e-05
-0.07974492695011189   -0.006888396673183517   -0.006376787839662379
-0.07974492695011189   -0.006888396673183517   -0.006376787839662379
-0.07974492695011189   -0.006888396673183517   -0.006376787839662379
-0.07974492695011189   -0.006888396673183517   -0.006376787839662379
-0.08233296148279853   -0.013533939550260488   0.0004574530303550091
-0.08233296148279853   -0.013533939550260488   0.0004574530303550091
-0.08233296148279853   -0.013533939550260488   0.0004574530303550091
-0.08233296148279853   -0.013533939550260488   0.0004574530303550091
-0.08342764182330269   -0.011155083596438815   -0.002551470189202129
-0.08342764182330269   -0.011155083596438815   -0.002551470189202129
-0.08342764182330269   -0.011155083596438815   -0.002551470189202129
-0.08342764182330269   -0.011155083596438815   -0.002551470189202129
-0.08291770771778331   -0.017117278268349172   0.0020310913646610297
-0.08291770771778331   -0.017117278268349172   0.0020310913646610297
-0.08291770771778331   -0.017117278268349172   0.0020310913646610297
-0.08291770771778331   -0.017117278268349172   0.0020310913646610297
-0.0812410132185727   -0.0118387223810959   -0.0021448589841588503
-0.0812410132185727   -0.0118387223810959   -0.0021448589841588503
-0.0812410132185727   -0.0118387223810959   -0.0021448589841588503
-0.0812410132185727   -0.0118387223810959   -0.0021448589841588503
-0.0831621218667429   -0.011544447580819704   -0.004763810067666351
-0.0831621218667429   -0.011544447580819704   -0.004763810067666351
-0.0831621218667429   -0.011544447580819704   -0.004763810067666351
-0.0831621218667429   -0.011544447580819704   -0.004763810067666351
-0.08384666813506238   -0.01739135474468789   0.001589669400246512
-0.08384666813506238   -0.01739135474468789   0.001589669400246512
-0.08384666813506238   -0.01739135474468789   0.001589669400246512
-0.08384666813506238   -0.01739135474468789   0.001589669400246512
-0.08487421654008577   -0.015774295513377046   -0.0012690877884633705
-0.08487421654008577   -0.015774295513377046   -0.0012690877884633705
-0.08487421654008577   -0.015774295513377046   -0.0012690877884633705
-0.08487421654008577   -0.015774295513377046   -0.0012690877884633705
-0.08540462020779885   -0.02211827623079919   0.003978598370664053
-0.08540462020779885   -0.02211827623079919   0.003978598370664053
-0.08540462020779885   -0.02211827623079919   0.003978598370664053
-0.08540462020779885   -0.02211827623079919   0.003978598370664053
-0.08398704907763604   -0.01602970582920779   -0.004726455674889291
-0.08398704907763604   -0.01602970582920779   -0.004726455674889291
-0.08398704907763604   -0.01602970582920779   -0.004726455674889291
-0.08398704907763604   -0.01602970582920779   -0.004726455674889291
-0.07869675199506537   0.002460631763512567   -0.001368310086091856
-0.07869675199506537   0.002460631763512567   -0.001368310086091856
-0.07869675199506537   0.002460631763512567   -0.001368310086091856
-0.07869675199506537   0.002460631763512567   -0.001368310086091856
-0.09176917430109159   -0.017456685918661438   -0.004471018053642962
-0.09176917430109159   -0.017456685918661438   -0.004471018053642962
-0.09176917430109159   -0.017456685918661438   -0.004471018053642962
-0.09176917430109159   -0.017456685918661438   -0.004471018053642962
-0.08823883591803552   -0.0032959563849182354   0.0010173614333166157
-0.08823883591803552   -0.0032959563849182354   0.0010173614333166157
-0.08823883591803552   -0.0032959563849182354   0.0010173614333166157
-0.08823883591803552   -0.0032959563849182354   0.0010173614333166157
-0.08390918213062239   -0.018291531159341665   -0.0026660585996830504
-0.08390918213062239   -0.018291531159341665   -0.0026660585996830504
-0.08390918213062239   -0.018291531159341665   -0.0026660585996830504
-0.08390918213062239   -0.018291531159341665   -0.0026660585996830504
-0.08559176044708199   -0.009443803957967487   -0.0018167413359861983
-0.08559176044708199   -0.009443803957967487   -0.0018167413359861983
-0.08559176044708199   -0.009443803957967487   -0.0018167413359861983
-0.08559176044708199   -0.009443803957967487   -0.0018167413359861983
-0.08009923425236036   -0.0018775653433230968   -3.028502439052054e-05
-0.08009923425236036   -0.0018775653433230968   -3.028502439052054e-05
-0.08009923425236036   -0.0018775653433230968   -3.028502439052054e-05
-0.08009923425236036   -0.0018775653433230968   -3.028502439052054e-05
-0.09252652114277166   -0.020187659547409482   -0.0035293615278728565
-0.09252652114277166   -0.020187659547409482   -0.0035293615278728565
-0.09252652114277166   -0.020187659547409482   -0.0035293615278728565
-0.09252652114277166   -0.020187659547409482   -0.0035293615278728565
-0.08943168495785754   -0.007667453120054563   0.0023067157334507745
-0.08943168495785754   -0.007667453120054563   0.0023067157334507745
-0.08943168495785754   -0.007667453120054563   0.0023067157334507745
-0.08943168495785754   -0.007667453120054563   0.0023067157334507745
-0.08538878488963411   -0.021721121146948463   -0.0017911479703497115
-0.08538878488963411   -0.021721121146948463   -0.0017911479703497115
-0.08538878488963411   -0.021721121146948463   -0.0017911479703497115
-0.08538878488963411   -0.021721121146948463   -0.0017911479703497115
-0.08683733732761538   -0.012756008895324949   -0.0035882249232181964
-0.08683733732761538   -0.012756008895324949   -0.0035882249232181964
-0.08683733732761538   -0.012756008895324949   -0.0035882249232181964
-0.08683733732761538   -0.012756008895324949   -0.0035882249232181964
-0.08170199136601164   -0.006332098206843913   0.0012537967076581293
-0.08170199136601164   -0.006332098206843913   0.0012537967076581293
-0.08170199136601164   -0.006332098206843913   0.0012537967076581293
-0.08170199136601164   -0.006332098206843913   0.0012537967076581293
-0.09365241793524237   -0.02359041551392179   -0.002873986759608095
-0.09365241793524237   -0.02359041551392179   -0.002873986759608095
-0.09365241793524237   -0.02359041551392179   -0.002873986759608095
-0.09365241793524237   -0.02359041551392179   -0.002873986759608095
-0.09043832697146025   -0.011752287540454367   0.003576867355522342
-0.09043832697146025   -0.011752287540454367   0.003576867355522342
-0.09043832697146025   -0.011752287540454367   0.003576867355522342
-0.09043832697146025   -0.011752287540454367   0.003576867355522342
-0.08655130701390416   -0.02496320687029019   -0.0004656288006422817
-0.08655130701390416   -0.02496320687029019   -0.0004656288006422817
-0.08655130701390416   -0.02496320687029019   -0.0004656288006422817
-0.08655130701390416   -0.02496320687029019   -0.0004656288006422817
-0.08829477580307431   -0.016210651124065265   -0.0055317320808310755
-0.08829477580307431   -0.016210651124065265   -0.0055317320808310755
-0.08829477580307431   -0.016210651124065265   -0.0055317320808310755
-0.08829477580307431   -0.016210651124065265   -0.0055317320808310755
-0.0847125839092916   0.009144537395538735   0.004210710591156795
-0.0847125839092916   0.009144537395538735   0.004210710591156795
-0.0847125839092916   0.009144537395538735   0.004210710591156795
-0.0847125839092916   0.009144537395538735   0.004210710591156795
-0.10250447696838906   -0.013347905996001242   -0.006336883343273128
-0.10250447696838906   -0.013347905996001242   -0.006336883343273128
-0.10250447696838906   -0.013347905996001242   -0.006336883343273128
-0.10250447696838906   -0.013347905996001242   -0.006336883343273128
-0.09730420566201256   0.0023830060267639765   0.005717189841180308
-0.09730420566201256   0.0023830060267639765   0.005717189841180308
-0.09730420566201256   0.0023830060267639765   0.005717189841180308
-0.09730420566201256   0.0023830060267639765   0.005717189841180308
-0.0913917992727184   -0.014282671550649922   -0.0037607401743660705
-0.0913917992727184   -0.014282671550649922   -0.0037607401743660705
-0.0913917992727184   -0.014282671550649922   -0.0037607401743660705
-0.0913917992727184   -0.014282671550649922   -0.0037607401743660705
-0.093930801050097   -0.003938135737927614   -0.0010820029668297893
-0.093930801050097   -0.003938135737927614   -0.0010820029668297893
-0.093930801050097   -0.003938135737927614   -0.0010820029668297893
-0.093930801050097   -0.003938135737927614   -0.0010820029668297893
-0.08575153199191589   0.004651406440288792   0.0055065182387077265
-0.08575153199191589   0.004651406440288792   0.0055065182387077265
-0.08575153199191589   0.004651406440288792   0.0055065182387077265
-0.08575153199191589   0.004651406440288792   0.0055065182387077265
-0.10358485829582095   -0.01719145731718128   -0.006111609983916463
-0.10358485829582095   -0.01719145731718128   -0.006111609983916463
-0.10358485829582095   -0.01719145731718128   -0.006111609983916463
-0.10358485829582095   -0.01719145731718128   -0.006111609983916463
-0.09923772997874528   -0.0019148983854938816   0.00650119372511071
-0.09923772997874528   -0.0019148983854938816   0.00650119372511071
-0.09923772997874528   -0.0019148983854938816   0.00650119372511071
-0.09923772997874528   -0.0019148983854938816   0.00650119372511071
-0.09245446459128666   -0.01749768103804779   -0.0029769545157035194
-0.09245446459128666   -0.01749768103804779   -0.0029769545157035194
-0.09245446459128666   -0.01749768103804779   -0.0029769545157035194
-0.09245446459128666   -0.01749768103804779   -0.0029769545157035194
-0.09497892752513835   -0.007545878925781331   -0.0031658705348190344
-0.09497892752513835   -0.007545878925781331   -0.0031658705348190344
-0.09497892752513835   -0.007545878925781331   -0.0031658705348190344
-0.09497892752513835   -0.007545878925781331   -0.0031658705348190344
-0.08688631966639052   0.000606968955085288   0.006759120115644127
-0.08688631966639052   0.000606968955085288   0.006759120115644127
-0.08688631966639052   0.000606968955085288   0.006759120115644127
-0.08688631966639052   0.000606968955085288   0.006759120115644127
-0.1053595459522298   -0.020573219427214066   -0.0054495651005917545
-0.1053595459522298   -0.020573219427214066   -0.0054495651005917545
-0.1053595459522298   -0.020573219427214066   -0.0054495651005917545
-0.1053595459522298   -0.020573219427214066   -0.0054495651005917545
-0.10056562036478543   -0.006062669688211243   0.007944546737434038
-0.10056562036478543   -0.006062669688211243   0.007944546737434038
-0.10056562036478543   -0.006062669688211243   0.007944546737434038
-0.10056562036478543   -0.006062669688211243   0.007944546737434038
-0.09340111417644673   -0.02073642775400144   -0.002252928455864908
-0.09340111417644673   -0.02073642775400144   -0.002252928455864908
-0.09340111417644673   -0.02073642775400144   -0.002252928455864908
-0.09340111417644673   -0.02073642775400144   -0.002252928455864908
-0.09672468234605208   -0.010984184189373256   -0.00519929043918
-0.09672468234605208   -0.010984184189373256   -0.00519929043918
-0.09672468234605208   -0.010984184189373256   -0.00519929043918
-0.09672468234605208   -0.010984184189373256   -0.00519929043918
-0.09424258388693735   0.013143135897618091   0.008481540170366174
-0.09424258388693735   0.013143135897618091   0.008481540170366174
-0.09424258388693735   0.013143135897618091   0.008481540170366174
-0.09424258388693735   0.013143135897618091   0.008481540170366174
-0.10358646945176764   -0.008330562122548565   -0.009090566261103071
-0.10358646945176764   -0.008330562122548565   -0.009090566261103071
-0.10358646945176764   -0.008330562122548565   -0.009090566261103071
-0.10358646945176764   -0.008330562122548565   -0.009090566261103071
-0.10160574875470568   0.00884567915785282   0.0094422829843911
-0.10160574875470568   0.00884567915785282   0.0094422829843911
-0.10160574875470568   0.00884567915785282   0.0094422829843911
-0.10160574875470568   0.00884567915785282   0.0094422829843911
-0.10202748257215359   -0.009953571181614171   -0.005562617501148618
-0.10202748257215359   -0.009953571181614171   -0.005562617501148618
-0.10202748257215359   -0.009953571181614171   -0.005562617501148618
-0.10202748257215359   -0.009953571181614171   -0.005562617501148618
-0.09685924724332713   0.0021824812379956406   0.000601982564227996
-0.09685924724332713   0.0021824812379956406   0.000601982564227996
-0.09685924724332713   0.0021824812379956406   0.000601982564227996
-0.09685924724332713   0.0021824812379956406   0.000601982564227996
-0.09491302434236942   0.01025582328056122   0.009800279185596849
-0.09491302434236942   0.01025582328056122   0.009800279185596849
-0.09491302434236942   0.01025582328056122   0.009800279185596849
-0.09491302434236942   0.01025582328056122   0.009800279185596849
-0.10925590668702262   -0.011899415006854057   -0.008063412512482859
-0.10925590668702262   -0.011899415006854057   -0.008063412512482859
-0.10925590668702262   -0.011899415006854057   -0.008063412512482859
-0.10925590668702262   -0.011899415006854057   -0.008063412512482859
-0.10607197201053385   0.006392857881252642   0.012118670038030695
-0.10607197201053385   0.006392857881252642   0.012118670038030695
-0.10607197201053385   0.006392857881252642   0.012118670038030695
-0.10607197201053385   0.006392857881252642   0.012118670038030695
-0.1035355384228184   -0.011866076945724318   -0.005036669935024586
-0.1035355384228184   -0.011866076945724318   -0.005036669935024586
-0.1035355384228184   -0.011866076945724318   -0.005036669935024586
-0.1035355384228184   -0.011866076945724318   -0.005036669935024586
-0.10170331385963328   -0.0007685973573705075   -0.0019213059426642842
-0.10170331385963328   -0.0007685973573705075   -0.0019213059426642842
-0.10170331385963328   -0.0007685973573705075   -0.0019213059426642842
-0.10170331385963328   -0.0007685973573705075   -0.0019213059426642842
-0.09615728698969066   0.008291469112327272   0.011697041172560645
-0.09615728698969066   0.008291469112327272   0.011697041172560645
-0.09615728698969066   0.008291469112327272   0.011697041172560645
-0.09615728698969066   0.008291469112327272   0.011697041172560645
-0.11413130894931509   -0.01444577368245274   -0.007339383092166191
-0.11413130894931509   -0.01444577368245274   -0.007339383092166191
-0.11413130894931509   -0.01444577368245274   -0.007339383092166191
-0.11413130894931509   -0.01444577368245274   -0.007339383092166191
-0.11370999984346455   0.00010383473327334886   0.012927550662898721
-0.11370999984346455   0.00010383473327334886   0.012927550662898721
-0.11370999984346455   0.00010383473327334886   0.012927550662898721
-0.11370999984346455   0.00010383473327334886   0.012927550662898721
-0.10493189138672276   -0.01558340646534848   -0.004366071595117253
-0.10493189138672276   -0.01558340646534848   -0.004366071595117253
-0.10493189138672276   -0.01558340646534848   -0.004366071595117253
-0.10493189138672276   -0.01558340646534848   -0.004366071595117253
-0.10398445076946855   -0.0035223490060471534   -0.004154237564541781
-0.10398445076946855   -0.0035223490060471534   -0.004154237564541781
-0.10398445076946855   -0.0035223490060471534   -0.004154237564541781
-0.10398445076946855   -0.0035223490060471534   -0.004154237564541781
-0.18653736340777535   -0.017224879055398667   -0.018634864487821628
-0.18653736340777535   -0.017224879055398667   -0.018634864487821628
-0.18653736340777535   -0.017224879055398667   -0.018634864487821628
-0.18653736340777535   -0.017224879055398667   -0.018634864487821628
-0.12057840271925263   0.009442725865368998   0.004322378480729852
-0.12057840271925263   0.009442725865368998   0.004322378480729852
-0.12057840271925263   0.009442725865368998   0.004322378480729852
-0.12057840271925263   0.009442725865368998   0.004322378480729852
-0.12686351465485238   -0.008652472930324631   -0.008525215828966183
-0.12686351465485238   -0.008652472930324631   -0.008525215828966183
-0.12686351465485238   -0.008652472930324631   -0.008525215828966183
-0.12686351465485238   -0.008652472930324631   -0.008525215828966183
-0.19948448482476738   -0.02368781750571812   0.02037470254014052
-0.19948448482476738   -0.02368781750571812   0.02037470254014052
-0.19948448482476738   -0.02368781750571812   0.02037470254014052
-0.19948448482476738   -0.02368781750571812   0.02037470254014052
-0.14531147113489976   -0.005941685952985814   0.020022473917233878
-0.14531147113489976   -0.005941685952985814   0.020022473917233878
-0.14531147113489976   -0.005941685952985814   0.020022473917233878
-0.14531147113489976   -0.005941685952985814   0.020022473917233878
-0.20671762063995527   -0.02567834147487979   -0.013800452566635266
-0.20671762063995527   -0.02567834147487979   -0.013800452566635266
-0.20671762063995527   -0.02567834147487979   -0.013800452566635266
-0.20671762063995527   -0.02567834147487979   -0.013800452566635266
-0.12475020168816771   -0.01178177180966646   0.0051706478837990795
-0.12475020168816771   -0.01178177180966646   0.0051706478837990795
-0.12475020168816771   -0.01178177180966646   0.0051706478837990795
-0.12475020168816771   -0.01178177180966646   0.0051706478837990795
-0.12922631402368587   -0.012327006759698542   -0.0062725755947893175
-0.12922631402368587   -0.012327006759698542   -0.0062725755947893175
-0.12922631402368587   -0.012327006759698542   -0.0062725755947893175
-0.12922631402368587   -0.012327006759698542   -0.0062725755947893175
-0.20643111510759002   -0.03293732770764476   0.00017929527928146546
-0.20643111510759002   -0.03293732770764476   0.00017929527928146546
-0.20643111510759002   -0.03293732770764476   0.00017929527928146546
-0.20643111510759002   -0.03293732770764476   0.00017929527928146546
-0.1617211560868461   -0.019861978004751646   0.00474079738918678
-0.1617211560868461   -0.019861978004751646   0.00474079738918678
-0.1617211560868461   -0.019861978004751646   0.00474079738918678
-0.1617211560868461   -0.019861978004751646   0.00474079738918678
-0.20795234588293282   -0.02907544606133769   -0.011288740243738136
-0.20795234588293282   -0.02907544606133769   -0.011288740243738136
-0.20795234588293282   -0.02907544606133769   -0.011288740243738136
-0.20795234588293282   -0.02907544606133769   -0.011288740243738136
-0.12921483214528587   -0.017698637302948354   -0.000843535659540675
-0.12921483214528587   -0.017698637302948354   -0.000843535659540675
-0.12921483214528587   -0.017698637302948354   -0.000843535659540675
-0.12921483214528587   -0.017698637302948354   -0.000843535659540675
-0.1296975644012726   -0.021044938266851713   -0.004665322875241155
-0.1296975644012726   -0.021044938266851713   -0.004665322875241155
-0.1296975644012726   -0.021044938266851713   -0.004665322875241155
-0.1296975644012726   -0.021044938266851713   -0.004665322875241155
-0.2121030421331281   -0.05002767484293204   0.002812748360463658
-0.2121030421331281   -0.05002767484293204   0.002812748360463658
-0.2121030421331281   -0.05002767484293204   0.002812748360463658
-0.2121030421331281   -0.05002767484293204   0.002812748360463658
-0.16201697803834156   -0.027204380366004508   0.0004956045121401592
-0.16201697803834156   -0.027204380366004508   0.0004956045121401592
-0.16201697803834156   -0.027204380366004508   0.0004956045121401592
-0.16201697803834156   -0.027204380366004508   0.0004956045121401592
-0.13014994845705768   -0.022200513616318994   -0.011892110726606078
-0.13014994845705768   -0.022200513616318994   -0.011892110726606078
-0.13014994845705768   -0.022200513616318994   -0.011892110726606078
-0.13014994845705768   -0.022200513616318994   -0.011892110726606078
-0.09121908326475453   -0.06100099005585258   -0.011338586426719324
-0.09121908326475453   -0.06100099005585258   -0.011338586426719324
-0.09121908326475453   -0.06100099005585258   -0.011338586426719324
-0.09121908326475453   -0.06100099005585258   -0.011338586426719324
-0.0800063544685061   -0.01333911054224013   -0.0008950089438394846
-0.0800063544685061   -0.01333911054224013   -0.0008950089438394846
-0.0800063544685061   -0.01333911054224013   -0.0008950089438394846
-0.0800063544685061   -0.01333911054224013   -0.0008950089438394846
-0.13907595184748173   -0.06414516517037316   -0.014094709552064398
-0.13907595184748173   -0.06414516517037316   -0.014094709552064398
-0.13907595184748173   -0.06414516517037316   -0.014094709552064398
-0.13907595184748173   -0.06414516517037316   -0.014094709552064398
-0.10887958671500296   -0.04251652463452181   -0.0032277575364396535
-0.10887958671500296   -0.04251652463452181   -0.0032277575364396535
-0.10887958671500296   -0.04251652463452181   -0.0032277575364396535
-0.10887958671500296   -0.04251652463452181   -0.0032277575364396535
-0.1302312935860724   -0.025007011050053006   -0.009009572365337518
-0.1302312935860724   -0.025007011050053006   -0.009009572365337518
-0.1302312935860724   -0.025007011050053006   -0.009009572365337518
-0.1302312935860724   -0.025007011050053006   -0.009009572365337518
-0.08936926042068113   -0.05299551235332611   -0.008053136893629732
-0.08936926042068113   -0.05299551235332611   -0.008053136893629732
-0.08936926042068113   -0.05299551235332611   -0.008053136893629732
-0.08936926042068113   -0.05299551235332611   -0.008053136893629732
-0.08127806886713262   -0.017208880081711654   -6.65565528020524e-05
-0.08127806886713262   -0.017208880081711654   -6.65565528020524e-05
-0.08127806886713262   -0.017208880081711654   -6.65565528020524e-05
-0.08127806886713262   -0.017208880081711654   -6.65565528020524e-05
-0.1399165908059529   -0.06378724223999956   -0.008263724025824579
-0.1399165908059529   -0.06378724223999956   -0.008263724025824579
-0.1399165908059529   -0.06378724223999956   -0.008263724025824579
-0.1399165908059529   -0.06378724223999956   -0.008263724025824579
-0.10791627406562561   -0.039844324882565375   -0.003433500899551436
-0.10791627406562561   -0.039844324882565375   -0.003433500899551436
-0.10791627406562561   -0.039844324882565375   -0.003433500899551436
-0.10791627406562561   -0.039844324882565375   -0.003433500899551436
-0.13263399098624842   -0.028828622190362075   -0.006809344976938385
-0.13263399098624842   -0.028828622190362075   -0.006809344976938385
-0.13263399098624842   -0.028828622190362075   -0.006809344976938385
-0.13263399098624842   -0.028828622190362075   -0.006809344976938385
-0.0896678107282182   -0.05327464217273015   -0.005949503767212247
-0.0896678107282182   -0.05327464217273015   -0.005949503767212247
-0.0896678107282182   -0.05327464217273015   -0.005949503767212247
-0.0896678107282182   -0.05327464217273015   -0.005949503767212247
-0.08166068720898237   -0.021941856248217373   0.001116765284756642
-0.08166068720898237   -0.021941856248217373   0.001116765284756642
-0.08166068720898237   -0.021941856248217373   0.001116765284756642
-0.08166068720898237   -0.021941856248217373   0.001116765284756642
-0.13994696644948723   -0.0645891969361468   -0.012368074447020637
-0.13994696644948723   -0.0645891969361468   -0.012368074447020637
-0.13994696644948723   -0.0645891969361468   -0.012368074447020637
-0.13994696644948723   -0.0645891969361468   -0.012368074447020637
-0.10994420024644787   -0.04277601112219863   -0.006418279058128343
-0.10994420024644787   -0.04277601112219863   -0.006418279058128343
-0.10994420024644787   -0.04277601112219863   -0.006418279058128343
-0.10994420024644787   -0.04277601112219863   -0.006418279058128343
-0.07984423201732391   -0.014392131583553205   -0.0010731886618656292
-0.07984423201732391   -0.014392131583553205   -0.0010731886618656292
-0.07984423201732391   -0.014392131583553205   -0.0010731886618656292
-0.07984423201732391   -0.014392131583553205   -0.0010731886618656292
-0.06879468487290215   -0.047051894121709126   -0.00811774988678799
-0.06879468487290215   -0.047051894121709126   -0.00811774988678799
-0.06879468487290215   -0.047051894121709126   -0.00811774988678799
-0.06879468487290215   -0.047051894121709126   -0.00811774988678799
-0.05937195709993485   -0.012240543665836899   0.0030516538371532422
-0.05937195709993485   -0.012240543665836899   0.0030516538371532422
-0.05937195709993485   -0.012240543665836899   0.0030516538371532422
-0.05937195709993485   -0.012240543665836899   0.0030516538371532422
-0.0890659460261735   -0.05068693025548752   -0.00884514701893016
-0.0890659460261735   -0.05068693025548752   -0.00884514701893016
-0.0890659460261735   -0.05068693025548752   -0.00884514701893016
-0.0890659460261735   -0.05068693025548752   -0.00884514701893016
-0.07396671618885585   -0.031463309727084166   -0.003711890733263519
-0.07396671618885585   -0.031463309727084166   -0.003711890733263519
-0.07396671618885585   -0.031463309727084166   -0.003711890733263519
-0.07396671618885585   -0.031463309727084166   -0.003711890733263519
-0.0805510477948538   -0.01706517482984597   0.00010758871202684058
-0.0805510477948538   -0.01706517482984597   0.00010758871202684058
-0.0805510477948538   -0.01706517482984597   0.00010758871202684058
-0.0805510477948538   -0.01706517482984597   0.00010758871202684058
-0.06835984934914702   -0.04633529310937091   -0.007793057965373593
-0.06835984934914702   -0.04633529310937091   -0.007793057965373593
-0.06835984934914702   -0.04633529310937091   -0.007793057965373593
-0.06835984934914702   -0.04633529310937091   -0.007793057965373593
-0.05972811677945022   -0.015434570499986523   0.003980937154276073
-0.05972811677945022   -0.015434570499986523   0.003980937154276073
-0.05972811677945022   -0.015434570499986523   0.003980937154276073
-0.05972811677945022   -0.015434570499986523   0.003980937154276073
-0.08968261068229827   -0.051484534362545735   -0.007813611347797102
-0.08968261068229827   -0.051484534362545735   -0.007813611347797102
-0.08968261068229827   -0.051484534362545735   -0.007813611347797102
-0.08968261068229827   -0.051484534362545735   -0.007813611347797102
-0.07412109578990701   -0.03261904205872202   -0.004825302352007763
-0.07412109578990701   -0.03261904205872202   -0.004825302352007763
-0.07412109578990701   -0.03261904205872202   -0.004825302352007763
-0.07412109578990701   -0.03261904205872202   -0.004825302352007763
-0.08159438521102053   -0.020312846073288857   0.0014558277193347188
-0.08159438521102053   -0.020312846073288857   0.0014558277193347188
-0.08159438521102053   -0.020312846073288857   0.0014558277193347188
-0.08159438521102053   -0.020312846073288857   0.0014558277193347188
-0.06808154781944534   -0.04687146435796015   -0.0063493241877240324
-0.06808154781944534   -0.04687146435796015   -0.0063493241877240324
-0.06808154781944534   -0.04687146435796015   -0.0063493241877240324
-0.06808154781944534   -0.04687146435796015   -0.0063493241877240324
-0.059404370016677824   -0.01843953388056027   0.005005799150777119
-0.059404370016677824   -0.01843953388056027   0.005005799150777119
-0.059404370016677824   -0.01843953388056027   0.005005799150777119
-0.059404370016677824   -0.01843953388056027   0.005005799150777119
-0.08901759745186984   -0.052037591250417944   -0.005572050927480162
-0.08901759745186984   -0.052037591250417944   -0.005572050927480162
-0.08901759745186984   -0.052037591250417944   -0.005572050927480162
-0.08901759745186984   -0.052037591250417944   -0.005572050927480162
-0.0742735232564641   -0.03419829407319854   -0.005649008271905219
-0.0742735232564641   -0.03419829407319854   -0.005649008271905219
-0.0742735232564641   -0.03419829407319854   -0.005649008271905219
-0.0742735232564641   -0.03419829407319854   -0.005649008271905219
-0.05701347339671424   -0.0018625382821020036   0.005598951654544392
-0.05701347339671424   -0.0018625382821020036   0.005598951654544392
-0.05701347339671424   -0.0018625382821020036   0.005598951654544392
-0.05701347339671424   -0.0018625382821020036   0.005598951654544392
-0.05574248719424267   -0.02527983277547721   -0.0050279977333591
-0.05574248719424267   -0.02527983277547721   -0.0050279977333591
-0.05574248719424267   -0.02527983277547721   -0.0050279977333591
-0.05574248719424267   -0.02527983277547721   -0.0050279977333591
-0.048390820884727195   -0.0036450437746318428   0.006426420317733127
-0.048390820884727195   -0.0036450437746318428   0.006426420317733127
-0.048390820884727195   -0.0036450437746318428   0.006426420317733127
-0.048390820884727195   -0.0036450437746318428   0.006426420317733127
-0.063979924180321   -0.028736921922237032   -0.003491803308377381
-0.063979924180321   -0.028736921922237032   -0.003491803308377381
-0.063979924180321   -0.028736921922237032   -0.003491803308377381
-0.063979924180321   -0.028736921922237032   -0.003491803308377381
-0.056454766039747487   -0.014713405208847884   -0.0020335178534100266
-0.056454766039747487   -0.014713405208847884   -0.0020335178534100266
-0.056454766039747487   -0.014713405208847884   -0.0020335178534100266
-0.056454766039747487   -0.014713405208847884   -0.0020335178534100266
-0.057326501552183926   -0.005424821991379686   0.0064632099014506495
-0.057326501552183926   -0.005424821991379686   0.0064632099014506495
-0.057326501552183926   -0.005424821991379686   0.0064632099014506495
-0.057326501552183926   -0.005424821991379686   0.0064632099014506495
-0.055567063388664864   -0.02747996358128979   -0.005619872395297303
-0.055567063388664864   -0.02747996358128979   -0.005619872395297303
-0.055567063388664864   -0.02747996358128979   -0.005619872395297303
-0.055567063388664864   -0.02747996358128979   -0.005619872395297303
-0.04877987968636726   -0.0067810809517094865   0.00693146101106861
-0.04877987968636726   -0.0067810809517094865   0.00693146101106861
-0.04877987968636726   -0.0067810809517094865   0.00693146101106861
-0.04877987968636726   -0.0067810809517094865   0.00693146101106861
-0.06430310024866104   -0.03051158430696857   -0.0038169663847959587
-0.06430310024866104   -0.03051158430696857   -0.0038169663847959587
-0.06430310024866104   -0.03051158430696857   -0.0038169663847959587
-0.06430310024866104   -0.03051158430696857   -0.0038169663847959587
-0.05650352266255274   -0.017201816620233526   -0.003482027236689303
-0.05650352266255274   -0.017201816620233526   -0.003482027236689303
-0.05650352266255274   -0.017201816620233526   -0.003482027236689303
-0.05650352266255274   -0.017201816620233526   -0.003482027236689303
-0.05766288270212709   -0.008474555290745117   0.007347092331650296
-0.05766288270212709   -0.008474555290745117   0.007347092331650296
-0.05766288270212709   -0.008474555290745117   0.007347092331650296
-0.05766288270212709   -0.008474555290745117   0.007347092331650296
-0.055738236127912184   -0.02913624886294392   -0.005505153285421565
-0.055738236127912184   -0.02913624886294392   -0.005505153285421565
-0.055738236127912184   -0.02913624886294392   -0.005505153285421565
-0.055738236127912184   -0.02913624886294392   -0.005505153285421565
-0.04871004056367104   -0.00973815767475159   0.00804734832761249
-0.04871004056367104   -0.00973815767475159   0.00804734832761249
-0.04871004056367104   -0.00973815767475159   0.00804734832761249
-0.04871004056367104   -0.00973815767475159   0.00804734832761249
-0.0636787550546284   -0.03225932263030616   -0.0025463372892299005
-0.0636787550546284   -0.03225932263030616   -0.0025463372892299005
-0.0636787550546284   -0.03225932263030616   -0.0025463372892299005
-0.0636787550546284   -0.03225932263030616   -0.0025463372892299005
-0.0567004767622215   -0.01940095825606914   -0.004533896394809986
-0.0567004767622215   -0.01940095825606914   -0.004533896394809986
-0.0567004767622215   -0.01940095825606914   -0.004533896394809986
-0.0567004767622215   -0.01940095825606914   -0.004533896394809986
-0.046579235027853085   0.006658903399231066   0.008849526923880531
-0.046579235027853085   0.006658903399231066   0.008849526923880531
-0.046579235027853085   0.006658903399231066   0.008849526923880531
-0.046579235027853085   0.006658903399231066   0.008849526923880531
-0.03345087425421643   -0.008590396363718054   -0.0032154982393810647
-0.03345087425421643   -0.008590396363718054   -0.0032154982393810647
-0.03345087425421643   -0.008590396363718054   -0.0032154982393810647
-0.03345087425421643   -0.008590396363718054   -0.0032154982393810647
-0.02989212058411832   0.007342612399594455   0.008782938416855396
-0.02989212058411832   0.007342612399594455   0.008782938416855396
-0.02989212058411832   0.007342612399594455   0.008782938416855396
-0.02989212058411832   0.007342612399594455   0.008782938416855396
-0.051792579147486466   -0.012537804334818865   -0.0016896104358762169
-0.051792579147486466   -0.012537804334818865   -0.0016896104358762169
-0.051792579147486466   -0.012537804334818865   -0.0016896104358762169
-0.051792579147486466   -0.012537804334818865   -0.0016896104358762169
-0.039771021164040694   -0.0008902609851129343   -0.0014549867431158723
-0.039771021164040694   -0.0008902609851129343   -0.0014549867431158723
-0.039771021164040694   -0.0008902609851129343   -0.0014549867431158723
-0.039771021164040694   -0.0008902609851129343   -0.0014549867431158723
-0.04616118966712766   0.00426509785486711   0.009664434776231851
-0.04616118966712766   0.00426509785486711   0.009664434776231851
-0.04616118966712766   0.00426509785486711   0.009664434776231851
-0.04616118966712766   0.00426509785486711   0.009664434776231851
-0.03560109816520194   -0.009537877890817609   -0.0028814591981544675
-0.03560109816520194   -0.009537877890817609   -0.0028814591981544675
-0.03560109816520194   -0.009537877890817609   -0.0028814591981544675
-0.03560109816520194   -0.009537877890817609   -0.0028814591981544675
-0.03146717087122988   0.005760181335424587   0.011026253919131417
-0.03146717087122988   0.005760181335424587   0.011026253919131417
-0.03146717087122988   0.005760181335424587   0.011026253919131417
-0.03146717087122988   0.005760181335424587   0.011026253919131417
-0.0519036472990882   -0.013397717952601262   -0.0020707400516443127
-0.0519036472990882   -0.013397717952601262   -0.0020707400516443127
-0.0519036472990882   -0.013397717952601262   -0.0020707400516443127
-0.0519036472990882   -0.013397717952601262   -0.0020707400516443127
-0.041313079196928636   -0.0026088879486427744   -0.0022467823237052485
-0.041313079196928636   -0.0026088879486427744   -0.0022467823237052485
-0.041313079196928636   -0.0026088879486427744   -0.0022467823237052485
-0.041313079196928636   -0.0026088879486427744   -0.0022467823237052485
-0.046015130581059945   0.0028668031056755545   0.011107322480220139
-0.046015130581059945   0.0028668031056755545   0.011107322480220139
-0.046015130581059945   0.0028668031056755545   0.011107322480220139
-0.046015130581059945   0.0028668031056755545   0.011107322480220139
-0.03775922968823318   -0.010907881821827588   -0.003765977008632873
-0.03775922968823318   -0.010907881821827588   -0.003765977008632873
-0.03775922968823318   -0.010907881821827588   -0.003765977008632873
-0.03775922968823318   -0.010907881821827588   -0.003765977008632873
-0.03587911333884872   0.0013962558505555235   0.011479461936528736
-0.03587911333884872   0.0013962558505555235   0.011479461936528736
-0.03587911333884872   0.0013962558505555235   0.011479461936528736
-0.03587911333884872   0.0013962558505555235   0.011479461936528736
-0.051567924885954096   -0.014280324745094303   -0.001699906213460061
-0.051567924885954096   -0.014280324745094303   -0.001699906213460061
-0.051567924885954096   -0.014280324745094303   -0.001699906213460061
-0.051567924885954096   -0.014280324745094303   -0.001699906213460061
-0.04218829510154356   -0.003916280395165097   -0.003409679772087589
-0.04218829510154356   -0.003916280395165097   -0.003409679772087589
-0.04218829510154356   -0.003916280395165097   -0.003409679772087589
-0.04218829510154356   -0.003916280395165097   -0.003409679772087589
-0.45355674696623727   -0.06578943328914108   -0.038860073044837816
-0.45355674696623727   -0.06578943328914108   -0.038860073044837816
-0.45355674696623727   -0.06578943328914108   -0.038860073044837816
-0.45355674696623727   -0.06578943328914108   -0.038860073044837816
-0.1594862758055929   -0.2672037827442917   -0.030099270037871953
-0.1594862758055929   -0.2672037827442917   -0.030099270037871953
-0.1594862758055929   -0.2672037827442917   -0.030099270037871953
-0.1594862758055929   -0.2672037827442917   -0.030099270037871953
-0.12098139959014056   -0.01207447310429744   -6.166068738100655e-05
-0.12098139959014056   -0.01207447310429744   -6.166068738100655e-05
-0.12098139959014056   -0.01207447310429744   -6.166068738100655e-05
-0.12098139959014056   -0.01207447310429744   -6.166068738100655e-05
-0.4886760459683914   -0.3106209505603875   -0.1598593993057558
-0.4886760459683914   -0.3106209505603875   -0.1598593993057558
-0.4886760459683914   -0.3106209505603875   -0.1598593993057558
-0.4886760459683914   -0.3106209505603875   -0.1598593993057558
-0.2979511636206685   -0.1540398900174555   -0.02250845166933837
-0.2979511636206685   -0.1540398900174555   -0.02250845166933837
-0.2979511636206685   -0.1540398900174555   -0.02250845166933837
-0.2979511636206685   -0.1540398900174555   -0.02250845166933837
-0.4217035503297536   -0.08277512120777947   -0.05284275046517809
-0.4217035503297536   -0.08277512120777947   -0.05284275046517809
-0.4217035503297536   -0.08277512120777947   -0.05284275046517809
-0.4217035503297536   -0.08277512120777947   -0.05284275046517809
-0.1728965799989549   -0.2248629872270824   -0.046849048608666774
-0.1728965799989549   -0.2248629872270824   -0.046849048608666774
-0.1728965799989549   -0.2248629872270824   -0.046849048608666774
-0.1728965799989549   -0.2248629872270824   -0.046849048608666774
-0.12401334893160317   -0.015577873925931893   0.004558798011858923
-0.12401334893160317   -0.015577873925931893   0.004558798011858923
-0.12401334893160317   -0.015577873925931893   0.004558798011858923
-0.12401334893160317   -0.015577873925931893   0.004558798011858923
-0.45768352393631717   -0.2789682388682018   -0.1473303525609038
-0.45768352393631717   -0.2789682388682018   -0.1473303525609038
-0.45768352393631717   -0.2789682388682018   -0.1473303525609038
-0.45768352393631717   -0.2789682388682018   -0.1473303525609038
-0.28096156283637397   -0.1395156397669174   0.010897485951309422
-0.28096156283637397   -0.1395156397669174   0.010897485951309422
-0.28096156283637397   -0.1395156397669174   0.010897485951309422
-0.28096156283637397   -0.1395156397669174   0.010897485951309422
-0.39615091516341366   -0.07887021357298662   -0.039765333991604285
-0.39615091516341366   -0.07887021357298662   -0.039765333991604285
-0.39615091516341366   -0.07887021357298662   -0.039765333991604285
-0.39615091516341366   -0.07887021357298662   -0.039765333991604285
-0.16875270907799703   -0.19888265059463775   -0.03583322605140347
-0.16875270907799703   -0.19888265059463775   -0.03583322605140347
-0.16875270907799703   -0.19888265059463775   -0.03583322605140347
-0.16875270907799703   -0.19888265059463775   -0.03583322605140347
-0.14389885867577099   -0.0385390734630864   -0.007948428197665286
-0.14389885867577099   -0.0385390734630864   -0.007948428197665286
-0.14389885867577099   -0.0385390734630864   -0.007948428197665286
-0.14389885867577099   -0.0385390734630864   -0.007948428197665286
-0.41738402290585275   -0.23690754088083482   -0.1308583127573375
-0.41738402290585275   -0.23690754088083482   -0.1308583127573375
-0.41738402290585275   -0.23690754088083482   -0.1308583127573375
-0.41738402290585275   -0.23690754088083482   -0.1308583127573375
-0.26062550434016163   -0.12141692206907001   0.04881228871783802
-0.26062550434016163   -0.12141692206907001   0.04881228871783802
-0.26062550434016163   -0.12141692206907001   0.04881228871783802
-0.26062550434016163   -0.12141692206907001   0.04881228871783802
-0.11501183423963648   -0.06539832662996797   -0.009532518322414293
-0.11501183423963648   -0.06539832662996797   -0.009532518322414293
-0.11501183423963648   -0.06539832662996797   -0.009532518322414293
-0.11501183423963648   -0.06539832662996797   -0.009532518322414293
-0.05504208588030877   -0.08976436609237731   -0.013688463145575957
-0.05504208588030877   -0.08976436609237731   -0.013688463145575957
-0.05504208588030877   -0.08976436609237731   -0.013688463145575957
-0.05504208588030877   -0.08976436609237731   -0.013688463145575957
-0.04739046719998483   -0.04277464517810365   0.0010724057617843633
-0.04739046719998483   -0.04277464517810365   0.0010724057617843633
-0.04739046719998483   -0.04277464517810365   0.0010724057617843633
-0.04739046719998483   -0.04277464517810365   0.0010724057617843633
-0.14380576371279677   -0.12727961944542002   0.001021665040461587
-0.14380576371279677   -0.12727961944542002   0.001021665040461587
-0.14380576371279677   -0.12727961944542002   0.001021665040461587
-0.14380576371279677   -0.12727961944542002   0.001021665040461587
-0.0763971293478537   -0.06122948554233721   0.025138839443738178
-0.0763971293478537   -0.06122948554233721   0.025138839443738178
-0.0763971293478537   -0.06122948554233721   0.025138839443738178
-0.0763971293478537   -0.06122948554233721   0.025138839443738178
-0.1320140782317546   -0.06114479494730362   -0.006154732052445709
-0.1320140782317546   -0.06114479494730362   -0.006154732052445709
-0.1320140782317546   -0.06114479494730362   -0.006154732052445709
-0.1320140782317546   -0.06114479494730362   -0.006154732052445709
-0.06344699913399351   -0.11317431612918702   -0.008810582957176662
-0.06344699913399351   -0.11317431612918702   -0.008810582957176662
-0.06344699913399351   -0.11317431612918702   -0.008810582957176662
-0.06344699913399351   -0.11317431612918702   -0.008810582957176662
-0.05173355806804367   -0.04425340591431311   0.0012224248647003597
-0.05173355806804367   -0.04425340591431311   0.0012224248647003597
-0.05173355806804367   -0.04425340591431311   0.0012224248647003597
-0.05173355806804367   -0.04425340591431311   0.0012224248647003597
-0.15165799810779396   -0.12634465584167315   -0.022897665953352686
-0.15165799810779396   -0.12634465584167315   -0.022897665953352686
-0.15165799810779396   -0.12634465584167315   -0.022897665953352686
-0.15165799810779396   -0.12634465584167315   -0.022897665953352686
-0.09215591658004336   -0.0779110645250114   0.010974042585424667
-0.09215591658004336   -0.0779110645250114   0.010974042585424667
-0.09215591658004336   -0.0779110645250114   0.010974042585424667
-0.09215591658004336   -0.0779110645250114   0.010974042585424667
-0.13690282112185903   -0.06385419239257227   -0.011612244472780068
-0.13690282112185903   -0.06385419239257227   -0.011612244472780068
-0.13690282112185903   -0.06385419239257227   -0.011612244472780068
-0.13690282112185903   -0.06385419239257227   -0.011612244472780068
-0.06611921939825617   -0.10637435370769176   -0.008584933992983476
-0.06611921939825617   -0.10637435370769176   -0.008584933992983476
-0.06611921939825617   -0.10637435370769176   -0.008584933992983476
-0.06611921939825617   -0.10637435370769176   -0.008584933992983476
-0.058605239529417624   -0.04548296758469829   0.0018213453901542755
-0.058605239529417624   -0.04548296758469829   0.0018213453901542755
-0.058605239529417624   -0.04548296758469829   0.0018213453901542755
-0.058605239529417624   -0.04548296758469829   0.0018213453901542755
-0.16317390830326292   -0.12326817835056823   -0.019594571447642668
-0.16317390830326292   -0.12326817835056823   -0.019594571447642668
-0.16317390830326292   -0.12326817835056823   -0.019594571447642668
-0.16317390830326292   -0.12326817835056823   -0.019594571447642668
-0.09716563390562899   -0.07355084238858993   0.0115092717278918
-0.09716563390562899   -0.07355084238858993   0.0115092717278918
-0.09716563390562899   -0.07355084238858993   0.0115092717278918
-0.09716563390562899   -0.07355084238858993   0.0115092717278918
-0.0416583497397893   -0.039423255687333444   0.0028891071519775487
-0.0416583497397893   -0.039423255687333444   0.0028891071519775487
-0.0416583497397893   -0.039423255687333444   0.0028891071519775487
-0.0416583497397893   -0.039423255687333444   0.0028891071519775487
-0.02699343333299508   -0.030795029274612345   -0.006823646464280364
-0.02699343333299508   -0.030795029274612345   -0.006823646464280364
-0.02699343333299508   -0.030795029274612345   -0.006823646464280364
-0.02699343333299508   -0.030795029274612345   -0.006823646464280364
-0.02564303894069162   -0.0356757581352145   0.002787806496953038
-0.02564303894069162   -0.0356757581352145   0.002787806496953038
-0.02564303894069162   -0.0356757581352145   0.002787806496953038
-0.02564303894069162   -0.0356757581352145   0.002787806496953038
-0.04762950880135652   -0.04053697742655724   -0.002360469996621468
-0.04762950880135652   -0.04053697742655724   -0.002360469996621468
-0.04762950880135652   -0.04053697742655724   -0.002360469996621468
-0.04762950880135652   -0.04053697742655724   -0.002360469996621468
-0.029779626181882367   -0.03072742642574048   0.012729381008421576
-0.029779626181882367   -0.03072742642574048   0.012729381008421576
-0.029779626181882367   -0.03072742642574048   0.012729381008421576
-0.029779626181882367   -0.03072742642574048   0.012729381008421576
-0.046356936458938396   -0.03973584673372674   0.0032012610226386518
-0.046356936458938396   -0.03973584673372674   0.0032012610226386518
-0.046356936458938396   -0.03973584673372674   0.0032012610226386518
-0.046356936458938396   -0.03973584673372674   0.0032012610226386518
-0.027439293709064422   -0.03700057125399969   -0.004868654226125803
-0.027439293709064422   -0.03700057125399969   -0.004868654226125803
-0.027439293709064422   -0.03700057125399969   -0.004868654226125803
-0.027439293709064422   -0.03700057125399969   -0.004868654226125803
-0.026299719977041204   -0.03673752983932309   0.0025385205630571502
-0.026299719977041204   -0.03673752983932309   0.0025385205630571502
-0.026299719977041204   -0.03673752983932309   0.0025385205630571502
-0.026299719977041204   -0.03673752983932309   0.0025385205630571502
-0.05114101379806663   -0.046961447529644776   0.006893187829917208
-0.05114101379806663   -0.046961447529644776   0.006893187829917208
-0.05114101379806663   -0.046961447529644776   0.006893187829917208
-0.05114101379806663   -0.046961447529644776   0.006893187829917208
-0.03299785978361375   -0.034362344729637555   0.010416122260577504
-0.03299785978361375   -0.034362344729637555   0.010416122260577504
-0.03299785978361375   -0.034362344729637555   0.010416122260577504
-0.03299785978361375   -0.034362344729637555   0.010416122260577504
-0.050515486271120374   -0.04123042635312467   0.004289804288128408
-0.050515486271120374   -0.04123042635312467   0.004289804288128408
-0.050515486271120374   -0.04123042635312467   0.004289804288128408
-0.050515486271120374   -0.04123042635312467   0.004289804288128408
-0.029260397564522957   -0.04480370107637869   -0.00419869613729602
-0.029260397564522957   -0.04480370107637869   -0.00419869613729602
-0.029260397564522957   -0.04480370107637869   -0.00419869613729602
-0.029260397564522957   -0.04480370107637869   -0.00419869613729602
-0.027254972254697328   -0.037846457568879055   0.003620992283041769
-0.027254972254697328   -0.037846457568879055   0.003620992283041769
-0.027254972254697328   -0.037846457568879055   0.003620992283041769
-0.027254972254697328   -0.037846457568879055   0.003620992283041769
-0.060786718807096345   -0.056937879541437086   0.0023688609584994677
-0.060786718807096345   -0.056937879541437086   0.0023688609584994677
-0.060786718807096345   -0.056937879541437086   0.0023688609584994677
-0.060786718807096345   -0.056937879541437086   0.0023688609584994677
-0.03749978749378752   -0.03887758688716305   0.004409418178073813
-0.03749978749378752   -0.03887758688716305   0.004409418178073813
-0.03749978749378752   -0.03887758688716305   0.004409418178073813
-0.03749978749378752   -0.03887758688716305   0.004409418178073813
-0.02109804517185799   -0.015811409842474918   0.007669674909267669
-0.02109804517185799   -0.015811409842474918   0.007669674909267669
-0.02109804517185799   -0.015811409842474918   0.007669674909267669
-0.02109804517185799   -0.015811409842474918   0.007669674909267669
-0.015982600272849198   -0.0025726817084652893   -0.0016081886837328986
-0.015982600272849198   -0.0025726817084652893   -0.0016081886837328986
-0.015982600272849198   -0.0025726817084652893   -0.0016081886837328986
-0.015982600272849198   -0.0025726817084652893   -0.0016081886837328986
-0.015082827896224822   -0.017319960278619102   0.004695908625616089
-0.015082827896224822   -0.017319960278619102   0.004695908625616089
-0.015082827896224822   -0.017319960278619102   0.004695908625616089
-0.015082827896224822   -0.017319960278619102   0.004695908625616089
-0.020323160632289273   -0.005798311689194177   -0.0004902484070555629
-0.020323160632289273   -0.005798311689194177   -0.0004902484070555629
-0.020323160632289273   -0.005798311689194177   -0.0004902484070555629
-0.020323160632289273   -0.005798311689194177   -0.0004902484070555629
-0.016693906654268925   -0.009709080451350448   0.0037979931269034647
-0.016693906654268925   -0.009709080451350448   0.0037979931269034647
-0.016693906654268925   -0.009709080451350448   0.0037979931269034647
-0.016693906654268925   -0.009709080451350448   0.0037979931269034647
-0.021210666763979074   -0.018024939940194096   0.007298849185495358
-0.021210666763979074   -0.018024939940194096   0.007298849185495358
-0.021210666763979074   -0.018024939940194096   0.007298849185495358
-0.021210666763979074   -0.018024939940194096   0.007298849185495358
-0.013883328099760606   -0.004781338362844766   -0.001845214307837172
-0.013883328099760606   -0.004781338362844766   -0.001845214307837172
-0.013883328099760606   -0.004781338362844766   -0.001845214307837172
-0.013883328099760606   -0.004781338362844766   -0.001845214307837172
-0.014157849201959689   -0.018841196030217874   0.004389723952258093
-0.014157849201959689   -0.018841196030217874   0.004389723952258093
-0.014157849201959689   -0.018841196030217874   0.004389723952258093
-0.014157849201959689   -0.018841196030217874   0.004389723952258093
-0.020904523438294728   -0.009217867217801375   0.001994840635267805
-0.020904523438294728   -0.009217867217801375   0.001994840635267805
-0.020904523438294728   -0.009217867217801375   0.001994840635267805
-0.020904523438294728   -0.009217867217801375   0.001994840635267805
-0.01573527376824648   -0.011220359197487359   0.004249052551474526
-0.01573527376824648   -0.011220359197487359   0.004249052551474526
-0.01573527376824648   -0.011220359197487359   0.004249052551474526
-0.01573527376824648   -0.011220359197487359   0.004249052551474526
-0.02169054589435392   -0.019546923276428218   0.008393784413600613
-0.02169054589435392   -0.019546923276428218   0.008393784413600613
-0.02169054589435392   -0.019546923276428218   0.008393784413600613
-0.02169054589435392   -0.019546923276428218   0.008393784413600613
-0.013578776515181027   -0.008719089740871244   -0.0028370189031952345
-0.013578776515181027   -0.008719089740871244   -0.0028370189031952345
-0.013578776515181027   -0.008719089740871244   -0.0028370189031952345
-0.013578776515181027   -0.008719089740871244   -0.0028370189031952345
-0.012436681415476953   -0.02052620724864484   0.004877165979925275
-0.012436681415476953   -0.02052620724864484   0.004877165979925275
-0.012436681415476953   -0.02052620724864484   0.004877165979925275
-0.012436681415476953   -0.02052620724864484   0.004877165979925275
-0.023306048904242524   -0.01702813528633255   0.0025472867527693037
-0.023306048904242524   -0.01702813528633255   0.0025472867527693037
-0.023306048904242524   -0.01702813528633255   0.0025472867527693037
-0.023306048904242524   -0.01702813528633255   0.0025472867527693037
-0.015664026884523622   -0.013991198465831878   0.0033366244898460173
-0.015664026884523622   -0.013991198465831878   0.0033366244898460173
-0.015664026884523622   -0.013991198465831878   0.0033366244898460173
-0.015664026884523622   -0.013991198465831878   0.0033366244898460173
-0.014073988995014521   -0.0024995687205056696   0.00786175471748086
-0.014073988995014521   -0.0024995687205056696   0.00786175471748086
-0.014073988995014521   -0.0024995687205056696   0.00786175471748086
-0.014073988995014521   -0.0024995687205056696   0.00786175471748086
-0.0033415851719488633   0.0011760178674939054   -0.0001595443849683215
-0.0033415851719488633   0.0011760178674939054   -0.0001595443849683215
-0.0033415851719488633   0.0011760178674939054   -0.0001595443849683215
-0.0033415851719488633   0.0011760178674939054   -0.0001595443849683215
-0.0002134136548258091   -0.0008896192900663944   0.004972149295227392
-0.0002134136548258091   -0.0008896192900663944   0.004972149295227392
-0.0002134136548258091   -0.0008896192900663944   0.004972149295227392
-0.0002134136548258091   -0.0008896192900663944   0.004972149295227392
-0.012499675984804004   0.0005739794904432213   -0.00028227158634214623
-0.012499675984804004   0.0005739794904432213   -0.00028227158634214623
-0.012499675984804004   0.0005739794904432213   -0.00028227158634214623
-0.012499675984804004   0.0005739794904432213   -0.00028227158634214623
-0.007608331029949435   -0.0006691437175835356   -0.0005137675318821254
-0.007608331029949435   -0.0006691437175835356   -0.0005137675318821254
-0.007608331029949435   -0.0006691437175835356   -0.0005137675318821254
-0.007608331029949435   -0.0006691437175835356   -0.0005137675318821254
-0.011412195467207896   -0.002481652844310292   0.00821076333638999
-0.011412195467207896   -0.002481652844310292   0.00821076333638999
-0.011412195467207896   -0.002481652844310292   0.00821076333638999
-0.011412195467207896   -0.002481652844310292   0.00821076333638999
-0.0009019361055025022   0.0025649711116062144   -0.001925053359828683
-0.0009019361055025022   0.0025649711116062144   -0.001925053359828683
-0.0009019361055025022   0.0025649711116062144   -0.001925053359828683
-0.0009019361055025022   0.0025649711116062144   -0.001925053359828683
0.0011526086252735977   -0.0011426533435200132   0.006148327069400136
0.0011526086252735977   -0.0011426533435200132   0.006148327069400136
0.0011526086252735977   -0.0011426533435200132   0.006148327069400136
0.0011526086252735977   -0.0011426533435200132   0.006148327069400136
-0.01133960339082265   1.6632226005024522e-05   -0.0003768752482796227
-0.01133960339082265   1.6632226005024522e-05   -0.0003768752482796227
-0.01133960339082265   1.6632226005024522e-05   -0.0003768752482796227
-0.01133960339082265   1.6632226005024522e-05   -0.0003768752482796227
-0.0055191324630578485   -0.00036964079063579215   0.0006820972873399019
-0.0055191324630578485   -0.00036964079063579215   0.0006820972873399019
-0.0055191324630578485   -0.00036964079063579215   0.0006820972873399019
-0.0055191324630578485   -0.00036964079063579215   0.0006820972873399019
-0.01005647664310446   -0.0028358813898436497   0.00889127210616001
-0.01005647664310446   -0.0028358813898436497   0.00889127210616001
-0.01005647664310446   -0.0028358813898436497   0.00889127210616001
-0.01005647664310446   -0.0028358813898436497   0.00889127210616001
0.00018974401231223418   0.002030122407085489   -0.0018387717460121846
0.00018974401231223418   0.002030122407085489   -0.0018387717460121846
0.00018974401231223418   0.002030122407085489   -0.0018387717460121846
0.00018974401231223418   0.002030122407085489   -0.0018387717460121846
0.002352318206970983   -0.0019465761425655898   0.0060485937062603355
0.002352318206970983   -0.0019465761425655898   0.0060485937062603355
0.002352318206970983   -0.0019465761425655898   0.0060485937062603355
0.002352318206970983   -0.0019465761425655898   0.0060485937062603355
-0.009498349061934567   -0.0005668866971966224   -0.0003904928038110184
-0.009498349061934567   -0.0005668866971966224   -0.0003904928038110184
-0.009498349061934567   -0.0005668866971966224   -0.0003904928038110184
-0.009498349061934567   -0.0005668866971966224   -0.0003904928038110184
-0.0037309098400040773   -0.00031743081901571294   0.0016266556488369747
-0.0037309098400040773   -0.00031743081901571294   0.0016266556488369747
-0.0037309098400040773   -0.00031743081901571294   0.0016266556488369747
-0.0037309098400040773   -0.00031743081901571294   0.0016266556488369747
              </DataArray>   
             <DataArray type="Float64" NumberOfComponents="3" Name="Displacements" format="ascii">   
0.0   0.0   0.0
-0.0012764379319285583   -0.0008472885273222322   -0.00042820432395452326
0.0   0.0   0.0
0.0   0.0   0.0
-0.0012764379319285583   -0.0008472885273222322   -0.00042820432395452326
-0.0008112765137483199   -0.0007632067323966301   -0.00031471834524172216
0.0   0.0   0.0
-0.000794580171461082   -0.0008009323085241632   -0.0002638752789495392
0.0   0.0   0.0
0.0   0.0   0.0
-0.000794580171461082   -0.0008009323085241632   -0.0002638752789495392
0.0   0.0   0.0
0.0   0.0   0.0
-0.000794580171461082   -0.0008009323085241632   -0.0002638752789495392
-0.001335046540041525   -0.0009021978842275359   -0.00034410226122321195
-0.0012764379319285583   -0.0008472885273222322   -0.00042820432395452326
0.0   0.0   0.0
-0.000794580171461082   -0.0008009323085241632   -0.0002638752789495392
-0.0012764379319285583   -0.0008472885273222322   -0.00042820432395452326
0.0   0.0   0.0
0.0   0.0   0.0
-0.001335046540041525   -0.0009021978842275359   -0.00034410226122321195
0.0   0.0   0.0
0.0   0.0   0.0
-0.001335046540041525   -0.0009021978842275359   -0.00034410226122321195
-0.000794580171461082   -0.0008009323085241632   -0.0002638752789495392
0.0   0.0   0.0
-0.0007961160905698117   -0.000820346575150894   -0.00021318582121915747
0.0   0.0   0.0
0.0   0.0   0.0
-0.0007961160905698117   -0.000820346575150894   -0.00021318582121915747
0.0   0.0   0.0
0.0   0.0   0.0
-0.0007961160905698117   -0.000820346575150894   -0.00021318582121915747
-0.0013758831684198632   -0.0009289362856759397   -0.0002636719500579198
-0.001335046540041525   -0.0009021978842275359   -0.00034410226122321195
0.0   0.0   0.0
-0.0007961160905698117   -0.000820346575150894   -0.00021318582121915747
-0.001335046540041525   -0.0009021978842275359   -0.00034410226122321195
0.0   0.0   0.0
0.0   0.0   0.0
-0.0013758831684198632   -0.0009289362856759397   -0.0002636719500579198
0.0   0.0   0.0
0.0   0.0   0.0
-0.0013758831684198632   -0.0009289362856759397   -0.0002636719500579198
-0.0007961160905698117   -0.000820346575150894   -0.00021318582121915747
0.0   0.0   0.0
-0.0007949029728295261   -0.0008254464286450976   -0.00016087246840003743
0.0   0.0   0.0
0.0   0.0   0.0
-0.0007949029728295261   -0.0008254464286450976   -0.00016087246840003743
0.0   0.0   0.0
0.0   0.0   0.0
-0.0007949029728295261   -0.0008254464286450976   -0.00016087246840003743
-0.0014645560896721253   -0.0009494612270775426   -0.0001704605945069216
-0.0013758831684198632   -0.0009289362856759397   -0.0002636719500579198
0.0   0.0   0.0
-0.0007949029728295261   -0.0008254464286450976   -0.00016087246840003743
-0.0013758831684198632   -0.0009289362856759397   -0.0002636719500579198
0.0   0.0   0.0
0.0   0.0   0.0
-0.0008112765137483199   -0.0007632067323966301   -0.00031471834524172216
0.0   0.0   0.0
0.0   0.0   0.0
-0.0008112765137483199   -0.0007632067323966301   -0.00031471834524172216
-0.00037027492032706534   -0.0007325156876433721   -0.00023968362633723411
0.0   0.0   0.0
-0.0003554381208044406   -0.0007569870372858334   -0.0002155962195978759
0.0   0.0   0.0
0.0   0.0   0.0
-0.0003554381208044406   -0.0007569870372858334   -0.0002155962195978759
0.0   0.0   0.0
0.0   0.0   0.0
-0.0003554381208044406   -0.0007569870372858334   -0.0002155962195978759
-0.000794580171461082   -0.0008009323085241632   -0.0002638752789495392
-0.0008112765137483199   -0.0007632067323966301   -0.00031471834524172216
0.0   0.0   0.0
-0.0003554381208044406   -0.0007569870372858334   -0.0002155962195978759
-0.0008112765137483199   -0.0007632067323966301   -0.00031471834524172216
0.0   0.0   0.0
0.0   0.0   0.0
-0.000794580171461082   -0.0008009323085241632   -0.0002638752789495392
0.0   0.0   0.0
0.0   0.0   0.0
-0.000794580171461082   -0.0008009323085241632   -0.0002638752789495392
-0.0003554381208044406   -0.0007569870372858334   -0.0002155962195978759
0.0   0.0   0.0
-0.0003468171566193848   -0.0007663434846585361   -0.0001922170147552165
0.0   0.0   0.0
0.0   0.0   0.0
-0.0003468171566193848   -0.0007663434846585361   -0.0001922170147552165
0.0   0.0   0.0
0.0   0.0   0.0
-0.0003468171566193848   -0.0007663434846585361   -0.0001922170147552165
-0.0007961160905698117   -0.000820346575150894   -0.00021318582121915747
-0.000794580171461082   -0.0008009323085241632   -0.0002638752789495392
0.0   0.0   0.0
-0.0003468171566193848   -0.0007663434846585361   -0.0001922170147552165
-0.000794580171461082   -0.0008009323085241632   -0.0002638752789495392
0.0   0.0   0.0
0.0   0.0   0.0
-0.0007961160905698117   -0.000820346575150894   -0.00021318582121915747
0.0   0.0   0.0
0.0   0.0   0.0
-0.0007961160905698117   -0.000820346575150894   -0.00021318582121915747
-0.0003468171566193848   -0.0007663434846585361   -0.0001922170147552165
0.0   0.0   0.0
-0.00033885064174033174   -0.0007625072039309734   -0.00016812973519708977
0.0   0.0   0.0
0.0   0.0   0.0
-0.00033885064174033174   -0.0007625072039309734   -0.00016812973519708977
0.0   0.0   0.0
0.0   0.0   0.0
-0.00033885064174033174   -0.0007625072039309734   -0.00016812973519708977
-0.0007949029728295261   -0.0008254464286450976   -0.00016087246840003743
-0.0007961160905698117   -0.000820346575150894   -0.00021318582121915747
0.0   0.0   0.0
-0.00033885064174033174   -0.0007625072039309734   -0.00016812973519708977
-0.0007961160905698117   -0.000820346575150894   -0.00021318582121915747
0.0   0.0   0.0
0.0   0.0   0.0
-0.00037027492032706534   -0.0007325156876433721   -0.00023968362633723411
0.0   0.0   0.0
0.0   0.0   0.0
-0.00037027492032706534   -0.0007325156876433721   -0.00023968362633723411
4.57862777313566e-05   -0.0007365581891370871   -0.00019207540712421273
0.0   0.0   0.0
5.5583360391848654e-05   -0.0007491476518938243   -0.00019520501151186652
0.0   0.0   0.0
0.0   0.0   0.0
5.5583360391848654e-05   -0.0007491476518938243   -0.00019520501151186652
0.0   0.0   0.0
0.0   0.0   0.0
5.5583360391848654e-05   -0.0007491476518938243   -0.00019520501151186652
-0.0003554381208044406   -0.0007569870372858334   -0.0002155962195978759
-0.00037027492032706534   -0.0007325156876433721   -0.00023968362633723411
0.0   0.0   0.0
5.5583360391848654e-05   -0.0007491476518938243   -0.00019520501151186652
-0.00037027492032706534   -0.0007325156876433721   -0.00023968362633723411
0.0   0.0   0.0
0.0   0.0   0.0
-0.0003554381208044406   -0.0007569870372858334   -0.0002155962195978759
0.0   0.0   0.0
0.0   0.0   0.0
-0.0003554381208044406   -0.0007569870372858334   -0.0002155962195978759
5.5583360391848654e-05   -0.0007491476518938243   -0.00019520501151186652
0.0   0.0   0.0
6.340901371598676e-05   -0.0007480217486929626   -0.00019810023203463341
0.0   0.0   0.0
0.0   0.0   0.0
6.340901371598676e-05   -0.0007480217486929626   -0.00019810023203463341
0.0   0.0   0.0
0.0   0.0   0.0
6.340901371598676e-05   -0.0007480217486929626   -0.00019810023203463341
-0.0003468171566193848   -0.0007663434846585361   -0.0001922170147552165
-0.0003554381208044406   -0.0007569870372858334   -0.0002155962195978759
0.0   0.0   0.0
6.340901371598676e-05   -0.0007480217486929626   -0.00019810023203463341
-0.0003554381208044406   -0.0007569870372858334   -0.0002155962195978759
0.0   0.0   0.0
0.0   0.0   0.0
-0.0003468171566193848   -0.0007663434846585361   -0.0001922170147552165
0.0   0.0   0.0
0.0   0.0   0.0
-0.0003468171566193848   -0.0007663434846585361   -0.0001922170147552165
6.340901371598676e-05   -0.0007480217486929626   -0.00019810023203463341
0.0   0.0   0.0
7.37044593189036e-05   -0.0007320693823026316   -0.00020115841081030895
0.0   0.0   0.0
0.0   0.0   0.0
7.37044593189036e-05   -0.0007320693823026316   -0.00020115841081030895
0.0   0.0   0.0
0.0   0.0   0.0
7.37044593189036e-05   -0.0007320693823026316   -0.00020115841081030895
-0.00033885064174033174   -0.0007625072039309734   -0.00016812973519708977
-0.0003468171566193848   -0.0007663434846585361   -0.0001922170147552165
0.0   0.0   0.0
7.37044593189036e-05   -0.0007320693823026316   -0.00020115841081030895
-0.0003468171566193848   -0.0007663434846585361   -0.0001922170147552165
0.0   0.0   0.0
0.0   0.0   0.0
4.57862777313566e-05   -0.0007365581891370871   -0.00019207540712421273
0.0   0.0   0.0
0.0   0.0   0.0
4.57862777313566e-05   -0.0007365581891370871   -0.00019207540712421273
0.00049801415632573   -0.0007716076019920777   -0.00016880155743752078
0.0   0.0   0.0
0.000499777634532873   -0.0007754510501500081   -0.00020057596913506043
0.0   0.0   0.0
0.0   0.0   0.0
0.000499777634532873   -0.0007754510501500081   -0.00020057596913506043
0.0   0.0   0.0
0.0   0.0   0.0
0.000499777634532873   -0.0007754510501500081   -0.00020057596913506043
5.5583360391848654e-05   -0.0007491476518938243   -0.00019520501151186652
4.57862777313566e-05   -0.0007365581891370871   -0.00019207540712421273
0.0   0.0   0.0
0.000499777634532873   -0.0007754510501500081   -0.00020057596913506043
4.57862777313566e-05   -0.0007365581891370871   -0.00019207540712421273
0.0   0.0   0.0
0.0   0.0   0.0
5.5583360391848654e-05   -0.0007491476518938243   -0.00019520501151186652
0.0   0.0   0.0
0.0   0.0   0.0
5.5583360391848654e-05   -0.0007491476518938243   -0.00019520501151186652
0.000499777634532873   -0.0007754510501500081   -0.00020057596913506043
0.0   0.0   0.0
0.0004983937387066298   -0.0007643841915157018   -0.00023115676665087461
0.0   0.0   0.0
0.0   0.0   0.0
0.0004983937387066298   -0.0007643841915157018   -0.00023115676665087461
0.0   0.0   0.0
0.0   0.0   0.0
0.0004983937387066298   -0.0007643841915157018   -0.00023115676665087461
6.340901371598676e-05   -0.0007480217486929626   -0.00019810023203463341
5.5583360391848654e-05   -0.0007491476518938243   -0.00019520501151186652
0.0   0.0   0.0
0.0004983937387066298   -0.0007643841915157018   -0.00023115676665087461
5.5583360391848654e-05   -0.0007491476518938243   -0.00019520501151186652
0.0   0.0   0.0
0.0   0.0   0.0
6.340901371598676e-05   -0.0007480217486929626   -0.00019810023203463341
0.0   0.0   0.0
0.0   0.0   0.0
6.340901371598676e-05   -0.0007480217486929626   -0.00019810023203463341
0.0004983937387066298   -0.0007643841915157018   -0.00023115676665087461
0.0   0.0   0.0
0.0005087730979834614   -0.0007351010634997164   -0.0002612336421225753
0.0   0.0   0.0
0.0   0.0   0.0
0.0005087730979834614   -0.0007351010634997164   -0.0002612336421225753
0.0   0.0   0.0
0.0   0.0   0.0
0.0005087730979834614   -0.0007351010634997164   -0.0002612336421225753
7.37044593189036e-05   -0.0007320693823026316   -0.00020115841081030895
6.340901371598676e-05   -0.0007480217486929626   -0.00019810023203463341
0.0   0.0   0.0
0.0005087730979834614   -0.0007351010634997164   -0.0002612336421225753
6.340901371598676e-05   -0.0007480217486929626   -0.00019810023203463341
0.0   0.0   0.0
0.0   0.0   0.0
0.00049801415632573   -0.0007716076019920777   -0.00016880155743752078
0.0   0.0   0.0
0.0   0.0   0.0
0.00049801415632573   -0.0007716076019920777   -0.00016880155743752078
0.0011289800047771293   -0.00086081207018814   -0.00015995672974734575
0.0   0.0   0.0
0.0010614347787783818   -0.0008510716393990125   -0.0002322751056497399
0.0   0.0   0.0
0.0   0.0   0.0
0.0010614347787783818   -0.0008510716393990125   -0.0002322751056497399
0.0   0.0   0.0
0.0   0.0   0.0
0.0010614347787783818   -0.0008510716393990125   -0.0002322751056497399
0.000499777634532873   -0.0007754510501500081   -0.00020057596913506043
0.00049801415632573   -0.0007716076019920777   -0.00016880155743752078
0.0   0.0   0.0
0.0010614347787783818   -0.0008510716393990125   -0.0002322751056497399
0.00049801415632573   -0.0007716076019920777   -0.00016880155743752078
0.0   0.0   0.0
0.0   0.0   0.0
0.000499777634532873   -0.0007754510501500081   -0.00020057596913506043
0.0   0.0   0.0
0.0   0.0   0.0
0.000499777634532873   -0.0007754510501500081   -0.00020057596913506043
0.0010614347787783818   -0.0008510716393990125   -0.0002322751056497399
0.0   0.0   0.0
0.0010306287135292422   -0.0008333856878841498   -0.0002935079239500291
0.0   0.0   0.0
0.0   0.0   0.0
0.0010306287135292422   -0.0008333856878841498   -0.0002935079239500291
0.0   0.0   0.0
0.0   0.0   0.0
0.0010306287135292422   -0.0008333856878841498   -0.0002935079239500291
0.0004983937387066298   -0.0007643841915157018   -0.00023115676665087461
0.000499777634532873   -0.0007754510501500081   -0.00020057596913506043
0.0   0.0   0.0
0.0010306287135292422   -0.0008333856878841498   -0.0002935079239500291
0.000499777634532873   -0.0007754510501500081   -0.00020057596913506043
0.0   0.0   0.0
0.0   0.0   0.0
0.0004983937387066298   -0.0007643841915157018   -0.00023115676665087461
0.0   0.0   0.0
0.0   0.0   0.0
0.0004983937387066298   -0.0007643841915157018   -0.00023115676665087461
0.0010306287135292422   -0.0008333856878841498   -0.0002935079239500291
0.0   0.0   0.0
0.0009842383413049295   -0.000788403671704667   -0.00035847868982895065
0.0   0.0   0.0
0.0   0.0   0.0
0.0009842383413049295   -0.000788403671704667   -0.00035847868982895065
0.0   0.0   0.0
0.0   0.0   0.0
0.0009842383413049295   -0.000788403671704667   -0.00035847868982895065
0.0005087730979834614   -0.0007351010634997164   -0.0002612336421225753
0.0004983937387066298   -0.0007643841915157018   -0.00023115676665087461
0.0   0.0   0.0
0.0009842383413049295   -0.000788403671704667   -0.00035847868982895065
0.0004983937387066298   -0.0007643841915157018   -0.00023115676665087461
0.0   0.0   0.0
-0.0012764379319285583   -0.0008472885273222322   -0.00042820432395452326
-0.0023768518861437874   -0.002350929114066947   -0.0005772577030829698
-0.0008112765137483199   -0.0007632067323966301   -0.00031471834524172216
-0.001335046540041525   -0.0009021978842275359   -0.00034410226122321195
-0.0023768518861437874   -0.002350929114066947   -0.0005772577030829698
-0.001516719059145442   -0.0022755728951999055   -0.00047589652609310486
-0.0008112765137483199   -0.0007632067323966301   -0.00031471834524172216
-0.0015173936094019756   -0.002314028120500458   -0.0004290645149355672
-0.001335046540041525   -0.0009021978842275359   -0.00034410226122321195
-0.000794580171461082   -0.0008009323085241632   -0.0002638752789495392
-0.0015173936094019756   -0.002314028120500458   -0.0004290645149355672
-0.0008112765137483199   -0.0007632067323966301   -0.00031471834524172216
-0.001335046540041525   -0.0009021978842275359   -0.00034410226122321195
-0.0015173936094019756   -0.002314028120500458   -0.0004290645149355672
-0.002446580235670112   -0.002404706655205058   -0.0005013781245285796
-0.0023768518861437874   -0.002350929114066947   -0.0005772577030829698
-0.001335046540041525   -0.0009021978842275359   -0.00034410226122321195
-0.0015173936094019756   -0.002314028120500458   -0.0004290645149355672
-0.0023768518861437874   -0.002350929114066947   -0.0005772577030829698
-0.0008112765137483199   -0.0007632067323966301   -0.00031471834524172216
-0.001335046540041525   -0.0009021978842275359   -0.00034410226122321195
-0.002446580235670112   -0.002404706655205058   -0.0005013781245285796
-0.000794580171461082   -0.0008009323085241632   -0.0002638752789495392
-0.0013758831684198632   -0.0009289362856759397   -0.0002636719500579198
-0.002446580235670112   -0.002404706655205058   -0.0005013781245285796
-0.0015173936094019756   -0.002314028120500458   -0.0004290645149355672
-0.000794580171461082   -0.0008009323085241632   -0.0002638752789495392
-0.0015221689291057255   -0.0023375733421953063   -0.0003841336592296389
-0.0013758831684198632   -0.0009289362856759397   -0.0002636719500579198
-0.0007961160905698117   -0.000820346575150894   -0.00021318582121915747
-0.0015221689291057255   -0.0023375733421953063   -0.0003841336592296389
-0.000794580171461082   -0.0008009323085241632   -0.0002638752789495392
-0.0013758831684198632   -0.0009289362856759397   -0.0002636719500579198
-0.0015221689291057255   -0.0023375733421953063   -0.0003841336592296389
-0.002494555472172758   -0.0024351763084286475   -0.0004271795933801392
-0.002446580235670112   -0.002404706655205058   -0.0005013781245285796
-0.0013758831684198632   -0.0009289362856759397   -0.0002636719500579198
-0.0015221689291057255   -0.0023375733421953063   -0.0003841336592296389
-0.002446580235670112   -0.002404706655205058   -0.0005013781245285796
-0.000794580171461082   -0.0008009323085241632   -0.0002638752789495392
-0.0013758831684198632   -0.0009289362856759397   -0.0002636719500579198
-0.002494555472172758   -0.0024351763084286475   -0.0004271795933801392
-0.0007961160905698117   -0.000820346575150894   -0.00021318582121915747
-0.0014645560896721253   -0.0009494612270775426   -0.0001704605945069216
-0.002494555472172758   -0.0024351763084286475   -0.0004271795933801392
-0.0015221689291057255   -0.0023375733421953063   -0.0003841336592296389
-0.0007961160905698117   -0.000820346575150894   -0.00021318582121915747
-0.0015163883503077128   -0.00234996222027665   -0.00034214954016595974
-0.0014645560896721253   -0.0009494612270775426   -0.0001704605945069216
-0.0007949029728295261   -0.0008254464286450976   -0.00016087246840003743
-0.0015163883503077128   -0.00234996222027665   -0.00034214954016595974
-0.0007961160905698117   -0.000820346575150894   -0.00021318582121915747
-0.0014645560896721253   -0.0009494612270775426   -0.0001704605945069216
-0.0015163883503077128   -0.00234996222027665   -0.00034214954016595974
-0.002551209095706031   -0.0024531968397698985   -0.00035983416775891804
-0.002494555472172758   -0.0024351763084286475   -0.0004271795933801392
-0.0014645560896721253   -0.0009494612270775426   -0.0001704605945069216
-0.0015163883503077128   -0.00234996222027665   -0.00034214954016595974
-0.002494555472172758   -0.0024351763084286475   -0.0004271795933801392
-0.0007961160905698117   -0.000820346575150894   -0.00021318582121915747
-0.0008112765137483199   -0.0007632067323966301   -0.00031471834524172216
-0.001516719059145442   -0.0022755728951999055   -0.00047589652609310486
-0.00037027492032706534   -0.0007325156876433721   -0.00023968362633723411
-0.000794580171461082   -0.0008009323085241632   -0.0002638752789495392
-0.001516719059145442   -0.0022755728951999055   -0.00047589652609310486
-0.0007056892782566485   -0.002240500417671126   -0.00040681018500319176
-0.00037027492032706534   -0.0007325156876433721   -0.00023968362633723411
-0.0006984631543167335   -0.0022648712817804287   -0.00038270622503693675
-0.000794580171461082   -0.0008009323085241632   -0.0002638752789495392
-0.0003554381208044406   -0.0007569870372858334   -0.0002155962195978759
-0.0006984631543167335   -0.0022648712817804287   -0.00038270622503693675
-0.00037027492032706534   -0.0007325156876433721   -0.00023968362633723411
-0.000794580171461082   -0.0008009323085241632   -0.0002638752789495392
-0.0006984631543167335   -0.0022648712817804287   -0.00038270622503693675
-0.0015173936094019756   -0.002314028120500458   -0.0004290645149355672
-0.001516719059145442   -0.0022755728951999055   -0.00047589652609310486
-0.000794580171461082   -0.0008009323085241632   -0.0002638752789495392
-0.0006984631543167335   -0.0022648712817804287   -0.00038270622503693675
-0.001516719059145442   -0.0022755728951999055   -0.00047589652609310486
-0.00037027492032706534   -0.0007325156876433721   -0.00023968362633723411
-0.000794580171461082   -0.0008009323085241632   -0.0002638752789495392
-0.0015173936094019756   -0.002314028120500458   -0.0004290645149355672
-0.0003554381208044406   -0.0007569870372858334   -0.0002155962195978759
-0.0007961160905698117   -0.000820346575150894   -0.00021318582121915747
-0.0015173936094019756   -0.002314028120500458   -0.0004290645149355672
-0.0006984631543167335   -0.0022648712817804287   -0.00038270622503693675
-0.0003554381208044406   -0.0007569870372858334   -0.0002155962195978759
-0.0006919314684824475   -0.0022767298827091192   -0.0003609042237433079
-0.0007961160905698117   -0.000820346575150894   -0.00021318582121915747
-0.0003468171566193848   -0.0007663434846585361   -0.0001922170147552165
-0.0006919314684824475   -0.0022767298827091192   -0.0003609042237433079
-0.0003554381208044406   -0.0007569870372858334   -0.0002155962195978759
-0.0007961160905698117   -0.000820346575150894   -0.00021318582121915747
-0.0006919314684824475   -0.0022767298827091192   -0.0003609042237433079
-0.0015221689291057255   -0.0023375733421953063   -0.0003841336592296389
-0.0015173936094019756   -0.002314028120500458   -0.0004290645149355672
-0.0007961160905698117   -0.000820346575150894   -0.00021318582121915747
-0.0006919314684824475   -0.0022767298827091192   -0.0003609042237433079
-0.0015173936094019756   -0.002314028120500458   -0.0004290645149355672
-0.0003554381208044406   -0.0007569870372858334   -0.0002155962195978759
-0.0007961160905698117   -0.000820346575150894   -0.00021318582121915747
-0.0015221689291057255   -0.0023375733421953063   -0.0003841336592296389
-0.0003468171566193848   -0.0007663434846585361   -0.0001922170147552165
-0.0007949029728295261   -0.0008254464286450976   -0.00016087246840003743
-0.0015221689291057255   -0.0023375733421953063   -0.0003841336592296389
-0.0006919314684824475   -0.0022767298827091192   -0.0003609042237433079
-0.0003468171566193848   -0.0007663434846585361   -0.0001922170147552165
-0.0006827150921752846   -0.0022765203372423996   -0.00034198074416392506
-0.0007949029728295261   -0.0008254464286450976   -0.00016087246840003743
-0.00033885064174033174   -0.0007625072039309734   -0.00016812973519708977
-0.0006827150921752846   -0.0022765203372423996   -0.00034198074416392506
-0.0003468171566193848   -0.0007663434846585361   -0.0001922170147552165
-0.0007949029728295261   -0.0008254464286450976   -0.00016087246840003743
-0.0006827150921752846   -0.0022765203372423996   -0.00034198074416392506
-0.0015163883503077128   -0.00234996222027665   -0.00034214954016595974
-0.0015221689291057255   -0.0023375733421953063   -0.0003841336592296389
-0.0007949029728295261   -0.0008254464286450976   -0.00016087246840003743
-0.0006827150921752846   -0.0022765203372423996   -0.00034198074416392506
-0.0015221689291057255   -0.0023375733421953063   -0.0003841336592296389
-0.0003468171566193848   -0.0007663434846585361   -0.0001922170147552165
-0.00037027492032706534   -0.0007325156876433721   -0.00023968362633723411
-0.0007056892782566485   -0.002240500417671126   -0.00040681018500319176
4.57862777313566e-05   -0.0007365581891370871   -0.00019207540712421273
-0.0003554381208044406   -0.0007569870372858334   -0.0002155962195978759
-0.0007056892782566485   -0.002240500417671126   -0.00040681018500319176
7.566341683750731e-05   -0.0022416129221085063   -0.00036338785561303833
4.57862777313566e-05   -0.0007365581891370871   -0.00019207540712421273
8.434744254227414e-05   -0.0022529940071031045   -0.0003615813297346433
-0.0003554381208044406   -0.0007569870372858334   -0.0002155962195978759
5.5583360391848654e-05   -0.0007491476518938243   -0.00019520501151186652
8.434744254227414e-05   -0.0022529940071031045   -0.0003615813297346433
4.57862777313566e-05   -0.0007365581891370871   -0.00019207540712421273
-0.0003554381208044406   -0.0007569870372858334   -0.0002155962195978759
8.434744254227414e-05   -0.0022529940071031045   -0.0003615813297346433
-0.0006984631543167335   -0.0022648712817804287   -0.00038270622503693675
-0.0007056892782566485   -0.002240500417671126   -0.00040681018500319176
-0.0003554381208044406   -0.0007569870372858334   -0.0002155962195978759
8.434744254227414e-05   -0.0022529940071031045   -0.0003615813297346433
-0.0007056892782566485   -0.002240500417671126   -0.00040681018500319176
4.57862777313566e-05   -0.0007365581891370871   -0.00019207540712421273
-0.0003554381208044406   -0.0007569870372858334   -0.0002155962195978759
-0.0006984631543167335   -0.0022648712817804287   -0.00038270622503693675
5.5583360391848654e-05   -0.0007491476518938243   -0.00019520501151186652
-0.0003468171566193848   -0.0007663434846585361   -0.0001922170147552165
-0.0006984631543167335   -0.0022648712817804287   -0.00038270622503693675
8.434744254227414e-05   -0.0022529940071031045   -0.0003615813297346433
5.5583360391848654e-05   -0.0007491476518938243   -0.00019520501151186652
9.055182328364241e-05   -0.002252152184318533   -0.0003623831567948752
-0.0003468171566193848   -0.0007663434846585361   -0.0001922170147552165
6.340901371598676e-05   -0.0007480217486929626   -0.00019810023203463341
9.055182328364241e-05   -0.002252152184318533   -0.0003623831567948752
5.5583360391848654e-05   -0.0007491476518938243   -0.00019520501151186652
-0.0003468171566193848   -0.0007663434846585361   -0.0001922170147552165
9.055182328364241e-05   -0.002252152184318533   -0.0003623831567948752
-0.0006919314684824475   -0.0022767298827091192   -0.0003609042237433079
-0.0006984631543167335   -0.0022648712817804287   -0.00038270622503693675
-0.0003468171566193848   -0.0007663434846585361   -0.0001922170147552165
9.055182328364241e-05   -0.002252152184318533   -0.0003623831567948752
-0.0006984631543167335   -0.0022648712817804287   -0.00038270622503693675
5.5583360391848654e-05   -0.0007491476518938243   -0.00019520501151186652
-0.0003468171566193848   -0.0007663434846585361   -0.0001922170147552165
-0.0006919314684824475   -0.0022767298827091192   -0.0003609042237433079
6.340901371598676e-05   -0.0007480217486929626   -0.00019810023203463341
-0.00033885064174033174   -0.0007625072039309734   -0.00016812973519708977
-0.0006919314684824475   -0.0022767298827091192   -0.0003609042237433079
9.055182328364241e-05   -0.002252152184318533   -0.0003623831567948752
6.340901371598676e-05   -0.0007480217486929626   -0.00019810023203463341
9.712340305286113e-05   -0.002238720020472915   -0.00036583314655552366
-0.00033885064174033174   -0.0007625072039309734   -0.00016812973519708977
7.37044593189036e-05   -0.0007320693823026316   -0.00020115841081030895
9.712340305286113e-05   -0.002238720020472915   -0.00036583314655552366
6.340901371598676e-05   -0.0007480217486929626   -0.00019810023203463341
-0.00033885064174033174   -0.0007625072039309734   -0.00016812973519708977
9.712340305286113e-05   -0.002238720020472915   -0.00036583314655552366
-0.0006827150921752846   -0.0022765203372423996   -0.00034198074416392506
-0.0006919314684824475   -0.0022767298827091192   -0.0003609042237433079
-0.00033885064174033174   -0.0007625072039309734   -0.00016812973519708977
9.712340305286113e-05   -0.002238720020472915   -0.00036583314655552366
-0.0006919314684824475   -0.0022767298827091192   -0.0003609042237433079
6.340901371598676e-05   -0.0007480217486929626   -0.00019810023203463341
4.57862777313566e-05   -0.0007365581891370871   -0.00019207540712421273
7.566341683750731e-05   -0.0022416129221085063   -0.00036338785561303833
0.00049801415632573   -0.0007716076019920777   -0.00016880155743752078
5.5583360391848654e-05   -0.0007491476518938243   -0.00019520501151186652
7.566341683750731e-05   -0.0022416129221085063   -0.00036338785561303833
0.0009043104987574621   -0.002277626506108882   -0.00034353923840289456
0.00049801415632573   -0.0007716076019920777   -0.00016880155743752078
0.0009098755173168924   -0.0022771577543564793   -0.00036474529634275527
5.5583360391848654e-05   -0.0007491476518938243   -0.00019520501151186652
0.000499777634532873   -0.0007754510501500081   -0.00020057596913506043
0.0009098755173168924   -0.0022771577543564793   -0.00036474529634275527
0.00049801415632573   -0.0007716076019920777   -0.00016880155743752078
5.5583360391848654e-05   -0.0007491476518938243   -0.00019520501151186652
0.0009098755173168924   -0.0022771577543564793   -0.00036474529634275527
8.434744254227414e-05   -0.0022529940071031045   -0.0003615813297346433
7.566341683750731e-05   -0.0022416129221085063   -0.00036338785561303833
5.5583360391848654e-05   -0.0007491476518938243   -0.00019520501151186652
0.0009098755173168924   -0.0022771577543564793   -0.00036474529634275527
7.566341683750731e-05   -0.0022416129221085063   -0.00036338785561303833
0.00049801415632573   -0.0007716076019920777   -0.00016880155743752078
5.5583360391848654e-05   -0.0007491476518938243   -0.00019520501151186652
8.434744254227414e-05   -0.0022529940071031045   -0.0003615813297346433
0.000499777634532873   -0.0007754510501500081   -0.00020057596913506043
6.340901371598676e-05   -0.0007480217486929626   -0.00019810023203463341
8.434744254227414e-05   -0.0022529940071031045   -0.0003615813297346433
0.0009098755173168924   -0.0022771577543564793   -0.00036474529634275527
0.000499777634532873   -0.0007754510501500081   -0.00020057596913506043
0.0009069590460262748   -0.002264738026407265   -0.00038890145559687943
6.340901371598676e-05   -0.0007480217486929626   -0.00019810023203463341
0.0004983937387066298   -0.0007643841915157018   -0.00023115676665087461
0.0009069590460262748   -0.002264738026407265   -0.00038890145559687943
0.000499777634532873   -0.0007754510501500081   -0.00020057596913506043
6.340901371598676e-05   -0.0007480217486929626   -0.00019810023203463341
0.0009069590460262748   -0.002264738026407265   -0.00038890145559687943
9.055182328364241e-05   -0.002252152184318533   -0.0003623831567948752
8.434744254227414e-05   -0.0022529940071031045   -0.0003615813297346433
6.340901371598676e-05   -0.0007480217486929626   -0.00019810023203463341
0.0009069590460262748   -0.002264738026407265   -0.00038890145559687943
8.434744254227414e-05   -0.0022529940071031045   -0.0003615813297346433
0.000499777634532873   -0.0007754510501500081   -0.00020057596913506043
6.340901371598676e-05   -0.0007480217486929626   -0.00019810023203463341
9.055182328364241e-05   -0.002252152184318533   -0.0003623831567948752
0.0004983937387066298   -0.0007643841915157018   -0.00023115676665087461
7.37044593189036e-05   -0.0007320693823026316   -0.00020115841081030895
9.055182328364241e-05   -0.002252152184318533   -0.0003623831567948752
0.0009069590460262748   -0.002264738026407265   -0.00038890145559687943
0.0004983937387066298   -0.0007643841915157018   -0.00023115676665087461
0.000905754922561948   -0.0022370223743226722   -0.0004151095704434426
7.37044593189036e-05   -0.0007320693823026316   -0.00020115841081030895
0.0005087730979834614   -0.0007351010634997164   -0.0002612336421225753
0.000905754922561948   -0.0022370223743226722   -0.0004151095704434426
0.0004983937387066298   -0.0007643841915157018   -0.00023115676665087461
7.37044593189036e-05   -0.0007320693823026316   -0.00020115841081030895
0.000905754922561948   -0.0022370223743226722   -0.0004151095704434426
9.712340305286113e-05   -0.002238720020472915   -0.00036583314655552366
9.055182328364241e-05   -0.002252152184318533   -0.0003623831567948752
7.37044593189036e-05   -0.0007320693823026316   -0.00020115841081030895
0.000905754922561948   -0.0022370223743226722   -0.0004151095704434426
9.055182328364241e-05   -0.002252152184318533   -0.0003623831567948752
0.0004983937387066298   -0.0007643841915157018   -0.00023115676665087461
0.00049801415632573   -0.0007716076019920777   -0.00016880155743752078
0.0009043104987574621   -0.002277626506108882   -0.00034353923840289456
0.0011289800047771293   -0.00086081207018814   -0.00015995672974734575
0.000499777634532873   -0.0007754510501500081   -0.00020057596913506043
0.0009043104987574621   -0.002277626506108882   -0.00034353923840289456
0.0019059225209945233   -0.002344338925342959   -0.00033901693023569846
0.0011289800047771293   -0.00086081207018814   -0.00015995672974734575
0.0018690517772754888   -0.002337455861311679   -0.0003868987852592858
0.000499777634532873   -0.0007754510501500081   -0.00020057596913506043
0.0010614347787783818   -0.0008510716393990125   -0.0002322751056497399
0.0018690517772754888   -0.002337455861311679   -0.0003868987852592858
0.0011289800047771293   -0.00086081207018814   -0.00015995672974734575
0.000499777634532873   -0.0007754510501500081   -0.00020057596913506043
0.0018690517772754888   -0.002337455861311679   -0.0003868987852592858
0.0009098755173168924   -0.0022771577543564793   -0.00036474529634275527
0.0009043104987574621   -0.002277626506108882   -0.00034353923840289456
0.000499777634532873   -0.0007754510501500081   -0.00020057596913506043
0.0018690517772754888   -0.002337455861311679   -0.0003868987852592858
0.0009043104987574621   -0.002277626506108882   -0.00034353923840289456
0.0011289800047771293   -0.00086081207018814   -0.00015995672974734575
0.000499777634532873   -0.0007754510501500081   -0.00020057596913506043
0.0009098755173168924   -0.0022771577543564793   -0.00036474529634275527
0.0010614347787783818   -0.0008510716393990125   -0.0002322751056497399
0.0004983937387066298   -0.0007643841915157018   -0.00023115676665087461
0.0009098755173168924   -0.0022771577543564793   -0.00036474529634275527
0.0018690517772754888   -0.002337455861311679   -0.0003868987852592858
0.0010614347787783818   -0.0008510716393990125   -0.0002322751056497399
0.0018359385109415999   -0.0023183794680959402   -0.00044097254361687486
0.0004983937387066298   -0.0007643841915157018   -0.00023115676665087461
0.0010306287135292422   -0.0008333856878841498   -0.0002935079239500291
0.0018359385109415999   -0.0023183794680959402   -0.00044097254361687486
0.0010614347787783818   -0.0008510716393990125   -0.0002322751056497399
0.0004983937387066298   -0.0007643841915157018   -0.00023115676665087461
0.0018359385109415999   -0.0023183794680959402   -0.00044097254361687486
0.0009069590460262748   -0.002264738026407265   -0.00038890145559687943
0.0009098755173168924   -0.0022771577543564793   -0.00036474529634275527
0.0004983937387066298   -0.0007643841915157018   -0.00023115676665087461
0.0018359385109415999   -0.0023183794680959402   -0.00044097254361687486
0.0009098755173168924   -0.0022771577543564793   -0.00036474529634275527
0.0010614347787783818   -0.0008510716393990125   -0.0002322751056497399
0.0004983937387066298   -0.0007643841915157018   -0.00023115676665087461
0.0009069590460262748   -0.002264738026407265   -0.00038890145559687943
0.0010306287135292422   -0.0008333856878841498   -0.0002935079239500291
0.0005087730979834614   -0.0007351010634997164   -0.0002612336421225753
0.0009069590460262748   -0.002264738026407265   -0.00038890145559687943
0.0018359385109415999   -0.0023183794680959402   -0.00044097254361687486
0.0010306287135292422   -0.0008333856878841498   -0.0002935079239500291
0.0017855092294316436   -0.002276359254990765   -0.0004973877088332048
0.0005087730979834614   -0.0007351010634997164   -0.0002612336421225753
0.0009842383413049295   -0.000788403671704667   -0.00035847868982895065
0.0017855092294316436   -0.002276359254990765   -0.0004973877088332048
0.0010306287135292422   -0.0008333856878841498   -0.0002935079239500291
0.0005087730979834614   -0.0007351010634997164   -0.0002612336421225753
0.0017855092294316436   -0.002276359254990765   -0.0004973877088332048
0.000905754922561948   -0.0022370223743226722   -0.0004151095704434426
0.0009069590460262748   -0.002264738026407265   -0.00038890145559687943
0.0005087730979834614   -0.0007351010634997164   -0.0002612336421225753
0.0017855092294316436   -0.002276359254990765   -0.0004973877088332048
0.0009069590460262748   -0.002264738026407265   -0.00038890145559687943
0.0010306287135292422   -0.0008333856878841498   -0.0002935079239500291
-0.0023768518861437874   -0.002350929114066947   -0.0005772577030829698
-0.0032476095885074266   -0.004389870092703798   -0.0006585621301060393
-0.001516719059145442   -0.0022755728951999055   -0.00047589652609310486
-0.002446580235670112   -0.002404706655205058   -0.0005013781245285796
-0.0032476095885074266   -0.004389870092703798   -0.0006585621301060393
-0.0020889862486101205   -0.004332593397066536   -0.0005769117810883217
-0.001516719059145442   -0.0022755728951999055   -0.00047589652609310486
-0.0020922023746422548   -0.004365587298295918   -0.0005407640291500317
-0.002446580235670112   -0.002404706655205058   -0.0005013781245285796
-0.0015173936094019756   -0.002314028120500458   -0.0004290645149355672
-0.0020922023746422548   -0.004365587298295918   -0.0005407640291500317
-0.001516719059145442   -0.0022755728951999055   -0.00047589652609310486
-0.002446580235670112   -0.002404706655205058   -0.0005013781245285796
-0.0020922023746422548   -0.004365587298295918   -0.0005407640291500317
-0.0033034851587934845   -0.004435039818017177   -0.0006023966921621319
-0.0032476095885074266   -0.004389870092703798   -0.0006585621301060393
-0.002446580235670112   -0.002404706655205058   -0.0005013781245285796
-0.0020922023746422548   -0.004365587298295918   -0.0005407640291500317
-0.0032476095885074266   -0.004389870092703798   -0.0006585621301060393
-0.001516719059145442   -0.0022755728951999055   -0.00047589652609310486
-0.002446580235670112   -0.002404706655205058   -0.0005013781245285796
-0.0033034851587934845   -0.004435039818017177   -0.0006023966921621319
-0.0015173936094019756   -0.002314028120500458   -0.0004290645149355672
-0.002494555472172758   -0.0024351763084286475   -0.0004271795933801392
-0.0033034851587934845   -0.004435039818017177   -0.0006023966921621319
-0.0020922023746422548   -0.004365587298295918   -0.0005407640291500317
-0.0015173936094019756   -0.002314028120500458   -0.0004290645149355672
-0.0020961559847619826   -0.0043886596795017375   -0.0005072818538623825
-0.002494555472172758   -0.0024351763084286475   -0.0004271795933801392
-0.0015221689291057255   -0.0023375733421953063   -0.0003841336592296389
-0.0020961559847619826   -0.0043886596795017375   -0.0005072818538623825
-0.0015173936094019756   -0.002314028120500458   -0.0004290645149355672
-0.002494555472172758   -0.0024351763084286475   -0.0004271795933801392
-0.0020961559847619826   -0.0043886596795017375   -0.0005072818538623825
-0.0033380839162635797   -0.004463490360001885   -0.000550133791058319
-0.0033034851587934845   -0.004435039818017177   -0.0006023966921621319
-0.002494555472172758   -0.0024351763084286475   -0.0004271795933801392
-0.0020961559847619826   -0.0043886596795017375   -0.0005072818538623825
-0.0033034851587934845   -0.004435039818017177   -0.0006023966921621319
-0.0015173936094019756   -0.002314028120500458   -0.0004290645149355672
-0.002494555472172758   -0.0024351763084286475   -0.0004271795933801392
-0.0033380839162635797   -0.004463490360001885   -0.000550133791058319
-0.0015221689291057255   -0.0023375733421953063   -0.0003841336592296389
-0.002551209095706031   -0.0024531968397698985   -0.00035983416775891804
-0.0033380839162635797   -0.004463490360001885   -0.000550133791058319
-0.0020961559847619826   -0.0043886596795017375   -0.0005072818538623825
-0.0015221689291057255   -0.0023375733421953063   -0.0003841336592296389
-0.002090783732424735   -0.004404010113247752   -0.0004758940023878418
-0.002551209095706031   -0.0024531968397698985   -0.00035983416775891804
-0.0015163883503077128   -0.00234996222027665   -0.00034214954016595974
-0.002090783732424735   -0.004404010113247752   -0.0004758940023878418
-0.0015221689291057255   -0.0023375733421953063   -0.0003841336592296389
-0.002551209095706031   -0.0024531968397698985   -0.00035983416775891804
-0.002090783732424735   -0.004404010113247752   -0.0004758940023878418
-0.0033774492047274267   -0.004484228587468429   -0.0005021396092877821
-0.0033380839162635797   -0.004463490360001885   -0.000550133791058319
-0.002551209095706031   -0.0024531968397698985   -0.00035983416775891804
-0.002090783732424735   -0.004404010113247752   -0.0004758940023878418
-0.0033380839162635797   -0.004463490360001885   -0.000550133791058319
-0.0015221689291057255   -0.0023375733421953063   -0.0003841336592296389
-0.001516719059145442   -0.0022755728951999055   -0.00047589652609310486
-0.0020889862486101205   -0.004332593397066536   -0.0005769117810883217
-0.0007056892782566485   -0.002240500417671126   -0.00040681018500319176
-0.0015173936094019756   -0.002314028120500458   -0.0004290645149355672
-0.0020889862486101205   -0.004332593397066536   -0.0005769117810883217
-0.0009984808528520337   -0.004303918890082011   -0.0005202450031373323
-0.0007056892782566485   -0.002240500417671126   -0.00040681018500319176
-0.0009946259296897172   -0.004324913551309602   -0.0004996835347633033
-0.0015173936094019756   -0.002314028120500458   -0.0004290645149355672
-0.0006984631543167335   -0.0022648712817804287   -0.00038270622503693675
-0.0009946259296897172   -0.004324913551309602   -0.0004996835347633033
-0.0007056892782566485   -0.002240500417671126   -0.00040681018500319176
-0.0015173936094019756   -0.002314028120500458   -0.0004290645149355672
-0.0009946259296897172   -0.004324913551309602   -0.0004996835347633033
-0.0020922023746422548   -0.004365587298295918   -0.0005407640291500317
-0.0020889862486101205   -0.004332593397066536   -0.0005769117810883217
-0.0015173936094019756   -0.002314028120500458   -0.0004290645149355672
-0.0009946259296897172   -0.004324913551309602   -0.0004996835347633033
-0.0020889862486101205   -0.004332593397066536   -0.0005769117810883217
-0.0007056892782566485   -0.002240500417671126   -0.00040681018500319176
-0.0015173936094019756   -0.002314028120500458   -0.0004290645149355672
-0.0020922023746422548   -0.004365587298295918   -0.0005407640291500317
-0.0006984631543167335   -0.0022648712817804287   -0.00038270622503693675
-0.0015221689291057255   -0.0023375733421953063   -0.0003841336592296389
-0.0020922023746422548   -0.004365587298295918   -0.0005407640291500317
-0.0009946259296897172   -0.004324913551309602   -0.0004996835347633033
-0.0006984631543167335   -0.0022648712817804287   -0.00038270622503693675
-0.0009902166082311906   -0.0043372893418706935   -0.00048165186693765967
-0.0015221689291057255   -0.0023375733421953063   -0.0003841336592296389
-0.0006919314684824475   -0.0022767298827091192   -0.0003609042237433079
-0.0009902166082311906   -0.0043372893418706935   -0.00048165186693765967
-0.0006984631543167335   -0.0022648712817804287   -0.00038270622503693675
-0.0015221689291057255   -0.0023375733421953063   -0.0003841336592296389
-0.0009902166082311906   -0.0043372893418706935   -0.00048165186693765967
-0.0020961559847619826   -0.0043886596795017375   -0.0005072818538623825
-0.0020922023746422548   -0.004365587298295918   -0.0005407640291500317
-0.0015221689291057255   -0.0023375733421953063   -0.0003841336592296389
-0.0009902166082311906   -0.0043372893418706935   -0.00048165186693765967
-0.0020922023746422548   -0.004365587298295918   -0.0005407640291500317
-0.0006984631543167335   -0.0022648712817804287   -0.00038270622503693675
-0.0015221689291057255   -0.0023375733421953063   -0.0003841336592296389
-0.0020961559847619826   -0.0043886596795017375   -0.0005072818538623825
-0.0006919314684824475   -0.0022767298827091192   -0.0003609042237433079
-0.0015163883503077128   -0.00234996222027665   -0.00034214954016595974
-0.0020961559847619826   -0.0043886596795017375   -0.0005072818538623825
-0.0009902166082311906   -0.0043372893418706935   -0.00048165186693765967
-0.0006919314684824475   -0.0022767298827091192   -0.0003609042237433079
-0.0009838151691917182   -0.0043412228948681965   -0.00046614639632735534
-0.0015163883503077128   -0.00234996222027665   -0.00034214954016595974
-0.0006827150921752846   -0.0022765203372423996   -0.00034198074416392506
-0.0009838151691917182   -0.0043412228948681965   -0.00046614639632735534
-0.0006919314684824475   -0.0022767298827091192   -0.0003609042237433079
-0.0015163883503077128   -0.00234996222027665   -0.00034214954016595974
-0.0009838151691917182   -0.0043412228948681965   -0.00046614639632735534
-0.002090783732424735   -0.004404010113247752   -0.0004758940023878418
-0.0020961559847619826   -0.0043886596795017375   -0.0005072818538623825
-0.0015163883503077128   -0.00234996222027665   -0.00034214954016595974
-0.0009838151691917182   -0.0043412228948681965   -0.00046614639632735534
-0.0020961559847619826   -0.0043886596795017375   -0.0005072818538623825
-0.0006919314684824475   -0.0022767298827091192   -0.0003609042237433079
-0.0007056892782566485   -0.002240500417671126   -0.00040681018500319176
-0.0009984808528520337   -0.004303918890082011   -0.0005202450031373323
7.566341683750731e-05   -0.0022416129221085063   -0.00036338785561303833
-0.0006984631543167335   -0.0022648712817804287   -0.00038270622503693675
-0.0009984808528520337   -0.004303918890082011   -0.0005202450031373323
5.9419277044214394e-05   -0.004302369781258092   -0.0004853838405633871
7.566341683750731e-05   -0.0022416129221085063   -0.00036338785561303833
6.542173880933781e-05   -0.004311519688732722   -0.00048033388223657215
-0.0006984631543167335   -0.0022648712817804287   -0.00038270622503693675
8.434744254227414e-05   -0.0022529940071031045   -0.0003615813297346433
6.542173880933781e-05   -0.004311519688732722   -0.00048033388223657215
7.566341683750731e-05   -0.0022416129221085063   -0.00036338785561303833
-0.0006984631543167335   -0.0022648712817804287   -0.00038270622503693675
6.542173880933781e-05   -0.004311519688732722   -0.00048033388223657215
-0.0009946259296897172   -0.004324913551309602   -0.0004996835347633033
-0.0009984808528520337   -0.004303918890082011   -0.0005202450031373323
-0.0006984631543167335   -0.0022648712817804287   -0.00038270622503693675
6.542173880933781e-05   -0.004311519688732722   -0.00048033388223657215
-0.0009984808528520337   -0.004303918890082011   -0.0005202450031373323
7.566341683750731e-05   -0.0022416129221085063   -0.00036338785561303833
-0.0006984631543167335   -0.0022648712817804287   -0.00038270622503693675
-0.0009946259296897172   -0.004324913551309602   -0.0004996835347633033
8.434744254227414e-05   -0.0022529940071031045   -0.0003615813297346433
-0.0006919314684824475   -0.0022767298827091192   -0.0003609042237433079
-0.0009946259296897172   -0.004324913551309602   -0.0004996835347633033
6.542173880933781e-05   -0.004311519688732722   -0.00048033388223657215
8.434744254227414e-05   -0.0022529940071031045   -0.0003615813297346433
6.975282513338591e-05   -0.004312082616991919   -0.0004777522429375172
-0.0006919314684824475   -0.0022767298827091192   -0.0003609042237433079
9.055182328364241e-05   -0.002252152184318533   -0.0003623831567948752
6.975282513338591e-05   -0.004312082616991919   -0.0004777522429375172
8.434744254227414e-05   -0.0022529940071031045   -0.0003615813297346433
-0.0006919314684824475   -0.0022767298827091192   -0.0003609042237433079
6.975282513338591e-05   -0.004312082616991919   -0.0004777522429375172
-0.0009902166082311906   -0.0043372893418706935   -0.00048165186693765967
-0.0009946259296897172   -0.004324913551309602   -0.0004996835347633033
-0.0006919314684824475   -0.0022767298827091192   -0.0003609042237433079
6.975282513338591e-05   -0.004312082616991919   -0.0004777522429375172
-0.0009946259296897172   -0.004324913551309602   -0.0004996835347633033
8.434744254227414e-05   -0.0022529940071031045   -0.0003615813297346433
-0.0006919314684824475   -0.0022767298827091192   -0.0003609042237433079
-0.0009902166082311906   -0.0043372893418706935   -0.00048165186693765967
9.055182328364241e-05   -0.002252152184318533   -0.0003623831567948752
-0.0006827150921752846   -0.0022765203372423996   -0.00034198074416392506
-0.0009902166082311906   -0.0043372893418706935   -0.00048165186693765967
6.975282513338591e-05   -0.004312082616991919   -0.0004777522429375172
9.055182328364241e-05   -0.002252152184318533   -0.0003623831567948752
7.327566345222647e-05   -0.004303932378371449   -0.0004777837720905617
-0.0006827150921752846   -0.0022765203372423996   -0.00034198074416392506
9.712340305286113e-05   -0.002238720020472915   -0.00036583314655552366
7.327566345222647e-05   -0.004303932378371449   -0.0004777837720905617
9.055182328364241e-05   -0.002252152184318533   -0.0003623831567948752
-0.0006827150921752846   -0.0022765203372423996   -0.00034198074416392506
7.327566345222647e-05   -0.004303932378371449   -0.0004777837720905617
-0.0009838151691917182   -0.0043412228948681965   -0.00046614639632735534
-0.0009902166082311906   -0.0043372893418706935   -0.00048165186693765967
-0.0006827150921752846   -0.0022765203372423996   -0.00034198074416392506
7.327566345222647e-05   -0.004303932378371449   -0.0004777837720905617
-0.0009902166082311906   -0.0043372893418706935   -0.00048165186693765967
9.055182328364241e-05   -0.002252152184318533   -0.0003623831567948752
7.566341683750731e-05   -0.0022416129221085063   -0.00036338785561303833
5.9419277044214394e-05   -0.004302369781258092   -0.0004853838405633871
0.0009043104987574621   -0.002277626506108882   -0.00034353923840289456
8.434744254227414e-05   -0.0022529940071031045   -0.0003615813297346433
5.9419277044214394e-05   -0.004302369781258092   -0.0004853838405633871
0.0011628544557607601   -0.00432632148752166   -0.00047177233649542427
0.0009043104987574621   -0.002277626506108882   -0.00034353923840289456
0.0011684050455503764   -0.004324566926397468   -0.0004825450323187085
8.434744254227414e-05   -0.0022529940071031045   -0.0003615813297346433
0.0009098755173168924   -0.0022771577543564793   -0.00036474529634275527
0.0011684050455503764   -0.004324566926397468   -0.0004825450323187085
0.0009043104987574621   -0.002277626506108882   -0.00034353923840289456
8.434744254227414e-05   -0.0022529940071031045   -0.0003615813297346433
0.0011684050455503764   -0.004324566926397468   -0.0004825450323187085
6.542173880933781e-05   -0.004311519688732722   -0.00048033388223657215
5.9419277044214394e-05   -0.004302369781258092   -0.0004853838405633871
8.434744254227414e-05   -0.0022529940071031045   -0.0003615813297346433
0.0011684050455503764   -0.004324566926397468   -0.0004825450323187085
5.9419277044214394e-05   -0.004302369781258092   -0.0004853838405633871
0.0009043104987574621   -0.002277626506108882   -0.00034353923840289456
8.434744254227414e-05   -0.0022529940071031045   -0.0003615813297346433
6.542173880933781e-05   -0.004311519688732722   -0.00048033388223657215
0.0009098755173168924   -0.0022771577543564793   -0.00036474529634275527
9.055182328364241e-05   -0.002252152184318533   -0.0003623831567948752
6.542173880933781e-05   -0.004311519688732722   -0.00048033388223657215
0.0011684050455503764   -0.004324566926397468   -0.0004825450323187085
0.0009098755173168924   -0.0022771577543564793   -0.00036474529634275527
0.0011669858383645594   -0.00431445521207592   -0.0004956046962427761
9.055182328364241e-05   -0.002252152184318533   -0.0003623831567948752
0.0009069590460262748   -0.002264738026407265   -0.00038890145559687943
0.0011669858383645594   -0.00431445521207592   -0.0004956046962427761
0.0009098755173168924   -0.0022771577543564793   -0.00036474529634275527
9.055182328364241e-05   -0.002252152184318533   -0.0003623831567948752
0.0011669858383645594   -0.00431445521207592   -0.0004956046962427761
6.975282513338591e-05   -0.004312082616991919   -0.0004777522429375172
6.542173880933781e-05   -0.004311519688732722   -0.00048033388223657215
9.055182328364241e-05   -0.002252152184318533   -0.0003623831567948752
0.0011669858383645594   -0.00431445521207592   -0.0004956046962427761
6.542173880933781e-05   -0.004311519688732722   -0.00048033388223657215
0.0009098755173168924   -0.0022771577543564793   -0.00036474529634275527
9.055182328364241e-05   -0.002252152184318533   -0.0003623831567948752
6.975282513338591e-05   -0.004312082616991919   -0.0004777522429375172
0.0009069590460262748   -0.002264738026407265   -0.00038890145559687943
9.712340305286113e-05   -0.002238720020472915   -0.00036583314655552366
6.975282513338591e-05   -0.004312082616991919   -0.0004777522429375172
0.0011669858383645594   -0.00431445521207592   -0.0004956046962427761
0.0009069590460262748   -0.002264738026407265   -0.00038890145559687943
0.0011639958648055964   -0.004293866223747876   -0.0005112264251928323
9.712340305286113e-05   -0.002238720020472915   -0.00036583314655552366
0.000905754922561948   -0.0022370223743226722   -0.0004151095704434426
0.0011639958648055964   -0.004293866223747876   -0.0005112264251928323
0.0009069590460262748   -0.002264738026407265   -0.00038890145559687943
9.712340305286113e-05   -0.002238720020472915   -0.00036583314655552366
0.0011639958648055964   -0.004293866223747876   -0.0005112264251928323
7.327566345222647e-05   -0.004303932378371449   -0.0004777837720905617
6.975282513338591e-05   -0.004312082616991919   -0.0004777522429375172
9.712340305286113e-05   -0.002238720020472915   -0.00036583314655552366
0.0011639958648055964   -0.004293866223747876   -0.0005112264251928323
6.975282513338591e-05   -0.004312082616991919   -0.0004777522429375172
0.0009069590460262748   -0.002264738026407265   -0.00038890145559687943
0.0009043104987574621   -0.002277626506108882   -0.00034353923840289456
0.0011628544557607601   -0.00432632148752166   -0.00047177233649542427
0.0019059225209945233   -0.002344338925342959   -0.00033901693023569846
0.0009098755173168924   -0.0022771577543564793   -0.00036474529634275527
0.0011628544557607601   -0.00432632148752166   -0.00047177233649542427
0.0024203008577421137   -0.004369460496248673   -0.0004731424483730226
0.0019059225209945233   -0.002344338925342959   -0.00033901693023569846
0.0024014999086386583   -0.004361347677758812   -0.0005016253701630406
0.0009098755173168924   -0.0022771577543564793   -0.00036474529634275527
0.0018690517772754888   -0.002337455861311679   -0.0003868987852592858
0.0024014999086386583   -0.004361347677758812   -0.0005016253701630406
0.0019059225209945233   -0.002344338925342959   -0.00033901693023569846
0.0009098755173168924   -0.0022771577543564793   -0.00036474529634275527
0.0024014999086386583   -0.004361347677758812   -0.0005016253701630406
0.0011684050455503764   -0.004324566926397468   -0.0004825450323187085
0.0011628544557607601   -0.00432632148752166   -0.00047177233649542427
0.0009098755173168924   -0.0022771577543564793   -0.00036474529634275527
0.0024014999086386583   -0.004361347677758812   -0.0005016253701630406
0.0011628544557607601   -0.00432632148752166   -0.00047177233649542427
0.0019059225209945233   -0.002344338925342959   -0.00033901693023569846
0.0009098755173168924   -0.0022771577543564793   -0.00036474529634275527
0.0011684050455503764   -0.004324566926397468   -0.0004825450323187085
0.0018690517772754888   -0.002337455861311679   -0.0003868987852592858
0.0009069590460262748   -0.002264738026407265   -0.00038890145559687943
0.0011684050455503764   -0.004324566926397468   -0.0004825450323187085
0.0024014999086386583   -0.004361347677758812   -0.0005016253701630406
0.0018690517772754888   -0.002337455861311679   -0.0003868987852592858
0.002382415773554335   -0.00434586843809933   -0.0005342334472184628
0.0009069590460262748   -0.002264738026407265   -0.00038890145559687943
0.0018359385109415999   -0.0023183794680959402   -0.00044097254361687486
0.002382415773554335   -0.00434586843809933   -0.0005342334472184628
0.0018690517772754888   -0.002337455861311679   -0.0003868987852592858
0.0009069590460262748   -0.002264738026407265   -0.00038890145559687943
0.002382415773554335   -0.00434586843809933   -0.0005342334472184628
0.0011669858383645594   -0.00431445521207592   -0.0004956046962427761
0.0011684050455503764   -0.004324566926397468   -0.0004825450323187085
0.0009069590460262748   -0.002264738026407265   -0.00038890145559687943
0.002382415773554335   -0.00434586843809933   -0.0005342334472184628
0.0011684050455503764   -0.004324566926397468   -0.0004825450323187085
0.0018690517772754888   -0.002337455861311679   -0.0003868987852592858
0.0009069590460262748   -0.002264738026407265   -0.00038890145559687943
0.0011669858383645594   -0.00431445521207592   -0.0004956046962427761
0.0018359385109415999   -0.0023183794680959402   -0.00044097254361687486
0.000905754922561948   -0.0022370223743226722   -0.0004151095704434426
0.0011669858383645594   -0.00431445521207592   -0.0004956046962427761
0.002382415773554335   -0.00434586843809933   -0.0005342334472184628
0.0018359385109415999   -0.0023183794680959402   -0.00044097254361687486
0.0023470560905962034   -0.004313882720852   -0.0005709716128885378
0.000905754922561948   -0.0022370223743226722   -0.0004151095704434426
0.0017855092294316436   -0.002276359254990765   -0.0004973877088332048
0.0023470560905962034   -0.004313882720852   -0.0005709716128885378
0.0018359385109415999   -0.0023183794680959402   -0.00044097254361687486
0.000905754922561948   -0.0022370223743226722   -0.0004151095704434426
0.0023470560905962034   -0.004313882720852   -0.0005709716128885378
0.0011639958648055964   -0.004293866223747876   -0.0005112264251928323
0.0011669858383645594   -0.00431445521207592   -0.0004956046962427761
0.000905754922561948   -0.0022370223743226722   -0.0004151095704434426
0.0023470560905962034   -0.004313882720852   -0.0005709716128885378
0.0011669858383645594   -0.00431445521207592   -0.0004956046962427761
0.0018359385109415999   -0.0023183794680959402   -0.00044097254361687486
-0.0032476095885074266   -0.004389870092703798   -0.0006585621301060393
-0.003868374863811898   -0.006796414252914299   -0.0007038096406168739
-0.0020889862486101205   -0.004332593397066536   -0.0005769117810883217
-0.0033034851587934845   -0.004435039818017177   -0.0006023966921621319
-0.003868374863811898   -0.006796414252914299   -0.0007038096406168739
-0.0025136010225706353   -0.00676026383791941   -0.00063773836618532
-0.0020889862486101205   -0.004332593397066536   -0.0005769117810883217
-0.0025152333834698253   -0.006788446795916249   -0.000612011615579618
-0.0033034851587934845   -0.004435039818017177   -0.0006023966921621319
-0.0020922023746422548   -0.004365587298295918   -0.0005407640291500317
-0.0025152333834698253   -0.006788446795916249   -0.000612011615579618
-0.0020889862486101205   -0.004332593397066536   -0.0005769117810883217
-0.0033034851587934845   -0.004435039818017177   -0.0006023966921621319
-0.0025152333834698253   -0.006788446795916249   -0.000612011615579618
-0.0039052209537319125   -0.0068346108375598345   -0.0006668684349873248
-0.003868374863811898   -0.006796414252914299   -0.0007038096406168739
-0.0033034851587934845   -0.004435039818017177   -0.0006023966921621319
-0.0025152333834698253   -0.006788446795916249   -0.000612011615579618
-0.003868374863811898   -0.006796414252914299   -0.0007038096406168739
-0.0020889862486101205   -0.004332593397066536   -0.0005769117810883217
-0.0033034851587934845   -0.004435039818017177   -0.0006023966921621319
-0.0039052209537319125   -0.0068346108375598345   -0.0006668684349873248
-0.0020922023746422548   -0.004365587298295918   -0.0005407640291500317
-0.0033380839162635797   -0.004463490360001885   -0.000550133791058319
-0.0039052209537319125   -0.0068346108375598345   -0.0006668684349873248
-0.0025152333834698253   -0.006788446795916249   -0.000612011615579618
-0.0020922023746422548   -0.004365587298295918   -0.0005407640291500317
-0.0025159530587518055   -0.006810908372312159   -0.0005888729786825773
-0.0033380839162635797   -0.004463490360001885   -0.000550133791058319
-0.0020961559847619826   -0.0043886596795017375   -0.0005072818538623825
-0.0025159530587518055   -0.006810908372312159   -0.0005888729786825773
-0.0020922023746422548   -0.004365587298295918   -0.0005407640291500317
-0.0033380839162635797   -0.004463490360001885   -0.000550133791058319
-0.0025159530587518055   -0.006810908372312159   -0.0005888729786825773
-0.003925676221930572   -0.0068617781940837974   -0.00063353139957896
-0.0039052209537319125   -0.0068346108375598345   -0.0006668684349873248
-0.0033380839162635797   -0.004463490360001885   -0.000550133791058319
-0.0025159530587518055   -0.006810908372312159   -0.0005888729786825773
-0.0039052209537319125   -0.0068346108375598345   -0.0006668684349873248
-0.0020922023746422548   -0.004365587298295918   -0.0005407640291500317
-0.0033380839162635797   -0.004463490360001885   -0.000550133791058319
-0.003925676221930572   -0.0068617781940837974   -0.00063353139957896
-0.0020961559847619826   -0.0043886596795017375   -0.0005072818538623825
-0.0033774492047274267   -0.004484228587468429   -0.0005021396092877821
-0.003925676221930572   -0.0068617781940837974   -0.00063353139957896
-0.0025159530587518055   -0.006810908372312159   -0.0005888729786825773
-0.0020961559847619826   -0.0043886596795017375   -0.0005072818538623825
-0.0025093395128576723   -0.006829524243119039   -0.0005679696371302217
-0.0033774492047274267   -0.004484228587468429   -0.0005021396092877821
-0.002090783732424735   -0.004404010113247752   -0.0004758940023878418
-0.0025093395128576723   -0.006829524243119039   -0.0005679696371302217
-0.0020961559847619826   -0.0043886596795017375   -0.0005072818538623825
-0.0033774492047274267   -0.004484228587468429   -0.0005021396092877821
-0.0025093395128576723   -0.006829524243119039   -0.0005679696371302217
-0.003946630730669024   -0.00688637323927077   -0.0006042350140308128
-0.003925676221930572   -0.0068617781940837974   -0.00063353139957896
-0.0033774492047274267   -0.004484228587468429   -0.0005021396092877821
-0.0025093395128576723   -0.006829524243119039   -0.0005679696371302217
-0.003925676221930572   -0.0068617781940837974   -0.00063353139957896
-0.0020961559847619826   -0.0043886596795017375   -0.0005072818538623825
-0.0020889862486101205   -0.004332593397066536   -0.0005769117810883217
-0.0025136010225706353   -0.00676026383791941   -0.00063773836618532
-0.0009984808528520337   -0.004303918890082011   -0.0005202450031373323
-0.0020922023746422548   -0.004365587298295918   -0.0005407640291500317
-0.0025136010225706353   -0.00676026383791941   -0.00063773836618532
-0.001244700570152473   -0.006741383064014965   -0.0005920315834167472
-0.0009984808528520337   -0.004303918890082011   -0.0005202450031373323
-0.00124098395376885   -0.006758966763478197   -0.0005748866814487166
-0.0020922023746422548   -0.004365587298295918   -0.0005407640291500317
-0.0009946259296897172   -0.004324913551309602   -0.0004996835347633033
-0.00124098395376885   -0.006758966763478197   -0.0005748866814487166
-0.0009984808528520337   -0.004303918890082011   -0.0005202450031373323
-0.0020922023746422548   -0.004365587298295918   -0.0005407640291500317
-0.00124098395376885   -0.006758966763478197   -0.0005748866814487166
-0.0025152333834698253   -0.006788446795916249   -0.000612011615579618
-0.0025136010225706353   -0.00676026383791941   -0.00063773836618532
-0.0020922023746422548   -0.004365587298295918   -0.0005407640291500317
-0.00124098395376885   -0.006758966763478197   -0.0005748866814487166
-0.0025136010225706353   -0.00676026383791941   -0.00063773836618532
-0.0009984808528520337   -0.004303918890082011   -0.0005202450031373323
-0.0020922023746422548   -0.004365587298295918   -0.0005407640291500317
-0.0025152333834698253   -0.006788446795916249   -0.000612011615579618
-0.0009946259296897172   -0.004324913551309602   -0.0004996835347633033
-0.0020961559847619826   -0.0043886596795017375   -0.0005072818538623825
-0.0025152333834698253   -0.006788446795916249   -0.000612011615579618
-0.00124098395376885   -0.006758966763478197   -0.0005748866814487166
-0.0009946259296897172   -0.004324913551309602   -0.0004996835347633033
-0.0012364199919521499   -0.006771743579778744   -0.0005602839777540001
-0.0020961559847619826   -0.0043886596795017375   -0.0005072818538623825
-0.0009902166082311906   -0.0043372893418706935   -0.00048165186693765967
-0.0012364199919521499   -0.006771743579778744   -0.0005602839777540001
-0.0009946259296897172   -0.004324913551309602   -0.0004996835347633033
-0.0020961559847619826   -0.0043886596795017375   -0.0005072818538623825
-0.0012364199919521499   -0.006771743579778744   -0.0005602839777540001
-0.0025159530587518055   -0.006810908372312159   -0.0005888729786825773
-0.0025152333834698253   -0.006788446795916249   -0.000612011615579618
-0.0020961559847619826   -0.0043886596795017375   -0.0005072818538623825
-0.0012364199919521499   -0.006771743579778744   -0.0005602839777540001
-0.0025152333834698253   -0.006788446795916249   -0.000612011615579618
-0.0009946259296897172   -0.004324913551309602   -0.0004996835347633033
-0.0020961559847619826   -0.0043886596795017375   -0.0005072818538623825
-0.0025159530587518055   -0.006810908372312159   -0.0005888729786825773
-0.0009902166082311906   -0.0043372893418706935   -0.00048165186693765967
-0.002090783732424735   -0.004404010113247752   -0.0004758940023878418
-0.0025159530587518055   -0.006810908372312159   -0.0005888729786825773
-0.0012364199919521499   -0.006771743579778744   -0.0005602839777540001
-0.0009902166082311906   -0.0043372893418706935   -0.00048165186693765967
-0.0012302562537216091   -0.006779798738110708   -0.000548270687346908
-0.002090783732424735   -0.004404010113247752   -0.0004758940023878418
-0.0009838151691917182   -0.0043412228948681965   -0.00046614639632735534
-0.0012302562537216091   -0.006779798738110708   -0.000548270687346908
-0.0009902166082311906   -0.0043372893418706935   -0.00048165186693765967
-0.002090783732424735   -0.004404010113247752   -0.0004758940023878418
-0.0012302562537216091   -0.006779798738110708   -0.000548270687346908
-0.0025093395128576723   -0.006829524243119039   -0.0005679696371302217
-0.0025159530587518055   -0.006810908372312159   -0.0005888729786825773
-0.002090783732424735   -0.004404010113247752   -0.0004758940023878418
-0.0012302562537216091   -0.006779798738110708   -0.000548270687346908
-0.0025159530587518055   -0.006810908372312159   -0.0005888729786825773
-0.0009902166082311906   -0.0043372893418706935   -0.00048165186693765967
-0.0009984808528520337   -0.004303918890082011   -0.0005202450031373323
-0.001244700570152473   -0.006741383064014965   -0.0005920315834167472
5.9419277044214394e-05   -0.004302369781258092   -0.0004853838405633871
-0.0009946259296897172   -0.004324913551309602   -0.0004996835347633033
-0.001244700570152473   -0.006741383064014965   -0.0005920315834167472
-1.0591554194812519e-05   -0.006738013492635702   -0.0005657015338193773
5.9419277044214394e-05   -0.004302369781258092   -0.0004853838405633871
-4.753581568519757e-06   -0.0067448984468172265   -0.0005572217790212063
-0.0009946259296897172   -0.004324913551309602   -0.0004996835347633033
6.542173880933781e-05   -0.004311519688732722   -0.00048033388223657215
-4.753581568519757e-06   -0.0067448984468172265   -0.0005572217790212063
5.9419277044214394e-05   -0.004302369781258092   -0.0004853838405633871
-0.0009946259296897172   -0.004324913551309602   -0.0004996835347633033
-4.753581568519757e-06   -0.0067448984468172265   -0.0005572217790212063
-0.00124098395376885   -0.006758966763478197   -0.0005748866814487166
-0.001244700570152473   -0.006741383064014965   -0.0005920315834167472
-0.0009946259296897172   -0.004324913551309602   -0.0004996835347633033
-4.753581568519757e-06   -0.0067448984468172265   -0.0005572217790212063
-0.001244700570152473   -0.006741383064014965   -0.0005920315834167472
5.9419277044214394e-05   -0.004302369781258092   -0.0004853838405633871
-0.0009946259296897172   -0.004324913551309602   -0.0004996835347633033
-0.00124098395376885   -0.006758966763478197   -0.0005748866814487166
6.542173880933781e-05   -0.004311519688732722   -0.00048033388223657215
-0.0009902166082311906   -0.0043372893418706935   -0.00048165186693765967
-0.00124098395376885   -0.006758966763478197   -0.0005748866814487166
-4.753581568519757e-06   -0.0067448984468172265   -0.0005572217790212063
6.542173880933781e-05   -0.004311519688732722   -0.00048033388223657215
-2.1062244216313564e-07   -0.006746941654565677   -0.0005512568847655927
-0.0009902166082311906   -0.0043372893418706935   -0.00048165186693765967
6.975282513338591e-05   -0.004312082616991919   -0.0004777522429375172
-2.1062244216313564e-07   -0.006746941654565677   -0.0005512568847655927
6.542173880933781e-05   -0.004311519688732722   -0.00048033388223657215
-0.0009902166082311906   -0.0043372893418706935   -0.00048165186693765967
-2.1062244216313564e-07   -0.006746941654565677   -0.0005512568847655927
-0.0012364199919521499   -0.006771743579778744   -0.0005602839777540001
-0.00124098395376885   -0.006758966763478197   -0.0005748866814487166
-0.0009902166082311906   -0.0043372893418706935   -0.00048165186693765967
-2.1062244216313564e-07   -0.006746941654565677   -0.0005512568847655927
-0.00124098395376885   -0.006758966763478197   -0.0005748866814487166
6.542173880933781e-05   -0.004311519688732722   -0.00048033388223657215
-0.0009902166082311906   -0.0043372893418706935   -0.00048165186693765967
-0.0012364199919521499   -0.006771743579778744   -0.0005602839777540001
6.975282513338591e-05   -0.004312082616991919   -0.0004777522429375172
-0.0009838151691917182   -0.0043412228948681965   -0.00046614639632735534
-0.0012364199919521499   -0.006771743579778744   -0.0005602839777540001
-2.1062244216313564e-07   -0.006746941654565677   -0.0005512568847655927
6.975282513338591e-05   -0.004312082616991919   -0.0004777522429375172
3.191551986617996e-06   -0.006744075561748324   -0.0005479140152265783
-0.0009838151691917182   -0.0043412228948681965   -0.00046614639632735534
7.327566345222647e-05   -0.004303932378371449   -0.0004777837720905617
3.191551986617996e-06   -0.006744075561748324   -0.0005479140152265783
6.975282513338591e-05   -0.004312082616991919   -0.0004777522429375172
-0.0009838151691917182   -0.0043412228948681965   -0.00046614639632735534
3.191551986617996e-06   -0.006744075561748324   -0.0005479140152265783
-0.0012302562537216091   -0.006779798738110708   -0.000548270687346908
-0.0012364199919521499   -0.006771743579778744   -0.0005602839777540001
-0.0009838151691917182   -0.0043412228948681965   -0.00046614639632735534
3.191551986617996e-06   -0.006744075561748324   -0.0005479140152265783
-0.0012364199919521499   -0.006771743579778744   -0.0005602839777540001
6.975282513338591e-05   -0.004312082616991919   -0.0004777522429375172
5.9419277044214394e-05   -0.004302369781258092   -0.0004853838405633871
-1.0591554194812519e-05   -0.006738013492635702   -0.0005657015338193773
0.0011628544557607601   -0.00432632148752166   -0.00047177233649542427
6.542173880933781e-05   -0.004311519688732722   -0.00048033388223657215
-1.0591554194812519e-05   -0.006738013492635702   -0.0005657015338193773
0.0012660351837980278   -0.0067487962362769716   -0.0005586929214072362
0.0011628544557607601   -0.00432632148752166   -0.00047177233649542427
0.001272983611971836   -0.006745561627288859   -0.0005590501423857881
6.542173880933781e-05   -0.004311519688732722   -0.00048033388223657215
0.0011684050455503764   -0.004324566926397468   -0.0004825450323187085
0.001272983611971836   -0.006745561627288859   -0.0005590501423857881
0.0011628544557607601   -0.00432632148752166   -0.00047177233649542427
6.542173880933781e-05   -0.004311519688732722   -0.00048033388223657215
0.001272983611971836   -0.006745561627288859   -0.0005590501423857881
-4.753581568519757e-06   -0.0067448984468172265   -0.0005572217790212063
-1.0591554194812519e-05   -0.006738013492635702   -0.0005657015338193773
6.542173880933781e-05   -0.004311519688732722   -0.00048033388223657215
0.001272983611971836   -0.006745561627288859   -0.0005590501423857881
-1.0591554194812519e-05   -0.006738013492635702   -0.0005657015338193773
0.0011628544557607601   -0.00432632148752166   -0.00047177233649542427
6.542173880933781e-05   -0.004311519688732722   -0.00048033388223657215
-4.753581568519757e-06   -0.0067448984468172265   -0.0005572217790212063
0.0011684050455503764   -0.004324566926397468   -0.0004825450323187085
6.975282513338591e-05   -0.004312082616991919   -0.0004777522429375172
-4.753581568519757e-06   -0.0067448984468172265   -0.0005572217790212063
0.001272983611971836   -0.006745561627288859   -0.0005590501423857881
0.0011684050455503764   -0.004324566926397468   -0.0004825450323187085
0.0012749728477589321   -0.006737908709909493   -0.0005617831946227331
6.975282513338591e-05   -0.004312082616991919   -0.0004777522429375172
0.0011669858383645594   -0.00431445521207592   -0.0004956046962427761
0.0012749728477589321   -0.006737908709909493   -0.0005617831946227331
0.0011684050455503764   -0.004324566926397468   -0.0004825450323187085
6.975282513338591e-05   -0.004312082616991919   -0.0004777522429375172
0.0012749728477589321   -0.006737908709909493   -0.0005617831946227331
-2.1062244216313564e-07   -0.006746941654565677   -0.0005512568847655927
-4.753581568519757e-06   -0.0067448984468172265   -0.0005572217790212063
6.975282513338591e-05   -0.004312082616991919   -0.0004777522429375172
0.0012749728477589321   -0.006737908709909493   -0.0005617831946227331
-4.753581568519757e-06   -0.0067448984468172265   -0.0005572217790212063
0.0011684050455503764   -0.004324566926397468   -0.0004825450323187085
6.975282513338591e-05   -0.004312082616991919   -0.0004777522429375172
-2.1062244216313564e-07   -0.006746941654565677   -0.0005512568847655927
0.0011669858383645594   -0.00431445521207592   -0.0004956046962427761
7.327566345222647e-05   -0.004303932378371449   -0.0004777837720905617
-2.1062244216313564e-07   -0.006746941654565677   -0.0005512568847655927
0.0012749728477589321   -0.006737908709909493   -0.0005617831946227331
0.0011669858383645594   -0.00431445521207592   -0.0004956046962427761
0.0012736800212358773   -0.006723973416555532   -0.0005669873814779923
7.327566345222647e-05   -0.004303932378371449   -0.0004777837720905617
0.0011639958648055964   -0.004293866223747876   -0.0005112264251928323
0.0012736800212358773   -0.006723973416555532   -0.0005669873814779923
0.0011669858383645594   -0.00431445521207592   -0.0004956046962427761
7.327566345222647e-05   -0.004303932378371449   -0.0004777837720905617
0.0012736800212358773   -0.006723973416555532   -0.0005669873814779923
3.191551986617996e-06   -0.006744075561748324   -0.0005479140152265783
-2.1062244216313564e-07   -0.006746941654565677   -0.0005512568847655927
7.327566345222647e-05   -0.004303932378371449   -0.0004777837720905617
0.0012736800212358773   -0.006723973416555532   -0.0005669873814779923
-2.1062244216313564e-07   -0.006746941654565677   -0.0005512568847655927
0.0011669858383645594   -0.00431445521207592   -0.0004956046962427761
0.0011628544557607601   -0.00432632148752166   -0.00047177233649542427
0.0012660351837980278   -0.0067487962362769716   -0.0005586929214072362
0.0024203008577421137   -0.004369460496248673   -0.0004731424483730226
0.0011684050455503764   -0.004324566926397468   -0.0004825450323187085
0.0012660351837980278   -0.0067487962362769716   -0.0005586929214072362
0.0026756014575984215   -0.006768367587519488   -0.0005670349515569707
0.0024203008577421137   -0.004369460496248673   -0.0004731424483730226
0.0026754739372668005   -0.0067582239207843705   -0.0005767677636078463
0.0011684050455503764   -0.004324566926397468   -0.0004825450323187085
0.0024014999086386583   -0.004361347677758812   -0.0005016253701630406
0.0026754739372668005   -0.0067582239207843705   -0.0005767677636078463
0.0024203008577421137   -0.004369460496248673   -0.0004731424483730226
0.0011684050455503764   -0.004324566926397468   -0.0004825450323187085
0.0026754739372668005   -0.0067582239207843705   -0.0005767677636078463
0.001272983611971836   -0.006745561627288859   -0.0005590501423857881
0.0012660351837980278   -0.0067487962362769716   -0.0005586929214072362
0.0011684050455503764   -0.004324566926397468   -0.0004825450323187085
0.0026754739372668005   -0.0067582239207843705   -0.0005767677636078463
0.0012660351837980278   -0.0067487962362769716   -0.0005586929214072362
0.0024203008577421137   -0.004369460496248673   -0.0004731424483730226
0.0011684050455503764   -0.004324566926397468   -0.0004825450323187085
0.001272983611971836   -0.006745561627288859   -0.0005590501423857881
0.0024014999086386583   -0.004361347677758812   -0.0005016253701630406
0.0011669858383645594   -0.00431445521207592   -0.0004956046962427761
0.001272983611971836   -0.006745561627288859   -0.0005590501423857881
0.0026754739372668005   -0.0067582239207843705   -0.0005767677636078463
0.0024014999086386583   -0.004361347677758812   -0.0005016253701630406
0.002670836804011618   -0.006745850101338238   -0.0005903650871865809
0.0011669858383645594   -0.00431445521207592   -0.0004956046962427761
0.002382415773554335   -0.00434586843809933   -0.0005342334472184628
0.002670836804011618   -0.006745850101338238   -0.0005903650871865809
0.0024014999086386583   -0.004361347677758812   -0.0005016253701630406
0.0011669858383645594   -0.00431445521207592   -0.0004956046962427761
0.002670836804011618   -0.006745850101338238   -0.0005903650871865809
0.0012749728477589321   -0.006737908709909493   -0.0005617831946227331
0.001272983611971836   -0.006745561627288859   -0.0005590501423857881
0.0011669858383645594   -0.00431445521207592   -0.0004956046962427761
0.002670836804011618   -0.006745850101338238   -0.0005903650871865809
0.001272983611971836   -0.006745561627288859   -0.0005590501423857881
0.0024014999086386583   -0.004361347677758812   -0.0005016253701630406
0.0011669858383645594   -0.00431445521207592   -0.0004956046962427761
0.0012749728477589321   -0.006737908709909493   -0.0005617831946227331
0.002382415773554335   -0.00434586843809933   -0.0005342334472184628
0.0011639958648055964   -0.004293866223747876   -0.0005112264251928323
0.0012749728477589321   -0.006737908709909493   -0.0005617831946227331
0.002670836804011618   -0.006745850101338238   -0.0005903650871865809
0.002382415773554335   -0.00434586843809933   -0.0005342334472184628
0.0026547809309389408   -0.006722726862975817   -0.0006077986897383132
0.0011639958648055964   -0.004293866223747876   -0.0005112264251928323
0.0023470560905962034   -0.004313882720852   -0.0005709716128885378
0.0026547809309389408   -0.006722726862975817   -0.0006077986897383132
0.002382415773554335   -0.00434586843809933   -0.0005342334472184628
0.0011639958648055964   -0.004293866223747876   -0.0005112264251928323
0.0026547809309389408   -0.006722726862975817   -0.0006077986897383132
0.0012736800212358773   -0.006723973416555532   -0.0005669873814779923
0.0012749728477589321   -0.006737908709909493   -0.0005617831946227331
0.0011639958648055964   -0.004293866223747876   -0.0005112264251928323
0.0026547809309389408   -0.006722726862975817   -0.0006077986897383132
0.0012749728477589321   -0.006737908709909493   -0.0005617831946227331
0.002382415773554335   -0.00434586843809933   -0.0005342334472184628
-0.003868374863811898   -0.006796414252914299   -0.0007038096406168739
-0.004239732197614107   -0.009405335601814275   -0.0007183154003822703
-0.0025136010225706353   -0.00676026383791941   -0.00063773836618532
-0.0039052209537319125   -0.0068346108375598345   -0.0006668684349873248
-0.004239732197614107   -0.009405335601814275   -0.0007183154003822703
-0.0027904013944782652   -0.00939086717282056   -0.0006661297180567576
-0.0025136010225706353   -0.00676026383791941   -0.00063773836618532
-0.002788106739684807   -0.00941472402536834   -0.000650452608230492
-0.0039052209537319125   -0.0068346108375598345   -0.0006668684349873248
-0.0025152333834698253   -0.006788446795916249   -0.000612011615579618
-0.002788106739684807   -0.00941472402536834   -0.000650452608230492
-0.0025136010225706353   -0.00676026383791941   -0.00063773836618532
-0.0039052209537319125   -0.0068346108375598345   -0.0006668684349873248
-0.002788106739684807   -0.00941472402536834   -0.000650452608230492
-0.004256079295131178   -0.009437469065980636   -0.0006995871944738631
-0.004239732197614107   -0.009405335601814275   -0.0007183154003822703
-0.0039052209537319125   -0.0068346108375598345   -0.0006668684349873248
-0.002788106739684807   -0.00941472402536834   -0.000650452608230492
-0.004239732197614107   -0.009405335601814275   -0.0007183154003822703
-0.0025136010225706353   -0.00676026383791941   -0.00063773836618532
-0.0039052209537319125   -0.0068346108375598345   -0.0006668684349873248
-0.004256079295131178   -0.009437469065980636   -0.0006995871944738631
-0.0025152333834698253   -0.006788446795916249   -0.000612011615579618
-0.003925676221930572   -0.0068617781940837974   -0.00063353139957896
-0.004256079295131178   -0.009437469065980636   -0.0006995871944738631
-0.002788106739684807   -0.00941472402536834   -0.000650452608230492
-0.0025152333834698253   -0.006788446795916249   -0.000612011615579618
-0.0027831773548483364   -0.009436870119088505   -0.0006373829757284347
-0.003925676221930572   -0.0068617781940837974   -0.00063353139957896
-0.0025159530587518055   -0.006810908372312159   -0.0005888729786825773
-0.0027831773548483364   -0.009436870119088505   -0.0006373829757284347
-0.0025152333834698253   -0.006788446795916249   -0.000612011615579618
-0.003925676221930572   -0.0068617781940837974   -0.00063353139957896
-0.0027831773548483364   -0.009436870119088505   -0.0006373829757284347
-0.004260312500692938   -0.009463845632179342   -0.0006846078233473222
-0.004256079295131178   -0.009437469065980636   -0.0006995871944738631
-0.003925676221930572   -0.0068617781940837974   -0.00063353139957896
-0.0027831773548483364   -0.009436870119088505   -0.0006373829757284347
-0.004256079295131178   -0.009437469065980636   -0.0006995871944738631
-0.0025152333834698253   -0.006788446795916249   -0.000612011615579618
-0.003925676221930572   -0.0068617781940837974   -0.00063353139957896
-0.004260312500692938   -0.009463845632179342   -0.0006846078233473222
-0.0025159530587518055   -0.006810908372312159   -0.0005888729786825773
-0.003946630730669024   -0.00688637323927077   -0.0006042350140308128
-0.004260312500692938   -0.009463845632179342   -0.0006846078233473222
-0.0027831773548483364   -0.009436870119088505   -0.0006373829757284347
-0.0025159530587518055   -0.006810908372312159   -0.0005888729786825773
-0.00277283130716636   -0.009459006547535164   -0.0006267263037098168
-0.003946630730669024   -0.00688637323927077   -0.0006042350140308128
-0.0025093395128576723   -0.006829524243119039   -0.0005679696371302217
-0.00277283130716636   -0.009459006547535164   -0.0006267263037098168
-0.0025159530587518055   -0.006810908372312159   -0.0005888729786825773
-0.003946630730669024   -0.00688637323927077   -0.0006042350140308128
-0.00277283130716636   -0.009459006547535164   -0.0006267263037098168
-0.004260642081234375   -0.00949270727875489   -0.0006737125229833485
-0.004260312500692938   -0.009463845632179342   -0.0006846078233473222
-0.003946630730669024   -0.00688637323927077   -0.0006042350140308128
-0.00277283130716636   -0.009459006547535164   -0.0006267263037098168
-0.004260312500692938   -0.009463845632179342   -0.0006846078233473222
-0.0025159530587518055   -0.006810908372312159   -0.0005888729786825773
-0.0025136010225706353   -0.00676026383791941   -0.00063773836618532
-0.0027904013944782652   -0.00939086717282056   -0.0006661297180567576
-0.001244700570152473   -0.006741383064014965   -0.0005920315834167472
-0.0025152333834698253   -0.006788446795916249   -0.000612011615579618
-0.0027904013944782652   -0.00939086717282056   -0.0006661297180567576
-0.0014443534977003362   -0.009382297774799918   -0.0006306432310709319
-0.001244700570152473   -0.006741383064014965   -0.0005920315834167472
-0.0014381649560277366   -0.009396637589909626   -0.0006167834725394654
-0.0025152333834698253   -0.006788446795916249   -0.000612011615579618
-0.00124098395376885   -0.006758966763478197   -0.0005748866814487166
-0.0014381649560277366   -0.009396637589909626   -0.0006167834725394654
-0.001244700570152473   -0.006741383064014965   -0.0005920315834167472
-0.0025152333834698253   -0.006788446795916249   -0.000612011615579618
-0.0014381649560277366   -0.009396637589909626   -0.0006167834725394654
-0.002788106739684807   -0.00941472402536834   -0.000650452608230492
-0.0027904013944782652   -0.00939086717282056   -0.0006661297180567576
-0.0025152333834698253   -0.006788446795916249   -0.000612011615579618
-0.0014381649560277366   -0.009396637589909626   -0.0006167834725394654
-0.0027904013944782652   -0.00939086717282056   -0.0006661297180567576
-0.001244700570152473   -0.006741383064014965   -0.0005920315834167472
-0.0025152333834698253   -0.006788446795916249   -0.000612011615579618
-0.002788106739684807   -0.00941472402536834   -0.000650452608230492
-0.00124098395376885   -0.006758966763478197   -0.0005748866814487166
-0.0025159530587518055   -0.006810908372312159   -0.0005888729786825773
-0.002788106739684807   -0.00941472402536834   -0.000650452608230492
-0.0014381649560277366   -0.009396637589909626   -0.0006167834725394654
-0.00124098395376885   -0.006758966763478197   -0.0005748866814487166
-0.0014308573969852192   -0.00940989342277432   -0.0006055270382960287
-0.0025159530587518055   -0.006810908372312159   -0.0005888729786825773
-0.0012364199919521499   -0.006771743579778744   -0.0005602839777540001
-0.0014308573969852192   -0.00940989342277432   -0.0006055270382960287
-0.00124098395376885   -0.006758966763478197   -0.0005748866814487166
-0.0025159530587518055   -0.006810908372312159   -0.0005888729786825773
-0.0014308573969852192   -0.00940989342277432   -0.0006055270382960287
-0.0027831773548483364   -0.009436870119088505   -0.0006373829757284347
-0.002788106739684807   -0.00941472402536834   -0.000650452608230492
-0.0025159530587518055   -0.006810908372312159   -0.0005888729786825773
-0.0014308573969852192   -0.00940989342277432   -0.0006055270382960287
-0.002788106739684807   -0.00941472402536834   -0.000650452608230492
-0.00124098395376885   -0.006758966763478197   -0.0005748866814487166
-0.0025159530587518055   -0.006810908372312159   -0.0005888729786825773
-0.0027831773548483364   -0.009436870119088505   -0.0006373829757284347
-0.0012364199919521499   -0.006771743579778744   -0.0005602839777540001
-0.0025093395128576723   -0.006829524243119039   -0.0005679696371302217
-0.0027831773548483364   -0.009436870119088505   -0.0006373829757284347
-0.0014308573969852192   -0.00940989342277432   -0.0006055270382960287
-0.0012364199919521499   -0.006771743579778744   -0.0005602839777540001
-0.0014222924373241339   -0.009422111198180394   -0.0005969425404496798
-0.0025093395128576723   -0.006829524243119039   -0.0005679696371302217
-0.0012302562537216091   -0.006779798738110708   -0.000548270687346908
-0.0014222924373241339   -0.009422111198180394   -0.0005969425404496798
-0.0012364199919521499   -0.006771743579778744   -0.0005602839777540001
-0.0025093395128576723   -0.006829524243119039   -0.0005679696371302217
-0.0014222924373241339   -0.009422111198180394   -0.0005969425404496798
-0.00277283130716636   -0.009459006547535164   -0.0006267263037098168
-0.0027831773548483364   -0.009436870119088505   -0.0006373829757284347
-0.0025093395128576723   -0.006829524243119039   -0.0005679696371302217
-0.0014222924373241339   -0.009422111198180394   -0.0005969425404496798
-0.0027831773548483364   -0.009436870119088505   -0.0006373829757284347
-0.0012364199919521499   -0.006771743579778744   -0.0005602839777540001
-0.001244700570152473   -0.006741383064014965   -0.0005920315834167472
-0.0014443534977003362   -0.009382297774799918   -0.0006306432310709319
-1.0591554194812519e-05   -0.006738013492635702   -0.0005657015338193773
-0.00124098395376885   -0.006758966763478197   -0.0005748866814487166
-0.0014443534977003362   -0.009382297774799918   -0.0006306432310709319
-0.00013479690001580094   -0.009377212216847428   -0.0006126049687704907
-1.0591554194812519e-05   -0.006738013492635702   -0.0005657015338193773
-0.00012657362892693752   -0.009381812835452693   -0.0006007152511789638
-0.00124098395376885   -0.006758966763478197   -0.0005748866814487166
-4.753581568519757e-06   -0.0067448984468172265   -0.0005572217790212063
-0.00012657362892693752   -0.009381812835452693   -0.0006007152511789638
-1.0591554194812519e-05   -0.006738013492635702   -0.0005657015338193773
-0.00124098395376885   -0.006758966763478197   -0.0005748866814487166
-0.00012657362892693752   -0.009381812835452693   -0.0006007152511789638
-0.0014381649560277366   -0.009396637589909626   -0.0006167834725394654
-0.0014443534977003362   -0.009382297774799918   -0.0006306432310709319
-0.00124098395376885   -0.006758966763478197   -0.0005748866814487166
-0.00012657362892693752   -0.009381812835452693   -0.0006007152511789638
-0.0014443534977003362   -0.009382297774799918   -0.0006306432310709319
-1.0591554194812519e-05   -0.006738013492635702   -0.0005657015338193773
-0.00124098395376885   -0.006758966763478197   -0.0005748866814487166
-0.0014381649560277366   -0.009396637589909626   -0.0006167834725394654
-4.753581568519757e-06   -0.0067448984468172265   -0.0005572217790212063
-0.0012364199919521499   -0.006771743579778744   -0.0005602839777540001
-0.0014381649560277366   -0.009396637589909626   -0.0006167834725394654
-0.00012657362892693752   -0.009381812835452693   -0.0006007152511789638
-4.753581568519757e-06   -0.0067448984468172265   -0.0005572217790212063
-0.0001193038491832121   -0.009385246253691658   -0.0005914115700146375
-0.0012364199919521499   -0.006771743579778744   -0.0005602839777540001
-2.1062244216313564e-07   -0.006746941654565677   -0.0005512568847655927
-0.0001193038491832121   -0.009385246253691658   -0.0005914115700146375
-4.753581568519757e-06   -0.0067448984468172265   -0.0005572217790212063
-0.0012364199919521499   -0.006771743579778744   -0.0005602839777540001
-0.0001193038491832121   -0.009385246253691658   -0.0005914115700146375
-0.0014308573969852192   -0.00940989342277432   -0.0006055270382960287
-0.0014381649560277366   -0.009396637589909626   -0.0006167834725394654
-0.0012364199919521499   -0.006771743579778744   -0.0005602839777540001
-0.0001193038491832121   -0.009385246253691658   -0.0005914115700146375
-0.0014381649560277366   -0.009396637589909626   -0.0006167834725394654
-4.753581568519757e-06   -0.0067448984468172265   -0.0005572217790212063
-0.0012364199919521499   -0.006771743579778744   -0.0005602839777540001
-0.0014308573969852192   -0.00940989342277432   -0.0006055270382960287
-2.1062244216313564e-07   -0.006746941654565677   -0.0005512568847655927
-0.0012302562537216091   -0.006779798738110708   -0.000548270687346908
-0.0014308573969852192   -0.00940989342277432   -0.0006055270382960287
-0.0001193038491832121   -0.009385246253691658   -0.0005914115700146375
-2.1062244216313564e-07   -0.006746941654565677   -0.0005512568847655927
-0.00011346428051853757   -0.009387490940974835   -0.0005847849260540152
-0.0012302562537216091   -0.006779798738110708   -0.000548270687346908
3.191551986617996e-06   -0.006744075561748324   -0.0005479140152265783
-0.00011346428051853757   -0.009387490940974835   -0.0005847849260540152
-2.1062244216313564e-07   -0.006746941654565677   -0.0005512568847655927
-0.0012302562537216091   -0.006779798738110708   -0.000548270687346908
-0.00011346428051853757   -0.009387490940974835   -0.0005847849260540152
-0.0014222924373241339   -0.009422111198180394   -0.0005969425404496798
-0.0014308573969852192   -0.00940989342277432   -0.0006055270382960287
-0.0012302562537216091   -0.006779798738110708   -0.000548270687346908
-0.00011346428051853757   -0.009387490940974835   -0.0005847849260540152
-0.0014308573969852192   -0.00940989342277432   -0.0006055270382960287
-2.1062244216313564e-07   -0.006746941654565677   -0.0005512568847655927
-1.0591554194812519e-05   -0.006738013492635702   -0.0005657015338193773
-0.00013479690001580094   -0.009377212216847428   -0.0006126049687704907
0.0012660351837980278   -0.0067487962362769716   -0.0005586929214072362
-4.753581568519757e-06   -0.0067448984468172265   -0.0005572217790212063
-0.00013479690001580094   -0.009377212216847428   -0.0006126049687704907
0.001214470406129586   -0.009374725074112295   -0.0006122254889115717
0.0012660351837980278   -0.0067487962362769716   -0.0005586929214072362
0.0012250863625955693   -0.009369856182263759   -0.0006023985693364119
-4.753581568519757e-06   -0.0067448984468172265   -0.0005572217790212063
0.001272983611971836   -0.006745561627288859   -0.0005590501423857881
0.0012250863625955693   -0.009369856182263759   -0.0006023985693364119
0.0012660351837980278   -0.0067487962362769716   -0.0005586929214072362
-4.753581568519757e-06   -0.0067448984468172265   -0.0005572217790212063
0.0012250863625955693   -0.009369856182263759   -0.0006023985693364119
-0.00012657362892693752   -0.009381812835452693   -0.0006007152511789638
-0.00013479690001580094   -0.009377212216847428   -0.0006126049687704907
-4.753581568519757e-06   -0.0067448984468172265   -0.0005572217790212063
0.0012250863625955693   -0.009369856182263759   -0.0006023985693364119
-0.00013479690001580094   -0.009377212216847428   -0.0006126049687704907
0.0012660351837980278   -0.0067487962362769716   -0.0005586929214072362
-4.753581568519757e-06   -0.0067448984468172265   -0.0005572217790212063
-0.00012657362892693752   -0.009381812835452693   -0.0006007152511789638
0.001272983611971836   -0.006745561627288859   -0.0005590501423857881
-2.1062244216313564e-07   -0.006746941654565677   -0.0005512568847655927
-0.00012657362892693752   -0.009381812835452693   -0.0006007152511789638
0.0012250863625955693   -0.009369856182263759   -0.0006023985693364119
0.001272983611971836   -0.006745561627288859   -0.0005590501423857881
0.0012326889939889153   -0.009364401186791143   -0.0005950795048754172
-2.1062244216313564e-07   -0.006746941654565677   -0.0005512568847655927
0.0012749728477589321   -0.006737908709909493   -0.0005617831946227331
0.0012326889939889153   -0.009364401186791143   -0.0005950795048754172
0.001272983611971836   -0.006745561627288859   -0.0005590501423857881
-2.1062244216313564e-07   -0.006746941654565677   -0.0005512568847655927
0.0012326889939889153   -0.009364401186791143   -0.0005950795048754172
-0.0001193038491832121   -0.009385246253691658   -0.0005914115700146375
-0.00012657362892693752   -0.009381812835452693   -0.0006007152511789638
-2.1062244216313564e-07   -0.006746941654565677   -0.0005512568847655927
0.0012326889939889153   -0.009364401186791143   -0.0005950795048754172
-0.00012657362892693752   -0.009381812835452693   -0.0006007152511789638
0.001272983611971836   -0.006745561627288859   -0.0005590501423857881
-2.1062244216313564e-07   -0.006746941654565677   -0.0005512568847655927
-0.0001193038491832121   -0.009385246253691658   -0.0005914115700146375
0.0012749728477589321   -0.006737908709909493   -0.0005617831946227331
3.191551986617996e-06   -0.006744075561748324   -0.0005479140152265783
-0.0001193038491832121   -0.009385246253691658   -0.0005914115700146375
0.0012326889939889153   -0.009364401186791143   -0.0005950795048754172
0.0012749728477589321   -0.006737908709909493   -0.0005617831946227331
0.0012352868881475023   -0.009356640263505491   -0.0005902198809204276
3.191551986617996e-06   -0.006744075561748324   -0.0005479140152265783
0.0012736800212358773   -0.006723973416555532   -0.0005669873814779923
0.0012352868881475023   -0.009356640263505491   -0.0005902198809204276
0.0012749728477589321   -0.006737908709909493   -0.0005617831946227331
3.191551986617996e-06   -0.006744075561748324   -0.0005479140152265783
0.0012352868881475023   -0.009356640263505491   -0.0005902198809204276
-0.00011346428051853757   -0.009387490940974835   -0.0005847849260540152
-0.0001193038491832121   -0.009385246253691658   -0.0005914115700146375
3.191551986617996e-06   -0.006744075561748324   -0.0005479140152265783
0.0012352868881475023   -0.009356640263505491   -0.0005902198809204276
-0.0001193038491832121   -0.009385246253691658   -0.0005914115700146375
0.0012749728477589321   -0.006737908709909493   -0.0005617831946227331
0.0012660351837980278   -0.0067487962362769716   -0.0005586929214072362
0.001214470406129586   -0.009374725074112295   -0.0006122254889115717
0.0026756014575984215   -0.006768367587519488   -0.0005670349515569707
0.001272983611971836   -0.006745561627288859   -0.0005590501423857881
0.001214470406129586   -0.009374725074112295   -0.0006122254889115717
0.0026756143004986323   -0.009370926079296444   -0.0006279390884948657
0.0026756014575984215   -0.006768367587519488   -0.0005670349515569707
0.0026959291362145966   -0.00935852833845962   -0.0006194199332772861
0.001272983611971836   -0.006745561627288859   -0.0005590501423857881
0.0026754739372668005   -0.0067582239207843705   -0.0005767677636078463
0.0026959291362145966   -0.00935852833845962   -0.0006194199332772861
0.0026756014575984215   -0.006768367587519488   -0.0005670349515569707
0.001272983611971836   -0.006745561627288859   -0.0005590501423857881
0.0026959291362145966   -0.00935852833845962   -0.0006194199332772861
0.0012250863625955693   -0.009369856182263759   -0.0006023985693364119
0.001214470406129586   -0.009374725074112295   -0.0006122254889115717
0.001272983611971836   -0.006745561627288859   -0.0005590501423857881
0.0026959291362145966   -0.00935852833845962   -0.0006194199332772861
0.001214470406129586   -0.009374725074112295   -0.0006122254889115717
0.0026756014575984215   -0.006768367587519488   -0.0005670349515569707
0.001272983611971836   -0.006745561627288859   -0.0005590501423857881
0.0012250863625955693   -0.009369856182263759   -0.0006023985693364119
0.0026754739372668005   -0.0067582239207843705   -0.0005767677636078463
0.0012749728477589321   -0.006737908709909493   -0.0005617831946227331
0.0012250863625955693   -0.009369856182263759   -0.0006023985693364119
0.0026959291362145966   -0.00935852833845962   -0.0006194199332772861
0.0026754739372668005   -0.0067582239207843705   -0.0005767677636078463
0.002707458450946258   -0.009348862026385475   -0.000614725611018676
0.0012749728477589321   -0.006737908709909493   -0.0005617831946227331
0.002670836804011618   -0.006745850101338238   -0.0005903650871865809
0.002707458450946258   -0.009348862026385475   -0.000614725611018676
0.0026754739372668005   -0.0067582239207843705   -0.0005767677636078463
0.0012749728477589321   -0.006737908709909493   -0.0005617831946227331
0.002707458450946258   -0.009348862026385475   -0.000614725611018676
0.0012326889939889153   -0.009364401186791143   -0.0005950795048754172
0.0012250863625955693   -0.009369856182263759   -0.0006023985693364119
0.0012749728477589321   -0.006737908709909493   -0.0005617831946227331
0.002707458450946258   -0.009348862026385475   -0.000614725611018676
0.0012250863625955693   -0.009369856182263759   -0.0006023985693364119
0.0026754739372668005   -0.0067582239207843705   -0.0005767677636078463
0.0012749728477589321   -0.006737908709909493   -0.0005617831946227331
0.0012326889939889153   -0.009364401186791143   -0.0005950795048754172
0.002670836804011618   -0.006745850101338238   -0.0005903650871865809
0.0012736800212358773   -0.006723973416555532   -0.0005669873814779923
0.0012326889939889153   -0.009364401186791143   -0.0005950795048754172
0.002707458450946258   -0.009348862026385475   -0.000614725611018676
0.002670836804011618   -0.006745850101338238   -0.0005903650871865809
0.0027119554819240205   -0.00933373975024714   -0.000613921927786303
0.0012736800212358773   -0.006723973416555532   -0.0005669873814779923
0.0026547809309389408   -0.006722726862975817   -0.0006077986897383132
0.0027119554819240205   -0.00933373975024714   -0.000613921927786303
0.002670836804011618   -0.006745850101338238   -0.0005903650871865809
0.0012736800212358773   -0.006723973416555532   -0.0005669873814779923
0.0027119554819240205   -0.00933373975024714   -0.000613921927786303
0.0012352868881475023   -0.009356640263505491   -0.0005902198809204276
0.0012326889939889153   -0.009364401186791143   -0.0005950795048754172
0.0012736800212358773   -0.006723973416555532   -0.0005669873814779923
0.0027119554819240205   -0.00933373975024714   -0.000613921927786303
0.0012326889939889153   -0.009364401186791143   -0.0005950795048754172
0.002670836804011618   -0.006745850101338238   -0.0005903650871865809
-0.004239732197614107   -0.009405335601814275   -0.0007183154003822703
-0.004364397535220365   -0.012051222655743233   -0.0007077245105691405
-0.0027904013944782652   -0.00939086717282056   -0.0006661297180567576
-0.004256079295131178   -0.009437469065980636   -0.0006995871944738631
-0.004364397535220365   -0.012051222655743233   -0.0007077245105691405
-0.0029212775576613033   -0.012058365958071415   -0.0006695168245703633
-0.0027904013944782652   -0.00939086717282056   -0.0006661297180567576
-0.0029126915240621064   -0.012077873616563426   -0.0006636377868708869
-0.004256079295131178   -0.009437469065980636   -0.0006995871944738631
-0.002788106739684807   -0.00941472402536834   -0.000650452608230492
-0.0029126915240621064   -0.012077873616563426   -0.0006636377868708869
-0.0027904013944782652   -0.00939086717282056   -0.0006661297180567576
-0.004256079295131178   -0.009437469065980636   -0.0006995871944738631
-0.0029126915240621064   -0.012077873616563426   -0.0006636377868708869
-0.004358167683804516   -0.012077372266572631   -0.0007069410765617437
-0.004364397535220365   -0.012051222655743233   -0.0007077245105691405
-0.004256079295131178   -0.009437469065980636   -0.0006995871944738631
-0.0029126915240621064   -0.012077873616563426   -0.0006636377868708869
-0.004364397535220365   -0.012051222655743233   -0.0007077245105691405
-0.0027904013944782652   -0.00939086717282056   -0.0006661297180567576
-0.004256079295131178   -0.009437469065980636   -0.0006995871944738631
-0.004358167683804516   -0.012077372266572631   -0.0007069410765617437
-0.002788106739684807   -0.00941472402536834   -0.000650452608230492
-0.004260312500692938   -0.009463845632179342   -0.0006846078233473222
-0.004358167683804516   -0.012077372266572631   -0.0007069410765617437
-0.0029126915240621064   -0.012077873616563426   -0.0006636377868708869
-0.002788106739684807   -0.00941472402536834   -0.000650452608230492
-0.0028997711405618375   -0.012099660678395305   -0.0006604104875326979
-0.004260312500692938   -0.009463845632179342   -0.0006846078233473222
-0.0027831773548483364   -0.009436870119088505   -0.0006373829757284347
-0.0028997711405618375   -0.012099660678395305   -0.0006604104875326979
-0.002788106739684807   -0.00941472402536834   -0.000650452608230492
-0.004260312500692938   -0.009463845632179342   -0.0006846078233473222
-0.0028997711405618375   -0.012099660678395305   -0.0006604104875326979
-0.004343884445789648   -0.012102972743668483   -0.0007101161316997094
-0.004358167683804516   -0.012077372266572631   -0.0007069410765617437
-0.004260312500692938   -0.009463845632179342   -0.0006846078233473222
-0.0028997711405618375   -0.012099660678395305   -0.0006604104875326979
-0.004358167683804516   -0.012077372266572631   -0.0007069410765617437
-0.002788106739684807   -0.00941472402536834   -0.000650452608230492
-0.004260312500692938   -0.009463845632179342   -0.0006846078233473222
-0.004343884445789648   -0.012102972743668483   -0.0007101161316997094
-0.0027831773548483364   -0.009436870119088505   -0.0006373829757284347
-0.004260642081234375   -0.00949270727875489   -0.0006737125229833485
-0.004343884445789648   -0.012102972743668483   -0.0007101161316997094
-0.0028997711405618375   -0.012099660678395305   -0.0006604104875326979
-0.0027831773548483364   -0.009436870119088505   -0.0006373829757284347
-0.002883319597509411   -0.012125239499724404   -0.0006597793356289616
-0.004260642081234375   -0.00949270727875489   -0.0006737125229833485
-0.00277283130716636   -0.009459006547535164   -0.0006267263037098168
-0.002883319597509411   -0.012125239499724404   -0.0006597793356289616
-0.0027831773548483364   -0.009436870119088505   -0.0006373829757284347
-0.004260642081234375   -0.00949270727875489   -0.0006737125229833485
-0.002883319597509411   -0.012125239499724404   -0.0006597793356289616
-0.0043213519589161385   -0.012136137698874979   -0.0007174657159957719
-0.004343884445789648   -0.012102972743668483   -0.0007101161316997094
-0.004260642081234375   -0.00949270727875489   -0.0006737125229833485
-0.002883319597509411   -0.012125239499724404   -0.0006597793356289616
-0.004343884445789648   -0.012102972743668483   -0.0007101161316997094
-0.0027831773548483364   -0.009436870119088505   -0.0006373829757284347
-0.0027904013944782652   -0.00939086717282056   -0.0006661297180567576
-0.0029212775576613033   -0.012058365958071415   -0.0006695168245703633
-0.0014443534977003362   -0.009382297774799918   -0.0006306432310709319
-0.002788106739684807   -0.00941472402536834   -0.000650452608230492
-0.0029212775576613033   -0.012058365958071415   -0.0006695168245703633
-0.0015986621898054169   -0.012059730003470284   -0.0006441693498423338
-0.0014443534977003362   -0.009382297774799918   -0.0006306432310709319
-0.0015874916364357048   -0.012070820648357005   -0.0006334701738742785
-0.002788106739684807   -0.00941472402536834   -0.000650452608230492
-0.0014381649560277366   -0.009396637589909626   -0.0006167834725394654
-0.0015874916364357048   -0.012070820648357005   -0.0006334701738742785
-0.0014443534977003362   -0.009382297774799918   -0.0006306432310709319
-0.002788106739684807   -0.00941472402536834   -0.000650452608230492
-0.0015874916364357048   -0.012070820648357005   -0.0006334701738742785
-0.0029126915240621064   -0.012077873616563426   -0.0006636377868708869
-0.0029212775576613033   -0.012058365958071415   -0.0006695168245703633
-0.002788106739684807   -0.00941472402536834   -0.000650452608230492
-0.0015874916364357048   -0.012070820648357005   -0.0006334701738742785
-0.0029212775576613033   -0.012058365958071415   -0.0006695168245703633
-0.0014443534977003362   -0.009382297774799918   -0.0006306432310709319
-0.002788106739684807   -0.00941472402536834   -0.000650452608230492
-0.0029126915240621064   -0.012077873616563426   -0.0006636377868708869
-0.0014381649560277366   -0.009396637589909626   -0.0006167834725394654
-0.0027831773548483364   -0.009436870119088505   -0.0006373829757284347
-0.0029126915240621064   -0.012077873616563426   -0.0006636377868708869
-0.0015874916364357048   -0.012070820648357005   -0.0006334701738742785
-0.0014381649560277366   -0.009396637589909626   -0.0006167834725394654
-0.0015749936212080015   -0.012084466973412018   -0.00062542796554233
-0.0027831773548483364   -0.009436870119088505   -0.0006373829757284347
-0.0014308573969852192   -0.00940989342277432   -0.0006055270382960287
-0.0015749936212080015   -0.012084466973412018   -0.00062542796554233
-0.0014381649560277366   -0.009396637589909626   -0.0006167834725394654
-0.0027831773548483364   -0.009436870119088505   -0.0006373829757284347
-0.0015749936212080015   -0.012084466973412018   -0.00062542796554233
-0.0028997711405618375   -0.012099660678395305   -0.0006604104875326979
-0.0029126915240621064   -0.012077873616563426   -0.0006636377868708869
-0.0027831773548483364   -0.009436870119088505   -0.0006373829757284347
-0.0015749936212080015   -0.012084466973412018   -0.00062542796554233
-0.0029126915240621064   -0.012077873616563426   -0.0006636377868708869
-0.0014381649560277366   -0.009396637589909626   -0.0006167834725394654
-0.0027831773548483364   -0.009436870119088505   -0.0006373829757284347
-0.0028997711405618375   -0.012099660678395305   -0.0006604104875326979
-0.0014308573969852192   -0.00940989342277432   -0.0006055270382960287
-0.00277283130716636   -0.009459006547535164   -0.0006267263037098168
-0.0028997711405618375   -0.012099660678395305   -0.0006604104875326979
-0.0015749936212080015   -0.012084466973412018   -0.00062542796554233
-0.0014308573969852192   -0.00940989342277432   -0.0006055270382960287
-0.0015615755868915754   -0.012100711892183202   -0.0006201354986682128
-0.00277283130716636   -0.009459006547535164   -0.0006267263037098168
-0.0014222924373241339   -0.009422111198180394   -0.0005969425404496798
-0.0015615755868915754   -0.012100711892183202   -0.0006201354986682128
-0.0014308573969852192   -0.00940989342277432   -0.0006055270382960287
-0.00277283130716636   -0.009459006547535164   -0.0006267263037098168
-0.0015615755868915754   -0.012100711892183202   -0.0006201354986682128
-0.002883319597509411   -0.012125239499724404   -0.0006597793356289616
-0.0028997711405618375   -0.012099660678395305   -0.0006604104875326979
-0.00277283130716636   -0.009459006547535164   -0.0006267263037098168
-0.0015615755868915754   -0.012100711892183202   -0.0006201354986682128
-0.0028997711405618375   -0.012099660678395305   -0.0006604104875326979
-0.0014308573969852192   -0.00940989342277432   -0.0006055270382960287
-0.0014443534977003362   -0.009382297774799918   -0.0006306432310709319
-0.0015986621898054169   -0.012059730003470284   -0.0006441693498423338
-0.00013479690001580094   -0.009377212216847428   -0.0006126049687704907
-0.0014381649560277366   -0.009396637589909626   -0.0006167834725394654
-0.0015986621898054169   -0.012059730003470284   -0.0006441693498423338
-0.0003133015068690231   -0.012052495220815493   -0.0006341760143456028
-0.00013479690001580094   -0.009377212216847428   -0.0006126049687704907
-0.0003002060333350249   -0.012054838397958982   -0.0006188989455908091
-0.0014381649560277366   -0.009396637589909626   -0.0006167834725394654
-0.00012657362892693752   -0.009381812835452693   -0.0006007152511789638
-0.0003002060333350249   -0.012054838397958982   -0.0006188989455908091
-0.00013479690001580094   -0.009377212216847428   -0.0006126049687704907
-0.0014381649560277366   -0.009396637589909626   -0.0006167834725394654
-0.0003002060333350249   -0.012054838397958982   -0.0006188989455908091
-0.0015874916364357048   -0.012070820648357005   -0.0006334701738742785
-0.0015986621898054169   -0.012059730003470284   -0.0006441693498423338
-0.0014381649560277366   -0.009396637589909626   -0.0006167834725394654
-0.0003002060333350249   -0.012054838397958982   -0.0006188989455908091
-0.0015986621898054169   -0.012059730003470284   -0.0006441693498423338
-0.00013479690001580094   -0.009377212216847428   -0.0006126049687704907
-0.0014381649560277366   -0.009396637589909626   -0.0006167834725394654
-0.0015874916364357048   -0.012070820648357005   -0.0006334701738742785
-0.00012657362892693752   -0.009381812835452693   -0.0006007152511789638
-0.0014308573969852192   -0.00940989342277432   -0.0006055270382960287
-0.0015874916364357048   -0.012070820648357005   -0.0006334701738742785
-0.0003002060333350249   -0.012054838397958982   -0.0006188989455908091
-0.00012657362892693752   -0.009381812835452693   -0.0006007152511789638
-0.0002877756593492702   -0.012059552535322508   -0.0006062655075742056
-0.0014308573969852192   -0.00940989342277432   -0.0006055270382960287
-0.0001193038491832121   -0.009385246253691658   -0.0005914115700146375
-0.0002877756593492702   -0.012059552535322508   -0.0006062655075742056
-0.00012657362892693752   -0.009381812835452693   -0.0006007152511789638
-0.0014308573969852192   -0.00940989342277432   -0.0006055270382960287
-0.0002877756593492702   -0.012059552535322508   -0.0006062655075742056
-0.0015749936212080015   -0.012084466973412018   -0.00062542796554233
-0.0015874916364357048   -0.012070820648357005   -0.0006334701738742785
-0.0014308573969852192   -0.00940989342277432   -0.0006055270382960287
-0.0002877756593492702   -0.012059552535322508   -0.0006062655075742056
-0.0015874916364357048   -0.012070820648357005   -0.0006334701738742785
-0.00012657362892693752   -0.009381812835452693   -0.0006007152511789638
-0.0014308573969852192   -0.00940989342277432   -0.0006055270382960287
-0.0015749936212080015   -0.012084466973412018   -0.00062542796554233
-0.0001193038491832121   -0.009385246253691658   -0.0005914115700146375
-0.0014222924373241339   -0.009422111198180394   -0.0005969425404496798
-0.0015749936212080015   -0.012084466973412018   -0.00062542796554233
-0.0002877756593492702   -0.012059552535322508   -0.0006062655075742056
-0.0001193038491832121   -0.009385246253691658   -0.0005914115700146375
-0.0002770783823509267   -0.012066737973782257   -0.0005963650661269109
-0.0014222924373241339   -0.009422111198180394   -0.0005969425404496798
-0.00011346428051853757   -0.009387490940974835   -0.0005847849260540152
-0.0002770783823509267   -0.012066737973782257   -0.0005963650661269109
-0.0001193038491832121   -0.009385246253691658   -0.0005914115700146375
-0.0014222924373241339   -0.009422111198180394   -0.0005969425404496798
-0.0002770783823509267   -0.012066737973782257   -0.0005963650661269109
-0.0015615755868915754   -0.012100711892183202   -0.0006201354986682128
-0.0015749936212080015   -0.012084466973412018   -0.00062542796554233
-0.0014222924373241339   -0.009422111198180394   -0.0005969425404496798
-0.0002770783823509267   -0.012066737973782257   -0.0005963650661269109
-0.0015749936212080015   -0.012084466973412018   -0.00062542796554233
-0.0001193038491832121   -0.009385246253691658   -0.0005914115700146375
-0.00013479690001580094   -0.009377212216847428   -0.0006126049687704907
-0.0003133015068690231   -0.012052495220815493   -0.0006341760143456028
0.001214470406129586   -0.009374725074112295   -0.0006122254889115717
-0.00012657362892693752   -0.009381812835452693   -0.0006007152511789638
-0.0003133015068690231   -0.012052495220815493   -0.0006341760143456028
0.0010100784920602259   -0.012036517195061918   -0.0006400716303859413
0.001214470406129586   -0.009374725074112295   -0.0006122254889115717
0.0010266605059405572   -0.012030058099011212   -0.0006202761630103894
-0.00012657362892693752   -0.009381812835452693   -0.0006007152511789638
0.0012250863625955693   -0.009369856182263759   -0.0006023985693364119
0.0010266605059405572   -0.012030058099011212   -0.0006202761630103894
0.001214470406129586   -0.009374725074112295   -0.0006122254889115717
-0.00012657362892693752   -0.009381812835452693   -0.0006007152511789638
0.0010266605059405572   -0.012030058099011212   -0.0006202761630103894
-0.0003002060333350249   -0.012054838397958982   -0.0006188989455908091
-0.0003133015068690231   -0.012052495220815493   -0.0006341760143456028
-0.00012657362892693752   -0.009381812835452693   -0.0006007152511789638
0.0010266605059405572   -0.012030058099011212   -0.0006202761630103894
-0.0003133015068690231   -0.012052495220815493   -0.0006341760143456028
0.001214470406129586   -0.009374725074112295   -0.0006122254889115717
-0.00012657362892693752   -0.009381812835452693   -0.0006007152511789638
-0.0003002060333350249   -0.012054838397958982   -0.0006188989455908091
0.0012250863625955693   -0.009369856182263759   -0.0006023985693364119
-0.0001193038491832121   -0.009385246253691658   -0.0005914115700146375
-0.0003002060333350249   -0.012054838397958982   -0.0006188989455908091
0.0010266605059405572   -0.012030058099011212   -0.0006202761630103894
0.0012250863625955693   -0.009369856182263759   -0.0006023985693364119
0.0010421357086075628   -0.01202668262071286   -0.0006031129427947167
-0.0001193038491832121   -0.009385246253691658   -0.0005914115700146375
0.0012326889939889153   -0.009364401186791143   -0.0005950795048754172
0.0010421357086075628   -0.01202668262071286   -0.0006031129427947167
0.0012250863625955693   -0.009369856182263759   -0.0006023985693364119
-0.0001193038491832121   -0.009385246253691658   -0.0005914115700146375
0.0010421357086075628   -0.01202668262071286   -0.0006031129427947167
-0.0002877756593492702   -0.012059552535322508   -0.0006062655075742056
-0.0003002060333350249   -0.012054838397958982   -0.0006188989455908091
-0.0001193038491832121   -0.009385246253691658   -0.0005914115700146375
0.0010421357086075628   -0.01202668262071286   -0.0006031129427947167
-0.0003002060333350249   -0.012054838397958982   -0.0006188989455908091
0.0012250863625955693   -0.009369856182263759   -0.0006023985693364119
-0.0001193038491832121   -0.009385246253691658   -0.0005914115700146375
-0.0002877756593492702   -0.012059552535322508   -0.0006062655075742056
0.0012326889939889153   -0.009364401186791143   -0.0005950795048754172
-0.00011346428051853757   -0.009387490940974835   -0.0005847849260540152
-0.0002877756593492702   -0.012059552535322508   -0.0006062655075742056
0.0010421357086075628   -0.01202668262071286   -0.0006031129427947167
0.0012326889939889153   -0.009364401186791143   -0.0005950795048754172
0.0010508770350313654   -0.01202485023741968   -0.0005884100516068465
-0.00011346428051853757   -0.009387490940974835   -0.0005847849260540152
0.0012352868881475023   -0.009356640263505491   -0.0005902198809204276
0.0010508770350313654   -0.01202485023741968   -0.0005884100516068465
0.0012326889939889153   -0.009364401186791143   -0.0005950795048754172
-0.00011346428051853757   -0.009387490940974835   -0.0005847849260540152
0.0010508770350313654   -0.01202485023741968   -0.0005884100516068465
-0.0002770783823509267   -0.012066737973782257   -0.0005963650661269109
-0.0002877756593492702   -0.012059552535322508   -0.0006062655075742056
-0.00011346428051853757   -0.009387490940974835   -0.0005847849260540152
0.0010508770350313654   -0.01202485023741968   -0.0005884100516068465
-0.0002877756593492702   -0.012059552535322508   -0.0006062655075742056
0.0012326889939889153   -0.009364401186791143   -0.0005950795048754172
0.001214470406129586   -0.009374725074112295   -0.0006122254889115717
0.0010100784920602259   -0.012036517195061918   -0.0006400716303859413
0.0026756143004986323   -0.009370926079296444   -0.0006279390884948657
0.0012250863625955693   -0.009369856182263759   -0.0006023985693364119
0.0010100784920602259   -0.012036517195061918   -0.0006400716303859413
0.0024250421930756246   -0.012009478370109556   -0.0006628333289506728
0.0026756143004986323   -0.009370926079296444   -0.0006279390884948657
0.002467591592862088   -0.011994996794638054   -0.00063663510148656
0.0012250863625955693   -0.009369856182263759   -0.0006023985693364119
0.0026959291362145966   -0.00935852833845962   -0.0006194199332772861
0.002467591592862088   -0.011994996794638054   -0.00063663510148656
0.0026756143004986323   -0.009370926079296444   -0.0006279390884948657
0.0012250863625955693   -0.009369856182263759   -0.0006023985693364119
0.002467591592862088   -0.011994996794638054   -0.00063663510148656
0.0010266605059405572   -0.012030058099011212   -0.0006202761630103894
0.0010100784920602259   -0.012036517195061918   -0.0006400716303859413
0.0012250863625955693   -0.009369856182263759   -0.0006023985693364119
0.002467591592862088   -0.011994996794638054   -0.00063663510148656
0.0010100784920602259   -0.012036517195061918   -0.0006400716303859413
0.0026756143004986323   -0.009370926079296444   -0.0006279390884948657
0.0012250863625955693   -0.009369856182263759   -0.0006023985693364119
0.0010266605059405572   -0.012030058099011212   -0.0006202761630103894
0.0026959291362145966   -0.00935852833845962   -0.0006194199332772861
0.0012326889939889153   -0.009364401186791143   -0.0005950795048754172
0.0010266605059405572   -0.012030058099011212   -0.0006202761630103894
0.002467591592862088   -0.011994996794638054   -0.00063663510148656
0.0026959291362145966   -0.00935852833845962   -0.0006194199332772861
0.0024972055011800586   -0.011987951920841356   -0.0006142011504849558
0.0012326889939889153   -0.009364401186791143   -0.0005950795048754172
0.002707458450946258   -0.009348862026385475   -0.000614725611018676
0.0024972055011800586   -0.011987951920841356   -0.0006142011504849558
0.0026959291362145966   -0.00935852833845962   -0.0006194199332772861
0.0012326889939889153   -0.009364401186791143   -0.0005950795048754172
0.0024972055011800586   -0.011987951920841356   -0.0006142011504849558
0.0010421357086075628   -0.01202668262071286   -0.0006031129427947167
0.0010266605059405572   -0.012030058099011212   -0.0006202761630103894
0.0012326889939889153   -0.009364401186791143   -0.0005950795048754172
0.0024972055011800586   -0.011987951920841356   -0.0006142011504849558
0.0010266605059405572   -0.012030058099011212   -0.0006202761630103894
0.0026959291362145966   -0.00935852833845962   -0.0006194199332772861
0.0012326889939889153   -0.009364401186791143   -0.0005950795048754172
0.0010421357086075628   -0.01202668262071286   -0.0006031129427947167
0.002707458450946258   -0.009348862026385475   -0.000614725611018676
0.0012352868881475023   -0.009356640263505491   -0.0005902198809204276
0.0010421357086075628   -0.01202668262071286   -0.0006031129427947167
0.0024972055011800586   -0.011987951920841356   -0.0006142011504849558
0.002707458450946258   -0.009348862026385475   -0.000614725611018676
0.0025239971687886255   -0.011980551353634728   -0.0005956916020066911
0.0012352868881475023   -0.009356640263505491   -0.0005902198809204276
0.0027119554819240205   -0.00933373975024714   -0.000613921927786303
0.0025239971687886255   -0.011980551353634728   -0.0005956916020066911
0.002707458450946258   -0.009348862026385475   -0.000614725611018676
0.0012352868881475023   -0.009356640263505491   -0.0005902198809204276
0.0025239971687886255   -0.011980551353634728   -0.0005956916020066911
0.0010508770350313654   -0.01202485023741968   -0.0005884100516068465
0.0010421357086075628   -0.01202668262071286   -0.0006031129427947167
0.0012352868881475023   -0.009356640263505491   -0.0005902198809204276
0.0025239971687886255   -0.011980551353634728   -0.0005956916020066911
0.0010421357086075628   -0.01202668262071286   -0.0006031129427947167
0.002707458450946258   -0.009348862026385475   -0.000614725611018676
-0.004364397535220365   -0.012051222655743233   -0.0007077245105691405
-0.00424309651206259   -0.014568824259457285   -0.0006779337913750223
-0.0029212775576613033   -0.012058365958071415   -0.0006695168245703633
-0.004358167683804516   -0.012077372266572631   -0.0007069410765617437
-0.00424309651206259   -0.014568824259457285   -0.0006779337913750223
-0.002907995485771683   -0.01459771318572689   -0.0006552110590174065
-0.0029212775576613033   -0.012058365958071415   -0.0006695168245703633
-0.002890847017373755   -0.01461217477936289   -0.000658779777318524
-0.004358167683804516   -0.012077372266572631   -0.0007069410765617437
-0.0029126915240621064   -0.012077873616563426   -0.0006636377868708869
-0.002890847017373755   -0.01461217477936289   -0.000658779777318524
-0.0029212775576613033   -0.012058365958071415   -0.0006695168245703633
-0.004358167683804516   -0.012077372266572631   -0.0007069410765617437
-0.002890847017373755   -0.01461217477936289   -0.000658779777318524
-0.00421208332852558   -0.014588367239607058   -0.0006949379619407758
-0.00424309651206259   -0.014568824259457285   -0.0006779337913750223
-0.004358167683804516   -0.012077372266572631   -0.0007069410765617437
-0.002890847017373755   -0.01461217477936289   -0.000658779777318524
-0.00424309651206259   -0.014568824259457285   -0.0006779337913750223
-0.0029212775576613033   -0.012058365958071415   -0.0006695168245703633
-0.004358167683804516   -0.012077372266572631   -0.0007069410765617437
-0.00421208332852558   -0.014588367239607058   -0.0006949379619407758
-0.0029126915240621064   -0.012077873616563426   -0.0006636377868708869
-0.004343884445789648   -0.012102972743668483   -0.0007101161316997094
-0.00421208332852558   -0.014588367239607058   -0.0006949379619407758
-0.002890847017373755   -0.01461217477936289   -0.000658779777318524
-0.0029126915240621064   -0.012077873616563426   -0.0006636377868708869
-0.0028677844285557147   -0.014632980902814577   -0.0006650342996523046
-0.004343884445789648   -0.012102972743668483   -0.0007101161316997094
-0.0028997711405618375   -0.012099660678395305   -0.0006604104875326979
-0.0028677844285557147   -0.014632980902814577   -0.0006650342996523046
-0.0029126915240621064   -0.012077873616563426   -0.0006636377868708869
-0.004343884445789648   -0.012102972743668483   -0.0007101161316997094
-0.0028677844285557147   -0.014632980902814577   -0.0006650342996523046
-0.004177013507552094   -0.014612626198767364   -0.0007161603588583515
-0.00421208332852558   -0.014588367239607058   -0.0006949379619407758
-0.004343884445789648   -0.012102972743668483   -0.0007101161316997094
-0.0028677844285557147   -0.014632980902814577   -0.0006650342996523046
-0.00421208332852558   -0.014588367239607058   -0.0006949379619407758
-0.0029126915240621064   -0.012077873616563426   -0.0006636377868708869
-0.004343884445789648   -0.012102972743668483   -0.0007101161316997094
-0.004177013507552094   -0.014612626198767364   -0.0007161603588583515
-0.0028997711405618375   -0.012099660678395305   -0.0006604104875326979
-0.0043213519589161385   -0.012136137698874979   -0.0007174657159957719
-0.004177013507552094   -0.014612626198767364   -0.0007161603588583515
-0.0028677844285557147   -0.014632980902814577   -0.0006650342996523046
-0.0028997711405618375   -0.012099660678395305   -0.0006604104875326979
-0.002843108527073918   -0.014661411312739457   -0.00067404296939172
-0.0043213519589161385   -0.012136137698874979   -0.0007174657159957719
-0.002883319597509411   -0.012125239499724404   -0.0006597793356289616
-0.002843108527073918   -0.014661411312739457   -0.00067404296939172
-0.0028997711405618375   -0.012099660678395305   -0.0006604104875326979
-0.0043213519589161385   -0.012136137698874979   -0.0007174657159957719
-0.002843108527073918   -0.014661411312739457   -0.00067404296939172
-0.004129497124162934   -0.014649693286537757   -0.0007416955679036471
-0.004177013507552094   -0.014612626198767364   -0.0007161603588583515
-0.0043213519589161385   -0.012136137698874979   -0.0007174657159957719
-0.002843108527073918   -0.014661411312739457   -0.00067404296939172
-0.004177013507552094   -0.014612626198767364   -0.0007161603588583515
-0.0028997711405618375   -0.012099660678395305   -0.0006604104875326979
-0.0029212775576613033   -0.012058365958071415   -0.0006695168245703633
-0.002907995485771683   -0.01459771318572689   -0.0006552110590174065
-0.0015986621898054169   -0.012059730003470284   -0.0006441693498423338
-0.0029126915240621064   -0.012077873616563426   -0.0006636377868708869
-0.002907995485771683   -0.01459771318572689   -0.0006552110590174065
-0.001709426382138085   -0.014608872222006743   -0.000640734698998771
-0.0015986621898054169   -0.012059730003470284   -0.0006441693498423338
-0.0016908387606341087   -0.014616296005742622   -0.000632931276606338
-0.0029126915240621064   -0.012077873616563426   -0.0006636377868708869
-0.0015874916364357048   -0.012070820648357005   -0.0006334701738742785
-0.0016908387606341087   -0.014616296005742622   -0.000632931276606338
-0.0015986621898054169   -0.012059730003470284   -0.0006441693498423338
-0.0029126915240621064   -0.012077873616563426   -0.0006636377868708869
-0.0016908387606341087   -0.014616296005742622   -0.000632931276606338
-0.002890847017373755   -0.01461217477936289   -0.000658779777318524
-0.002907995485771683   -0.01459771318572689   -0.0006552110590174065
-0.0029126915240621064   -0.012077873616563426   -0.0006636377868708869
-0.0016908387606341087   -0.014616296005742622   -0.000632931276606338
-0.002907995485771683   -0.01459771318572689   -0.0006552110590174065
-0.0015986621898054169   -0.012059730003470284   -0.0006441693498423338
-0.0029126915240621064   -0.012077873616563426   -0.0006636377868708869
-0.002890847017373755   -0.01461217477936289   -0.000658779777318524
-0.0015874916364357048   -0.012070820648357005   -0.0006334701738742785
-0.0028997711405618375   -0.012099660678395305   -0.0006604104875326979
-0.002890847017373755   -0.01461217477936289   -0.000658779777318524
-0.0016908387606341087   -0.014616296005742622   -0.000632931276606338
-0.0015874916364357048   -0.012070820648357005   -0.0006334701738742785
-0.0016708774355940848   -0.014629801976686934   -0.0006277788835138963
-0.0028997711405618375   -0.012099660678395305   -0.0006604104875326979
-0.0015749936212080015   -0.012084466973412018   -0.00062542796554233
-0.0016708774355940848   -0.014629801976686934   -0.0006277788835138963
-0.0015874916364357048   -0.012070820648357005   -0.0006334701738742785
-0.0028997711405618375   -0.012099660678395305   -0.0006604104875326979
-0.0016708774355940848   -0.014629801976686934   -0.0006277788835138963
-0.0028677844285557147   -0.014632980902814577   -0.0006650342996523046
-0.002890847017373755   -0.01461217477936289   -0.000658779777318524
-0.0028997711405618375   -0.012099660678395305   -0.0006604104875326979
-0.0016708774355940848   -0.014629801976686934   -0.0006277788835138963
-0.002890847017373755   -0.01461217477936289   -0.000658779777318524
-0.0015874916364357048   -0.012070820648357005   -0.0006334701738742785
-0.0028997711405618375   -0.012099660678395305   -0.0006604104875326979
-0.0028677844285557147   -0.014632980902814577   -0.0006650342996523046
-0.0015749936212080015   -0.012084466973412018   -0.00062542796554233
-0.002883319597509411   -0.012125239499724404   -0.0006597793356289616
-0.0028677844285557147   -0.014632980902814577   -0.0006650342996523046
-0.0016708774355940848   -0.014629801976686934   -0.0006277788835138963
-0.0015749936212080015   -0.012084466973412018   -0.00062542796554233
-0.0016503613372243467   -0.014649551941800721   -0.0006254140833253612
-0.002883319597509411   -0.012125239499724404   -0.0006597793356289616
-0.0015615755868915754   -0.012100711892183202   -0.0006201354986682128
-0.0016503613372243467   -0.014649551941800721   -0.0006254140833253612
-0.0015749936212080015   -0.012084466973412018   -0.00062542796554233
-0.002883319597509411   -0.012125239499724404   -0.0006597793356289616
-0.0016503613372243467   -0.014649551941800721   -0.0006254140833253612
-0.002843108527073918   -0.014661411312739457   -0.00067404296939172
-0.0028677844285557147   -0.014632980902814577   -0.0006650342996523046
-0.002883319597509411   -0.012125239499724404   -0.0006597793356289616
-0.0016503613372243467   -0.014649551941800721   -0.0006254140833253612
-0.0028677844285557147   -0.014632980902814577   -0.0006650342996523046
-0.0015749936212080015   -0.012084466973412018   -0.00062542796554233
-0.0015986621898054169   -0.012059730003470284   -0.0006441693498423338
-0.001709426382138085   -0.014608872222006743   -0.000640734698998771
-0.0003133015068690231   -0.012052495220815493   -0.0006341760143456028
-0.0015874916364357048   -0.012070820648357005   -0.0006334701738742785
-0.001709426382138085   -0.014608872222006743   -0.000640734698998771
-0.0005468621166443486   -0.014599768672314602   -0.0006388098882177894
-0.0003133015068690231   -0.012052495220815493   -0.0006341760143456028
-0.0005263179131923769   -0.014599700508420958   -0.0006200243668924585
-0.0015874916364357048   -0.012070820648357005   -0.0006334701738742785
-0.0003002060333350249   -0.012054838397958982   -0.0006188989455908091
-0.0005263179131923769   -0.014599700508420958   -0.0006200243668924585
-0.0003133015068690231   -0.012052495220815493   -0.0006341760143456028
-0.0015874916364357048   -0.012070820648357005   -0.0006334701738742785
-0.0005263179131923769   -0.014599700508420958   -0.0006200243668924585
-0.0016908387606341087   -0.014616296005742622   -0.000632931276606338
-0.001709426382138085   -0.014608872222006743   -0.000640734698998771
-0.0015874916364357048   -0.012070820648357005   -0.0006334701738742785
-0.0005263179131923769   -0.014599700508420958   -0.0006200243668924585
-0.001709426382138085   -0.014608872222006743   -0.000640734698998771
-0.0003133015068690231   -0.012052495220815493   -0.0006341760143456028
-0.0015874916364357048   -0.012070820648357005   -0.0006334701738742785
-0.0016908387606341087   -0.014616296005742622   -0.000632931276606338
-0.0003002060333350249   -0.012054838397958982   -0.0006188989455908091
-0.0015749936212080015   -0.012084466973412018   -0.00062542796554233
-0.0016908387606341087   -0.014616296005742622   -0.000632931276606338
-0.0005263179131923769   -0.014599700508420958   -0.0006200243668924585
-0.0003002060333350249   -0.012054838397958982   -0.0006188989455908091
-0.0005062892162782237   -0.014605295446119264   -0.0006039011019221533
-0.0015749936212080015   -0.012084466973412018   -0.00062542796554233
-0.0002877756593492702   -0.012059552535322508   -0.0006062655075742056
-0.0005062892162782237   -0.014605295446119264   -0.0006039011019221533
-0.0003002060333350249   -0.012054838397958982   -0.0006188989455908091
-0.0015749936212080015   -0.012084466973412018   -0.00062542796554233
-0.0005062892162782237   -0.014605295446119264   -0.0006039011019221533
-0.0016708774355940848   -0.014629801976686934   -0.0006277788835138963
-0.0016908387606341087   -0.014616296005742622   -0.000632931276606338
-0.0015749936212080015   -0.012084466973412018   -0.00062542796554233
-0.0005062892162782237   -0.014605295446119264   -0.0006039011019221533
-0.0016908387606341087   -0.014616296005742622   -0.000632931276606338
-0.0003002060333350249   -0.012054838397958982   -0.0006188989455908091
-0.0015749936212080015   -0.012084466973412018   -0.00062542796554233
-0.0016708774355940848   -0.014629801976686934   -0.0006277788835138963
-0.0002877756593492702   -0.012059552535322508   -0.0006062655075742056
-0.0015615755868915754   -0.012100711892183202   -0.0006201354986682128
-0.0016708774355940848   -0.014629801976686934   -0.0006277788835138963
-0.0005062892162782237   -0.014605295446119264   -0.0006039011019221533
-0.0002877756593492702   -0.012059552535322508   -0.0006062655075742056
-0.0004883521856454017   -0.014616995298986805   -0.000590530527302935
-0.0015615755868915754   -0.012100711892183202   -0.0006201354986682128
-0.0002770783823509267   -0.012066737973782257   -0.0005963650661269109
-0.0004883521856454017   -0.014616995298986805   -0.000590530527302935
-0.0002877756593492702   -0.012059552535322508   -0.0006062655075742056
-0.0015615755868915754   -0.012100711892183202   -0.0006201354986682128
-0.0004883521856454017   -0.014616995298986805   -0.000590530527302935
-0.0016503613372243467   -0.014649551941800721   -0.0006254140833253612
-0.0016708774355940848   -0.014629801976686934   -0.0006277788835138963
-0.0015615755868915754   -0.012100711892183202   -0.0006201354986682128
-0.0004883521856454017   -0.014616995298986805   -0.000590530527302935
-0.0016708774355940848   -0.014629801976686934   -0.0006277788835138963
-0.0002877756593492702   -0.012059552535322508   -0.0006062655075742056
-0.0003133015068690231   -0.012052495220815493   -0.0006341760143456028
-0.0005468621166443486   -0.014599768672314602   -0.0006388098882177894
0.0010100784920602259   -0.012036517195061918   -0.0006400716303859413
-0.0003002060333350249   -0.012054838397958982   -0.0006188989455908091
-0.0005468621166443486   -0.014599768672314602   -0.0006388098882177894
0.0006545140164916136   -0.01457088218503366   -0.0006504130147347873
0.0010100784920602259   -0.012036517195061918   -0.0006400716303859413
0.0006796595150799152   -0.014562813437228626   -0.0006207246083354405
-0.0003002060333350249   -0.012054838397958982   -0.0006188989455908091
0.0010266605059405572   -0.012030058099011212   -0.0006202761630103894
0.0006796595150799152   -0.014562813437228626   -0.0006207246083354405
0.0010100784920602259   -0.012036517195061918   -0.0006400716303859413
-0.0003002060333350249   -0.012054838397958982   -0.0006188989455908091
0.0006796595150799152   -0.014562813437228626   -0.0006207246083354405
-0.0005263179131923769   -0.014599700508420958   -0.0006200243668924585
-0.0005468621166443486   -0.014599768672314602   -0.0006388098882177894
-0.0003002060333350249   -0.012054838397958982   -0.0006188989455908091
0.0006796595150799152   -0.014562813437228626   -0.0006207246083354405
-0.0005468621166443486   -0.014599768672314602   -0.0006388098882177894
0.0010100784920602259   -0.012036517195061918   -0.0006400716303859413
-0.0003002060333350249   -0.012054838397958982   -0.0006188989455908091
-0.0005263179131923769   -0.014599700508420958   -0.0006200243668924585
0.0010266605059405572   -0.012030058099011212   -0.0006202761630103894
-0.0002877756593492702   -0.012059552535322508   -0.0006062655075742056
-0.0005263179131923769   -0.014599700508420958   -0.0006200243668924585
0.0006796595150799152   -0.014562813437228626   -0.0006207246083354405
0.0010266605059405572   -0.012030058099011212   -0.0006202761630103894
0.0007055351102688348   -0.014561226444555011   -0.0005938625391700735
-0.0002877756593492702   -0.012059552535322508   -0.0006062655075742056
0.0010421357086075628   -0.01202668262071286   -0.0006031129427947167
0.0007055351102688348   -0.014561226444555011   -0.0005938625391700735
0.0010266605059405572   -0.012030058099011212   -0.0006202761630103894
-0.0002877756593492702   -0.012059552535322508   -0.0006062655075742056
0.0007055351102688348   -0.014561226444555011   -0.0005938625391700735
-0.0005062892162782237   -0.014605295446119264   -0.0006039011019221533
-0.0005263179131923769   -0.014599700508420958   -0.0006200243668924585
-0.0002877756593492702   -0.012059552535322508   -0.0006062655075742056
0.0007055351102688348   -0.014561226444555011   -0.0005938625391700735
-0.0005263179131923769   -0.014599700508420958   -0.0006200243668924585
0.0010266605059405572   -0.012030058099011212   -0.0006202761630103894
-0.0002877756593492702   -0.012059552535322508   -0.0006062655075742056
-0.0005062892162782237   -0.014605295446119264   -0.0006039011019221533
0.0010421357086075628   -0.01202668262071286   -0.0006031129427947167
-0.0002770783823509267   -0.012066737973782257   -0.0005963650661269109
-0.0005062892162782237   -0.014605295446119264   -0.0006039011019221533
0.0007055351102688348   -0.014561226444555011   -0.0005938625391700735
0.0010421357086075628   -0.01202668262071286   -0.0006031129427947167
0.0007229033760521893   -0.014564944503264336   -0.0005694520695916223
-0.0002770783823509267   -0.012066737973782257   -0.0005963650661269109
0.0010508770350313654   -0.01202485023741968   -0.0005884100516068465
0.0007229033760521893   -0.014564944503264336   -0.0005694520695916223
0.0010421357086075628   -0.01202668262071286   -0.0006031129427947167
-0.0002770783823509267   -0.012066737973782257   -0.0005963650661269109
0.0007229033760521893   -0.014564944503264336   -0.0005694520695916223
-0.0004883521856454017   -0.014616995298986805   -0.000590530527302935
-0.0005062892162782237   -0.014605295446119264   -0.0006039011019221533
-0.0002770783823509267   -0.012066737973782257   -0.0005963650661269109
0.0007229033760521893   -0.014564944503264336   -0.0005694520695916223
-0.0005062892162782237   -0.014605295446119264   -0.0006039011019221533
0.0010421357086075628   -0.01202668262071286   -0.0006031129427947167
0.0010100784920602259   -0.012036517195061918   -0.0006400716303859413
0.0006545140164916136   -0.01457088218503366   -0.0006504130147347873
0.0024250421930756246   -0.012009478370109556   -0.0006628333289506728
0.0010266605059405572   -0.012030058099011212   -0.0006202761630103894
0.0006545140164916136   -0.01457088218503366   -0.0006504130147347873
0.00192970088508103   -0.01452114272357279   -0.000679504838787858
0.0024250421930756246   -0.012009478370109556   -0.0006628333289506728
0.0019967037007403835   -0.014504723898410992   -0.0006361667102594452
0.0010266605059405572   -0.012030058099011212   -0.0006202761630103894
0.002467591592862088   -0.011994996794638054   -0.00063663510148656
0.0019967037007403835   -0.014504723898410992   -0.0006361667102594452
0.0024250421930756246   -0.012009478370109556   -0.0006628333289506728
0.0010266605059405572   -0.012030058099011212   -0.0006202761630103894
0.0019967037007403835   -0.014504723898410992   -0.0006361667102594452
0.0006796595150799152   -0.014562813437228626   -0.0006207246083354405
0.0006545140164916136   -0.01457088218503366   -0.0006504130147347873
0.0010266605059405572   -0.012030058099011212   -0.0006202761630103894
0.0019967037007403835   -0.014504723898410992   -0.0006361667102594452
0.0006545140164916136   -0.01457088218503366   -0.0006504130147347873
0.0024250421930756246   -0.012009478370109556   -0.0006628333289506728
0.0010266605059405572   -0.012030058099011212   -0.0006202761630103894
0.0006796595150799152   -0.014562813437228626   -0.0006207246083354405
0.002467591592862088   -0.011994996794638054   -0.00063663510148656
0.0010421357086075628   -0.01202668262071286   -0.0006031129427947167
0.0006796595150799152   -0.014562813437228626   -0.0006207246083354405
0.0019967037007403835   -0.014504723898410992   -0.0006361667102594452
0.002467591592862088   -0.011994996794638054   -0.00063663510148656
0.0020465224814268258   -0.014500130589103643   -0.0005966010175277756
0.0010421357086075628   -0.01202668262071286   -0.0006031129427947167
0.0024972055011800586   -0.011987951920841356   -0.0006142011504849558
0.0020465224814268258   -0.014500130589103643   -0.0005966010175277756
0.002467591592862088   -0.011994996794638054   -0.00063663510148656
0.0010421357086075628   -0.01202668262071286   -0.0006031129427947167
0.0020465224814268258   -0.014500130589103643   -0.0005966010175277756
0.0007055351102688348   -0.014561226444555011   -0.0005938625391700735
0.0006796595150799152   -0.014562813437228626   -0.0006207246083354405
0.0010421357086075628   -0.01202668262071286   -0.0006031129427947167
0.0020465224814268258   -0.014500130589103643   -0.0005966010175277756
0.0006796595150799152   -0.014562813437228626   -0.0006207246083354405
0.002467591592862088   -0.011994996794638054   -0.00063663510148656
0.0010421357086075628   -0.01202668262071286   -0.0006031129427947167
0.0007055351102688348   -0.014561226444555011   -0.0005938625391700735
0.0024972055011800586   -0.011987951920841356   -0.0006142011504849558
0.0010508770350313654   -0.01202485023741968   -0.0005884100516068465
0.0007055351102688348   -0.014561226444555011   -0.0005938625391700735
0.0020465224814268258   -0.014500130589103643   -0.0005966010175277756
0.0024972055011800586   -0.011987951920841356   -0.0006142011504849558
0.0020973995978495873   -0.014500163349994934   -0.0005609897883438123
0.0010508770350313654   -0.01202485023741968   -0.0005884100516068465
0.0025239971687886255   -0.011980551353634728   -0.0005956916020066911
0.0020973995978495873   -0.014500163349994934   -0.0005609897883438123
0.0024972055011800586   -0.011987951920841356   -0.0006142011504849558
0.0010508770350313654   -0.01202485023741968   -0.0005884100516068465
0.0020973995978495873   -0.014500163349994934   -0.0005609897883438123
0.0007229033760521893   -0.014564944503264336   -0.0005694520695916223
0.0007055351102688348   -0.014561226444555011   -0.0005938625391700735
0.0010508770350313654   -0.01202485023741968   -0.0005884100516068465
0.0020973995978495873   -0.014500163349994934   -0.0005609897883438123
0.0007055351102688348   -0.014561226444555011   -0.0005938625391700735
0.0024972055011800586   -0.011987951920841356   -0.0006142011504849558
-0.00424309651206259   -0.014568824259457285   -0.0006779337913750223
-0.0038737540331268633   -0.016789530830948165   -0.0006331690022725159
-0.002907995485771683   -0.01459771318572689   -0.0006552110590174065
-0.00421208332852558   -0.014588367239607058   -0.0006949379619407758
-0.0038737540331268633   -0.016789530830948165   -0.0006331690022725159
-0.002751852629900648   -0.016841065174783076   -0.0006297101805015159
-0.002907995485771683   -0.01459771318572689   -0.0006552110590174065
-0.002724307033021704   -0.0168484803730007   -0.0006419798449247082
-0.00421208332852558   -0.014588367239607058   -0.0006949379619407758
-0.002890847017373755   -0.01461217477936289   -0.000658779777318524
-0.002724307033021704   -0.0168484803730007   -0.0006419798449247082
-0.002907995485771683   -0.01459771318572689   -0.0006552110590174065
-0.00421208332852558   -0.014588367239607058   -0.0006949379619407758
-0.002724307033021704   -0.0168484803730007   -0.0006419798449247082
-0.003815944348288828   -0.016800486874833386   -0.0006677194731238917
-0.0038737540331268633   -0.016789530830948165   -0.0006331690022725159
-0.00421208332852558   -0.014588367239607058   -0.0006949379619407758
-0.002724307033021704   -0.0168484803730007   -0.0006419798449247082
-0.0038737540331268633   -0.016789530830948165   -0.0006331690022725159
-0.002907995485771683   -0.01459771318572689   -0.0006552110590174065
-0.00421208332852558   -0.014588367239607058   -0.0006949379619407758
-0.003815944348288828   -0.016800486874833386   -0.0006677194731238917
-0.002890847017373755   -0.01461217477936289   -0.000658779777318524
-0.004177013507552094   -0.014612626198767364   -0.0007161603588583515
-0.003815944348288828   -0.016800486874833386   -0.0006677194731238917
-0.002724307033021704   -0.0168484803730007   -0.0006419798449247082
-0.002890847017373755   -0.01461217477936289   -0.000658779777318524
-0.0026896906579647988   -0.016866440158724686   -0.0006569437248752097
-0.004177013507552094   -0.014612626198767364   -0.0007161603588583515
-0.0028677844285557147   -0.014632980902814577   -0.0006650342996523046
-0.0026896906579647988   -0.016866440158724686   -0.0006569437248752097
-0.002890847017373755   -0.01461217477936289   -0.000658779777318524
-0.004177013507552094   -0.014612626198767364   -0.0007161603588583515
-0.0026896906579647988   -0.016866440158724686   -0.0006569437248752097
-0.003758509516413393   -0.016821572517084663   -0.0007066540507880928
-0.003815944348288828   -0.016800486874833386   -0.0006677194731238917
-0.004177013507552094   -0.014612626198767364   -0.0007161603588583515
-0.0026896906579647988   -0.016866440158724686   -0.0006569437248752097
-0.003815944348288828   -0.016800486874833386   -0.0006677194731238917
-0.002890847017373755   -0.01461217477936289   -0.000658779777318524
-0.004177013507552094   -0.014612626198767364   -0.0007161603588583515
-0.003758509516413393   -0.016821572517084663   -0.0007066540507880928
-0.0028677844285557147   -0.014632980902814577   -0.0006650342996523046
-0.004129497124162934   -0.014649693286537757   -0.0007416955679036471
-0.003758509516413393   -0.016821572517084663   -0.0007066540507880928
-0.0026896906579647988   -0.016866440158724686   -0.0006569437248752097
-0.0028677844285557147   -0.014632980902814577   -0.0006650342996523046
-0.0026555787580284256   -0.016895968563960036   -0.0006745758388451454
-0.004129497124162934   -0.014649693286537757   -0.0007416955679036471
-0.002843108527073918   -0.014661411312739457   -0.00067404296939172
-0.0026555787580284256   -0.016895968563960036   -0.0006745758388451454
-0.0028677844285557147   -0.014632980902814577   -0.0006650342996523046
-0.004129497124162934   -0.014649693286537757   -0.0007416955679036471
-0.0026555787580284256   -0.016895968563960036   -0.0006745758388451454
-0.003685004162352326   -0.01686089309477853   -0.0007499099945495428
-0.003758509516413393   -0.016821572517084663   -0.0007066540507880928
-0.004129497124162934   -0.014649693286537757   -0.0007416955679036471
-0.0026555787580284256   -0.016895968563960036   -0.0006745758388451454
-0.003758509516413393   -0.016821572517084663   -0.0007066540507880928
-0.0028677844285557147   -0.014632980902814577   -0.0006650342996523046
-0.002907995485771683   -0.01459771318572689   -0.0006552110590174065
-0.002751852629900648   -0.016841065174783076   -0.0006297101805015159
-0.001709426382138085   -0.014608872222006743   -0.000640734698998771
-0.002890847017373755   -0.01461217477936289   -0.000658779777318524
-0.002751852629900648   -0.016841065174783076   -0.0006297101805015159
-0.0017776140282197278   -0.016864768722072283   -0.0006284709256295652
-0.001709426382138085   -0.014608872222006743   -0.000640734698998771
-0.0017494342628971793   -0.016867132809225055   -0.0006228731673146156
-0.002890847017373755   -0.01461217477936289   -0.000658779777318524
-0.0016908387606341087   -0.014616296005742622   -0.000632931276606338
-0.0017494342628971793   -0.016867132809225055   -0.0006228731673146156
-0.001709426382138085   -0.014608872222006743   -0.000640734698998771
-0.002890847017373755   -0.01461217477936289   -0.000658779777318524
-0.0017494342628971793   -0.016867132809225055   -0.0006228731673146156
-0.002724307033021704   -0.0168484803730007   -0.0006419798449247082
-0.002751852629900648   -0.016841065174783076   -0.0006297101805015159
-0.002890847017373755   -0.01461217477936289   -0.000658779777318524
-0.0017494342628971793   -0.016867132809225055   -0.0006228731673146156
-0.002751852629900648   -0.016841065174783076   -0.0006297101805015159
-0.001709426382138085   -0.014608872222006743   -0.000640734698998771
-0.002890847017373755   -0.01461217477936289   -0.000658779777318524
-0.002724307033021704   -0.0168484803730007   -0.0006419798449247082
-0.0016908387606341087   -0.014616296005742622   -0.000632931276606338
-0.0028677844285557147   -0.014632980902814577   -0.0006650342996523046
-0.002724307033021704   -0.0168484803730007   -0.0006419798449247082
-0.0017494342628971793   -0.016867132809225055   -0.0006228731673146156
-0.0016908387606341087   -0.014616296005742622   -0.000632931276606338
-0.0017203173772062602   -0.0168789307013966   -0.0006198893972889313
-0.0028677844285557147   -0.014632980902814577   -0.0006650342996523046
-0.0016708774355940848   -0.014629801976686934   -0.0006277788835138963
-0.0017203173772062602   -0.0168789307013966   -0.0006198893972889313
-0.0016908387606341087   -0.014616296005742622   -0.000632931276606338
-0.0028677844285557147   -0.014632980902814577   -0.0006650342996523046
-0.0017203173772062602   -0.0168789307013966   -0.0006198893972889313
-0.0026896906579647988   -0.016866440158724686   -0.0006569437248752097
-0.002724307033021704   -0.0168484803730007   -0.0006419798449247082
-0.0028677844285557147   -0.014632980902814577   -0.0006650342996523046
-0.0017203173772062602   -0.0168789307013966   -0.0006198893972889313
-0.002724307033021704   -0.0168484803730007   -0.0006419798449247082
-0.0016908387606341087   -0.014616296005742622   -0.000632931276606338
-0.0028677844285557147   -0.014632980902814577   -0.0006650342996523046
-0.0026896906579647988   -0.016866440158724686   -0.0006569437248752097
-0.0016708774355940848   -0.014629801976686934   -0.0006277788835138963
-0.002843108527073918   -0.014661411312739457   -0.00067404296939172
-0.0026896906579647988   -0.016866440158724686   -0.0006569437248752097
-0.0017203173772062602   -0.0168789307013966   -0.0006198893972889313
-0.0016708774355940848   -0.014629801976686934   -0.0006277788835138963
-0.0016912310171544234   -0.016900677449127127   -0.0006194992528082361
-0.002843108527073918   -0.014661411312739457   -0.00067404296939172
-0.0016503613372243467   -0.014649551941800721   -0.0006254140833253612
-0.0016912310171544234   -0.016900677449127127   -0.0006194992528082361
-0.0016708774355940848   -0.014629801976686934   -0.0006277788835138963
-0.002843108527073918   -0.014661411312739457   -0.00067404296939172
-0.0016912310171544234   -0.016900677449127127   -0.0006194992528082361
-0.0026555787580284256   -0.016895968563960036   -0.0006745758388451454
-0.0026896906579647988   -0.016866440158724686   -0.0006569437248752097
-0.002843108527073918   -0.014661411312739457   -0.00067404296939172
-0.0016912310171544234   -0.016900677449127127   -0.0006194992528082361
-0.0026896906579647988   -0.016866440158724686   -0.0006569437248752097
-0.0016708774355940848   -0.014629801976686934   -0.0006277788835138963
-0.001709426382138085   -0.014608872222006743   -0.000640734698998771
-0.0017776140282197278   -0.016864768722072283   -0.0006284709256295652
-0.0005468621166443486   -0.014599768672314602   -0.0006388098882177894
-0.0016908387606341087   -0.014616296005742622   -0.000632931276606338
-0.0017776140282197278   -0.016864768722072283   -0.0006284709256295652
-0.0008354234260190965   -0.01685960428076401   -0.0006358035151704506
-0.0005468621166443486   -0.014599768672314602   -0.0006388098882177894
-0.0008045653527545828   -0.016856262940168155   -0.0006129563877356613
-0.0016908387606341087   -0.014616296005742622   -0.000632931276606338
-0.0005263179131923769   -0.014599700508420958   -0.0006200243668924585
-0.0008045653527545828   -0.016856262940168155   -0.0006129563877356613
-0.0005468621166443486   -0.014599768672314602   -0.0006388098882177894
-0.0016908387606341087   -0.014616296005742622   -0.000632931276606338
-0.0008045653527545828   -0.016856262940168155   -0.0006129563877356613
-0.0017494342628971793   -0.016867132809225055   -0.0006228731673146156
-0.0017776140282197278   -0.016864768722072283   -0.0006284709256295652
-0.0016908387606341087   -0.014616296005742622   -0.000632931276606338
-0.0008045653527545828   -0.016856262940168155   -0.0006129563877356613
-0.0017776140282197278   -0.016864768722072283   -0.0006284709256295652
-0.0005468621166443486   -0.014599768672314602   -0.0006388098882177894
-0.0016908387606341087   -0.014616296005742622   -0.000632931276606338
-0.0017494342628971793   -0.016867132809225055   -0.0006228731673146156
-0.0005263179131923769   -0.014599700508420958   -0.0006200243668924585
-0.0016708774355940848   -0.014629801976686934   -0.0006277788835138963
-0.0017494342628971793   -0.016867132809225055   -0.0006228731673146156
-0.0008045653527545828   -0.016856262940168155   -0.0006129563877356613
-0.0005263179131923769   -0.014599700508420958   -0.0006200243668924585
-0.0007745699517037937   -0.016861500985429285   -0.0005928975269837072
-0.0016708774355940848   -0.014629801976686934   -0.0006277788835138963
-0.0005062892162782237   -0.014605295446119264   -0.0006039011019221533
-0.0007745699517037937   -0.016861500985429285   -0.0005928975269837072
-0.0005263179131923769   -0.014599700508420958   -0.0006200243668924585
-0.0016708774355940848   -0.014629801976686934   -0.0006277788835138963
-0.0007745699517037937   -0.016861500985429285   -0.0005928975269837072
-0.0017203173772062602   -0.0168789307013966   -0.0006198893972889313
-0.0017494342628971793   -0.016867132809225055   -0.0006228731673146156
-0.0016708774355940848   -0.014629801976686934   -0.0006277788835138963
-0.0007745699517037937   -0.016861500985429285   -0.0005928975269837072
-0.0017494342628971793   -0.016867132809225055   -0.0006228731673146156
-0.0005263179131923769   -0.014599700508420958   -0.0006200243668924585
-0.0016708774355940848   -0.014629801976686934   -0.0006277788835138963
-0.0017203173772062602   -0.0168789307013966   -0.0006198893972889313
-0.0005062892162782237   -0.014605295446119264   -0.0006039011019221533
-0.0016503613372243467   -0.014649551941800721   -0.0006254140833253612
-0.0017203173772062602   -0.0168789307013966   -0.0006198893972889313
-0.0007745699517037937   -0.016861500985429285   -0.0005928975269837072
-0.0005062892162782237   -0.014605295446119264   -0.0006039011019221533
-0.0007474263722757197   -0.016876477277383124   -0.0005753923979429712
-0.0016503613372243467   -0.014649551941800721   -0.0006254140833253612
-0.0004883521856454017   -0.014616995298986805   -0.000590530527302935
-0.0007474263722757197   -0.016876477277383124   -0.0005753923979429712
-0.0005062892162782237   -0.014605295446119264   -0.0006039011019221533
-0.0016503613372243467   -0.014649551941800721   -0.0006254140833253612
-0.0007474263722757197   -0.016876477277383124   -0.0005753923979429712
-0.0016912310171544234   -0.016900677449127127   -0.0006194992528082361
-0.0017203173772062602   -0.0168789307013966   -0.0006198893972889313
-0.0016503613372243467   -0.014649551941800721   -0.0006254140833253612
-0.0007474263722757197   -0.016876477277383124   -0.0005753923979429712
-0.0017203173772062602   -0.0168789307013966   -0.0006198893972889313
-0.0005062892162782237   -0.014605295446119264   -0.0006039011019221533
-0.0005468621166443486   -0.014599768672314602   -0.0006388098882177894
-0.0008354234260190965   -0.01685960428076401   -0.0006358035151704506
0.0006545140164916136   -0.01457088218503366   -0.0006504130147347873
-0.0005263179131923769   -0.014599700508420958   -0.0006200243668924585
-0.0008354234260190965   -0.01685960428076401   -0.0006358035151704506
0.00014884400591768315   -0.01682452187925777   -0.0006531832466488297
0.0006545140164916136   -0.01457088218503366   -0.0006504130147347873
0.00018647258293420674   -0.016813994365170892   -0.0006131203490098557
-0.0005263179131923769   -0.014599700508420958   -0.0006200243668924585
0.0006796595150799152   -0.014562813437228626   -0.0006207246083354405
0.00018647258293420674   -0.016813994365170892   -0.0006131203490098557
0.0006545140164916136   -0.01457088218503366   -0.0006504130147347873
-0.0005263179131923769   -0.014599700508420958   -0.0006200243668924585
0.00018647258293420674   -0.016813994365170892   -0.0006131203490098557
-0.0008045653527545828   -0.016856262940168155   -0.0006129563877356613
-0.0008354234260190965   -0.01685960428076401   -0.0006358035151704506
-0.0005263179131923769   -0.014599700508420958   -0.0006200243668924585
0.00018647258293420674   -0.016813994365170892   -0.0006131203490098557
-0.0008354234260190965   -0.01685960428076401   -0.0006358035151704506
0.0006545140164916136   -0.01457088218503366   -0.0006504130147347873
-0.0005263179131923769   -0.014599700508420958   -0.0006200243668924585
-0.0008045653527545828   -0.016856262940168155   -0.0006129563877356613
0.0006796595150799152   -0.014562813437228626   -0.0006207246083354405
-0.0005062892162782237   -0.014605295446119264   -0.0006039011019221533
-0.0008045653527545828   -0.016856262940168155   -0.0006129563877356613
0.00018647258293420674   -0.016813994365170892   -0.0006131203490098557
0.0006796595150799152   -0.014562813437228626   -0.0006207246083354405
0.00022627518682002582   -0.01681305265313088   -0.0005765797833011291
-0.0005062892162782237   -0.014605295446119264   -0.0006039011019221533
0.0007055351102688348   -0.014561226444555011   -0.0005938625391700735
0.00022627518682002582   -0.01681305265313088   -0.0005765797833011291
0.0006796595150799152   -0.014562813437228626   -0.0006207246083354405
-0.0005062892162782237   -0.014605295446119264   -0.0006039011019221533
0.00022627518682002582   -0.01681305265313088   -0.0005765797833011291
-0.0007745699517037937   -0.016861500985429285   -0.0005928975269837072
-0.0008045653527545828   -0.016856262940168155   -0.0006129563877356613
-0.0005062892162782237   -0.014605295446119264   -0.0006039011019221533
0.00022627518682002582   -0.01681305265313088   -0.0005765797833011291
-0.0008045653527545828   -0.016856262940168155   -0.0006129563877356613
0.0006796595150799152   -0.014562813437228626   -0.0006207246083354405
-0.0005062892162782237   -0.014605295446119264   -0.0006039011019221533
-0.0007745699517037937   -0.016861500985429285   -0.0005928975269837072
0.0007055351102688348   -0.014561226444555011   -0.0005938625391700735
-0.0004883521856454017   -0.014616995298986805   -0.000590530527302935
-0.0007745699517037937   -0.016861500985429285   -0.0005928975269837072
0.00022627518682002582   -0.01681305265313088   -0.0005765797833011291
0.0007055351102688348   -0.014561226444555011   -0.0005938625391700735
0.00025538180438186943   -0.016821239098212083   -0.0005424588446896583
-0.0004883521856454017   -0.014616995298986805   -0.000590530527302935
0.0007229033760521893   -0.014564944503264336   -0.0005694520695916223
0.00025538180438186943   -0.016821239098212083   -0.0005424588446896583
0.0007055351102688348   -0.014561226444555011   -0.0005938625391700735
-0.0004883521856454017   -0.014616995298986805   -0.000590530527302935
0.00025538180438186943   -0.016821239098212083   -0.0005424588446896583
-0.0007474263722757197   -0.016876477277383124   -0.0005753923979429712
-0.0007745699517037937   -0.016861500985429285   -0.0005928975269837072
-0.0004883521856454017   -0.014616995298986805   -0.000590530527302935
0.00025538180438186943   -0.016821239098212083   -0.0005424588446896583
-0.0007745699517037937   -0.016861500985429285   -0.0005928975269837072
0.0007055351102688348   -0.014561226444555011   -0.0005938625391700735
0.0006545140164916136   -0.01457088218503366   -0.0006504130147347873
0.00014884400591768315   -0.01682452187925777   -0.0006531832466488297
0.00192970088508103   -0.01452114272357279   -0.000679504838787858
0.0006796595150799152   -0.014562813437228626   -0.0006207246083354405
0.00014884400591768315   -0.01682452187925777   -0.0006531832466488297
0.001194227870515311   -0.01675625814864003   -0.0006896299178282449
0.00192970088508103   -0.01452114272357279   -0.000679504838787858
0.0012906986493435462   -0.01673617371865395   -0.0006282479613677714
0.0006796595150799152   -0.014562813437228626   -0.0006207246083354405
0.0019967037007403835   -0.014504723898410992   -0.0006361667102594452
0.0012906986493435462   -0.01673617371865395   -0.0006282479613677714
0.00192970088508103   -0.01452114272357279   -0.000679504838787858
0.0006796595150799152   -0.014562813437228626   -0.0006207246083354405
0.0012906986493435462   -0.01673617371865395   -0.0006282479613677714
0.00018647258293420674   -0.016813994365170892   -0.0006131203490098557
0.00014884400591768315   -0.01682452187925777   -0.0006531832466488297
0.0006796595150799152   -0.014562813437228626   -0.0006207246083354405
0.0012906986493435462   -0.01673617371865395   -0.0006282479613677714
0.00014884400591768315   -0.01682452187925777   -0.0006531832466488297
0.00192970088508103   -0.01452114272357279   -0.000679504838787858
0.0006796595150799152   -0.014562813437228626   -0.0006207246083354405
0.00018647258293420674   -0.016813994365170892   -0.0006131203490098557
0.0019967037007403835   -0.014504723898410992   -0.0006361667102594452
0.0007055351102688348   -0.014561226444555011   -0.0005938625391700735
0.00018647258293420674   -0.016813994365170892   -0.0006131203490098557
0.0012906986493435462   -0.01673617371865395   -0.0006282479613677714
0.0019967037007403835   -0.014504723898410992   -0.0006361667102594452
0.0013647503812357327   -0.01673269142641294   -0.0005712388555974568
0.0007055351102688348   -0.014561226444555011   -0.0005938625391700735
0.0020465224814268258   -0.014500130589103643   -0.0005966010175277756
0.0013647503812357327   -0.01673269142641294   -0.0005712388555974568
0.0019967037007403835   -0.014504723898410992   -0.0006361667102594452
0.0007055351102688348   -0.014561226444555011   -0.0005938625391700735
0.0013647503812357327   -0.01673269142641294   -0.0005712388555974568
0.00022627518682002582   -0.01681305265313088   -0.0005765797833011291
0.00018647258293420674   -0.016813994365170892   -0.0006131203490098557
0.0007055351102688348   -0.014561226444555011   -0.0005938625391700735
0.0013647503812357327   -0.01673269142641294   -0.0005712388555974568
0.00018647258293420674   -0.016813994365170892   -0.0006131203490098557
0.0019967037007403835   -0.014504723898410992   -0.0006361667102594452
0.0007055351102688348   -0.014561226444555011   -0.0005938625391700735
0.00022627518682002582   -0.01681305265313088   -0.0005765797833011291
0.0020465224814268258   -0.014500130589103643   -0.0005966010175277756
0.0007229033760521893   -0.014564944503264336   -0.0005694520695916223
0.00022627518682002582   -0.01681305265313088   -0.0005765797833011291
0.0013647503812357327   -0.01673269142641294   -0.0005712388555974568
0.0020465224814268258   -0.014500130589103643   -0.0005966010175277756
0.001441972072555348   -0.016738833130927593   -0.0005190593767025652
0.0007229033760521893   -0.014564944503264336   -0.0005694520695916223
0.0020973995978495873   -0.014500163349994934   -0.0005609897883438123
0.001441972072555348   -0.016738833130927593   -0.0005190593767025652
0.0020465224814268258   -0.014500130589103643   -0.0005966010175277756
0.0007229033760521893   -0.014564944503264336   -0.0005694520695916223
0.001441972072555348   -0.016738833130927593   -0.0005190593767025652
0.00025538180438186943   -0.016821239098212083   -0.0005424588446896583
0.00022627518682002582   -0.01681305265313088   -0.0005765797833011291
0.0007229033760521893   -0.014564944503264336   -0.0005694520695916223
0.001441972072555348   -0.016738833130927593   -0.0005190593767025652
0.00022627518682002582   -0.01681305265313088   -0.0005765797833011291
0.0020465224814268258   -0.014500130589103643   -0.0005966010175277756
-0.0038737540331268633   -0.016789530830948165   -0.0006331690022725159
-0.0032547970845569945   -0.01852948577963152   -0.0005752931139518945
-0.002751852629900648   -0.016841065174783076   -0.0006297101805015159
-0.003815944348288828   -0.016800486874833386   -0.0006677194731238917
-0.0032547970845569945   -0.01852948577963152   -0.0005752931139518945
-0.002455172789330991   -0.018605142363614446   -0.000597847959442742
-0.002751852629900648   -0.016841065174783076   -0.0006297101805015159
-0.0024161489223177035   -0.018601468772247897   -0.0006166948177754207
-0.003815944348288828   -0.016800486874833386   -0.0006677194731238917
-0.002724307033021704   -0.0168484803730007   -0.0006419798449247082
-0.0024161489223177035   -0.018601468772247897   -0.0006166948177754207
-0.002751852629900648   -0.016841065174783076   -0.0006297101805015159
-0.003815944348288828   -0.016800486874833386   -0.0006677194731238917
-0.0024161489223177035   -0.018601468772247897   -0.0006166948177754207
-0.0031697043862404777   -0.018527502366338718   -0.0006260666812124917
-0.0032547970845569945   -0.01852948577963152   -0.0005752931139518945
-0.003815944348288828   -0.016800486874833386   -0.0006677194731238917
-0.0024161489223177035   -0.018601468772247897   -0.0006166948177754207
-0.0032547970845569945   -0.01852948577963152   -0.0005752931139518945
-0.002751852629900648   -0.016841065174783076   -0.0006297101805015159
-0.003815944348288828   -0.016800486874833386   -0.0006677194731238917
-0.0031697043862404777   -0.018527502366338718   -0.0006260666812124917
-0.002724307033021704   -0.0168484803730007   -0.0006419798449247082
-0.003758509516413393   -0.016821572517084663   -0.0007066540507880928
-0.0031697043862404777   -0.018527502366338718   -0.0006260666812124917
-0.0024161489223177035   -0.018601468772247897   -0.0006166948177754207
-0.002724307033021704   -0.0168484803730007   -0.0006419798449247082
-0.0023700968810213318   -0.018612750745788487   -0.0006382654870377597
-0.003758509516413393   -0.016821572517084663   -0.0007066540507880928
-0.0026896906579647988   -0.016866440158724686   -0.0006569437248752097
-0.0023700968810213318   -0.018612750745788487   -0.0006382654870377597
-0.002724307033021704   -0.0168484803730007   -0.0006419798449247082
-0.003758509516413393   -0.016821572517084663   -0.0007066540507880928
-0.0023700968810213318   -0.018612750745788487   -0.0006382654870377597
-0.0030914251172578264   -0.018541378057708603   -0.0006806877566313002
-0.0031697043862404777   -0.018527502366338718   -0.0006260666812124917
-0.003758509516413393   -0.016821572517084663   -0.0007066540507880928
-0.0023700968810213318   -0.018612750745788487   -0.0006382654870377597
-0.0031697043862404777   -0.018527502366338718   -0.0006260666812124917
-0.002724307033021704   -0.0168484803730007   -0.0006419798449247082
-0.003758509516413393   -0.016821572517084663   -0.0007066540507880928
-0.0030914251172578264   -0.018541378057708603   -0.0006806877566313002
-0.0026896906579647988   -0.016866440158724686   -0.0006569437248752097
-0.003685004162352326   -0.01686089309477853   -0.0007499099945495428
-0.0030914251172578264   -0.018541378057708603   -0.0006806877566313002
-0.0023700968810213318   -0.018612750745788487   -0.0006382654870377597
-0.0026896906579647988   -0.016866440158724686   -0.0006569437248752097
-0.0023283271386461118   -0.018639268682569564   -0.0006623889517354264
-0.003685004162352326   -0.01686089309477853   -0.0007499099945495428
-0.0026555787580284256   -0.016895968563960036   -0.0006745758388451454
-0.0023283271386461118   -0.018639268682569564   -0.0006623889517354264
-0.0026896906579647988   -0.016866440158724686   -0.0006569437248752097
-0.003685004162352326   -0.01686089309477853   -0.0007499099945495428
-0.0023283271386461118   -0.018639268682569564   -0.0006623889517354264
-0.0029958421432855365   -0.018577919059420394   -0.0007389473695292517
-0.0030914251172578264   -0.018541378057708603   -0.0006806877566313002
-0.003685004162352326   -0.01686089309477853   -0.0007499099945495428
-0.0023283271386461118   -0.018639268682569564   -0.0006623889517354264
-0.0030914251172578264   -0.018541378057708603   -0.0006806877566313002
-0.0026896906579647988   -0.016866440158724686   -0.0006569437248752097
-0.002751852629900648   -0.016841065174783076   -0.0006297101805015159
-0.002455172789330991   -0.018605142363614446   -0.000597847959442742
-0.0017776140282197278   -0.016864768722072283   -0.0006284709256295652
-0.002724307033021704   -0.0168484803730007   -0.0006419798449247082
-0.002455172789330991   -0.018605142363614446   -0.000597847959442742
-0.0017984507336399986   -0.018653131446776036   -0.0006155354559537326
-0.0017776140282197278   -0.016864768722072283   -0.0006284709256295652
-0.0017585514466210241   -0.018647015646843262   -0.0006097964212442632
-0.002724307033021704   -0.0168484803730007   -0.0006419798449247082
-0.0017494342628971793   -0.016867132809225055   -0.0006228731673146156
-0.0017585514466210241   -0.018647015646843262   -0.0006097964212442632
-0.0017776140282197278   -0.016864768722072283   -0.0006284709256295652
-0.002724307033021704   -0.0168484803730007   -0.0006419798449247082
-0.0017585514466210241   -0.018647015646843262   -0.0006097964212442632
-0.0024161489223177035   -0.018601468772247897   -0.0006166948177754207
-0.002455172789330991   -0.018605142363614446   -0.000597847959442742
-0.002724307033021704   -0.0168484803730007   -0.0006419798449247082
-0.0017585514466210241   -0.018647015646843262   -0.0006097964212442632
-0.002455172789330991   -0.018605142363614446   -0.000597847959442742
-0.0017776140282197278   -0.016864768722072283   -0.0006284709256295652
-0.002724307033021704   -0.0168484803730007   -0.0006419798449247082
-0.0024161489223177035   -0.018601468772247897   -0.0006166948177754207
-0.0017494342628971793   -0.016867132809225055   -0.0006228731673146156
-0.0026896906579647988   -0.016866440158724686   -0.0006569437248752097
-0.0024161489223177035   -0.018601468772247897   -0.0006166948177754207
-0.0017585514466210241   -0.018647015646843262   -0.0006097964212442632
-0.0017494342628971793   -0.016867132809225055   -0.0006228731673146156
-0.001719124791154317   -0.018653857013526634   -0.0006067134791402209
-0.0026896906579647988   -0.016866440158724686   -0.0006569437248752097
-0.0017203173772062602   -0.0168789307013966   -0.0006198893972889313
-0.001719124791154317   -0.018653857013526634   -0.0006067134791402209
-0.0017494342628971793   -0.016867132809225055   -0.0006228731673146156
-0.0026896906579647988   -0.016866440158724686   -0.0006569437248752097
-0.001719124791154317   -0.018653857013526634   -0.0006067134791402209
-0.0023700968810213318   -0.018612750745788487   -0.0006382654870377597
-0.0024161489223177035   -0.018601468772247897   -0.0006166948177754207
-0.0026896906579647988   -0.016866440158724686   -0.0006569437248752097
-0.001719124791154317   -0.018653857013526634   -0.0006067134791402209
-0.0024161489223177035   -0.018601468772247897   -0.0006166948177754207
-0.0017494342628971793   -0.016867132809225055   -0.0006228731673146156
-0.0026896906579647988   -0.016866440158724686   -0.0006569437248752097
-0.0023700968810213318   -0.018612750745788487   -0.0006382654870377597
-0.0017203173772062602   -0.0168789307013966   -0.0006198893972889313
-0.0026555787580284256   -0.016895968563960036   -0.0006745758388451454
-0.0023700968810213318   -0.018612750745788487   -0.0006382654870377597
-0.001719124791154317   -0.018653857013526634   -0.0006067134791402209
-0.0017203173772062602   -0.0168789307013966   -0.0006198893972889313
-0.0016827528780799224   -0.01867404871516674   -0.0006068273912633406
-0.0026555787580284256   -0.016895968563960036   -0.0006745758388451454
-0.0016912310171544234   -0.016900677449127127   -0.0006194992528082361
-0.0016827528780799224   -0.01867404871516674   -0.0006068273912633406
-0.0017203173772062602   -0.0168789307013966   -0.0006198893972889313
-0.0026555787580284256   -0.016895968563960036   -0.0006745758388451454
-0.0016827528780799224   -0.01867404871516674   -0.0006068273912633406
-0.0023283271386461118   -0.018639268682569564   -0.0006623889517354264
-0.0023700968810213318   -0.018612750745788487   -0.0006382654870377597
-0.0026555787580284256   -0.016895968563960036   -0.0006745758388451454
-0.0016827528780799224   -0.01867404871516674   -0.0006068273912633406
-0.0023700968810213318   -0.018612750745788487   -0.0006382654870377597
-0.0017203173772062602   -0.0168789307013966   -0.0006198893972889313
-0.0017776140282197278   -0.016864768722072283   -0.0006284709256295652
-0.0017984507336399986   -0.018653131446776036   -0.0006155354559537326
-0.0008354234260190965   -0.01685960428076401   -0.0006358035151704506
-0.0017494342628971793   -0.016867132809225055   -0.0006228731673146156
-0.0017984507336399986   -0.018653131446776036   -0.0006155354559537326
-0.0011690946188024542   -0.018676717300123866   -0.000636793498403589
-0.0008354234260190965   -0.01685960428076401   -0.0006358035151704506
-0.0011241519489746169   -0.018667678615208412   -0.0006078052596130521
-0.0017494342628971793   -0.016867132809225055   -0.0006228731673146156
-0.0008045653527545828   -0.016856262940168155   -0.0006129563877356613
-0.0011241519489746169   -0.018667678615208412   -0.0006078052596130521
-0.0008354234260190965   -0.01685960428076401   -0.0006358035151704506
-0.0017494342628971793   -0.016867132809225055   -0.0006228731673146156
-0.0011241519489746169   -0.018667678615208412   -0.0006078052596130521
-0.0017585514466210241   -0.018647015646843262   -0.0006097964212442632
-0.0017984507336399986   -0.018653131446776036   -0.0006155354559537326
-0.0017494342628971793   -0.016867132809225055   -0.0006228731673146156
-0.0011241519489746169   -0.018667678615208412   -0.0006078052596130521
-0.0017984507336399986   -0.018653131446776036   -0.0006155354559537326
-0.0008354234260190965   -0.01685960428076401   -0.0006358035151704506
-0.0017494342628971793   -0.016867132809225055   -0.0006228731673146156
-0.0017585514466210241   -0.018647015646843262   -0.0006097964212442632
-0.0008045653527545828   -0.016856262940168155   -0.0006129563877356613
-0.0017203173772062602   -0.0168789307013966   -0.0006198893972889313
-0.0017585514466210241   -0.018647015646843262   -0.0006097964212442632
-0.0011241519489746169   -0.018667678615208412   -0.0006078052596130521
-0.0008045653527545828   -0.016856262940168155   -0.0006129563877356613
-0.0010812374821871766   -0.01867012272725529   -0.0005812030754758683
-0.0017203173772062602   -0.0168789307013966   -0.0006198893972889313
-0.0007745699517037937   -0.016861500985429285   -0.0005928975269837072
-0.0010812374821871766   -0.01867012272725529   -0.0005812030754758683
-0.0008045653527545828   -0.016856262940168155   -0.0006129563877356613
-0.0017203173772062602   -0.0168789307013966   -0.0006198893972889313
-0.0010812374821871766   -0.01867012272725529   -0.0005812030754758683
-0.001719124791154317   -0.018653857013526634   -0.0006067134791402209
-0.0017585514466210241   -0.018647015646843262   -0.0006097964212442632
-0.0017203173772062602   -0.0168789307013966   -0.0006198893972889313
-0.0010812374821871766   -0.01867012272725529   -0.0005812030754758683
-0.0017585514466210241   -0.018647015646843262   -0.0006097964212442632
-0.0008045653527545828   -0.016856262940168155   -0.0006129563877356613
-0.0017203173772062602   -0.0168789307013966   -0.0006198893972889313
-0.001719124791154317   -0.018653857013526634   -0.0006067134791402209
-0.0007745699517037937   -0.016861500985429285   -0.0005928975269837072
-0.0016912310171544234   -0.016900677449127127   -0.0006194992528082361
-0.001719124791154317   -0.018653857013526634   -0.0006067134791402209
-0.0010812374821871766   -0.01867012272725529   -0.0005812030754758683
-0.0007745699517037937   -0.016861500985429285   -0.0005928975269837072
-0.0010454047435759402   -0.018686122951723567   -0.0005583896552607214
-0.0016912310171544234   -0.016900677449127127   -0.0006194992528082361
-0.0007474263722757197   -0.016876477277383124   -0.0005753923979429712
-0.0010454047435759402   -0.018686122951723567   -0.0005583896552607214
-0.0007745699517037937   -0.016861500985429285   -0.0005928975269837072
-0.0016912310171544234   -0.016900677449127127   -0.0006194992528082361
-0.0010454047435759402   -0.018686122951723567   -0.0005583896552607214
-0.0016827528780799224   -0.01867404871516674   -0.0006068273912633406
-0.001719124791154317   -0.018653857013526634   -0.0006067134791402209
-0.0016912310171544234   -0.016900677449127127   -0.0006194992528082361
-0.0010454047435759402   -0.018686122951723567   -0.0005583896552607214
-0.001719124791154317   -0.018653857013526634   -0.0006067134791402209
-0.0007745699517037937   -0.016861500985429285   -0.0005928975269837072
-0.0008354234260190965   -0.01685960428076401   -0.0006358035151704506
-0.0011690946188024542   -0.018676717300123866   -0.000636793498403589
0.00014884400591768315   -0.01682452187925777   -0.0006531832466488297
-0.0008045653527545828   -0.016856262940168155   -0.0006129563877356613
-0.0011690946188024542   -0.018676717300123866   -0.000636793498403589
-0.0005023792625400094   -0.01866727078510139   -0.0006621376473599475
0.00014884400591768315   -0.01682452187925777   -0.0006531832466488297
-0.00044467112395112345   -0.01865304204471416   -0.0006108184035898169
-0.0008045653527545828   -0.016856262940168155   -0.0006129563877356613
0.00018647258293420674   -0.016813994365170892   -0.0006131203490098557
-0.00044467112395112345   -0.01865304204471416   -0.0006108184035898169
0.00014884400591768315   -0.01682452187925777   -0.0006531832466488297
-0.0008045653527545828   -0.016856262940168155   -0.0006129563877356613
-0.00044467112395112345   -0.01865304204471416   -0.0006108184035898169
-0.0011241519489746169   -0.018667678615208412   -0.0006078052596130521
-0.0011690946188024542   -0.018676717300123866   -0.000636793498403589
-0.0008045653527545828   -0.016856262940168155   -0.0006129563877356613
-0.00044467112395112345   -0.01865304204471416   -0.0006108184035898169
-0.0011690946188024542   -0.018676717300123866   -0.000636793498403589
0.00014884400591768315   -0.01682452187925777   -0.0006531832466488297
-0.0008045653527545828   -0.016856262940168155   -0.0006129563877356613
-0.0011241519489746169   -0.018667678615208412   -0.0006078052596130521
0.00018647258293420674   -0.016813994365170892   -0.0006131203490098557
-0.0007745699517037937   -0.016861500985429285   -0.0005928975269837072
-0.0011241519489746169   -0.018667678615208412   -0.0006078052596130521
-0.00044467112395112345   -0.01865304204471416   -0.0006108184035898169
0.00018647258293420674   -0.016813994365170892   -0.0006131203490098557
-0.00038533741518385174   -0.018650730791285597   -0.0005620288529134673
-0.0007745699517037937   -0.016861500985429285   -0.0005928975269837072
0.00022627518682002582   -0.01681305265313088   -0.0005765797833011291
-0.00038533741518385174   -0.018650730791285597   -0.0005620288529134673
0.00018647258293420674   -0.016813994365170892   -0.0006131203490098557
-0.0007745699517037937   -0.016861500985429285   -0.0005928975269837072
-0.00038533741518385174   -0.018650730791285597   -0.0005620288529134673
-0.0010812374821871766   -0.01867012272725529   -0.0005812030754758683
-0.0011241519489746169   -0.018667678615208412   -0.0006078052596130521
-0.0007745699517037937   -0.016861500985429285   -0.0005928975269837072
-0.00038533741518385174   -0.018650730791285597   -0.0005620288529134673
-0.0011241519489746169   -0.018667678615208412   -0.0006078052596130521
0.00018647258293420674   -0.016813994365170892   -0.0006131203490098557
-0.0007745699517037937   -0.016861500985429285   -0.0005928975269837072
-0.0010812374821871766   -0.01867012272725529   -0.0005812030754758683
0.00022627518682002582   -0.01681305265313088   -0.0005765797833011291
-0.0007474263722757197   -0.016876477277383124   -0.0005753923979429712
-0.0010812374821871766   -0.01867012272725529   -0.0005812030754758683
-0.00038533741518385174   -0.018650730791285597   -0.0005620288529134673
0.00022627518682002582   -0.01681305265313088   -0.0005765797833011291
-0.0003415899853391404   -0.018662756489840285   -0.0005175471466702178
-0.0007474263722757197   -0.016876477277383124   -0.0005753923979429712
0.00025538180438186943   -0.016821239098212083   -0.0005424588446896583
-0.0003415899853391404   -0.018662756489840285   -0.0005175471466702178
0.00022627518682002582   -0.01681305265313088   -0.0005765797833011291
-0.0007474263722757197   -0.016876477277383124   -0.0005753923979429712
-0.0003415899853391404   -0.018662756489840285   -0.0005175471466702178
-0.0010454047435759402   -0.018686122951723567   -0.0005583896552607214
-0.0010812374821871766   -0.01867012272725529   -0.0005812030754758683
-0.0007474263722757197   -0.016876477277383124   -0.0005753923979429712
-0.0003415899853391404   -0.018662756489840285   -0.0005175471466702178
-0.0010812374821871766   -0.01867012272725529   -0.0005812030754758683
0.00022627518682002582   -0.01681305265313088   -0.0005765797833011291
0.00014884400591768315   -0.01682452187925777   -0.0006531832466488297
-0.0005023792625400094   -0.01866727078510139   -0.0006621376473599475
0.001194227870515311   -0.01675625814864003   -0.0006896299178282449
0.00018647258293420674   -0.016813994365170892   -0.0006131203490098557
-0.0005023792625400094   -0.01866727078510139   -0.0006621376473599475
0.0002101933307509314   -0.018602153069126673   -0.0007130235761744788
0.001194227870515311   -0.01675625814864003   -0.0006896299178282449
0.0003472371762401991   -0.01857152590847688   -0.0006292543677051329
0.00018647258293420674   -0.016813994365170892   -0.0006131203490098557
0.0012906986493435462   -0.01673617371865395   -0.0006282479613677714
0.0003472371762401991   -0.01857152590847688   -0.0006292543677051329
0.001194227870515311   -0.01675625814864003   -0.0006896299178282449
0.00018647258293420674   -0.016813994365170892   -0.0006131203490098557
0.0003472371762401991   -0.01857152590847688   -0.0006292543677051329
-0.00044467112395112345   -0.01865304204471416   -0.0006108184035898169
-0.0005023792625400094   -0.01866727078510139   -0.0006621376473599475
0.00018647258293420674   -0.016813994365170892   -0.0006131203490098557
0.0003472371762401991   -0.01857152590847688   -0.0006292543677051329
-0.0005023792625400094   -0.01866727078510139   -0.0006621376473599475
0.001194227870515311   -0.01675625814864003   -0.0006896299178282449
0.00018647258293420674   -0.016813994365170892   -0.0006131203490098557
-0.00044467112395112345   -0.01865304204471416   -0.0006108184035898169
0.0012906986493435462   -0.01673617371865395   -0.0006282479613677714
0.00022627518682002582   -0.01681305265313088   -0.0005765797833011291
-0.00044467112395112345   -0.01865304204471416   -0.0006108184035898169
0.0003472371762401991   -0.01857152590847688   -0.0006292543677051329
0.0012906986493435462   -0.01673617371865395   -0.0006282479613677714
0.0004547946999735021   -0.018565487659384403   -0.0005503864873340066
0.00022627518682002582   -0.01681305265313088   -0.0005765797833011291
0.0013647503812357327   -0.01673269142641294   -0.0005712388555974568
0.0004547946999735021   -0.018565487659384403   -0.0005503864873340066
0.0012906986493435462   -0.01673617371865395   -0.0006282479613677714
0.00022627518682002582   -0.01681305265313088   -0.0005765797833011291
0.0004547946999735021   -0.018565487659384403   -0.0005503864873340066
-0.00038533741518385174   -0.018650730791285597   -0.0005620288529134673
-0.00044467112395112345   -0.01865304204471416   -0.0006108184035898169
0.00022627518682002582   -0.01681305265313088   -0.0005765797833011291
0.0004547946999735021   -0.018565487659384403   -0.0005503864873340066
-0.00044467112395112345   -0.01865304204471416   -0.0006108184035898169
0.0012906986493435462   -0.01673617371865395   -0.0006282479613677714
0.00022627518682002582   -0.01681305265313088   -0.0005765797833011291
-0.00038533741518385174   -0.018650730791285597   -0.0005620288529134673
0.0013647503812357327   -0.01673269142641294   -0.0005712388555974568
0.00025538180438186943   -0.016821239098212083   -0.0005424588446896583
-0.00038533741518385174   -0.018650730791285597   -0.0005620288529134673
0.0004547946999735021   -0.018565487659384403   -0.0005503864873340066
0.0013647503812357327   -0.01673269142641294   -0.0005712388555974568
0.0005672128039626913   -0.01857138756666097   -0.0004781005446959631
0.00025538180438186943   -0.016821239098212083   -0.0005424588446896583
0.001441972072555348   -0.016738833130927593   -0.0005190593767025652
0.0005672128039626913   -0.01857138756666097   -0.0004781005446959631
0.0013647503812357327   -0.01673269142641294   -0.0005712388555974568
0.00025538180438186943   -0.016821239098212083   -0.0005424588446896583
0.0005672128039626913   -0.01857138756666097   -0.0004781005446959631
-0.0003415899853391404   -0.018662756489840285   -0.0005175471466702178
-0.00038533741518385174   -0.018650730791285597   -0.0005620288529134673
0.00025538180438186943   -0.016821239098212083   -0.0005424588446896583
0.0005672128039626913   -0.01857138756666097   -0.0004781005446959631
-0.00038533741518385174   -0.018650730791285597   -0.0005620288529134673
0.0013647503812357327   -0.01673269142641294   -0.0005712388555974568
-0.0032547970845569945   -0.01852948577963152   -0.0005752931139518945
-0.0024099858852729907   -0.019568323638045802   -0.0005070123057787082
-0.002455172789330991   -0.018605142363614446   -0.000597847959442742
-0.0031697043862404777   -0.018527502366338718   -0.0006260666812124917
-0.0024099858852729907   -0.019568323638045802   -0.0005070123057787082
-0.002032240220017295   -0.019663495240323816   -0.0005634848639213713
-0.002455172789330991   -0.018605142363614446   -0.000597847959442742
-0.001983454811096772   -0.01964521113818657   -0.0005837231537020268
-0.0031697043862404777   -0.018527502366338718   -0.0006260666812124917
-0.0024161489223177035   -0.018601468772247897   -0.0006166948177754207
-0.001983454811096772   -0.01964521113818657   -0.0005837231537020268
-0.002455172789330991   -0.018605142363614446   -0.000597847959442742
-0.0031697043862404777   -0.018527502366338718   -0.0006260666812124917
-0.001983454811096772   -0.01964521113818657   -0.0005837231537020268
-0.002304583105571095   -0.019547655209136726   -0.0005677985425798696
-0.0024099858852729907   -0.019568323638045802   -0.0005070123057787082
-0.0031697043862404777   -0.018527502366338718   -0.0006260666812124917
-0.001983454811096772   -0.01964521113818657   -0.0005837231537020268
-0.0024099858852729907   -0.019568323638045802   -0.0005070123057787082
-0.002455172789330991   -0.018605142363614446   -0.000597847959442742
-0.0031697043862404777   -0.018527502366338718   -0.0006260666812124917
-0.002304583105571095   -0.019547655209136726   -0.0005677985425798696
-0.0024161489223177035   -0.018601468772247897   -0.0006166948177754207
-0.0030914251172578264   -0.018541378057708603   -0.0006806877566313002
-0.002304583105571095   -0.019547655209136726   -0.0005677985425798696
-0.001983454811096772   -0.01964521113818657   -0.0005837231537020268
-0.0024161489223177035   -0.018601468772247897   -0.0006166948177754207
-0.001929165287691908   -0.019646808244352103   -0.0006041786095788285
-0.0030914251172578264   -0.018541378057708603   -0.0006806877566313002
-0.0023700968810213318   -0.018612750745788487   -0.0006382654870377597
-0.001929165287691908   -0.019646808244352103   -0.0006041786095788285
-0.0024161489223177035   -0.018601468772247897   -0.0006166948177754207
-0.0030914251172578264   -0.018541378057708603   -0.0006806877566313002
-0.001929165287691908   -0.019646808244352103   -0.0006041786095788285
-0.0022137046074083926   -0.01955020307992789   -0.0006284118109766772
-0.002304583105571095   -0.019547655209136726   -0.0005677985425798696
-0.0030914251172578264   -0.018541378057708603   -0.0006806877566313002
-0.001929165287691908   -0.019646808244352103   -0.0006041786095788285
-0.002304583105571095   -0.019547655209136726   -0.0005677985425798696
-0.0024161489223177035   -0.018601468772247897   -0.0006166948177754207
-0.0030914251172578264   -0.018541378057708603   -0.0006806877566313002
-0.0022137046074083926   -0.01955020307992789   -0.0006284118109766772
-0.0023700968810213318   -0.018612750745788487   -0.0006382654870377597
-0.0029958421432855365   -0.018577919059420394   -0.0007389473695292517
-0.0022137046074083926   -0.01955020307992789   -0.0006284118109766772
-0.001929165287691908   -0.019646808244352103   -0.0006041786095788285
-0.0023700968810213318   -0.018612750745788487   -0.0006382654870377597
-0.001878873343662785   -0.01966841134024664   -0.0006249352460851635
-0.0029958421432855365   -0.018577919059420394   -0.0007389473695292517
-0.0023283271386461118   -0.018639268682569564   -0.0006623889517354264
-0.001878873343662785   -0.01966841134024664   -0.0006249352460851635
-0.0023700968810213318   -0.018612750745788487   -0.0006382654870377597
-0.0029958421432855365   -0.018577919059420394   -0.0007389473695292517
-0.001878873343662785   -0.01966841134024664   -0.0006249352460851635
-0.0021057088721039663   -0.019577375016947226   -0.000690311237833742
-0.0022137046074083926   -0.01955020307992789   -0.0006284118109766772
-0.0029958421432855365   -0.018577919059420394   -0.0007389473695292517
-0.001878873343662785   -0.01966841134024664   -0.0006249352460851635
-0.0022137046074083926   -0.01955020307992789   -0.0006284118109766772
-0.0023700968810213318   -0.018612750745788487   -0.0006382654870377597
-0.002455172789330991   -0.018605142363614446   -0.000597847959442742
-0.002032240220017295   -0.019663495240323816   -0.0005634848639213713
-0.0017984507336399986   -0.018653131446776036   -0.0006155354559537326
-0.0024161489223177035   -0.018601468772247897   -0.0006166948177754207
-0.002032240220017295   -0.019663495240323816   -0.0005634848639213713
-0.0017528761988348258   -0.0197564803273682   -0.0006132189503946573
-0.0017984507336399986   -0.018653131446776036   -0.0006155354559537326
-0.001701654483180219   -0.019737585868735683   -0.0005997705443879308
-0.0024161489223177035   -0.018601468772247897   -0.0006166948177754207
-0.0017585514466210241   -0.018647015646843262   -0.0006097964212442632
-0.001701654483180219   -0.019737585868735683   -0.0005997705443879308
-0.0017984507336399986   -0.018653131446776036   -0.0006155354559537326
-0.0024161489223177035   -0.018601468772247897   -0.0006166948177754207
-0.001701654483180219   -0.019737585868735683   -0.0005997705443879308
-0.001983454811096772   -0.01964521113818657   -0.0005837231537020268
-0.002032240220017295   -0.019663495240323816   -0.0005634848639213713
-0.0024161489223177035   -0.018601468772247897   -0.0006166948177754207
-0.001701654483180219   -0.019737585868735683   -0.0005997705443879308
-0.002032240220017295   -0.019663495240323816   -0.0005634848639213713
-0.0017984507336399986   -0.018653131446776036   -0.0006155354559537326
-0.0024161489223177035   -0.018601468772247897   -0.0006166948177754207
-0.001983454811096772   -0.01964521113818657   -0.0005837231537020268
-0.0017585514466210241   -0.018647015646843262   -0.0006097964212442632
-0.0023700968810213318   -0.018612750745788487   -0.0006382654870377597
-0.001983454811096772   -0.01964521113818657   -0.0005837231537020268
-0.001701654483180219   -0.019737585868735683   -0.0005997705443879308
-0.0017585514466210241   -0.018647015646843262   -0.0006097964212442632
-0.0016520143366064535   -0.019737763368182597   -0.0005861725523298413
-0.0023700968810213318   -0.018612750745788487   -0.0006382654870377597
-0.001719124791154317   -0.018653857013526634   -0.0006067134791402209
-0.0016520143366064535   -0.019737763368182597   -0.0005861725523298413
-0.0017585514466210241   -0.018647015646843262   -0.0006097964212442632
-0.0023700968810213318   -0.018612750745788487   -0.0006382654870377597
-0.0016520143366064535   -0.019737763368182597   -0.0005861725523298413
-0.001929165287691908   -0.019646808244352103   -0.0006041786095788285
-0.001983454811096772   -0.01964521113818657   -0.0005837231537020268
-0.0023700968810213318   -0.018612750745788487   -0.0006382654870377597
-0.0016520143366064535   -0.019737763368182597   -0.0005861725523298413
-0.001983454811096772   -0.01964521113818657   -0.0005837231537020268
-0.0017585514466210241   -0.018647015646843262   -0.0006097964212442632
-0.0023700968810213318   -0.018612750745788487   -0.0006382654870377597
-0.001929165287691908   -0.019646808244352103   -0.0006041786095788285
-0.001719124791154317   -0.018653857013526634   -0.0006067134791402209
-0.0023283271386461118   -0.018639268682569564   -0.0006623889517354264
-0.001929165287691908   -0.019646808244352103   -0.0006041786095788285
-0.0016520143366064535   -0.019737763368182597   -0.0005861725523298413
-0.001719124791154317   -0.018653857013526634   -0.0006067134791402209
-0.0016003529148017424   -0.019756646761611155   -0.0005731547777354963
-0.0023283271386461118   -0.018639268682569564   -0.0006623889517354264
-0.0016827528780799224   -0.01867404871516674   -0.0006068273912633406
-0.0016003529148017424   -0.019756646761611155   -0.0005731547777354963
-0.001719124791154317   -0.018653857013526634   -0.0006067134791402209
-0.0023283271386461118   -0.018639268682569564   -0.0006623889517354264
-0.0016003529148017424   -0.019756646761611155   -0.0005731547777354963
-0.001878873343662785   -0.01966841134024664   -0.0006249352460851635
-0.001929165287691908   -0.019646808244352103   -0.0006041786095788285
-0.0023283271386461118   -0.018639268682569564   -0.0006623889517354264
-0.0016003529148017424   -0.019756646761611155   -0.0005731547777354963
-0.001929165287691908   -0.019646808244352103   -0.0006041786095788285
-0.001719124791154317   -0.018653857013526634   -0.0006067134791402209
-0.0017984507336399986   -0.018653131446776036   -0.0006155354559537326
-0.0017528761988348258   -0.0197564803273682   -0.0006132189503946573
-0.0011690946188024542   -0.018676717300123866   -0.000636793498403589
-0.0017585514466210241   -0.018647015646843262   -0.0006097964212442632
-0.0017528761988348258   -0.0197564803273682   -0.0006132189503946573
-0.0014967842016198297   -0.01986601117676563   -0.0006683510982869937
-0.0011690946188024542   -0.018676717300123866   -0.000636793498403589
-0.0014341545563408742   -0.019849334963833107   -0.000619380593062949
-0.0017585514466210241   -0.018647015646843262   -0.0006097964212442632
-0.0011241519489746169   -0.018667678615208412   -0.0006078052596130521
-0.0014341545563408742   -0.019849334963833107   -0.000619380593062949
-0.0011690946188024542   -0.018676717300123866   -0.000636793498403589
-0.0017585514466210241   -0.018647015646843262   -0.0006097964212442632
-0.0014341545563408742   -0.019849334963833107   -0.000619380593062949
-0.001701654483180219   -0.019737585868735683   -0.0005997705443879308
-0.0017528761988348258   -0.0197564803273682   -0.0006132189503946573
-0.0017585514466210241   -0.018647015646843262   -0.0006097964212442632
-0.0014341545563408742   -0.019849334963833107   -0.000619380593062949
-0.0017528761988348258   -0.0197564803273682   -0.0006132189503946573
-0.0011690946188024542   -0.018676717300123866   -0.000636793498403589
-0.0017585514466210241   -0.018647015646843262   -0.0006097964212442632
-0.001701654483180219   -0.019737585868735683   -0.0005997705443879308
-0.0011241519489746169   -0.018667678615208412   -0.0006078052596130521
-0.001719124791154317   -0.018653857013526634   -0.0006067134791402209
-0.001701654483180219   -0.019737585868735683   -0.0005997705443879308
-0.0014341545563408742   -0.019849334963833107   -0.000619380593062949
-0.0011241519489746169   -0.018667678615208412   -0.0006078052596130521
-0.0013759413303192779   -0.01984874349657131   -0.0005704672070575775
-0.001719124791154317   -0.018653857013526634   -0.0006067134791402209
-0.0010812374821871766   -0.01867012272725529   -0.0005812030754758683
-0.0013759413303192779   -0.01984874349657131   -0.0005704672070575775
-0.0011241519489746169   -0.018667678615208412   -0.0006078052596130521
-0.001719124791154317   -0.018653857013526634   -0.0006067134791402209
-0.0013759413303192779   -0.01984874349657131   -0.0005704672070575775
-0.0016520143366064535   -0.019737763368182597   -0.0005861725523298413
-0.001701654483180219   -0.019737585868735683   -0.0005997705443879308
-0.001719124791154317   -0.018653857013526634   -0.0006067134791402209
-0.0013759413303192779   -0.01984874349657131   -0.0005704672070575775
-0.001701654483180219   -0.019737585868735683   -0.0005997705443879308
-0.0011241519489746169   -0.018667678615208412   -0.0006078052596130521
-0.001719124791154317   -0.018653857013526634   -0.0006067134791402209
-0.0016520143366064535   -0.019737763368182597   -0.0005861725523298413
-0.0010812374821871766   -0.01867012272725529   -0.0005812030754758683
-0.0016827528780799224   -0.01867404871516674   -0.0006068273912633406
-0.0016520143366064535   -0.019737763368182597   -0.0005861725523298413
-0.0013759413303192779   -0.01984874349657131   -0.0005704672070575775
-0.0010812374821871766   -0.01867012272725529   -0.0005812030754758683
-0.001313676615889678   -0.019863446982343408   -0.0005216288561520364
-0.0016827528780799224   -0.01867404871516674   -0.0006068273912633406
-0.0010454047435759402   -0.018686122951723567   -0.0005583896552607214
-0.001313676615889678   -0.019863446982343408   -0.0005216288561520364
-0.0010812374821871766   -0.01867012272725529   -0.0005812030754758683
-0.0016827528780799224   -0.01867404871516674   -0.0006068273912633406
-0.001313676615889678   -0.019863446982343408   -0.0005216288561520364
-0.0016003529148017424   -0.019756646761611155   -0.0005731547777354963
-0.0016520143366064535   -0.019737763368182597   -0.0005861725523298413
-0.0016827528780799224   -0.01867404871516674   -0.0006068273912633406
-0.001313676615889678   -0.019863446982343408   -0.0005216288561520364
-0.0016520143366064535   -0.019737763368182597   -0.0005861725523298413
-0.0010812374821871766   -0.01867012272725529   -0.0005812030754758683
-0.0011690946188024542   -0.018676717300123866   -0.000636793498403589
-0.0014967842016198297   -0.01986601117676563   -0.0006683510982869937
-0.0005023792625400094   -0.01866727078510139   -0.0006621376473599475
-0.0011241519489746169   -0.018667678615208412   -0.0006078052596130521
-0.0014967842016198297   -0.01986601117676563   -0.0006683510982869937
-0.0012447381969492427   -0.02   -0.0007121115494343075
-0.0005023792625400094   -0.01866727078510139   -0.0006621376473599475
-0.0011655680091445558   -0.02   -0.0006366253295076886
-0.0011241519489746169   -0.018667678615208412   -0.0006078052596130521
-0.00044467112395112345   -0.01865304204471416   -0.0006108184035898169
-0.0011655680091445558   -0.02   -0.0006366253295076886
-0.0005023792625400094   -0.01866727078510139   -0.0006621376473599475
-0.0011241519489746169   -0.018667678615208412   -0.0006078052596130521
-0.0011655680091445558   -0.02   -0.0006366253295076886
-0.0014341545563408742   -0.019849334963833107   -0.000619380593062949
-0.0014967842016198297   -0.01986601117676563   -0.0006683510982869937
-0.0011241519489746169   -0.018667678615208412   -0.0006078052596130521
-0.0011655680091445558   -0.02   -0.0006366253295076886
-0.0014967842016198297   -0.01986601117676563   -0.0006683510982869937
-0.0005023792625400094   -0.01866727078510139   -0.0006621376473599475
-0.0011241519489746169   -0.018667678615208412   -0.0006078052596130521
-0.0014341545563408742   -0.019849334963833107   -0.000619380593062949
-0.00044467112395112345   -0.01865304204471416   -0.0006108184035898169
-0.0010812374821871766   -0.01867012272725529   -0.0005812030754758683
-0.0014341545563408742   -0.019849334963833107   -0.000619380593062949
-0.0011655680091445558   -0.02   -0.0006366253295076886
-0.00044467112395112345   -0.01865304204471416   -0.0006108184035898169
-0.001085698788076195   -0.02   -0.0005602548731819119
-0.0010812374821871766   -0.01867012272725529   -0.0005812030754758683
-0.00038533741518385174   -0.018650730791285597   -0.0005620288529134673
-0.001085698788076195   -0.02   -0.0005602548731819119
-0.00044467112395112345   -0.01865304204471416   -0.0006108184035898169
-0.0010812374821871766   -0.01867012272725529   -0.0005812030754758683
-0.001085698788076195   -0.02   -0.0005602548731819119
-0.0013759413303192779   -0.01984874349657131   -0.0005704672070575775
-0.0014341545563408742   -0.019849334963833107   -0.000619380593062949
-0.0010812374821871766   -0.01867012272725529   -0.0005812030754758683
-0.001085698788076195   -0.02   -0.0005602548731819119
-0.0014341545563408742   -0.019849334963833107   -0.000619380593062949
-0.00044467112395112345   -0.01865304204471416   -0.0006108184035898169
-0.0010812374821871766   -0.01867012272725529   -0.0005812030754758683
-0.0013759413303192779   -0.01984874349657131   -0.0005704672070575775
-0.00038533741518385174   -0.018650730791285597   -0.0005620288529134673
-0.0010454047435759402   -0.018686122951723567   -0.0005583896552607214
-0.0013759413303192779   -0.01984874349657131   -0.0005704672070575775
-0.001085698788076195   -0.02   -0.0005602548731819119
-0.00038533741518385174   -0.018650730791285597   -0.0005620288529134673
-0.0010080295134869597   -0.02   -0.0004849218352086591
-0.0010454047435759402   -0.018686122951723567   -0.0005583896552607214
-0.0003415899853391404   -0.018662756489840285   -0.0005175471466702178
-0.0010080295134869597   -0.02   -0.0004849218352086591
-0.00038533741518385174   -0.018650730791285597   -0.0005620288529134673
-0.0010454047435759402   -0.018686122951723567   -0.0005583896552607214
-0.0010080295134869597   -0.02   -0.0004849218352086591
-0.001313676615889678   -0.019863446982343408   -0.0005216288561520364
-0.0013759413303192779   -0.01984874349657131   -0.0005704672070575775
-0.0010454047435759402   -0.018686122951723567   -0.0005583896552607214
-0.0010080295134869597   -0.02   -0.0004849218352086591
-0.0013759413303192779   -0.01984874349657131   -0.0005704672070575775
-0.00038533741518385174   -0.018650730791285597   -0.0005620288529134673
-0.0005023792625400094   -0.01866727078510139   -0.0006621376473599475
-0.0012447381969492427   -0.02   -0.0007121115494343075
0.0002101933307509314   -0.018602153069126673   -0.0007130235761744788
-0.00044467112395112345   -0.01865304204471416   -0.0006108184035898169
-0.0012447381969492427   -0.02   -0.0007121115494343075
-0.0010583819271096208   -0.02   -0.0007650996020072251
0.0002101933307509314   -0.018602153069126673   -0.0007130235761744788
-0.0008902462753696623   -0.02   -0.000655310186150539
-0.00044467112395112345   -0.01865304204471416   -0.0006108184035898169
0.0003472371762401991   -0.01857152590847688   -0.0006292543677051329
-0.0008902462753696623   -0.02   -0.000655310186150539
0.0002101933307509314   -0.018602153069126673   -0.0007130235761744788
-0.00044467112395112345   -0.01865304204471416   -0.0006108184035898169
-0.0008902462753696623   -0.02   -0.000655310186150539
-0.0011655680091445558   -0.02   -0.0006366253295076886
-0.0012447381969492427   -0.02   -0.0007121115494343075
-0.00044467112395112345   -0.01865304204471416   -0.0006108184035898169
-0.0008902462753696623   -0.02   -0.000655310186150539
-0.0012447381969492427   -0.02   -0.0007121115494343075
0.0002101933307509314   -0.018602153069126673   -0.0007130235761744788
-0.00044467112395112345   -0.01865304204471416   -0.0006108184035898169
-0.0011655680091445558   -0.02   -0.0006366253295076886
0.0003472371762401991   -0.01857152590847688   -0.0006292543677051329
-0.00038533741518385174   -0.018650730791285597   -0.0005620288529134673
-0.0011655680091445558   -0.02   -0.0006366253295076886
-0.0008902462753696623   -0.02   -0.000655310186150539
0.0003472371762401991   -0.01857152590847688   -0.0006292543677051329
-0.0007561869307559288   -0.02   -0.0005503158980689776
-0.00038533741518385174   -0.018650730791285597   -0.0005620288529134673
0.0004547946999735021   -0.018565487659384403   -0.0005503864873340066
-0.0007561869307559288   -0.02   -0.0005503158980689776
0.0003472371762401991   -0.01857152590847688   -0.0006292543677051329
-0.00038533741518385174   -0.018650730791285597   -0.0005620288529134673
-0.0007561869307559288   -0.02   -0.0005503158980689776
-0.001085698788076195   -0.02   -0.0005602548731819119
-0.0011655680091445558   -0.02   -0.0006366253295076886
-0.00038533741518385174   -0.018650730791285597   -0.0005620288529134673
-0.0007561869307559288   -0.02   -0.0005503158980689776
-0.0011655680091445558   -0.02   -0.0006366253295076886
0.0003472371762401991   -0.01857152590847688   -0.0006292543677051329
-0.00038533741518385174   -0.018650730791285597   -0.0005620288529134673
-0.001085698788076195   -0.02   -0.0005602548731819119
0.0004547946999735021   -0.018565487659384403   -0.0005503864873340066
-0.0003415899853391404   -0.018662756489840285   -0.0005175471466702178
-0.001085698788076195   -0.02   -0.0005602548731819119
-0.0007561869307559288   -0.02   -0.0005503158980689776
0.0004547946999735021   -0.018565487659384403   -0.0005503864873340066
-0.0005906884386501215   -0.02   -0.00044129139437673457
-0.0003415899853391404   -0.018662756489840285   -0.0005175471466702178
0.0005672128039626913   -0.01857138756666097   -0.0004781005446959631
-0.0005906884386501215   -0.02   -0.00044129139437673457
0.0004547946999735021   -0.018565487659384403   -0.0005503864873340066
-0.0003415899853391404   -0.018662756489840285   -0.0005175471466702178
-0.0005906884386501215   -0.02   -0.00044129139437673457
-0.0010080295134869597   -0.02   -0.0004849218352086591
-0.001085698788076195   -0.02   -0.0005602548731819119
-0.0003415899853391404   -0.018662756489840285   -0.0005175471466702178
-0.0005906884386501215   -0.02   -0.00044129139437673457
-0.001085698788076195   -0.02   -0.0005602548731819119
0.0004547946999735021   -0.018565487659384403   -0.0005503864873340066
-0.0024099858852729907   -0.019568323638045802   -0.0005070123057787082
-0.0014754827319778355   -0.01964346703954888   -0.0004344504349086278
-0.002032240220017295   -0.019663495240323816   -0.0005634848639213713
-0.002304583105571095   -0.019547655209136726   -0.0005677985425798696
-0.0014754827319778355   -0.01964346703954888   -0.0004344504349086278
-0.001549582394149658   -0.019717821088314182   -0.0005072340737422904
-0.002032240220017295   -0.019663495240323816   -0.0005634848639213713
-0.001512491831269709   -0.019692735009259107   -0.0005344959214744134
-0.002304583105571095   -0.019547655209136726   -0.0005677985425798696
-0.001983454811096772   -0.01964521113818657   -0.0005837231537020268
-0.001512491831269709   -0.019692735009259107   -0.0005344959214744134
-0.002032240220017295   -0.019663495240323816   -0.0005634848639213713
-0.002304583105571095   -0.019547655209136726   -0.0005677985425798696
-0.001512491831269709   -0.019692735009259107   -0.0005344959214744134
-0.001379454546886227   -0.01961117557943641   -0.000498390119849798
-0.0014754827319778355   -0.01964346703954888   -0.0004344504349086278
-0.002304583105571095   -0.019547655209136726   -0.0005677985425798696
-0.001512491831269709   -0.019692735009259107   -0.0005344959214744134
-0.0014754827319778355   -0.01964346703954888   -0.0004344504349086278
-0.002032240220017295   -0.019663495240323816   -0.0005634848639213713
-0.002304583105571095   -0.019547655209136726   -0.0005677985425798696
-0.001379454546886227   -0.01961117557943641   -0.000498390119849798
-0.001983454811096772   -0.01964521113818657   -0.0005837231537020268
-0.0022137046074083926   -0.01955020307992789   -0.0006284118109766772
-0.001379454546886227   -0.01961117557943641   -0.000498390119849798
-0.001512491831269709   -0.019692735009259107   -0.0005344959214744134
-0.001983454811096772   -0.01964521113818657   -0.0005837231537020268
-0.0014688237140776945   -0.019684176558722014   -0.0005597598935958499
-0.0022137046074083926   -0.01955020307992789   -0.0006284118109766772
-0.001929165287691908   -0.019646808244352103   -0.0006041786095788285
-0.0014688237140776945   -0.019684176558722014   -0.0005597598935958499
-0.001983454811096772   -0.01964521113818657   -0.0005837231537020268
-0.0022137046074083926   -0.01955020307992789   -0.0006284118109766772
-0.0014688237140776945   -0.019684176558722014   -0.0005597598935958499
-0.0012995793367859432   -0.019602031194779698   -0.0005598568497032564
-0.001379454546886227   -0.01961117557943641   -0.000498390119849798
-0.0022137046074083926   -0.01955020307992789   -0.0006284118109766772
-0.0014688237140776945   -0.019684176558722014   -0.0005597598935958499
-0.001379454546886227   -0.01961117557943641   -0.000498390119849798
-0.001983454811096772   -0.01964521113818657   -0.0005837231537020268
-0.0022137046074083926   -0.01955020307992789   -0.0006284118109766772
-0.0012995793367859432   -0.019602031194779698   -0.0005598568497032564
-0.001929165287691908   -0.019646808244352103   -0.0006041786095788285
-0.0021057088721039663   -0.019577375016947226   -0.000690311237833742
-0.0012995793367859432   -0.019602031194779698   -0.0005598568497032564
-0.0014688237140776945   -0.019684176558722014   -0.0005597598935958499
-0.001929165287691908   -0.019646808244352103   -0.0006041786095788285
-0.00143151283957314   -0.019692301346036938   -0.0005829056895403543
-0.0021057088721039663   -0.019577375016947226   -0.000690311237833742
-0.001878873343662785   -0.01966841134024664   -0.0006249352460851635
-0.00143151283957314   -0.019692301346036938   -0.0005829056895403543
-0.001929165287691908   -0.019646808244352103   -0.0006041786095788285
-0.0021057088721039663   -0.019577375016947226   -0.000690311237833742
-0.00143151283957314   -0.019692301346036938   -0.0005829056895403543
-0.0012088386291196494   -0.01961213216085981   -0.0006186018619844877
-0.0012995793367859432   -0.019602031194779698   -0.0005598568497032564
-0.0021057088721039663   -0.019577375016947226   -0.000690311237833742
-0.00143151283957314   -0.019692301346036938   -0.0005829056895403543
-0.0012995793367859432   -0.019602031194779698   -0.0005598568497032564
-0.001929165287691908   -0.019646808244352103   -0.0006041786095788285
-0.002032240220017295   -0.019663495240323816   -0.0005634848639213713
-0.001549582394149658   -0.019717821088314182   -0.0005072340737422904
-0.0017528761988348258   -0.0197564803273682   -0.0006132189503946573
-0.001983454811096772   -0.01964521113818657   -0.0005837231537020268
-0.001549582394149658   -0.019717821088314182   -0.0005072340737422904
-0.0016562737578056288   -0.019762629882471405   -0.0005652534531753486
-0.0017528761988348258   -0.0197564803273682   -0.0006132189503946573
-0.0016235507586109138   -0.019740179719065224   -0.0005658032977598348
-0.001983454811096772   -0.01964521113818657   -0.0005837231537020268
-0.001701654483180219   -0.019737585868735683   -0.0005997705443879308
-0.0016235507586109138   -0.019740179719065224   -0.0005658032977598348
-0.0017528761988348258   -0.0197564803273682   -0.0006132189503946573
-0.001983454811096772   -0.01964521113818657   -0.0005837231537020268
-0.0016235507586109138   -0.019740179719065224   -0.0005658032977598348
-0.001512491831269709   -0.019692735009259107   -0.0005344959214744134
-0.001549582394149658   -0.019717821088314182   -0.0005072340737422904
-0.001983454811096772   -0.01964521113818657   -0.0005837231537020268
-0.0016235507586109138   -0.019740179719065224   -0.0005658032977598348
-0.001549582394149658   -0.019717821088314182   -0.0005072340737422904
-0.0017528761988348258   -0.0197564803273682   -0.0006132189503946573
-0.001983454811096772   -0.01964521113818657   -0.0005837231537020268
-0.001512491831269709   -0.019692735009259107   -0.0005344959214744134
-0.001701654483180219   -0.019737585868735683   -0.0005997705443879308
-0.001929165287691908   -0.019646808244352103   -0.0006041786095788285
-0.001512491831269709   -0.019692735009259107   -0.0005344959214744134
-0.0016235507586109138   -0.019740179719065224   -0.0005658032977598348
-0.001701654483180219   -0.019737585868735683   -0.0005997705443879308
-0.0015871706328008978   -0.019732690506276702   -0.0005637644631053746
-0.001929165287691908   -0.019646808244352103   -0.0006041786095788285
-0.0016520143366064535   -0.019737763368182597   -0.0005861725523298413
-0.0015871706328008978   -0.019732690506276702   -0.0005637644631053746
-0.001701654483180219   -0.019737585868735683   -0.0005997705443879308
-0.001929165287691908   -0.019646808244352103   -0.0006041786095788285
-0.0015871706328008978   -0.019732690506276702   -0.0005637644631053746
-0.0014688237140776945   -0.019684176558722014   -0.0005597598935958499
-0.001512491831269709   -0.019692735009259107   -0.0005344959214744134
-0.001929165287691908   -0.019646808244352103   -0.0006041786095788285
-0.0015871706328008978   -0.019732690506276702   -0.0005637644631053746
-0.001512491831269709   -0.019692735009259107   -0.0005344959214744134
-0.001701654483180219   -0.019737585868735683   -0.0005997705443879308
-0.001929165287691908   -0.019646808244352103   -0.0006041786095788285
-0.0014688237140776945   -0.019684176558722014   -0.0005597598935958499
-0.0016520143366064535   -0.019737763368182597   -0.0005861725523298413
-0.001878873343662785   -0.01966841134024664   -0.0006249352460851635
-0.0014688237140776945   -0.019684176558722014   -0.0005597598935958499
-0.0015871706328008978   -0.019732690506276702   -0.0005637644631053746
-0.0016520143366064535   -0.019737763368182597   -0.0005861725523298413
-0.0015502315301512185   -0.01973953824040217   -0.0005596916649345577
-0.001878873343662785   -0.01966841134024664   -0.0006249352460851635
-0.0016003529148017424   -0.019756646761611155   -0.0005731547777354963
-0.0015502315301512185   -0.01973953824040217   -0.0005596916649345577
-0.0016520143366064535   -0.019737763368182597   -0.0005861725523298413
-0.001878873343662785   -0.01966841134024664   -0.0006249352460851635
-0.0015502315301512185   -0.01973953824040217   -0.0005596916649345577
-0.00143151283957314   -0.019692301346036938   -0.0005829056895403543
-0.0014688237140776945   -0.019684176558722014   -0.0005597598935958499
-0.001878873343662785   -0.01966841134024664   -0.0006249352460851635
-0.0015502315301512185   -0.01973953824040217   -0.0005596916649345577
-0.0014688237140776945   -0.019684176558722014   -0.0005597598935958499
-0.0016520143366064535   -0.019737763368182597   -0.0005861725523298413
-0.0017528761988348258   -0.0197564803273682   -0.0006132189503946573
-0.0016562737578056288   -0.019762629882471405   -0.0005652534531753486
-0.0014967842016198297   -0.01986601117676563   -0.0006683510982869937
-0.001701654483180219   -0.019737585868735683   -0.0005997705443879308
-0.0016562737578056288   -0.019762629882471405   -0.0005652534531753486
-0.0017714810909433532   -0.019779672231067365   -0.0006225443503861412
-0.0014967842016198297   -0.01986601117676563   -0.0006683510982869937
-0.0017375769960638067   -0.019758118326304013   -0.0005973931058967098
-0.001701654483180219   -0.019737585868735683   -0.0005997705443879308
-0.0014341545563408742   -0.019849334963833107   -0.000619380593062949
-0.0017375769960638067   -0.019758118326304013   -0.0005973931058967098
-0.0014967842016198297   -0.01986601117676563   -0.0006683510982869937
-0.001701654483180219   -0.019737585868735683   -0.0005997705443879308
-0.0017375769960638067   -0.019758118326304013   -0.0005973931058967098
-0.0016235507586109138   -0.019740179719065224   -0.0005658032977598348
-0.0016562737578056288   -0.019762629882471405   -0.0005652534531753486
-0.001701654483180219   -0.019737585868735683   -0.0005997705443879308
-0.0017375769960638067   -0.019758118326304013   -0.0005973931058967098
-0.0016562737578056288   -0.019762629882471405   -0.0005652534531753486
-0.0014967842016198297   -0.01986601117676563   -0.0006683510982869937
-0.001701654483180219   -0.019737585868735683   -0.0005997705443879308
-0.0016235507586109138   -0.019740179719065224   -0.0005658032977598348
-0.0014341545563408742   -0.019849334963833107   -0.000619380593062949
-0.0016520143366064535   -0.019737763368182597   -0.0005861725523298413
-0.0016235507586109138   -0.019740179719065224   -0.0005658032977598348
-0.0017375769960638067   -0.019758118326304013   -0.0005973931058967098
-0.0014341545563408742   -0.019849334963833107   -0.000619380593062949
-0.0016970344908096642   -0.019751754630965273   -0.0005690849109337613
-0.0016520143366064535   -0.019737763368182597   -0.0005861725523298413
-0.0013759413303192779   -0.01984874349657131   -0.0005704672070575775
-0.0016970344908096642   -0.019751754630965273   -0.0005690849109337613
-0.0014341545563408742   -0.019849334963833107   -0.000619380593062949
-0.0016520143366064535   -0.019737763368182597   -0.0005861725523298413
-0.0016970344908096642   -0.019751754630965273   -0.0005690849109337613
-0.0015871706328008978   -0.019732690506276702   -0.0005637644631053746
-0.0016235507586109138   -0.019740179719065224   -0.0005658032977598348
-0.0016520143366064535   -0.019737763368182597   -0.0005861725523298413
-0.0016970344908096642   -0.019751754630965273   -0.0005690849109337613
-0.0016235507586109138   -0.019740179719065224   -0.0005658032977598348
-0.0014341545563408742   -0.019849334963833107   -0.000619380593062949
-0.0016520143366064535   -0.019737763368182597   -0.0005861725523298413
-0.0015871706328008978   -0.019732690506276702   -0.0005637644631053746
-0.0013759413303192779   -0.01984874349657131   -0.0005704672070575775
-0.0016003529148017424   -0.019756646761611155   -0.0005731547777354963
-0.0015871706328008978   -0.019732690506276702   -0.0005637644631053746
-0.0016970344908096642   -0.019751754630965273   -0.0005690849109337613
-0.0013759413303192779   -0.01984874349657131   -0.0005704672070575775
-0.0016554181299554386   -0.019758342419068885   -0.0005390079881864841
-0.0016003529148017424   -0.019756646761611155   -0.0005731547777354963
-0.001313676615889678   -0.019863446982343408   -0.0005216288561520364
-0.0016554181299554386   -0.019758342419068885   -0.0005390079881864841
-0.0013759413303192779   -0.01984874349657131   -0.0005704672070575775
-0.0016003529148017424   -0.019756646761611155   -0.0005731547777354963
-0.0016554181299554386   -0.019758342419068885   -0.0005390079881864841
-0.0015502315301512185   -0.01973953824040217   -0.0005596916649345577
-0.0015871706328008978   -0.019732690506276702   -0.0005637644631053746
-0.0016003529148017424   -0.019756646761611155   -0.0005731547777354963
-0.0016554181299554386   -0.019758342419068885   -0.0005390079881864841
-0.0015871706328008978   -0.019732690506276702   -0.0005637644631053746
-0.0013759413303192779   -0.01984874349657131   -0.0005704672070575775
-0.0014967842016198297   -0.01986601117676563   -0.0006683510982869937
-0.0017714810909433532   -0.019779672231067365   -0.0006225443503861412
-0.0012447381969492427   -0.02   -0.0007121115494343075
-0.0014341545563408742   -0.019849334963833107   -0.000619380593062949
-0.0017714810909433532   -0.019779672231067365   -0.0006225443503861412
-0.001938878118703524   -0.01975620227655427   -0.0006774636658804459
-0.0012447381969492427   -0.02   -0.0007121115494343075
-0.001894649629765847   -0.01973558238795945   -0.0006277306685022913
-0.0014341545563408742   -0.019849334963833107   -0.000619380593062949
-0.0011655680091445558   -0.02   -0.0006366253295076886
-0.001894649629765847   -0.01973558238795945   -0.0006277306685022913
-0.0012447381969492427   -0.02   -0.0007121115494343075
-0.0014341545563408742   -0.019849334963833107   -0.000619380593062949
-0.001894649629765847   -0.01973558238795945   -0.0006277306685022913
-0.0017375769960638067   -0.019758118326304013   -0.0005973931058967098
-0.0017714810909433532   -0.019779672231067365   -0.0006225443503861412
-0.0014341545563408742   -0.019849334963833107   -0.000619380593062949
-0.001894649629765847   -0.01973558238795945   -0.0006277306685022913
-0.0017714810909433532   -0.019779672231067365   -0.0006225443503861412
-0.0012447381969492427   -0.02   -0.0007121115494343075
-0.0014341545563408742   -0.019849334963833107   -0.000619380593062949
-0.0017375769960638067   -0.019758118326304013   -0.0005973931058967098
-0.0011655680091445558   -0.02   -0.0006366253295076886
-0.0013759413303192779   -0.01984874349657131   -0.0005704672070575775
-0.0017375769960638067   -0.019758118326304013   -0.0005973931058967098
-0.001894649629765847   -0.01973558238795945   -0.0006277306685022913
-0.0011655680091445558   -0.02   -0.0006366253295076886
-0.001835993640617629   -0.019731264635901618   -0.0005744365492009979
-0.0013759413303192779   -0.01984874349657131   -0.0005704672070575775
-0.001085698788076195   -0.02   -0.0005602548731819119
-0.001835993640617629   -0.019731264635901618   -0.0005744365492009979
-0.0011655680091445558   -0.02   -0.0006366253295076886
-0.0013759413303192779   -0.01984874349657131   -0.0005704672070575775
-0.001835993640617629   -0.019731264635901618   -0.0005744365492009979
-0.0016970344908096642   -0.019751754630965273   -0.0005690849109337613
-0.0017375769960638067   -0.019758118326304013   -0.0005973931058967098
-0.0013759413303192779   -0.01984874349657131   -0.0005704672070575775
-0.001835993640617629   -0.019731264635901618   -0.0005744365492009979
-0.0017375769960638067   -0.019758118326304013   -0.0005973931058967098
-0.0011655680091445558   -0.02   -0.0006366253295076886
-0.0013759413303192779   -0.01984874349657131   -0.0005704672070575775
-0.0016970344908096642   -0.019751754630965273   -0.0005690849109337613
-0.001085698788076195   -0.02   -0.0005602548731819119
-0.001313676615889678   -0.019863446982343408   -0.0005216288561520364
-0.0016970344908096642   -0.019751754630965273   -0.0005690849109337613
-0.001835993640617629   -0.019731264635901618   -0.0005744365492009979
-0.001085698788076195   -0.02   -0.0005602548731819119
-0.001781277743299152   -0.01974021099482717   -0.0005191860648966491
-0.001313676615889678   -0.019863446982343408   -0.0005216288561520364
-0.0010080295134869597   -0.02   -0.0004849218352086591
-0.001781277743299152   -0.01974021099482717   -0.0005191860648966491
-0.001085698788076195   -0.02   -0.0005602548731819119
-0.001313676615889678   -0.019863446982343408   -0.0005216288561520364
-0.001781277743299152   -0.01974021099482717   -0.0005191860648966491
-0.0016554181299554386   -0.019758342419068885   -0.0005390079881864841
-0.0016970344908096642   -0.019751754630965273   -0.0005690849109337613
-0.001313676615889678   -0.019863446982343408   -0.0005216288561520364
-0.001781277743299152   -0.01974021099482717   -0.0005191860648966491
-0.0016970344908096642   -0.019751754630965273   -0.0005690849109337613
-0.001085698788076195   -0.02   -0.0005602548731819119
-0.0012447381969492427   -0.02   -0.0007121115494343075
-0.001938878118703524   -0.01975620227655427   -0.0006774636658804459
-0.0010583819271096208   -0.02   -0.0007650996020072251
-0.0011655680091445558   -0.02   -0.0006366253295076886
-0.001938878118703524   -0.01975620227655427   -0.0006774636658804459
-0.0022708989850296827   -0.019660120432550443   -0.0007366267090020342
-0.0010583819271096208   -0.02   -0.0007650996020072251
-0.002150154053857585   -0.019642276201450166   -0.0006550980913970849
-0.0011655680091445558   -0.02   -0.0006366253295076886
-0.0008902462753696623   -0.02   -0.000655310186150539
-0.002150154053857585   -0.019642276201450166   -0.0006550980913970849
-0.0010583819271096208   -0.02   -0.0007650996020072251
-0.0011655680091445558   -0.02   -0.0006366253295076886
-0.002150154053857585   -0.019642276201450166   -0.0006550980913970849
-0.001894649629765847   -0.01973558238795945   -0.0006277306685022913
-0.001938878118703524   -0.01975620227655427   -0.0006774636658804459
-0.0011655680091445558   -0.02   -0.0006366253295076886
-0.002150154053857585   -0.019642276201450166   -0.0006550980913970849
-0.001938878118703524   -0.01975620227655427   -0.0006774636658804459
-0.0010583819271096208   -0.02   -0.0007650996020072251
-0.0011655680091445558   -0.02   -0.0006366253295076886
-0.001894649629765847   -0.01973558238795945   -0.0006277306685022913
-0.0008902462753696623   -0.02   -0.000655310186150539
-0.001085698788076195   -0.02   -0.0005602548731819119
-0.001894649629765847   -0.01973558238795945   -0.0006277306685022913
-0.002150154053857585   -0.019642276201450166   -0.0006550980913970849
-0.0008902462753696623   -0.02   -0.000655310186150539
-0.0020398641592023173   -0.01964013893735415   -0.0005683727554120468
-0.001085698788076195   -0.02   -0.0005602548731819119
-0.0007561869307559288   -0.02   -0.0005503158980689776
-0.0020398641592023173   -0.01964013893735415   -0.0005683727554120468
-0.0008902462753696623   -0.02   -0.000655310186150539
-0.001085698788076195   -0.02   -0.0005602548731819119
-0.0020398641592023173   -0.01964013893735415   -0.0005683727554120468
-0.001835993640617629   -0.019731264635901618   -0.0005744365492009979
-0.001894649629765847   -0.01973558238795945   -0.0006277306685022913
-0.001085698788076195   -0.02   -0.0005602548731819119
-0.0020398641592023173   -0.01964013893735415   -0.0005683727554120468
-0.001894649629765847   -0.01973558238795945   -0.0006277306685022913
-0.0008902462753696623   -0.02   -0.000655310186150539
-0.001085698788076195   -0.02   -0.0005602548731819119
-0.001835993640617629   -0.019731264635901618   -0.0005744365492009979
-0.0007561869307559288   -0.02   -0.0005503158980689776
-0.0010080295134869597   -0.02   -0.0004849218352086591
-0.001835993640617629   -0.019731264635901618   -0.0005744365492009979
-0.0020398641592023173   -0.01964013893735415   -0.0005683727554120468
-0.0007561869307559288   -0.02   -0.0005503158980689776
-0.001900459003201657   -0.019663431474939267   -0.00047792671231010553
-0.0010080295134869597   -0.02   -0.0004849218352086591
-0.0005906884386501215   -0.02   -0.00044129139437673457
-0.001900459003201657   -0.019663431474939267   -0.00047792671231010553
-0.0007561869307559288   -0.02   -0.0005503158980689776
-0.0010080295134869597   -0.02   -0.0004849218352086591
-0.001900459003201657   -0.019663431474939267   -0.00047792671231010553
-0.001781277743299152   -0.01974021099482717   -0.0005191860648966491
-0.001835993640617629   -0.019731264635901618   -0.0005744365492009979
-0.0010080295134869597   -0.02   -0.0004849218352086591
-0.001900459003201657   -0.019663431474939267   -0.00047792671231010553
-0.001835993640617629   -0.019731264635901618   -0.0005744365492009979
-0.0007561869307559288   -0.02   -0.0005503158980689776
-0.0014754827319778355   -0.01964346703954888   -0.0004344504349086278
-0.0006461475956784387   -0.018937653937325574   -0.00037409738420841464
-0.001549582394149658   -0.019717821088314182   -0.0005072340737422904
-0.001379454546886227   -0.01961117557943641   -0.000498390119849798
-0.0006461475956784387   -0.018937653937325574   -0.00037409738420841464
-0.0011316797831469041   -0.018994566822548544   -0.00045162206127720894
-0.001549582394149658   -0.019717821088314182   -0.0005072340737422904
-0.0011051862715149175   -0.01896415640845   -0.00047612032718546797
-0.001379454546886227   -0.01961117557943641   -0.000498390119849798
-0.001512491831269709   -0.019692735009259107   -0.0005344959214744134
-0.0011051862715149175   -0.01896415640845   -0.00047612032718546797
-0.001549582394149658   -0.019717821088314182   -0.0005072340737422904
-0.001379454546886227   -0.01961117557943641   -0.000498390119849798
-0.0011051862715149175   -0.01896415640845   -0.00047612032718546797
-0.0005688501603938913   -0.01889987568920469   -0.0004298857778858275
-0.0006461475956784387   -0.018937653937325574   -0.00037409738420841464
-0.001379454546886227   -0.01961117557943641   -0.000498390119849798
-0.0011051862715149175   -0.01896415640845   -0.00047612032718546797
-0.0006461475956784387   -0.018937653937325574   -0.00037409738420841464
-0.001549582394149658   -0.019717821088314182   -0.0005072340737422904
-0.001379454546886227   -0.01961117557943641   -0.000498390119849798
-0.0005688501603938913   -0.01889987568920469   -0.0004298857778858275
-0.001512491831269709   -0.019692735009259107   -0.0005344959214744134
-0.0012995793367859432   -0.019602031194779698   -0.0005598568497032564
-0.0005688501603938913   -0.01889987568920469   -0.0004298857778858275
-0.0011051862715149175   -0.01896415640845   -0.00047612032718546797
-0.001512491831269709   -0.019692735009259107   -0.0005344959214744134
-0.0010751646796130073   -0.018948029066763534   -0.0004985150250534994
-0.0012995793367859432   -0.019602031194779698   -0.0005598568497032564
-0.0014688237140776945   -0.019684176558722014   -0.0005597598935958499
-0.0010751646796130073   -0.018948029066763534   -0.0004985150250534994
-0.001512491831269709   -0.019692735009259107   -0.0005344959214744134
-0.0012995793367859432   -0.019602031194779698   -0.0005598568497032564
-0.0010751646796130073   -0.018948029066763534   -0.0004985150250534994
-0.0005080068979018803   -0.018882706963346072   -0.0004825624412233562
-0.0005688501603938913   -0.01889987568920469   -0.0004298857778858275
-0.0012995793367859432   -0.019602031194779698   -0.0005598568497032564
-0.0010751646796130073   -0.018948029066763534   -0.0004985150250534994
-0.0005688501603938913   -0.01889987568920469   -0.0004298857778858275
-0.001512491831269709   -0.019692735009259107   -0.0005344959214744134
-0.0012995793367859432   -0.019602031194779698   -0.0005598568497032564
-0.0005080068979018803   -0.018882706963346072   -0.0004825624412233562
-0.0014688237140776945   -0.019684176558722014   -0.0005597598935958499
-0.0012088386291196494   -0.01961213216085981   -0.0006186018619844877
-0.0005080068979018803   -0.018882706963346072   -0.0004825624412233562
-0.0010751646796130073   -0.018948029066763534   -0.0004985150250534994
-0.0014688237140776945   -0.019684176558722014   -0.0005597598935958499
-0.0010522041132964774   -0.018945725106325504   -0.0005188799713088903
-0.0012088386291196494   -0.01961213216085981   -0.0006186018619844877
-0.00143151283957314   -0.019692301346036938   -0.0005829056895403543
-0.0010522041132964774   -0.018945725106325504   -0.0005188799713088903
-0.0014688237140776945   -0.019684176558722014   -0.0005597598935958499
-0.0012088386291196494   -0.01961213216085981   -0.0006186018619844877
-0.0010522041132964774   -0.018945725106325504   -0.0005188799713088903
-0.00044111726623759066   -0.01888105510191241   -0.0005320042227062469
-0.0005080068979018803   -0.018882706963346072   -0.0004825624412233562
-0.0012088386291196494   -0.01961213216085981   -0.0006186018619844877
-0.0010522041132964774   -0.018945725106325504   -0.0005188799713088903
-0.0005080068979018803   -0.018882706963346072   -0.0004825624412233562
-0.0014688237140776945   -0.019684176558722014   -0.0005597598935958499
-0.001549582394149658   -0.019717821088314182   -0.0005072340737422904
-0.0011316797831469041   -0.018994566822548544   -0.00045162206127720894
-0.0016562737578056288   -0.019762629882471405   -0.0005652534531753486
-0.001512491831269709   -0.019692735009259107   -0.0005344959214744134
-0.0011316797831469041   -0.018994566822548544   -0.00045162206127720894
-0.001614186914710682   -0.01901435689601062   -0.000514541941516544
-0.0016562737578056288   -0.019762629882471405   -0.0005652534531753486
-0.0015920346572186844   -0.018987853311591658   -0.0005157155635588921
-0.001512491831269709   -0.019692735009259107   -0.0005344959214744134
-0.0016235507586109138   -0.019740179719065224   -0.0005658032977598348
-0.0015920346572186844   -0.018987853311591658   -0.0005157155635588921
-0.0016562737578056288   -0.019762629882471405   -0.0005652534531753486
-0.001512491831269709   -0.019692735009259107   -0.0005344959214744134
-0.0015920346572186844   -0.018987853311591658   -0.0005157155635588921
-0.0011051862715149175   -0.01896415640845   -0.00047612032718546797
-0.0011316797831469041   -0.018994566822548544   -0.00045162206127720894
-0.001512491831269709   -0.019692735009259107   -0.0005344959214744134
-0.0015920346572186844   -0.018987853311591658   -0.0005157155635588921
-0.0011316797831469041   -0.018994566822548544   -0.00045162206127720894
-0.0016562737578056288   -0.019762629882471405   -0.0005652534531753486
-0.001512491831269709   -0.019692735009259107   -0.0005344959214744134
-0.0011051862715149175   -0.01896415640845   -0.00047612032718546797
-0.0016235507586109138   -0.019740179719065224   -0.0005658032977598348
-0.0014688237140776945   -0.019684176558722014   -0.0005597598935958499
-0.0011051862715149175   -0.01896415640845   -0.00047612032718546797
-0.0015920346572186844   -0.018987853311591658   -0.0005157155635588921
-0.0016235507586109138   -0.019740179719065224   -0.0005658032977598348
-0.0015691013058663637   -0.018974215660473484   -0.0005149381758618237
-0.0014688237140776945   -0.019684176558722014   -0.0005597598935958499
-0.0015871706328008978   -0.019732690506276702   -0.0005637644631053746
-0.0015691013058663637   -0.018974215660473484   -0.0005149381758618237
-0.0016235507586109138   -0.019740179719065224   -0.0005658032977598348
-0.0014688237140776945   -0.019684176558722014   -0.0005597598935958499
-0.0015691013058663637   -0.018974215660473484   -0.0005149381758618237
-0.0010751646796130073   -0.018948029066763534   -0.0004985150250534994
-0.0011051862715149175   -0.01896415640845   -0.00047612032718546797
-0.0014688237140776945   -0.019684176558722014   -0.0005597598935958499
-0.0015691013058663637   -0.018974215660473484   -0.0005149381758618237
-0.0011051862715149175   -0.01896415640845   -0.00047612032718546797
-0.0016235507586109138   -0.019740179719065224   -0.0005658032977598348
-0.0014688237140776945   -0.019684176558722014   -0.0005597598935958499
-0.0010751646796130073   -0.018948029066763534   -0.0004985150250534994
-0.0015871706328008978   -0.019732690506276702   -0.0005637644631053746
-0.00143151283957314   -0.019692301346036938   -0.0005829056895403543
-0.0010751646796130073   -0.018948029066763534   -0.0004985150250534994
-0.0015691013058663637   -0.018974215660473484   -0.0005149381758618237
-0.0015871706328008978   -0.019732690506276702   -0.0005637644631053746
-0.0015470113283658769   -0.018972873171723796   -0.0005122045751887997
-0.00143151283957314   -0.019692301346036938   -0.0005829056895403543
-0.0015502315301512185   -0.01973953824040217   -0.0005596916649345577
-0.0015470113283658769   -0.018972873171723796   -0.0005122045751887997
-0.0015871706328008978   -0.019732690506276702   -0.0005637644631053746
-0.00143151283957314   -0.019692301346036938   -0.0005829056895403543
-0.0015470113283658769   -0.018972873171723796   -0.0005122045751887997
-0.0010522041132964774   -0.018945725106325504   -0.0005188799713088903
-0.0010751646796130073   -0.018948029066763534   -0.0004985150250534994
-0.00143151283957314   -0.019692301346036938   -0.0005829056895403543
-0.0015470113283658769   -0.018972873171723796   -0.0005122045751887997
-0.0010751646796130073   -0.018948029066763534   -0.0004985150250534994
-0.0015871706328008978   -0.019732690506276702   -0.0005637644631053746
-0.0016562737578056288   -0.019762629882471405   -0.0005652534531753486
-0.001614186914710682   -0.01901435689601062   -0.000514541941516544
-0.0017714810909433532   -0.019779672231067365   -0.0006225443503861412
-0.0016235507586109138   -0.019740179719065224   -0.0005658032977598348
-0.001614186914710682   -0.01901435689601062   -0.000514541941516544
-0.0020938375237971154   -0.018996136242657363   -0.0005735075486911938
-0.0017714810909433532   -0.019779672231067365   -0.0006225443503861412
-0.0020718615248965966   -0.018972527476569283   -0.0005522872763164065
-0.0016235507586109138   -0.019740179719065224   -0.0005658032977598348
-0.0017375769960638067   -0.019758118326304013   -0.0005973931058967098
-0.0020718615248965966   -0.018972527476569283   -0.0005522872763164065
-0.0017714810909433532   -0.019779672231067365   -0.0006225443503861412
-0.0016235507586109138   -0.019740179719065224   -0.0005658032977598348
-0.0020718615248965966   -0.018972527476569283   -0.0005522872763164065
-0.0015920346572186844   -0.018987853311591658   -0.0005157155635588921
-0.001614186914710682   -0.01901435689601062   -0.000514541941516544
-0.0016235507586109138   -0.019740179719065224   -0.0005658032977598348
-0.0020718615248965966   -0.018972527476569283   -0.0005522872763164065
-0.001614186914710682   -0.01901435689601062   -0.000514541941516544
-0.0017714810909433532   -0.019779672231067365   -0.0006225443503861412
-0.0016235507586109138   -0.019740179719065224   -0.0005658032977598348
-0.0015920346572186844   -0.018987853311591658   -0.0005157155635588921
-0.0017375769960638067   -0.019758118326304013   -0.0005973931058967098
-0.0015871706328008978   -0.019732690506276702   -0.0005637644631053746
-0.0015920346572186844   -0.018987853311591658   -0.0005157155635588921
-0.0020718615248965966   -0.018972527476569283   -0.0005522872763164065
-0.0017375769960638067   -0.019758118326304013   -0.0005973931058967098
-0.0020472038888684637   -0.01896158379255872   -0.0005291508214231229
-0.0015871706328008978   -0.019732690506276702   -0.0005637644631053746
-0.0016970344908096642   -0.019751754630965273   -0.0005690849109337613
-0.0020472038888684637   -0.01896158379255872   -0.0005291508214231229
-0.0017375769960638067   -0.019758118326304013   -0.0005973931058967098
-0.0015871706328008978   -0.019732690506276702   -0.0005637644631053746
-0.0020472038888684637   -0.01896158379255872   -0.0005291508214231229
-0.0015691013058663637   -0.018974215660473484   -0.0005149381758618237
-0.0015920346572186844   -0.018987853311591658   -0.0005157155635588921
-0.0015871706328008978   -0.019732690506276702   -0.0005637644631053746
-0.0020472038888684637   -0.01896158379255872   -0.0005291508214231229
-0.0015920346572186844   -0.018987853311591658   -0.0005157155635588921
-0.0017375769960638067   -0.019758118326304013   -0.0005973931058967098
-0.0015871706328008978   -0.019732690506276702   -0.0005637644631053746
-0.0015691013058663637   -0.018974215660473484   -0.0005149381758618237
-0.0016970344908096642   -0.019751754630965273   -0.0005690849109337613
-0.0015502315301512185   -0.01973953824040217   -0.0005596916649345577
-0.0015691013058663637   -0.018974215660473484   -0.0005149381758618237
-0.0020472038888684637   -0.01896158379255872   -0.0005291508214231229
-0.0016970344908096642   -0.019751754630965273   -0.0005690849109337613
-0.0020225090086086212   -0.018962158060378532   -0.0005038658067647642
-0.0015502315301512185   -0.01973953824040217   -0.0005596916649345577
-0.0016554181299554386   -0.019758342419068885   -0.0005390079881864841
-0.0020225090086086212   -0.018962158060378532   -0.0005038658067647642
-0.0016970344908096642   -0.019751754630965273   -0.0005690849109337613
-0.0015502315301512185   -0.01973953824040217   -0.0005596916649345577
-0.0020225090086086212   -0.018962158060378532   -0.0005038658067647642
-0.0015470113283658769   -0.018972873171723796   -0.0005122045751887997
-0.0015691013058663637   -0.018974215660473484   -0.0005149381758618237
-0.0015502315301512185   -0.01973953824040217   -0.0005596916649345577
-0.0020225090086086212   -0.018962158060378532   -0.0005038658067647642
-0.0015691013058663637   -0.018974215660473484   -0.0005149381758618237
-0.0016970344908096642   -0.019751754630965273   -0.0005690849109337613
-0.0017714810909433532   -0.019779672231067365   -0.0006225443503861412
-0.0020938375237971154   -0.018996136242657363   -0.0005735075486911938
-0.001938878118703524   -0.01975620227655427   -0.0006774636658804459
-0.0017375769960638067   -0.019758118326304013   -0.0005973931058967098
-0.0020938375237971154   -0.018996136242657363   -0.0005735075486911938
-0.0026194988025068284   -0.018937604146755826   -0.000627923057966291
-0.001938878118703524   -0.01975620227655427   -0.0006774636658804459
-0.0025924162627946556   -0.01891684442327449   -0.0005847385643539872
-0.0017375769960638067   -0.019758118326304013   -0.0005973931058967098
-0.001894649629765847   -0.01973558238795945   -0.0006277306685022913
-0.0025924162627946556   -0.01891684442327449   -0.0005847385643539872
-0.001938878118703524   -0.01975620227655427   -0.0006774636658804459
-0.0017375769960638067   -0.019758118326304013   -0.0005973931058967098
-0.0025924162627946556   -0.01891684442327449   -0.0005847385643539872
-0.0020718615248965966   -0.018972527476569283   -0.0005522872763164065
-0.0020938375237971154   -0.018996136242657363   -0.0005735075486911938
-0.0017375769960638067   -0.019758118326304013   -0.0005973931058967098
-0.0025924162627946556   -0.01891684442327449   -0.0005847385643539872
-0.0020938375237971154   -0.018996136242657363   -0.0005735075486911938
-0.001938878118703524   -0.01975620227655427   -0.0006774636658804459
-0.0017375769960638067   -0.019758118326304013   -0.0005973931058967098
-0.0020718615248965966   -0.018972527476569283   -0.0005522872763164065
-0.001894649629765847   -0.01973558238795945   -0.0006277306685022913
-0.0016970344908096642   -0.019751754630965273   -0.0005690849109337613
-0.0020718615248965966   -0.018972527476569283   -0.0005522872763164065
-0.0025924162627946556   -0.01891684442327449   -0.0005847385643539872
-0.001894649629765847   -0.01973558238795945   -0.0006277306685022913
-0.002554850486337773   -0.01890858442387865   -0.0005397967705379408
-0.0016970344908096642   -0.019751754630965273   -0.0005690849109337613
-0.001835993640617629   -0.019731264635901618   -0.0005744365492009979
-0.002554850486337773   -0.01890858442387865   -0.0005397967705379408
-0.001894649629765847   -0.01973558238795945   -0.0006277306685022913
-0.0016970344908096642   -0.019751754630965273   -0.0005690849109337613
-0.002554850486337773   -0.01890858442387865   -0.0005397967705379408
-0.0020472038888684637   -0.01896158379255872   -0.0005291508214231229
-0.0020718615248965966   -0.018972527476569283   -0.0005522872763164065
-0.0016970344908096642   -0.019751754630965273   -0.0005690849109337613
-0.002554850486337773   -0.01890858442387865   -0.0005397967705379408
-0.0020718615248965966   -0.018972527476569283   -0.0005522872763164065
-0.001894649629765847   -0.01973558238795945   -0.0006277306685022913
-0.0016970344908096642   -0.019751754630965273   -0.0005690849109337613
-0.0020472038888684637   -0.01896158379255872   -0.0005291508214231229
-0.001835993640617629   -0.019731264635901618   -0.0005744365492009979
-0.0016554181299554386   -0.019758342419068885   -0.0005390079881864841
-0.0020472038888684637   -0.01896158379255872   -0.0005291508214231229
-0.002554850486337773   -0.01890858442387865   -0.0005397967705379408
-0.001835993640617629   -0.019731264635901618   -0.0005744365492009979
-0.0025223623397719725   -0.01891282201767653   -0.0004918936855291624
-0.0016554181299554386   -0.019758342419068885   -0.0005390079881864841
-0.001781277743299152   -0.01974021099482717   -0.0005191860648966491
-0.0025223623397719725   -0.01891282201767653   -0.0004918936855291624
-0.001835993640617629   -0.019731264635901618   -0.0005744365492009979
-0.0016554181299554386   -0.019758342419068885   -0.0005390079881864841
-0.0025223623397719725   -0.01891282201767653   -0.0004918936855291624
-0.0020225090086086212   -0.018962158060378532   -0.0005038658067647642
-0.0020472038888684637   -0.01896158379255872   -0.0005291508214231229
-0.0016554181299554386   -0.019758342419068885   -0.0005390079881864841
-0.0025223623397719725   -0.01891282201767653   -0.0004918936855291624
-0.0020472038888684637   -0.01896158379255872   -0.0005291508214231229
-0.001835993640617629   -0.019731264635901618   -0.0005744365492009979
-0.001938878118703524   -0.01975620227655427   -0.0006774636658804459
-0.0026194988025068284   -0.018937604146755826   -0.000627923057966291
-0.0022708989850296827   -0.019660120432550443   -0.0007366267090020342
-0.001894649629765847   -0.01973558238795945   -0.0006277306685022913
-0.0026194988025068284   -0.018937604146755826   -0.000627923057966291
-0.003296152364876458   -0.018842409704684374   -0.0006809201962781787
-0.0022708989850296827   -0.019660120432550443   -0.0007366267090020342
-0.0032063165846474466   -0.018819577501608824   -0.0006126572152484731
-0.001894649629765847   -0.01973558238795945   -0.0006277306685022913
-0.002150154053857585   -0.019642276201450166   -0.0006550980913970849
-0.0032063165846474466   -0.018819577501608824   -0.0006126572152484731
-0.0022708989850296827   -0.019660120432550443   -0.0007366267090020342
-0.001894649629765847   -0.01973558238795945   -0.0006277306685022913
-0.0032063165846474466   -0.018819577501608824   -0.0006126572152484731
-0.0025924162627946556   -0.01891684442327449   -0.0005847385643539872
-0.0026194988025068284   -0.018937604146755826   -0.000627923057966291
-0.001894649629765847   -0.01973558238795945   -0.0006277306685022913
-0.0032063165846474466   -0.018819577501608824   -0.0006126572152484731
-0.0026194988025068284   -0.018937604146755826   -0.000627923057966291
-0.0022708989850296827   -0.019660120432550443   -0.0007366267090020342
-0.001894649629765847   -0.01973558238795945   -0.0006277306685022913
-0.0025924162627946556   -0.01891684442327449   -0.0005847385643539872
-0.002150154053857585   -0.019642276201450166   -0.0006550980913970849
-0.001835993640617629   -0.019731264635901618   -0.0005744365492009979
-0.0025924162627946556   -0.01891684442327449   -0.0005847385643539872
-0.0032063165846474466   -0.018819577501608824   -0.0006126572152484731
-0.002150154053857585   -0.019642276201450166   -0.0006550980913970849
-0.003126328524655368   -0.018811937387174505   -0.0005406687354344912
-0.001835993640617629   -0.019731264635901618   -0.0005744365492009979
-0.0020398641592023173   -0.01964013893735415   -0.0005683727554120468
-0.003126328524655368   -0.018811937387174505   -0.0005406687354344912
-0.002150154053857585   -0.019642276201450166   -0.0006550980913970849
-0.001835993640617629   -0.019731264635901618   -0.0005744365492009979
-0.003126328524655368   -0.018811937387174505   -0.0005406687354344912
-0.002554850486337773   -0.01890858442387865   -0.0005397967705379408
-0.0025924162627946556   -0.01891684442327449   -0.0005847385643539872
-0.001835993640617629   -0.019731264635901618   -0.0005744365492009979
-0.003126328524655368   -0.018811937387174505   -0.0005406687354344912
-0.0025924162627946556   -0.01891684442327449   -0.0005847385643539872
-0.002150154053857585   -0.019642276201450166   -0.0006550980913970849
-0.001835993640617629   -0.019731264635901618   -0.0005744365492009979
-0.002554850486337773   -0.01890858442387865   -0.0005397967705379408
-0.0020398641592023173   -0.01964013893735415   -0.0005683727554120468
-0.001781277743299152   -0.01974021099482717   -0.0005191860648966491
-0.002554850486337773   -0.01890858442387865   -0.0005397967705379408
-0.003126328524655368   -0.018811937387174505   -0.0005406687354344912
-0.0020398641592023173   -0.01964013893735415   -0.0005683727554120468
-0.0030227289439545718   -0.018823605712898518   -0.0004656176482092442
-0.001781277743299152   -0.01974021099482717   -0.0005191860648966491
-0.001900459003201657   -0.019663431474939267   -0.00047792671231010553
-0.0030227289439545718   -0.018823605712898518   -0.0004656176482092442
-0.0020398641592023173   -0.01964013893735415   -0.0005683727554120468
-0.001781277743299152   -0.01974021099482717   -0.0005191860648966491
-0.0030227289439545718   -0.018823605712898518   -0.0004656176482092442
-0.0025223623397719725   -0.01891282201767653   -0.0004918936855291624
-0.002554850486337773   -0.01890858442387865   -0.0005397967705379408
-0.001781277743299152   -0.01974021099482717   -0.0005191860648966491
-0.0030227289439545718   -0.018823605712898518   -0.0004656176482092442
-0.002554850486337773   -0.01890858442387865   -0.0005397967705379408
-0.0020398641592023173   -0.01964013893735415   -0.0005683727554120468
-0.0006461475956784387   -0.018937653937325574   -0.00037409738420841464
3.4589487479027424e-05   -0.01760981635909721   -0.00030834480578501196
-0.0011316797831469041   -0.018994566822548544   -0.00045162206127720894
-0.0005688501603938913   -0.01889987568920469   -0.0004298857778858275
3.4589487479027424e-05   -0.01760981635909721   -0.00030834480578501196
-0.0007959067012032408   -0.01765219005902102   -0.0003846518732549753
-0.0011316797831469041   -0.018994566822548544   -0.00045162206127720894
-0.0007816435116615352   -0.017620274574981012   -0.0004043213038535867
-0.0005688501603938913   -0.01889987568920469   -0.0004298857778858275
-0.0011051862715149175   -0.01896415640845   -0.00047612032718546797
-0.0007816435116615352   -0.017620274574981012   -0.0004043213038535867
-0.0011316797831469041   -0.018994566822548544   -0.00045162206127720894
-0.0005688501603938913   -0.01889987568920469   -0.0004298857778858275
-0.0007816435116615352   -0.017620274574981012   -0.0004043213038535867
8.945397993860372e-05   -0.017571310032903215   -0.00035334735127572856
3.4589487479027424e-05   -0.01760981635909721   -0.00030834480578501196
-0.0005688501603938913   -0.01889987568920469   -0.0004298857778858275
-0.0007816435116615352   -0.017620274574981012   -0.0004043213038535867
3.4589487479027424e-05   -0.01760981635909721   -0.00030834480578501196
-0.0011316797831469041   -0.018994566822548544   -0.00045162206127720894
-0.0005688501603938913   -0.01889987568920469   -0.0004298857778858275
8.945397993860372e-05   -0.017571310032903215   -0.00035334735127572856
-0.0011051862715149175   -0.01896415640845   -0.00047612032718546797
-0.0005080068979018803   -0.018882706963346072   -0.0004825624412233562
8.945397993860372e-05   -0.017571310032903215   -0.00035334735127572856
-0.0007816435116615352   -0.017620274574981012   -0.0004043213038535867
-0.0011051862715149175   -0.01896415640845   -0.00047612032718546797
-0.0007652485765158246   -0.01760015191210073   -0.00042181008469450315
-0.0005080068979018803   -0.018882706963346072   -0.0004825624412233562
-0.0010751646796130073   -0.018948029066763534   -0.0004985150250534994
-0.0007652485765158246   -0.01760015191210073   -0.00042181008469450315
-0.0011051862715149175   -0.01896415640845   -0.00047612032718546797
-0.0005080068979018803   -0.018882706963346072   -0.0004825624412233562
-0.0007652485765158246   -0.01760015191210073   -0.00042181008469450315
0.00012990745546719368   -0.017549899837940166   -0.00039529686257588063
8.945397993860372e-05   -0.017571310032903215   -0.00035334735127572856
-0.0005080068979018803   -0.018882706963346072   -0.0004825624412233562
-0.0007652485765158246   -0.01760015191210073   -0.00042181008469450315
8.945397993860372e-05   -0.017571310032903215   -0.00035334735127572856
-0.0011051862715149175   -0.01896415640845   -0.00047612032718546797
-0.0005080068979018803   -0.018882706963346072   -0.0004825624412233562
0.00012990745546719368   -0.017549899837940166   -0.00039529686257588063
-0.0010751646796130073   -0.018948029066763534   -0.0004985150250534994
-0.00044111726623759066   -0.01888105510191241   -0.0005320042227062469
0.00012990745546719368   -0.017549899837940166   -0.00039529686257588063
-0.0007652485765158246   -0.01760015191210073   -0.00042181008469450315
-0.0010751646796130073   -0.018948029066763534   -0.0004985150250534994
-0.000755428154298293   -0.01759120141922857   -0.0004373345697673836
-0.00044111726623759066   -0.01888105510191241   -0.0005320042227062469
-0.0010522041132964774   -0.018945725106325504   -0.0005188799713088903
-0.000755428154298293   -0.01759120141922857   -0.0004373345697673836
-0.0010751646796130073   -0.018948029066763534   -0.0004985150250534994
-0.00044111726623759066   -0.01888105510191241   -0.0005320042227062469
-0.000755428154298293   -0.01759120141922857   -0.0004373345697673836
0.00017363225423504128   -0.017540615102791354   -0.0004341853034310169
0.00012990745546719368   -0.017549899837940166   -0.00039529686257588063
-0.00044111726623759066   -0.01888105510191241   -0.0005320042227062469
-0.000755428154298293   -0.01759120141922857   -0.0004373345697673836
0.00012990745546719368   -0.017549899837940166   -0.00039529686257588063
-0.0010751646796130073   -0.018948029066763534   -0.0004985150250534994
-0.0011316797831469041   -0.018994566822548544   -0.00045162206127720894
-0.0007959067012032408   -0.01765219005902102   -0.0003846518732549753
-0.001614186914710682   -0.01901435689601062   -0.000514541941516544
-0.0011051862715149175   -0.01896415640845   -0.00047612032718546797
-0.0007959067012032408   -0.01765219005902102   -0.0003846518732549753
-0.0016022770933865383   -0.01766036834425671   -0.000447071834640447
-0.001614186914710682   -0.01901435689601062   -0.000514541941516544
-0.0015919040806825888   -0.01763307961988215   -0.00044744885222298123
-0.0011051862715149175   -0.01896415640845   -0.00047612032718546797
-0.0015920346572186844   -0.018987853311591658   -0.0005157155635588921
-0.0015919040806825888   -0.01763307961988215   -0.00044744885222298123
-0.001614186914710682   -0.01901435689601062   -0.000514541941516544
-0.0011051862715149175   -0.01896415640845   -0.00047612032718546797
-0.0015919040806825888   -0.01763307961988215   -0.00044744885222298123
-0.0007816435116615352   -0.017620274574981012   -0.0004043213038535867
-0.0007959067012032408   -0.01765219005902102   -0.0003846518732549753
-0.0011051862715149175   -0.01896415640845   -0.00047612032718546797
-0.0015919040806825888   -0.01763307961988215   -0.00044744885222298123
-0.0007959067012032408   -0.01765219005902102   -0.0003846518732549753
-0.001614186914710682   -0.01901435689601062   -0.000514541941516544
-0.0011051862715149175   -0.01896415640845   -0.00047612032718546797
-0.0007816435116615352   -0.017620274574981012   -0.0004043213038535867
-0.0015920346572186844   -0.018987853311591658   -0.0005157155635588921
-0.0010751646796130073   -0.018948029066763534   -0.0004985150250534994
-0.0007816435116615352   -0.017620274574981012   -0.0004043213038535867
-0.0015919040806825888   -0.01763307961988215   -0.00044744885222298123
-0.0015920346572186844   -0.018987853311591658   -0.0005157155635588921
-0.0015812173571920687   -0.01761633491265443   -0.0004457303523683498
-0.0010751646796130073   -0.018948029066763534   -0.0004985150250534994
-0.0015691013058663637   -0.018974215660473484   -0.0005149381758618237
-0.0015812173571920687   -0.01761633491265443   -0.0004457303523683498
-0.0015920346572186844   -0.018987853311591658   -0.0005157155635588921
-0.0010751646796130073   -0.018948029066763534   -0.0004985150250534994
-0.0015812173571920687   -0.01761633491265443   -0.0004457303523683498
-0.0007652485765158246   -0.01760015191210073   -0.00042181008469450315
-0.0007816435116615352   -0.017620274574981012   -0.0004043213038535867
-0.0010751646796130073   -0.018948029066763534   -0.0004985150250534994
-0.0015812173571920687   -0.01761633491265443   -0.0004457303523683498
-0.0007816435116615352   -0.017620274574981012   -0.0004043213038535867
-0.0015920346572186844   -0.018987853311591658   -0.0005157155635588921
-0.0010751646796130073   -0.018948029066763534   -0.0004985150250534994
-0.0007652485765158246   -0.01760015191210073   -0.00042181008469450315
-0.0015691013058663637   -0.018974215660473484   -0.0005149381758618237
-0.0010522041132964774   -0.018945725106325504   -0.0005188799713088903
-0.0007652485765158246   -0.01760015191210073   -0.00042181008469450315
-0.0015812173571920687   -0.01761633491265443   -0.0004457303523683498
-0.0015691013058663637   -0.018974215660473484   -0.0005149381758618237
-0.0015718780615409113   -0.017609978145018957   -0.00044206556727392646
-0.0010522041132964774   -0.018945725106325504   -0.0005188799713088903
-0.0015470113283658769   -0.018972873171723796   -0.0005122045751887997
-0.0015718780615409113   -0.017609978145018957   -0.00044206556727392646
-0.0015691013058663637   -0.018974215660473484   -0.0005149381758618237
-0.0010522041132964774   -0.018945725106325504   -0.0005188799713088903
-0.0015718780615409113   -0.017609978145018957   -0.00044206556727392646
-0.000755428154298293   -0.01759120141922857   -0.0004373345697673836
-0.0007652485765158246   -0.01760015191210073   -0.00042181008469450315
-0.0010522041132964774   -0.018945725106325504   -0.0005188799713088903
-0.0015718780615409113   -0.017609978145018957   -0.00044206556727392646
-0.0007652485765158246   -0.01760015191210073   -0.00042181008469450315
-0.0015691013058663637   -0.018974215660473484   -0.0005149381758618237
-0.001614186914710682   -0.01901435689601062   -0.000514541941516544
-0.0016022770933865383   -0.01766036834425671   -0.000447071834640447
-0.0020938375237971154   -0.018996136242657363   -0.0005735075486911938
-0.0015920346572186844   -0.018987853311591658   -0.0005157155635588921
-0.0016022770933865383   -0.01766036834425671   -0.000447071834640447
-0.0023965984219021675   -0.0176343960698115   -0.0005033703792413003
-0.0020938375237971154   -0.018996136242657363   -0.0005735075486911938
-0.002386952480200038   -0.017610889271974413   -0.0004849122383123653
-0.0015920346572186844   -0.018987853311591658   -0.0005157155635588921
-0.0020718615248965966   -0.018972527476569283   -0.0005522872763164065
-0.002386952480200038   -0.017610889271974413   -0.0004849122383123653
-0.0020938375237971154   -0.018996136242657363   -0.0005735075486911938
-0.0015920346572186844   -0.018987853311591658   -0.0005157155635588921
-0.002386952480200038   -0.017610889271974413   -0.0004849122383123653
-0.0015919040806825888   -0.01763307961988215   -0.00044744885222298123
-0.0016022770933865383   -0.01766036834425671   -0.000447071834640447
-0.0015920346572186844   -0.018987853311591658   -0.0005157155635588921
-0.002386952480200038   -0.017610889271974413   -0.0004849122383123653
-0.0016022770933865383   -0.01766036834425671   -0.000447071834640447
-0.0020938375237971154   -0.018996136242657363   -0.0005735075486911938
-0.0015920346572186844   -0.018987853311591658   -0.0005157155635588921
-0.0015919040806825888   -0.01763307961988215   -0.00044744885222298123
-0.0020718615248965966   -0.018972527476569283   -0.0005522872763164065
-0.0015691013058663637   -0.018974215660473484   -0.0005149381758618237
-0.0015919040806825888   -0.01763307961988215   -0.00044744885222298123
-0.002386952480200038   -0.017610889271974413   -0.0004849122383123653
-0.0020718615248965966   -0.018972527476569283   -0.0005522872763164065
-0.0023752849634010964   -0.01759781373131161   -0.00046440943974189865
-0.0015691013058663637   -0.018974215660473484   -0.0005149381758618237
-0.0020472038888684637   -0.01896158379255872   -0.0005291508214231229
-0.0023752849634010964   -0.01759781373131161   -0.00046440943974189865
-0.0020718615248965966   -0.018972527476569283   -0.0005522872763164065
-0.0015691013058663637   -0.018974215660473484   -0.0005149381758618237
-0.0023752849634010964   -0.01759781373131161   -0.00046440943974189865
-0.0015812173571920687   -0.01761633491265443   -0.0004457303523683498
-0.0015919040806825888   -0.01763307961988215   -0.00044744885222298123
-0.0015691013058663637   -0.018974215660473484   -0.0005149381758618237
-0.0023752849634010964   -0.01759781373131161   -0.00046440943974189865
-0.0015919040806825888   -0.01763307961988215   -0.00044744885222298123
-0.0020718615248965966   -0.018972527476569283   -0.0005522872763164065
-0.0015691013058663637   -0.018974215660473484   -0.0005149381758618237
-0.0015812173571920687   -0.01761633491265443   -0.0004457303523683498
-0.0020472038888684637   -0.01896158379255872   -0.0005291508214231229
-0.0015470113283658769   -0.018972873171723796   -0.0005122045751887997
-0.0015812173571920687   -0.01761633491265443   -0.0004457303523683498
-0.0023752849634010964   -0.01759781373131161   -0.00046440943974189865
-0.0020472038888684637   -0.01896158379255872   -0.0005291508214231229
-0.0023639776329383868   -0.0175947186783615   -0.00044192363352280327
-0.0015470113283658769   -0.018972873171723796   -0.0005122045751887997
-0.0020225090086086212   -0.018962158060378532   -0.0005038658067647642
-0.0023639776329383868   -0.0175947186783615   -0.00044192363352280327
-0.0020472038888684637   -0.01896158379255872   -0.0005291508214231229
-0.0015470113283658769   -0.018972873171723796   -0.0005122045751887997
-0.0023639776329383868   -0.0175947186783615   -0.00044192363352280327
-0.0015718780615409113   -0.017609978145018957   -0.00044206556727392646
-0.0015812173571920687   -0.01761633491265443   -0.0004457303523683498
-0.0015470113283658769   -0.018972873171723796   -0.0005122045751887997
-0.0023639776329383868   -0.0175947186783615   -0.00044192363352280327
-0.0015812173571920687   -0.01761633491265443   -0.0004457303523683498
-0.0020472038888684637   -0.01896158379255872   -0.0005291508214231229
-0.0020938375237971154   -0.018996136242657363   -0.0005735075486911938
-0.0023965984219021675   -0.0176343960698115   -0.0005033703792413003
-0.0026194988025068284   -0.018937604146755826   -0.000627923057966291
-0.0020718615248965966   -0.018972527476569283   -0.0005522872763164065
-0.0023965984219021675   -0.0176343960698115   -0.0005033703792413003
-0.003228178991824392   -0.01757510686196873   -0.0005534442667665571
-0.0026194988025068284   -0.018937604146755826   -0.000627923057966291
-0.0032153960098605886   -0.017555150882174048   -0.0005160977295539973
-0.0020718615248965966   -0.018972527476569283   -0.0005522872763164065
-0.0025924162627946556   -0.01891684442327449   -0.0005847385643539872
-0.0032153960098605886   -0.017555150882174048   -0.0005160977295539973
-0.0026194988025068284   -0.018937604146755826   -0.000627923057966291
-0.0020718615248965966   -0.018972527476569283   -0.0005522872763164065
-0.0032153960098605886   -0.017555150882174048   -0.0005160977295539973
-0.002386952480200038   -0.017610889271974413   -0.0004849122383123653
-0.0023965984219021675   -0.0176343960698115   -0.0005033703792413003
-0.0020718615248965966   -0.018972527476569283   -0.0005522872763164065
-0.0032153960098605886   -0.017555150882174048   -0.0005160977295539973
-0.0023965984219021675   -0.0176343960698115   -0.0005033703792413003
-0.0026194988025068284   -0.018937604146755826   -0.000627923057966291
-0.0020718615248965966   -0.018972527476569283   -0.0005522872763164065
-0.002386952480200038   -0.017610889271974413   -0.0004849122383123653
-0.0025924162627946556   -0.01891684442327449   -0.0005847385643539872
-0.0020472038888684637   -0.01896158379255872   -0.0005291508214231229
-0.002386952480200038   -0.017610889271974413   -0.0004849122383123653
-0.0032153960098605886   -0.017555150882174048   -0.0005160977295539973
-0.0025924162627946556   -0.01891684442327449   -0.0005847385643539872
-0.0031936226081953948   -0.017545400956180332   -0.0004770293313706258
-0.0020472038888684637   -0.01896158379255872   -0.0005291508214231229
-0.002554850486337773   -0.01890858442387865   -0.0005397967705379408
-0.0031936226081953948   -0.017545400956180332   -0.0004770293313706258
-0.0025924162627946556   -0.01891684442327449   -0.0005847385643539872
-0.0020472038888684637   -0.01896158379255872   -0.0005291508214231229
-0.0031936226081953948   -0.017545400956180332   -0.0004770293313706258
-0.0023752849634010964   -0.01759781373131161   -0.00046440943974189865
-0.002386952480200038   -0.017610889271974413   -0.0004849122383123653
-0.0020472038888684637   -0.01896158379255872   -0.0005291508214231229
-0.0031936226081953948   -0.017545400956180332   -0.0004770293313706258
-0.002386952480200038   -0.017610889271974413   -0.0004849122383123653
-0.0025924162627946556   -0.01891684442327449   -0.0005847385643539872
-0.0020472038888684637   -0.01896158379255872   -0.0005291508214231229
-0.0023752849634010964   -0.01759781373131161   -0.00046440943974189865
-0.002554850486337773   -0.01890858442387865   -0.0005397967705379408
-0.0020225090086086212   -0.018962158060378532   -0.0005038658067647642
-0.0023752849634010964   -0.01759781373131161   -0.00046440943974189865
-0.0031936226081953948   -0.017545400956180332   -0.0004770293313706258
-0.002554850486337773   -0.01890858442387865   -0.0005397967705379408
-0.0031761517925295245   -0.017546414585140117   -0.0004356841258883079
-0.0020225090086086212   -0.018962158060378532   -0.0005038658067647642
-0.0025223623397719725   -0.01891282201767653   -0.0004918936855291624
-0.0031761517925295245   -0.017546414585140117   -0.0004356841258883079
-0.002554850486337773   -0.01890858442387865   -0.0005397967705379408
-0.0020225090086086212   -0.018962158060378532   -0.0005038658067647642
-0.0031761517925295245   -0.017546414585140117   -0.0004356841258883079
-0.0023639776329383868   -0.0175947186783615   -0.00044192363352280327
-0.0023752849634010964   -0.01759781373131161   -0.00046440943974189865
-0.0020225090086086212   -0.018962158060378532   -0.0005038658067647642
-0.0031761517925295245   -0.017546414585140117   -0.0004356841258883079
-0.0023752849634010964   -0.01759781373131161   -0.00046440943974189865
-0.002554850486337773   -0.01890858442387865   -0.0005397967705379408
-0.0026194988025068284   -0.018937604146755826   -0.000627923057966291
-0.003228178991824392   -0.01757510686196873   -0.0005534442667665571
-0.003296152364876458   -0.018842409704684374   -0.0006809201962781787
-0.0025924162627946556   -0.01891684442327449   -0.0005847385643539872
-0.003228178991824392   -0.01757510686196873   -0.0005534442667665571
-0.004197567561965567   -0.017489150467389428   -0.0006006696257595332
-0.003296152364876458   -0.018842409704684374   -0.0006809201962781787
-0.004130274546521613   -0.01746809154269556   -0.0005420875624912568
-0.0025924162627946556   -0.01891684442327449   -0.0005847385643539872
-0.0032063165846474466   -0.018819577501608824   -0.0006126572152484731
-0.004130274546521613   -0.01746809154269556   -0.0005420875624912568
-0.003296152364876458   -0.018842409704684374   -0.0006809201962781787
-0.0025924162627946556   -0.01891684442327449   -0.0005847385643539872
-0.004130274546521613   -0.01746809154269556   -0.0005420875624912568
-0.0032153960098605886   -0.017555150882174048   -0.0005160977295539973
-0.003228178991824392   -0.01757510686196873   -0.0005534442667665571
-0.0025924162627946556   -0.01891684442327449   -0.0005847385643539872
-0.004130274546521613   -0.01746809154269556   -0.0005420875624912568
-0.003228178991824392   -0.01757510686196873   -0.0005534442667665571
-0.003296152364876458   -0.018842409704684374   -0.0006809201962781787
-0.0025924162627946556   -0.01891684442327449   -0.0005847385643539872
-0.0032153960098605886   -0.017555150882174048   -0.0005160977295539973
-0.0032063165846474466   -0.018819577501608824   -0.0006126572152484731
-0.002554850486337773   -0.01890858442387865   -0.0005397967705379408
-0.0032153960098605886   -0.017555150882174048   -0.0005160977295539973
-0.004130274546521613   -0.01746809154269556   -0.0005420875624912568
-0.0032063165846474466   -0.018819577501608824   -0.0006126572152484731
-0.004072214905734182   -0.017459246195833812   -0.0004806411819226011
-0.002554850486337773   -0.01890858442387865   -0.0005397967705379408
-0.003126328524655368   -0.018811937387174505   -0.0005406687354344912
-0.004072214905734182   -0.017459246195833812   -0.0004806411819226011
-0.0032063165846474466   -0.018819577501608824   -0.0006126572152484731
-0.002554850486337773   -0.01890858442387865   -0.0005397967705379408
-0.004072214905734182   -0.017459246195833812   -0.0004806411819226011
-0.0031936226081953948   -0.017545400956180332   -0.0004770293313706258
-0.0032153960098605886   -0.017555150882174048   -0.0005160977295539973
-0.002554850486337773   -0.01890858442387865   -0.0005397967705379408
-0.004072214905734182   -0.017459246195833812   -0.0004806411819226011
-0.0032153960098605886   -0.017555150882174048   -0.0005160977295539973
-0.0032063165846474466   -0.018819577501608824   -0.0006126572152484731
-0.002554850486337773   -0.01890858442387865   -0.0005397967705379408
-0.0031936226081953948   -0.017545400956180332   -0.0004770293313706258
-0.003126328524655368   -0.018811937387174505   -0.0005406687354344912
-0.0025223623397719725   -0.01891282201767653   -0.0004918936855291624
-0.0031936226081953948   -0.017545400956180332   -0.0004770293313706258
-0.004072214905734182   -0.017459246195833812   -0.0004806411819226011
-0.003126328524655368   -0.018811937387174505   -0.0005406687354344912
-0.003994141117691728   -0.01746676679914248   -0.0004167172340787462
-0.0025223623397719725   -0.01891282201767653   -0.0004918936855291624
-0.0030227289439545718   -0.018823605712898518   -0.0004656176482092442
-0.003994141117691728   -0.01746676679914248   -0.0004167172340787462
-0.003126328524655368   -0.018811937387174505   -0.0005406687354344912
-0.0025223623397719725   -0.01891282201767653   -0.0004918936855291624
-0.003994141117691728   -0.01746676679914248   -0.0004167172340787462
-0.0031761517925295245   -0.017546414585140117   -0.0004356841258883079
-0.0031936226081953948   -0.017545400956180332   -0.0004770293313706258
-0.0025223623397719725   -0.01891282201767653   -0.0004918936855291624
-0.003994141117691728   -0.01746676679914248   -0.0004167172340787462
-0.0031936226081953948   -0.017545400956180332   -0.0004770293313706258
-0.003126328524655368   -0.018811937387174505   -0.0005406687354344912
3.4589487479027424e-05   -0.01760981635909721   -0.00030834480578501196
0.0005590700859822469   -0.01578711569958311   -0.0002345817319626427
-0.0007959067012032408   -0.01765219005902102   -0.0003846518732549753
8.945397993860372e-05   -0.017571310032903215   -0.00035334735127572856
0.0005590700859822469   -0.01578711569958311   -0.0002345817319626427
-0.0005496842669572305   -0.015815689596534455   -0.0003075074990307996
-0.0007959067012032408   -0.01765219005902102   -0.0003846518732549753
-0.0005464095769075525   -0.015783935543371604   -0.00032139708631959786
8.945397993860372e-05   -0.017571310032903215   -0.00035334735127572856
-0.0007816435116615352   -0.017620274574981012   -0.0004043213038535867
-0.0005464095769075525   -0.015783935543371604   -0.00032139708631959786
-0.0007959067012032408   -0.01765219005902102   -0.0003846518732549753
8.945397993860372e-05   -0.017571310032903215   -0.00035334735127572856
-0.0005464095769075525   -0.015783935543371604   -0.00032139708631959786
0.0005926207857955979   -0.01574946293114051   -0.00026842329079212703
0.0005590700859822469   -0.01578711569958311   -0.0002345817319626427
8.945397993860372e-05   -0.017571310032903215   -0.00035334735127572856
-0.0005464095769075525   -0.015783935543371604   -0.00032139708631959786
0.0005590700859822469   -0.01578711569958311   -0.0002345817319626427
-0.0007959067012032408   -0.01765219005902102   -0.0003846518732549753
8.945397993860372e-05   -0.017571310032903215   -0.00035334735127572856
0.0005926207857955979   -0.01574946293114051   -0.00026842329079212703
-0.0007816435116615352   -0.017620274574981012   -0.0004043213038535867
0.00012990745546719368   -0.017549899837940166   -0.00039529686257588063
0.0005926207857955979   -0.01574946293114051   -0.00026842329079212703
-0.0005464095769075525   -0.015783935543371604   -0.00032139708631959786
-0.0007816435116615352   -0.017620274574981012   -0.0004043213038535867
-0.0005421950380278856   -0.015761609256810097   -0.0003332667118752799
0.00012990745546719368   -0.017549899837940166   -0.00039529686257588063
-0.0007652485765158246   -0.01760015191210073   -0.00042181008469450315
-0.0005421950380278856   -0.015761609256810097   -0.0003332667118752799
-0.0007816435116615352   -0.017620274574981012   -0.0004043213038535867
0.00012990745546719368   -0.017549899837940166   -0.00039529686257588063
-0.0005421950380278856   -0.015761609256810097   -0.0003332667118752799
0.0006143292519651683   -0.015725591854846177   -0.00029940404362846756
0.0005926207857955979   -0.01574946293114051   -0.00026842329079212703
0.00012990745546719368   -0.017549899837940166   -0.00039529686257588063
-0.0005421950380278856   -0.015761609256810097   -0.0003332667118752799
0.0005926207857955979   -0.01574946293114051   -0.00026842329079212703
-0.0007816435116615352   -0.017620274574981012   -0.0004043213038535867
0.00012990745546719368   -0.017549899837940166   -0.00039529686257588063
0.0006143292519651683   -0.015725591854846177   -0.00029940404362846756
-0.0007652485765158246   -0.01760015191210073   -0.00042181008469450315
0.00017363225423504128   -0.017540615102791354   -0.0004341853034310169
0.0006143292519651683   -0.015725591854846177   -0.00029940404362846756
-0.0005421950380278856   -0.015761609256810097   -0.0003332667118752799
-0.0007652485765158246   -0.01760015191210073   -0.00042181008469450315
-0.0005436507682996481   -0.01574795743828356   -0.0003432626666150317
0.00017363225423504128   -0.017540615102791354   -0.0004341853034310169
-0.000755428154298293   -0.01759120141922857   -0.0004373345697673836
-0.0005436507682996481   -0.01574795743828356   -0.0003432626666150317
-0.0007652485765158246   -0.01760015191210073   -0.00042181008469450315
0.00017363225423504128   -0.017540615102791354   -0.0004341853034310169
-0.0005436507682996481   -0.01574795743828356   -0.0003432626666150317
0.0006370142951978487   -0.015710640369005217   -0.0003275897809735118
0.0006143292519651683   -0.015725591854846177   -0.00029940404362846756
0.00017363225423504128   -0.017540615102791354   -0.0004341853034310169
-0.0005436507682996481   -0.01574795743828356   -0.0003432626666150317
0.0006143292519651683   -0.015725591854846177   -0.00029940404362846756
-0.0007652485765158246   -0.01760015191210073   -0.00042181008469450315
-0.0007959067012032408   -0.01765219005902102   -0.0003846518732549753
-0.0005496842669572305   -0.015815689596534455   -0.0003075074990307996
-0.0016022770933865383   -0.01766036834425671   -0.000447071834640447
-0.0007816435116615352   -0.017620274574981012   -0.0004043213038535867
-0.0005496842669572305   -0.015815689596534455   -0.0003075074990307996
-0.0016190394403365678   -0.015816135953132693   -0.00036707484605844574
-0.0016022770933865383   -0.01766036834425671   -0.000447071834640447
-0.0016190261001309205   -0.015789458327050265   -0.00036574767522964
-0.0007816435116615352   -0.017620274574981012   -0.0004043213038535867
-0.0015919040806825888   -0.01763307961988215   -0.00044744885222298123
-0.0016190261001309205   -0.015789458327050265   -0.00036574767522964
-0.0016022770933865383   -0.01766036834425671   -0.000447071834640447
-0.0007816435116615352   -0.017620274574981012   -0.0004043213038535867
-0.0016190261001309205   -0.015789458327050265   -0.00036574767522964
-0.0005464095769075525   -0.015783935543371604   -0.00032139708631959786
-0.0005496842669572305   -0.015815689596534455   -0.0003075074990307996
-0.0007816435116615352   -0.017620274574981012   -0.0004043213038535867
-0.0016190261001309205   -0.015789458327050265   -0.00036574767522964
-0.0005496842669572305   -0.015815689596534455   -0.0003075074990307996
-0.0016022770933865383   -0.01766036834425671   -0.000447071834640447
-0.0007816435116615352   -0.017620274574981012   -0.0004043213038535867
-0.0005464095769075525   -0.015783935543371604   -0.00032139708631959786
-0.0015919040806825888   -0.01763307961988215   -0.00044744885222298123
-0.0007652485765158246   -0.01760015191210073   -0.00042181008469450315
-0.0005464095769075525   -0.015783935543371604   -0.00032139708631959786
-0.0016190261001309205   -0.015789458327050265   -0.00036574767522964
-0.0015919040806825888   -0.01763307961988215   -0.00044744885222298123
-0.0016189313007001055   -0.015771081559698613   -0.0003624015724590585
-0.0007652485765158246   -0.01760015191210073   -0.00042181008469450315
-0.0015812173571920687   -0.01761633491265443   -0.0004457303523683498
-0.0016189313007001055   -0.015771081559698613   -0.0003624015724590585
-0.0015919040806825888   -0.01763307961988215   -0.00044744885222298123
-0.0007652485765158246   -0.01760015191210073   -0.00042181008469450315
-0.0016189313007001055   -0.015771081559698613   -0.0003624015724590585
-0.0005421950380278856   -0.015761609256810097   -0.0003332667118752799
-0.0005464095769075525   -0.015783935543371604   -0.00032139708631959786
-0.0007652485765158246   -0.01760015191210073   -0.00042181008469450315
-0.0016189313007001055   -0.015771081559698613   -0.0003624015724590585
-0.0005464095769075525   -0.015783935543371604   -0.00032139708631959786
-0.0015919040806825888   -0.01763307961988215   -0.00044744885222298123
-0.0007652485765158246   -0.01760015191210073   -0.00042181008469450315
-0.0005421950380278856   -0.015761609256810097   -0.0003332667118752799
-0.0015812173571920687   -0.01761633491265443   -0.0004457303523683498
-0.000755428154298293   -0.01759120141922857   -0.0004373345697673836
-0.0005421950380278856   -0.015761609256810097   -0.0003332667118752799
-0.0016189313007001055   -0.015771081559698613   -0.0003624015724590585
-0.0015812173571920687   -0.01761633491265443   -0.0004457303523683498
-0.001620248640210886   -0.015761023200165508   -0.0003571501935427217
-0.000755428154298293   -0.01759120141922857   -0.0004373345697673836
-0.0015718780615409113   -0.017609978145018957   -0.00044206556727392646
-0.001620248640210886   -0.015761023200165508   -0.0003571501935427217
-0.0015812173571920687   -0.01761633491265443   -0.0004457303523683498
-0.000755428154298293   -0.01759120141922857   -0.0004373345697673836
-0.001620248640210886   -0.015761023200165508   -0.0003571501935427217
-0.0005436507682996481   -0.01574795743828356   -0.0003432626666150317
-0.0005421950380278856   -0.015761609256810097   -0.0003332667118752799
-0.000755428154298293   -0.01759120141922857   -0.0004373345697673836
-0.001620248640210886   -0.015761023200165508   -0.0003571501935427217
-0.0005421950380278856   -0.015761609256810097   -0.0003332667118752799
-0.0015812173571920687   -0.01761633491265443   -0.0004457303523683498
-0.0016022770933865383   -0.01766036834425671   -0.000447071834640447
-0.0016190394403365678   -0.015816135953132693   -0.00036707484605844574
-0.0023965984219021675   -0.0176343960698115   -0.0005033703792413003
-0.0015919040806825888   -0.01763307961988215   -0.00044744885222298123
-0.0016190394403365678   -0.015816135953132693   -0.00036707484605844574
-0.0026708163027321357   -0.015789286224348477   -0.0004190728788780601
-0.0023965984219021675   -0.0176343960698115   -0.0005033703792413003
-0.0026716149794074073   -0.01576701098222332   -0.0004027202141651499
-0.0015919040806825888   -0.01763307961988215   -0.00044744885222298123
-0.002386952480200038   -0.017610889271974413   -0.0004849122383123653
-0.0026716149794074073   -0.01576701098222332   -0.0004027202141651499
-0.0023965984219021675   -0.0176343960698115   -0.0005033703792413003
-0.0015919040806825888   -0.01763307961988215   -0.00044744885222298123
-0.0026716149794074073   -0.01576701098222332   -0.0004027202141651499
-0.0016190261001309205   -0.015789458327050265   -0.00036574767522964
-0.0016190394403365678   -0.015816135953132693   -0.00036707484605844574
-0.0015919040806825888   -0.01763307961988215   -0.00044744885222298123
-0.0026716149794074073   -0.01576701098222332   -0.0004027202141651499
-0.0016190394403365678   -0.015816135953132693   -0.00036707484605844574
-0.0023965984219021675   -0.0176343960698115   -0.0005033703792413003
-0.0015919040806825888   -0.01763307961988215   -0.00044744885222298123
-0.0016190261001309205   -0.015789458327050265   -0.00036574767522964
-0.002386952480200038   -0.017610889271974413   -0.0004849122383123653
-0.0015812173571920687   -0.01761633491265443   -0.0004457303523683498
-0.0016190261001309205   -0.015789458327050265   -0.00036574767522964
-0.0026716149794074073   -0.01576701098222332   -0.0004027202141651499
-0.002386952480200038   -0.017610889271974413   -0.0004849122383123653
-0.0026706370355091304   -0.015752964009956204   -0.0003843925094592079
-0.0015812173571920687   -0.01761633491265443   -0.0004457303523683498
-0.0023752849634010964   -0.01759781373131161   -0.00046440943974189865
-0.0026706370355091304   -0.015752964009956204   -0.0003843925094592079
-0.002386952480200038   -0.017610889271974413   -0.0004849122383123653
-0.0015812173571920687   -0.01761633491265443   -0.0004457303523683498
-0.0026706370355091304   -0.015752964009956204   -0.0003843925094592079
-0.0016189313007001055   -0.015771081559698613   -0.0003624015724590585
-0.0016190261001309205   -0.015789458327050265   -0.00036574767522964
-0.0015812173571920687   -0.01761633491265443   -0.0004457303523683498
-0.0026706370355091304   -0.015752964009956204   -0.0003843925094592079
-0.0016190261001309205   -0.015789458327050265   -0.00036574767522964
-0.002386952480200038   -0.017610889271974413   -0.0004849122383123653
-0.0015812173571920687   -0.01761633491265443   -0.0004457303523683498
-0.0016189313007001055   -0.015771081559698613   -0.0003624015724590585
-0.0023752849634010964   -0.01759781373131161   -0.00046440943974189865
-0.0015718780615409113   -0.017609978145018957   -0.00044206556727392646
-0.0016189313007001055   -0.015771081559698613   -0.0003624015724590585
-0.0026706370355091304   -0.015752964009956204   -0.0003843925094592079
-0.0023752849634010964   -0.01759781373131161   -0.00046440943974189865
-0.0026700005166463816   -0.015747009770280405   -0.00036414505300864176
-0.0015718780615409113   -0.017609978145018957   -0.00044206556727392646
-0.0023639776329383868   -0.0175947186783615   -0.00044192363352280327
-0.0026700005166463816   -0.015747009770280405   -0.00036414505300864176
-0.0023752849634010964   -0.01759781373131161   -0.00046440943974189865
-0.0015718780615409113   -0.017609978145018957   -0.00044206556727392646
-0.0026700005166463816   -0.015747009770280405   -0.00036414505300864176
-0.001620248640210886   -0.015761023200165508   -0.0003571501935427217
-0.0016189313007001055   -0.015771081559698613   -0.0003624015724590585
-0.0015718780615409113   -0.017609978145018957   -0.00044206556727392646
-0.0026700005166463816   -0.015747009770280405   -0.00036414505300864176
-0.0016189313007001055   -0.015771081559698613   -0.0003624015724590585
-0.0023752849634010964   -0.01759781373131161   -0.00046440943974189865
-0.0023965984219021675   -0.0176343960698115   -0.0005033703792413003
-0.0026708163027321357   -0.015789286224348477   -0.0004190728788780601
-0.003228178991824392   -0.01757510686196873   -0.0005534442667665571
-0.002386952480200038   -0.017610889271974413   -0.0004849122383123653
-0.0026708163027321357   -0.015789286224348477   -0.0004190728788780601
-0.0037549920651510885   -0.01573608583889142   -0.00046368499247946907
-0.003228178991824392   -0.01757510686196873   -0.0005534442667665571
-0.0037534724182317074   -0.01571797641744988   -0.0004321154893304549
-0.002386952480200038   -0.017610889271974413   -0.0004849122383123653
-0.0032153960098605886   -0.017555150882174048   -0.0005160977295539973
-0.0037534724182317074   -0.01571797641744988   -0.0004321154893304549
-0.003228178991824392   -0.01757510686196873   -0.0005534442667665571
-0.002386952480200038   -0.017610889271974413   -0.0004849122383123653
-0.0037534724182317074   -0.01571797641744988   -0.0004321154893304549
-0.0026716149794074073   -0.01576701098222332   -0.0004027202141651499
-0.0026708163027321357   -0.015789286224348477   -0.0004190728788780601
-0.002386952480200038   -0.017610889271974413   -0.0004849122383123653
-0.0037534724182317074   -0.01571797641744988   -0.0004321154893304549
-0.0026708163027321357   -0.015789286224348477   -0.0004190728788780601
-0.003228178991824392   -0.01757510686196873   -0.0005534442667665571
-0.002386952480200038   -0.017610889271974413   -0.0004849122383123653
-0.0026716149794074073   -0.01576701098222332   -0.0004027202141651499
-0.0032153960098605886   -0.017555150882174048   -0.0005160977295539973
-0.0023752849634010964   -0.01759781373131161   -0.00046440943974189865
-0.0026716149794074073   -0.01576701098222332   -0.0004027202141651499
-0.0037534724182317074   -0.01571797641744988   -0.0004321154893304549
-0.0032153960098605886   -0.017555150882174048   -0.0005160977295539973
-0.0037440586150237908   -0.015707857980996043   -0.00039887179757560986
-0.0023752849634010964   -0.01759781373131161   -0.00046440943974189865
-0.0031936226081953948   -0.017545400956180332   -0.0004770293313706258
-0.0037440586150237908   -0.015707857980996043   -0.00039887179757560986
-0.0032153960098605886   -0.017555150882174048   -0.0005160977295539973
-0.0023752849634010964   -0.01759781373131161   -0.00046440943974189865
-0.0037440586150237908   -0.015707857980996043   -0.00039887179757560986
-0.0026706370355091304   -0.015752964009956204   -0.0003843925094592079
-0.0026716149794074073   -0.01576701098222332   -0.0004027202141651499
-0.0023752849634010964   -0.01759781373131161   -0.00046440943974189865
-0.0037440586150237908   -0.015707857980996043   -0.00039887179757560986
-0.0026716149794074073   -0.01576701098222332   -0.0004027202141651499
-0.0032153960098605886   -0.017555150882174048   -0.0005160977295539973
-0.0023752849634010964   -0.01759781373131161   -0.00046440943974189865
-0.0026706370355091304   -0.015752964009956204   -0.0003843925094592079
-0.0031936226081953948   -0.017545400956180332   -0.0004770293313706258
-0.0023639776329383868   -0.0175947186783615   -0.00044192363352280327
-0.0026706370355091304   -0.015752964009956204   -0.0003843925094592079
-0.0037440586150237908   -0.015707857980996043   -0.00039887179757560986
-0.0031936226081953948   -0.017545400956180332   -0.0004770293313706258
-0.0037378419804860005   -0.015706521758573108   -0.00036354905695016145
-0.0023639776329383868   -0.0175947186783615   -0.00044192363352280327
-0.0031761517925295245   -0.017546414585140117   -0.0004356841258883079
-0.0037378419804860005   -0.015706521758573108   -0.00036354905695016145
-0.0031936226081953948   -0.017545400956180332   -0.0004770293313706258
-0.0023639776329383868   -0.0175947186783615   -0.00044192363352280327
-0.0037378419804860005   -0.015706521758573108   -0.00036354905695016145
-0.0026700005166463816   -0.015747009770280405   -0.00036414505300864176
-0.0026706370355091304   -0.015752964009956204   -0.0003843925094592079
-0.0023639776329383868   -0.0175947186783615   -0.00044192363352280327
-0.0037378419804860005   -0.015706521758573108   -0.00036354905695016145
-0.0026706370355091304   -0.015752964009956204   -0.0003843925094592079
-0.0031936226081953948   -0.017545400956180332   -0.0004770293313706258
-0.003228178991824392   -0.01757510686196873   -0.0005534442667665571
-0.0037549920651510885   -0.01573608583889142   -0.00046368499247946907
-0.004197567561965567   -0.017489150467389428   -0.0006006696257595332
-0.0032153960098605886   -0.017555150882174048   -0.0005160977295539973
-0.0037549920651510885   -0.01573608583889142   -0.00046368499247946907
-0.004966145545055167   -0.015662150253998846   -0.0005042132856195861
-0.004197567561965567   -0.017489150467389428   -0.0006006696257595332
-0.004919188267758484   -0.01564422913346459   -0.00045573894607539784
-0.0032153960098605886   -0.017555150882174048   -0.0005160977295539973
-0.004130274546521613   -0.01746809154269556   -0.0005420875624912568
-0.004919188267758484   -0.01564422913346459   -0.00045573894607539784
-0.004197567561965567   -0.017489150467389428   -0.0006006696257595332
-0.0032153960098605886   -0.017555150882174048   -0.0005160977295539973
-0.004919188267758484   -0.01564422913346459   -0.00045573894607539784
-0.0037534724182317074   -0.01571797641744988   -0.0004321154893304549
-0.0037549920651510885   -0.01573608583889142   -0.00046368499247946907
-0.0032153960098605886   -0.017555150882174048   -0.0005160977295539973
-0.004919188267758484   -0.01564422913346459   -0.00045573894607539784
-0.0037549920651510885   -0.01573608583889142   -0.00046368499247946907
-0.004197567561965567   -0.017489150467389428   -0.0006006696257595332
-0.0032153960098605886   -0.017555150882174048   -0.0005160977295539973
-0.0037534724182317074   -0.01571797641744988   -0.0004321154893304549
-0.004130274546521613   -0.01746809154269556   -0.0005420875624912568
-0.0031936226081953948   -0.017545400956180332   -0.0004770293313706258
-0.0037534724182317074   -0.01571797641744988   -0.0004321154893304549
-0.004919188267758484   -0.01564422913346459   -0.00045573894607539784
-0.004130274546521613   -0.01746809154269556   -0.0005420875624912568
-0.004879249342586856   -0.015635553219362514   -0.00040443001560993403
-0.0031936226081953948   -0.017545400956180332   -0.0004770293313706258
-0.004072214905734182   -0.017459246195833812   -0.0004806411819226011
-0.004879249342586856   -0.015635553219362514   -0.00040443001560993403
-0.004130274546521613   -0.01746809154269556   -0.0005420875624912568
-0.0031936226081953948   -0.017545400956180332   -0.0004770293313706258
-0.004879249342586856   -0.015635553219362514   -0.00040443001560993403
-0.0037440586150237908   -0.015707857980996043   -0.00039887179757560986
-0.0037534724182317074   -0.01571797641744988   -0.0004321154893304549
-0.0031936226081953948   -0.017545400956180332   -0.0004770293313706258
-0.004879249342586856   -0.015635553219362514   -0.00040443001560993403
-0.0037534724182317074   -0.01571797641744988   -0.0004321154893304549
-0.004130274546521613   -0.01746809154269556   -0.0005420875624912568
-0.0031936226081953948   -0.017545400956180332   -0.0004770293313706258
-0.0037440586150237908   -0.015707857980996043   -0.00039887179757560986
-0.004072214905734182   -0.017459246195833812   -0.0004806411819226011
-0.0031761517925295245   -0.017546414585140117   -0.0004356841258883079
-0.0037440586150237908   -0.015707857980996043   -0.00039887179757560986
-0.004879249342586856   -0.015635553219362514   -0.00040443001560993403
-0.004072214905734182   -0.017459246195833812   -0.0004806411819226011
-0.004821913864701217   -0.015640725090247637   -0.00035068476909923003
-0.0031761517925295245   -0.017546414585140117   -0.0004356841258883079
-0.003994141117691728   -0.01746676679914248   -0.0004167172340787462
-0.004821913864701217   -0.015640725090247637   -0.00035068476909923003
-0.004072214905734182   -0.017459246195833812   -0.0004806411819226011
-0.0031761517925295245   -0.017546414585140117   -0.0004356841258883079
-0.004821913864701217   -0.015640725090247637   -0.00035068476909923003
-0.0037378419804860005   -0.015706521758573108   -0.00036354905695016145
-0.0037440586150237908   -0.015707857980996043   -0.00039887179757560986
-0.0031761517925295245   -0.017546414585140117   -0.0004356841258883079
-0.004821913864701217   -0.015640725090247637   -0.00035068476909923003
-0.0037440586150237908   -0.015707857980996043   -0.00039887179757560986
-0.004072214905734182   -0.017459246195833812   -0.0004806411819226011
0.0005590700859822469   -0.01578711569958311   -0.0002345817319626427
0.0009277296188740549   -0.0135771972922074   -0.00015661786107485184
-0.0005496842669572305   -0.015815689596534455   -0.0003075074990307996
0.0005926207857955979   -0.01574946293114051   -0.00026842329079212703
0.0009277296188740549   -0.0135771972922074   -0.00015661786107485184
-0.00039625431731152283   -0.013591872386947382   -0.00022517350930048203
-0.0005496842669572305   -0.015815689596534455   -0.0003075074990307996
-0.00040191022667595926   -0.013560933246457841   -0.00023294456040362225
0.0005926207857955979   -0.01574946293114051   -0.00026842329079212703
-0.0005464095769075525   -0.015783935543371604   -0.00032139708631959786
-0.00040191022667595926   -0.013560933246457841   -0.00023294456040362225
-0.0005496842669572305   -0.015815689596534455   -0.0003075074990307996
0.0005926207857955979   -0.01574946293114051   -0.00026842329079212703
-0.00040191022667595926   -0.013560933246457841   -0.00023294456040362225
0.0009421512214487409   -0.013540912970342692   -0.00017934047217881712
0.0009277296188740549   -0.0135771972922074   -0.00015661786107485184
0.0005926207857955979   -0.01574946293114051   -0.00026842329079212703
-0.00040191022667595926   -0.013560933246457841   -0.00023294456040362225
0.0009277296188740549   -0.0135771972922074   -0.00015661786107485184
-0.0005496842669572305   -0.015815689596534455   -0.0003075074990307996
0.0005926207857955979   -0.01574946293114051   -0.00026842329079212703
0.0009421512214487409   -0.013540912970342692   -0.00017934047217881712
-0.0005464095769075525   -0.015783935543371604   -0.00032139708631959786
0.0006143292519651683   -0.015725591854846177   -0.00029940404362846756
0.0009421512214487409   -0.013540912970342692   -0.00017934047217881712
-0.00040191022667595926   -0.013560933246457841   -0.00023294456040362225
-0.0005464095769075525   -0.015783935543371604   -0.00032139708631959786
-0.0004077848445052202   -0.01353709262399892   -0.00023888417973330582
0.0006143292519651683   -0.015725591854846177   -0.00029940404362846756
-0.0005421950380278856   -0.015761609256810097   -0.0003332667118752799
-0.0004077848445052202   -0.01353709262399892   -0.00023888417973330582
-0.0005464095769075525   -0.015783935543371604   -0.00032139708631959786
0.0006143292519651683   -0.015725591854846177   -0.00029940404362846756
-0.0004077848445052202   -0.01353709262399892   -0.00023888417973330582
0.0009473783647126908   -0.013515269202630525   -0.0001993542592693476
0.0009421512214487409   -0.013540912970342692   -0.00017934047217881712
0.0006143292519651683   -0.015725591854846177   -0.00029940404362846756
-0.0004077848445052202   -0.01353709262399892   -0.00023888417973330582
0.0009421512214487409   -0.013540912970342692   -0.00017934047217881712
-0.0005464095769075525   -0.015783935543371604   -0.00032139708631959786
0.0006143292519651683   -0.015725591854846177   -0.00029940404362846756
0.0009473783647126908   -0.013515269202630525   -0.0001993542592693476
-0.0005421950380278856   -0.015761609256810097   -0.0003332667118752799
0.0006370142951978487   -0.015710640369005217   -0.0003275897809735118
0.0009473783647126908   -0.013515269202630525   -0.0001993542592693476
-0.0004077848445052202   -0.01353709262399892   -0.00023888417973330582
-0.0005421950380278856   -0.015761609256810097   -0.0003332667118752799
-0.0004183093248846901   -0.013519554905778716   -0.0002430527237070272
0.0006370142951978487   -0.015710640369005217   -0.0003275897809735118
-0.0005436507682996481   -0.01574795743828356   -0.0003432626666150317
-0.0004183093248846901   -0.013519554905778716   -0.0002430527237070272
-0.0005421950380278856   -0.015761609256810097   -0.0003332667118752799
0.0006370142951978487   -0.015710640369005217   -0.0003275897809735118
-0.0004183093248846901   -0.013519554905778716   -0.0002430527237070272
0.0009512676052192439   -0.013495466537592373   -0.00021679095663723367
0.0009473783647126908   -0.013515269202630525   -0.0001993542592693476
0.0006370142951978487   -0.015710640369005217   -0.0003275897809735118
-0.0004183093248846901   -0.013519554905778716   -0.0002430527237070272
0.0009473783647126908   -0.013515269202630525   -0.0001993542592693476
-0.0005421950380278856   -0.015761609256810097   -0.0003332667118752799
-0.0005496842669572305   -0.015815689596534455   -0.0003075074990307996
-0.00039625431731152283   -0.013591872386947382   -0.00022517350930048203
-0.0016190394403365678   -0.015816135953132693   -0.00036707484605844574
-0.0005464095769075525   -0.015783935543371604   -0.00032139708631959786
-0.00039625431731152283   -0.013591872386947382   -0.00022517350930048203
-0.0016670327388707644   -0.01358516117154725   -0.00028093934104880315
-0.0016190394403365678   -0.015816135953132693   -0.00036707484605844574
-0.0016752510607173192   -0.013559567886872875   -0.0002775365556348091
-0.0005464095769075525   -0.015783935543371604   -0.00032139708631959786
-0.0016190261001309205   -0.015789458327050265   -0.00036574767522964
-0.0016752510607173192   -0.013559567886872875   -0.0002775365556348091
-0.0016190394403365678   -0.015816135953132693   -0.00036707484605844574
-0.0005464095769075525   -0.015783935543371604   -0.00032139708631959786
-0.0016752510607173192   -0.013559567886872875   -0.0002775365556348091
-0.00040191022667595926   -0.013560933246457841   -0.00023294456040362225
-0.00039625431731152283   -0.013591872386947382   -0.00022517350930048203
-0.0005464095769075525   -0.015783935543371604   -0.00032139708631959786
-0.0016752510607173192   -0.013559567886872875   -0.0002775365556348091
-0.00039625431731152283   -0.013591872386947382   -0.00022517350930048203
-0.0016190394403365678   -0.015816135953132693   -0.00036707484605844574
-0.0005464095769075525   -0.015783935543371604   -0.00032139708631959786
-0.00040191022667595926   -0.013560933246457841   -0.00023294456040362225
-0.0016190261001309205   -0.015789458327050265   -0.00036574767522964
-0.0005421950380278856   -0.015761609256810097   -0.0003332667118752799
-0.00040191022667595926   -0.013560933246457841   -0.00023294456040362225
-0.0016752510607173192   -0.013559567886872875   -0.0002775365556348091
-0.0016190261001309205   -0.015789458327050265   -0.00036574767522964
-0.0016835857559015432   -0.013540052520570549   -0.00027224178052166135
-0.0005421950380278856   -0.015761609256810097   -0.0003332667118752799
-0.0016189313007001055   -0.015771081559698613   -0.0003624015724590585
-0.0016835857559015432   -0.013540052520570549   -0.00027224178052166135
-0.0016190261001309205   -0.015789458327050265   -0.00036574767522964
-0.0005421950380278856   -0.015761609256810097   -0.0003332667118752799
-0.0016835857559015432   -0.013540052520570549   -0.00027224178052166135
-0.0004077848445052202   -0.01353709262399892   -0.00023888417973330582
-0.00040191022667595926   -0.013560933246457841   -0.00023294456040362225
-0.0005421950380278856   -0.015761609256810097   -0.0003332667118752799
-0.0016835857559015432   -0.013540052520570549   -0.00027224178052166135
-0.00040191022667595926   -0.013560933246457841   -0.00023294456040362225
-0.0016190261001309205   -0.015789458327050265   -0.00036574767522964
-0.0005421950380278856   -0.015761609256810097   -0.0003332667118752799
-0.0004077848445052202   -0.01353709262399892   -0.00023888417973330582
-0.0016189313007001055   -0.015771081559698613   -0.0003624015724590585
-0.0005436507682996481   -0.01574795743828356   -0.0003432626666150317
-0.0004077848445052202   -0.01353709262399892   -0.00023888417973330582
-0.0016835857559015432   -0.013540052520570549   -0.00027224178052166135
-0.0016189313007001055   -0.015771081559698613   -0.0003624015724590585
-0.0016932718210601729   -0.013526714873874243   -0.0002651545385685057
-0.0005436507682996481   -0.01574795743828356   -0.0003432626666150317
-0.001620248640210886   -0.015761023200165508   -0.0003571501935427217
-0.0016932718210601729   -0.013526714873874243   -0.0002651545385685057
-0.0016189313007001055   -0.015771081559698613   -0.0003624015724590585
-0.0005436507682996481   -0.01574795743828356   -0.0003432626666150317
-0.0016932718210601729   -0.013526714873874243   -0.0002651545385685057
-0.0004183093248846901   -0.013519554905778716   -0.0002430527237070272
-0.0004077848445052202   -0.01353709262399892   -0.00023888417973330582
-0.0005436507682996481   -0.01574795743828356   -0.0003432626666150317
-0.0016932718210601729   -0.013526714873874243   -0.0002651545385685057
-0.0004077848445052202   -0.01353709262399892   -0.00023888417973330582
-0.0016189313007001055   -0.015771081559698613   -0.0003624015724590585
-0.0016190394403365678   -0.015816135953132693   -0.00036707484605844574
-0.0016670327388707644   -0.01358516117154725   -0.00028093934104880315
-0.0026708163027321357   -0.015789286224348477   -0.0004190728788780601
-0.0016190261001309205   -0.015789458327050265   -0.00036574767522964
-0.0016670327388707644   -0.01358516117154725   -0.00028093934104880315
-0.002916708634607509   -0.01355857145912942   -0.0003283376022186627
-0.0026708163027321357   -0.015789286224348477   -0.0004190728788780601
-0.002925657343535362   -0.01353778124857148   -0.0003138316490814
-0.0016190261001309205   -0.015789458327050265   -0.00036574767522964
-0.0026716149794074073   -0.01576701098222332   -0.0004027202141651499
-0.002925657343535362   -0.01353778124857148   -0.0003138316490814
-0.0026708163027321357   -0.015789286224348477   -0.0004190728788780601
-0.0016190261001309205   -0.015789458327050265   -0.00036574767522964
-0.002925657343535362   -0.01353778124857148   -0.0003138316490814
-0.0016752510607173192   -0.013559567886872875   -0.0002775365556348091
-0.0016670327388707644   -0.01358516117154725   -0.00028093934104880315
-0.0016190261001309205   -0.015789458327050265   -0.00036574767522964
-0.002925657343535362   -0.01353778124857148   -0.0003138316490814
-0.0016670327388707644   -0.01358516117154725   -0.00028093934104880315
-0.0026708163027321357   -0.015789286224348477   -0.0004190728788780601
-0.0016190261001309205   -0.015789458327050265   -0.00036574767522964
-0.0016752510607173192   -0.013559567886872875   -0.0002775365556348091
-0.0026716149794074073   -0.01576701098222332   -0.0004027202141651499
-0.0016189313007001055   -0.015771081559698613   -0.0003624015724590585
-0.0016752510607173192   -0.013559567886872875   -0.0002775365556348091
-0.002925657343535362   -0.01353778124857148   -0.0003138316490814
-0.0026716149794074073   -0.01576701098222332   -0.0004027202141651499
-0.002933013795032029   -0.013523012131160996   -0.00029747112983688847
-0.0016189313007001055   -0.015771081559698613   -0.0003624015724590585
-0.0026706370355091304   -0.015752964009956204   -0.0003843925094592079
-0.002933013795032029   -0.013523012131160996   -0.00029747112983688847
-0.0026716149794074073   -0.01576701098222332   -0.0004027202141651499
-0.0016189313007001055   -0.015771081559698613   -0.0003624015724590585
-0.002933013795032029   -0.013523012131160996   -0.00029747112983688847
-0.0016835857559015432   -0.013540052520570549   -0.00027224178052166135
-0.0016752510607173192   -0.013559567886872875   -0.0002775365556348091
-0.0016189313007001055   -0.015771081559698613   -0.0003624015724590585
-0.002933013795032029   -0.013523012131160996   -0.00029747112983688847
-0.0016752510607173192   -0.013559567886872875   -0.0002775365556348091
-0.0026716149794074073   -0.01576701098222332   -0.0004027202141651499
-0.0016189313007001055   -0.015771081559698613   -0.0003624015724590585
-0.0016835857559015432   -0.013540052520570549   -0.00027224178052166135
-0.0026706370355091304   -0.015752964009956204   -0.0003843925094592079
-0.001620248640210886   -0.015761023200165508   -0.0003571501935427217
-0.0016835857559015432   -0.013540052520570549   -0.00027224178052166135
-0.002933013795032029   -0.013523012131160996   -0.00029747112983688847
-0.0026706370355091304   -0.015752964009956204   -0.0003843925094592079
-0.002940603016147762   -0.01351423596961295   -0.00027930800889572365
-0.001620248640210886   -0.015761023200165508   -0.0003571501935427217
-0.0026700005166463816   -0.015747009770280405   -0.00036414505300864176
-0.002940603016147762   -0.01351423596961295   -0.00027930800889572365
-0.0026706370355091304   -0.015752964009956204   -0.0003843925094592079
-0.001620248640210886   -0.015761023200165508   -0.0003571501935427217
-0.002940603016147762   -0.01351423596961295   -0.00027930800889572365
-0.0016932718210601729   -0.013526714873874243   -0.0002651545385685057
-0.0016835857559015432   -0.013540052520570549   -0.00027224178052166135
-0.001620248640210886   -0.015761023200165508   -0.0003571501935427217
-0.002940603016147762   -0.01351423596961295   -0.00027930800889572365
-0.0016835857559015432   -0.013540052520570549   -0.00027224178052166135
-0.0026706370355091304   -0.015752964009956204   -0.0003843925094592079
-0.0026708163027321357   -0.015789286224348477   -0.0004190728788780601
-0.002916708634607509   -0.01355857145912942   -0.0003283376022186627
-0.0037549920651510885   -0.01573608583889142   -0.00046368499247946907
-0.0026716149794074073   -0.01576701098222332   -0.0004027202141651499
-0.002916708634607509   -0.01355857145912942   -0.0003283376022186627
-0.004196062686893202   -0.013512601202359953   -0.00036761898917659925
-0.0037549920651510885   -0.01573608583889142   -0.00046368499247946907
-0.0042033196257560655   -0.013496464890072082   -0.0003418507304711883
-0.0026716149794074073   -0.01576701098222332   -0.0004027202141651499
-0.0037534724182317074   -0.01571797641744988   -0.0004321154893304549
-0.0042033196257560655   -0.013496464890072082   -0.0003418507304711883
-0.0037549920651510885   -0.01573608583889142   -0.00046368499247946907
-0.0026716149794074073   -0.01576701098222332   -0.0004027202141651499
-0.0042033196257560655   -0.013496464890072082   -0.0003418507304711883
-0.002925657343535362   -0.01353778124857148   -0.0003138316490814
-0.002916708634607509   -0.01355857145912942   -0.0003283376022186627
-0.0026716149794074073   -0.01576701098222332   -0.0004027202141651499
-0.0042033196257560655   -0.013496464890072082   -0.0003418507304711883
-0.002916708634607509   -0.01355857145912942   -0.0003283376022186627
-0.0037549920651510885   -0.01573608583889142   -0.00046368499247946907
-0.0026716149794074073   -0.01576701098222332   -0.0004027202141651499
-0.002925657343535362   -0.01353778124857148   -0.0003138316490814
-0.0037534724182317074   -0.01571797641744988   -0.0004321154893304549
-0.0026706370355091304   -0.015752964009956204   -0.0003843925094592079
-0.002925657343535362   -0.01353778124857148   -0.0003138316490814
-0.0042033196257560655   -0.013496464890072082   -0.0003418507304711883
-0.0037534724182317074   -0.01571797641744988   -0.0004321154893304549
-0.004203751691713911   -0.013486042546604468   -0.0003144831722764927
-0.0026706370355091304   -0.015752964009956204   -0.0003843925094592079
-0.0037440586150237908   -0.015707857980996043   -0.00039887179757560986
-0.004203751691713911   -0.013486042546604468   -0.0003144831722764927
-0.0037534724182317074   -0.01571797641744988   -0.0004321154893304549
-0.0026706370355091304   -0.015752964009956204   -0.0003843925094592079
-0.004203751691713911   -0.013486042546604468   -0.0003144831722764927
-0.002933013795032029   -0.013523012131160996   -0.00029747112983688847
-0.002925657343535362   -0.01353778124857148   -0.0003138316490814
-0.0026706370355091304   -0.015752964009956204   -0.0003843925094592079
-0.004203751691713911   -0.013486042546604468   -0.0003144831722764927
-0.002925657343535362   -0.01353778124857148   -0.0003138316490814
-0.0037534724182317074   -0.01571797641744988   -0.0004321154893304549
-0.0026706370355091304   -0.015752964009956204   -0.0003843925094592079
-0.002933013795032029   -0.013523012131160996   -0.00029747112983688847
-0.0037440586150237908   -0.015707857980996043   -0.00039887179757560986
-0.0026700005166463816   -0.015747009770280405   -0.00036414505300864176
-0.002933013795032029   -0.013523012131160996   -0.00029747112983688847
-0.004203751691713911   -0.013486042546604468   -0.0003144831722764927
-0.0037440586150237908   -0.015707857980996043   -0.00039887179757560986
-0.004206238604255648   -0.013482165494658334   -0.00028517335390373537
-0.0026700005166463816   -0.015747009770280405   -0.00036414505300864176
-0.0037378419804860005   -0.015706521758573108   -0.00036354905695016145
-0.004206238604255648   -0.013482165494658334   -0.00028517335390373537
-0.0037440586150237908   -0.015707857980996043   -0.00039887179757560986
-0.0026700005166463816   -0.015747009770280405   -0.00036414505300864176
-0.004206238604255648   -0.013482165494658334   -0.00028517335390373537
-0.002940603016147762   -0.01351423596961295   -0.00027930800889572365
-0.002933013795032029   -0.013523012131160996   -0.00029747112983688847
-0.0026700005166463816   -0.015747009770280405   -0.00036414505300864176
-0.004206238604255648   -0.013482165494658334   -0.00028517335390373537
-0.002933013795032029   -0.013523012131160996   -0.00029747112983688847
-0.0037440586150237908   -0.015707857980996043   -0.00039887179757560986
-0.0037549920651510885   -0.01573608583889142   -0.00046368499247946907
-0.004196062686893202   -0.013512601202359953   -0.00036761898917659925
-0.004966145545055167   -0.015662150253998846   -0.0005042132856195861
-0.0037534724182317074   -0.01571797641744988   -0.0004321154893304549
-0.004196062686893202   -0.013512601202359953   -0.00036761898917659925
-0.005592020742752914   -0.013451709739449499   -0.0004012074079278525
-0.004966145545055167   -0.015662150253998846   -0.0005042132856195861
-0.005563543844058206   -0.013436963025502319   -0.0003633459380380166
-0.0037534724182317074   -0.01571797641744988   -0.0004321154893304549
-0.004919188267758484   -0.01564422913346459   -0.00045573894607539784
-0.005563543844058206   -0.013436963025502319   -0.0003633459380380166
-0.004966145545055167   -0.015662150253998846   -0.0005042132856195861
-0.0037534724182317074   -0.01571797641744988   -0.0004321154893304549
-0.005563543844058206   -0.013436963025502319   -0.0003633459380380166
-0.0042033196257560655   -0.013496464890072082   -0.0003418507304711883
-0.004196062686893202   -0.013512601202359953   -0.00036761898917659925
-0.0037534724182317074   -0.01571797641744988   -0.0004321154893304549
-0.005563543844058206   -0.013436963025502319   -0.0003633459380380166
-0.004196062686893202   -0.013512601202359953   -0.00036761898917659925
-0.004966145545055167   -0.015662150253998846   -0.0005042132856195861
-0.0037534724182317074   -0.01571797641744988   -0.0004321154893304549
-0.0042033196257560655   -0.013496464890072082   -0.0003418507304711883
-0.004919188267758484   -0.01564422913346459   -0.00045573894607539784
-0.0037440586150237908   -0.015707857980996043   -0.00039887179757560986
-0.0042033196257560655   -0.013496464890072082   -0.0003418507304711883
-0.005563543844058206   -0.013436963025502319   -0.0003633459380380166
-0.004919188267758484   -0.01564422913346459   -0.00045573894607539784
-0.005539642365694115   -0.013428392450876691   -0.00032268002097927403
-0.0037440586150237908   -0.015707857980996043   -0.00039887179757560986
-0.004879249342586856   -0.015635553219362514   -0.00040443001560993403
-0.005539642365694115   -0.013428392450876691   -0.00032268002097927403
-0.004919188267758484   -0.01564422913346459   -0.00045573894607539784
-0.0037440586150237908   -0.015707857980996043   -0.00039887179757560986
-0.005539642365694115   -0.013428392450876691   -0.00032268002097927403
-0.004203751691713911   -0.013486042546604468   -0.0003144831722764927
-0.0042033196257560655   -0.013496464890072082   -0.0003418507304711883
-0.0037440586150237908   -0.015707857980996043   -0.00039887179757560986
-0.005539642365694115   -0.013428392450876691   -0.00032268002097927403
-0.0042033196257560655   -0.013496464890072082   -0.0003418507304711883
-0.004919188267758484   -0.01564422913346459   -0.00045573894607539784
-0.0037440586150237908   -0.015707857980996043   -0.00039887179757560986
-0.004203751691713911   -0.013486042546604468   -0.0003144831722764927
-0.004879249342586856   -0.015635553219362514   -0.00040443001560993403
-0.0037378419804860005   -0.015706521758573108   -0.00036354905695016145
-0.004203751691713911   -0.013486042546604468   -0.0003144831722764927
-0.005539642365694115   -0.013428392450876691   -0.00032268002097927403
-0.004879249342586856   -0.015635553219362514   -0.00040443001560993403
-0.0055008349637456315   -0.013430848931474388   -0.00027956296448037725
-0.0037378419804860005   -0.015706521758573108   -0.00036354905695016145
-0.004821913864701217   -0.015640725090247637   -0.00035068476909923003
-0.0055008349637456315   -0.013430848931474388   -0.00027956296448037725
-0.004879249342586856   -0.015635553219362514   -0.00040443001560993403
-0.0037378419804860005   -0.015706521758573108   -0.00036354905695016145
-0.0055008349637456315   -0.013430848931474388   -0.00027956296448037725
-0.004206238604255648   -0.013482165494658334   -0.00028517335390373537
-0.004203751691713911   -0.013486042546604468   -0.0003144831722764927
-0.0037378419804860005   -0.015706521758573108   -0.00036354905695016145
-0.0055008349637456315   -0.013430848931474388   -0.00027956296448037725
-0.004203751691713911   -0.013486042546604468   -0.0003144831722764927
-0.004879249342586856   -0.015635553219362514   -0.00040443001560993403
0.0009277296188740549   -0.0135771972922074   -0.00015661786107485184
0.001140298342980967   -0.011081287730527453   -8.083485146698629e-05
-0.00039625431731152283   -0.013591872386947382   -0.00022517350930048203
0.0009421512214487409   -0.013540912970342692   -0.00017934047217881712
0.001140298342980967   -0.011081287730527453   -8.083485146698629e-05
-0.00033762897178262385   -0.011081999900557998   -0.0001441774681552132
-0.00039625431731152283   -0.013591872386947382   -0.00022517350930048203
-0.00035009028821470807   -0.011052172305774549   -0.00014565197580844363
0.0009421512214487409   -0.013540912970342692   -0.00017934047217881712
-0.00040191022667595926   -0.013560933246457841   -0.00023294456040362225
-0.00035009028821470807   -0.011052172305774549   -0.00014565197580844363
-0.00039625431731152283   -0.013591872386947382   -0.00022517350930048203
0.0009421512214487409   -0.013540912970342692   -0.00017934047217881712
-0.00035009028821470807   -0.011052172305774549   -0.00014565197580844363
0.0011378084497106452   -0.011046625098192082   -9.23869039770943e-05
0.001140298342980967   -0.011081287730527453   -8.083485146698629e-05
0.0009421512214487409   -0.013540912970342692   -0.00017934047217881712
-0.00035009028821470807   -0.011052172305774549   -0.00014565197580844363
0.001140298342980967   -0.011081287730527453   -8.083485146698629e-05
-0.00039625431731152283   -0.013591872386947382   -0.00022517350930048203
0.0009421512214487409   -0.013540912970342692   -0.00017934047217881712
0.0011378084497106452   -0.011046625098192082   -9.23869039770943e-05
-0.00040191022667595926   -0.013560933246457841   -0.00023294456040362225
0.0009473783647126908   -0.013515269202630525   -0.0001993542592693476
0.0011378084497106452   -0.011046625098192082   -9.23869039770943e-05
-0.00035009028821470807   -0.011052172305774549   -0.00014565197580844363
-0.00040191022667595926   -0.013560933246457841   -0.00023294456040362225
-0.00036395116064688436   -0.011027036389219121   -0.00014547464675423644
0.0009473783647126908   -0.013515269202630525   -0.0001993542592693476
-0.0004077848445052202   -0.01353709262399892   -0.00023888417973330582
-0.00036395116064688436   -0.011027036389219121   -0.00014547464675423644
-0.00040191022667595926   -0.013560933246457841   -0.00023294456040362225
0.0009473783647126908   -0.013515269202630525   -0.0001993542592693476
-0.00036395116064688436   -0.011027036389219121   -0.00014547464675423644
0.0011286533506796375   -0.011019456916729066   -0.00010129115389196665
0.0011378084497106452   -0.011046625098192082   -9.23869039770943e-05
0.0009473783647126908   -0.013515269202630525   -0.0001993542592693476
-0.00036395116064688436   -0.011027036389219121   -0.00014547464675423644
0.0011378084497106452   -0.011046625098192082   -9.23869039770943e-05
-0.00040191022667595926   -0.013560933246457841   -0.00023294456040362225
0.0009473783647126908   -0.013515269202630525   -0.0001993542592693476
0.0011286533506796375   -0.011019456916729066   -0.00010129115389196665
-0.0004077848445052202   -0.01353709262399892   -0.00023888417973330582
0.0009512676052192439   -0.013495466537592373   -0.00021679095663723367
0.0011286533506796375   -0.011019456916729066   -0.00010129115389196665
-0.00036395116064688436   -0.011027036389219121   -0.00014547464675423644
-0.0004077848445052202   -0.01353709262399892   -0.00023888417973330582
-0.00038142375818676005   -0.01100589748253049   -0.00014358035634161843
0.0009512676052192439   -0.013495466537592373   -0.00021679095663723367
-0.0004183093248846901   -0.013519554905778716   -0.0002430527237070272
-0.00038142375818676005   -0.01100589748253049   -0.00014358035634161843
-0.0004077848445052202   -0.01353709262399892   -0.00023888417973330582
0.0009512676052192439   -0.013495466537592373   -0.00021679095663723367
-0.00038142375818676005   -0.01100589748253049   -0.00014358035634161843
0.0011156099268226176   -0.010995031970597768   -0.00010773279428866456
0.0011286533506796375   -0.011019456916729066   -0.00010129115389196665
0.0009512676052192439   -0.013495466537592373   -0.00021679095663723367
-0.00038142375818676005   -0.01100589748253049   -0.00014358035634161843
0.0011286533506796375   -0.011019456916729066   -0.00010129115389196665
-0.0004077848445052202   -0.01353709262399892   -0.00023888417973330582
-0.00039625431731152283   -0.013591872386947382   -0.00022517350930048203
-0.00033762897178262385   -0.011081999900557998   -0.0001441774681552132
-0.0016670327388707644   -0.01358516117154725   -0.00028093934104880315
-0.00040191022667595926   -0.013560933246457841   -0.00023294456040362225
-0.00033762897178262385   -0.011081999900557998   -0.0001441774681552132
-0.0017481438759662854   -0.011068858912737588   -0.00019567276270332523
-0.0016670327388707644   -0.01358516117154725   -0.00028093934104880315
-0.0017623706858462328   -0.011044425187659043   -0.00018998237615081373
-0.00040191022667595926   -0.013560933246457841   -0.00023294456040362225
-0.0016752510607173192   -0.013559567886872875   -0.0002775365556348091
-0.0017623706858462328   -0.011044425187659043   -0.00018998237615081373
-0.0016670327388707644   -0.01358516117154725   -0.00028093934104880315
-0.00040191022667595926   -0.013560933246457841   -0.00023294456040362225
-0.0017623706858462328   -0.011044425187659043   -0.00018998237615081373
-0.00035009028821470807   -0.011052172305774549   -0.00014565197580844363
-0.00033762897178262385   -0.011081999900557998   -0.0001441774681552132
-0.00040191022667595926   -0.013560933246457841   -0.00023294456040362225
-0.0017623706858462328   -0.011044425187659043   -0.00018998237615081373
-0.00033762897178262385   -0.011081999900557998   -0.0001441774681552132
-0.0016670327388707644   -0.01358516117154725   -0.00028093934104880315
-0.00040191022667595926   -0.013560933246457841   -0.00023294456040362225
-0.00035009028821470807   -0.011052172305774549   -0.00014565197580844363
-0.0016752510607173192   -0.013559567886872875   -0.0002775365556348091
-0.0004077848445052202   -0.01353709262399892   -0.00023888417973330582
-0.00035009028821470807   -0.011052172305774549   -0.00014565197580844363
-0.0017623706858462328   -0.011044425187659043   -0.00018998237615081373
-0.0016752510607173192   -0.013559567886872875   -0.0002775365556348091
-0.0017769019662306961   -0.011023808874327098   -0.00018256429850484963
-0.0004077848445052202   -0.01353709262399892   -0.00023888417973330582
-0.0016835857559015432   -0.013540052520570549   -0.00027224178052166135
-0.0017769019662306961   -0.011023808874327098   -0.00018256429850484963
-0.0016752510607173192   -0.013559567886872875   -0.0002775365556348091
-0.0004077848445052202   -0.01353709262399892   -0.00023888417973330582
-0.0017769019662306961   -0.011023808874327098   -0.00018256429850484963
-0.00036395116064688436   -0.011027036389219121   -0.00014547464675423644
-0.00035009028821470807   -0.011052172305774549   -0.00014565197580844363
-0.0004077848445052202   -0.01353709262399892   -0.00023888417973330582
-0.0017769019662306961   -0.011023808874327098   -0.00018256429850484963
-0.00035009028821470807   -0.011052172305774549   -0.00014565197580844363
-0.0016752510607173192   -0.013559567886872875   -0.0002775365556348091
-0.0004077848445052202   -0.01353709262399892   -0.00023888417973330582
-0.00036395116064688436   -0.011027036389219121   -0.00014547464675423644
-0.0016835857559015432   -0.013540052520570549   -0.00027224178052166135
-0.0004183093248846901   -0.013519554905778716   -0.0002430527237070272
-0.00036395116064688436   -0.011027036389219121   -0.00014547464675423644
-0.0017769019662306961   -0.011023808874327098   -0.00018256429850484963
-0.0016835857559015432   -0.013540052520570549   -0.00027224178052166135
-0.001792706607305425   -0.011007225405640265   -0.00017350760931638594
-0.0004183093248846901   -0.013519554905778716   -0.0002430527237070272
-0.0016932718210601729   -0.013526714873874243   -0.0002651545385685057
-0.001792706607305425   -0.011007225405640265   -0.00017350760931638594
-0.0016835857559015432   -0.013540052520570549   -0.00027224178052166135
-0.0004183093248846901   -0.013519554905778716   -0.0002430527237070272
-0.001792706607305425   -0.011007225405640265   -0.00017350760931638594
-0.00038142375818676005   -0.01100589748253049   -0.00014358035634161843
-0.00036395116064688436   -0.011027036389219121   -0.00014547464675423644
-0.0004183093248846901   -0.013519554905778716   -0.0002430527237070272
-0.001792706607305425   -0.011007225405640265   -0.00017350760931638594
-0.00036395116064688436   -0.011027036389219121   -0.00014547464675423644
-0.0016835857559015432   -0.013540052520570549   -0.00027224178052166135
-0.0016670327388707644   -0.01358516117154725   -0.00028093934104880315
-0.0017481438759662854   -0.011068858912737588   -0.00019567276270332523
-0.002916708634607509   -0.01355857145912942   -0.0003283376022186627
-0.0016752510607173192   -0.013559567886872875   -0.0002775365556348091
-0.0017481438759662854   -0.011068858912737588   -0.00019567276270332523
-0.00313485084292882   -0.011043628985901105   -0.00023867983848006709
-0.002916708634607509   -0.01355857145912942   -0.0003283376022186627
-0.0031495914936254914   -0.011024115230697254   -0.00022586160915486855
-0.0016752510607173192   -0.013559567886872875   -0.0002775365556348091
-0.002925657343535362   -0.01353778124857148   -0.0003138316490814
-0.0031495914936254914   -0.011024115230697254   -0.00022586160915486855
-0.002916708634607509   -0.01355857145912942   -0.0003283376022186627
-0.0016752510607173192   -0.013559567886872875   -0.0002775365556348091
-0.0031495914936254914   -0.011024115230697254   -0.00022586160915486855
-0.0017623706858462328   -0.011044425187659043   -0.00018998237615081373
-0.0017481438759662854   -0.011068858912737588   -0.00019567276270332523
-0.0016752510607173192   -0.013559567886872875   -0.0002775365556348091
-0.0031495914936254914   -0.011024115230697254   -0.00022586160915486855
-0.0017481438759662854   -0.011068858912737588   -0.00019567276270332523
-0.002916708634607509   -0.01355857145912942   -0.0003283376022186627
-0.0016752510607173192   -0.013559567886872875   -0.0002775365556348091
-0.0017623706858462328   -0.011044425187659043   -0.00018998237615081373
-0.002925657343535362   -0.01353778124857148   -0.0003138316490814
-0.0016835857559015432   -0.013540052520570549   -0.00027224178052166135
-0.0017623706858462328   -0.011044425187659043   -0.00018998237615081373
-0.0031495914936254914   -0.011024115230697254   -0.00022586160915486855
-0.002925657343535362   -0.01353778124857148   -0.0003138316490814
-0.003162919407812868   -0.011008392139661514   -0.00021135853550056195
-0.0016835857559015432   -0.013540052520570549   -0.00027224178052166135
-0.002933013795032029   -0.013523012131160996   -0.00029747112983688847
-0.003162919407812868   -0.011008392139661514   -0.00021135853550056195
-0.002925657343535362   -0.01353778124857148   -0.0003138316490814
-0.0016835857559015432   -0.013540052520570549   -0.00027224178052166135
-0.003162919407812868   -0.011008392139661514   -0.00021135853550056195
-0.0017769019662306961   -0.011023808874327098   -0.00018256429850484963
-0.0017623706858462328   -0.011044425187659043   -0.00018998237615081373
-0.0016835857559015432   -0.013540052520570549   -0.00027224178052166135
-0.003162919407812868   -0.011008392139661514   -0.00021135853550056195
-0.0017623706858462328   -0.011044425187659043   -0.00018998237615081373
-0.002925657343535362   -0.01353778124857148   -0.0003138316490814
-0.0016835857559015432   -0.013540052520570549   -0.00027224178052166135
-0.0017769019662306961   -0.011023808874327098   -0.00018256429850484963
-0.002933013795032029   -0.013523012131160996   -0.00029747112983688847
-0.0016932718210601729   -0.013526714873874243   -0.0002651545385685057
-0.0017769019662306961   -0.011023808874327098   -0.00018256429850484963
-0.003162919407812868   -0.011008392139661514   -0.00021135853550056195
-0.002933013795032029   -0.013523012131160996   -0.00029747112983688847
-0.003176379751807539   -0.010996480288684767   -0.00019523178500305017
-0.0016932718210601729   -0.013526714873874243   -0.0002651545385685057
-0.002940603016147762   -0.01351423596961295   -0.00027930800889572365
-0.003176379751807539   -0.010996480288684767   -0.00019523178500305017
-0.002933013795032029   -0.013523012131160996   -0.00029747112983688847
-0.0016932718210601729   -0.013526714873874243   -0.0002651545385685057
-0.003176379751807539   -0.010996480288684767   -0.00019523178500305017
-0.001792706607305425   -0.011007225405640265   -0.00017350760931638594
-0.0017769019662306961   -0.011023808874327098   -0.00018256429850484963
-0.0016932718210601729   -0.013526714873874243   -0.0002651545385685057
-0.003176379751807539   -0.010996480288684767   -0.00019523178500305017
-0.0017769019662306961   -0.011023808874327098   -0.00018256429850484963
-0.002933013795032029   -0.013523012131160996   -0.00029747112983688847
-0.002916708634607509   -0.01355857145912942   -0.0003283376022186627
-0.00313485084292882   -0.011043628985901105   -0.00023867983848006709
-0.004196062686893202   -0.013512601202359953   -0.00036761898917659925
-0.002925657343535362   -0.01353778124857148   -0.0003138316490814
-0.00313485084292882   -0.011043628985901105   -0.00023867983848006709
-0.004549219126180344   -0.011005787857179289   -0.0002733463591944437
-0.004196062686893202   -0.013512601202359953   -0.00036761898917659925
-0.0045628187632904575   -0.010991211685464262   -0.00025334142431863624
-0.002925657343535362   -0.01353778124857148   -0.0003138316490814
-0.0042033196257560655   -0.013496464890072082   -0.0003418507304711883
-0.0045628187632904575   -0.010991211685464262   -0.00025334142431863624
-0.004196062686893202   -0.013512601202359953   -0.00036761898917659925
-0.002925657343535362   -0.01353778124857148   -0.0003138316490814
-0.0045628187632904575   -0.010991211685464262   -0.00025334142431863624
-0.0031495914936254914   -0.011024115230697254   -0.00022586160915486855
-0.00313485084292882   -0.011043628985901105   -0.00023867983848006709
-0.002925657343535362   -0.01353778124857148   -0.0003138316490814
-0.0045628187632904575   -0.010991211685464262   -0.00025334142431863624
-0.00313485084292882   -0.011043628985901105   -0.00023867983848006709
-0.004196062686893202   -0.013512601202359953   -0.00036761898917659925
-0.002925657343535362   -0.01353778124857148   -0.0003138316490814
-0.0031495914936254914   -0.011024115230697254   -0.00022586160915486855
-0.0042033196257560655   -0.013496464890072082   -0.0003418507304711883
-0.002933013795032029   -0.013523012131160996   -0.00029747112983688847
-0.0031495914936254914   -0.011024115230697254   -0.00022586160915486855
-0.0045628187632904575   -0.010991211685464262   -0.00025334142431863624
-0.0042033196257560655   -0.013496464890072082   -0.0003418507304711883
-0.004570726894232611   -0.010980012015584076   -0.00023187211914766758
-0.002933013795032029   -0.013523012131160996   -0.00029747112983688847
-0.004203751691713911   -0.013486042546604468   -0.0003144831722764927
-0.004570726894232611   -0.010980012015584076   -0.00023187211914766758
-0.0042033196257560655   -0.013496464890072082   -0.0003418507304711883
-0.002933013795032029   -0.013523012131160996   -0.00029747112983688847
-0.004570726894232611   -0.010980012015584076   -0.00023187211914766758
-0.003162919407812868   -0.011008392139661514   -0.00021135853550056195
-0.0031495914936254914   -0.011024115230697254   -0.00022586160915486855
-0.002933013795032029   -0.013523012131160996   -0.00029747112983688847
-0.004570726894232611   -0.010980012015584076   -0.00023187211914766758
-0.0031495914936254914   -0.011024115230697254   -0.00022586160915486855
-0.0042033196257560655   -0.013496464890072082   -0.0003418507304711883
-0.002933013795032029   -0.013523012131160996   -0.00029747112983688847
-0.003162919407812868   -0.011008392139661514   -0.00021135853550056195
-0.004203751691713911   -0.013486042546604468   -0.0003144831722764927
-0.002940603016147762   -0.01351423596961295   -0.00027930800889572365
-0.003162919407812868   -0.011008392139661514   -0.00021135853550056195
-0.004570726894232611   -0.010980012015584076   -0.00023187211914766758
-0.004203751691713911   -0.013486042546604468   -0.0003144831722764927
-0.004579584433525776   -0.010972970457733941   -0.00020863897101147848
-0.002940603016147762   -0.01351423596961295   -0.00027930800889572365
-0.004206238604255648   -0.013482165494658334   -0.00028517335390373537
-0.004579584433525776   -0.010972970457733941   -0.00020863897101147848
-0.004203751691713911   -0.013486042546604468   -0.0003144831722764927
-0.002940603016147762   -0.01351423596961295   -0.00027930800889572365
-0.004579584433525776   -0.010972970457733941   -0.00020863897101147848
-0.003176379751807539   -0.010996480288684767   -0.00019523178500305017
-0.003162919407812868   -0.011008392139661514   -0.00021135853550056195
-0.002940603016147762   -0.01351423596961295   -0.00027930800889572365
-0.004579584433525776   -0.010972970457733941   -0.00020863897101147848
-0.003162919407812868   -0.011008392139661514   -0.00021135853550056195
-0.004203751691713911   -0.013486042546604468   -0.0003144831722764927
-0.004196062686893202   -0.013512601202359953   -0.00036761898917659925
-0.004549219126180344   -0.011005787857179289   -0.0002733463591944437
-0.005592020742752914   -0.013451709739449499   -0.0004012074079278525
-0.0042033196257560655   -0.013496464890072082   -0.0003418507304711883
-0.004549219126180344   -0.011005787857179289   -0.0002733463591944437
-0.006068769204352113   -0.010958668223049337   -0.00030061006855004664
-0.005592020742752914   -0.013451709739449499   -0.0004012074079278525
-0.006056631780547741   -0.010946566465431429   -0.00027361177546347603
-0.0042033196257560655   -0.013496464890072082   -0.0003418507304711883
-0.005563543844058206   -0.013436963025502319   -0.0003633459380380166
-0.006056631780547741   -0.010946566465431429   -0.00027361177546347603
-0.005592020742752914   -0.013451709739449499   -0.0004012074079278525
-0.0042033196257560655   -0.013496464890072082   -0.0003418507304711883
-0.006056631780547741   -0.010946566465431429   -0.00027361177546347603
-0.0045628187632904575   -0.010991211685464262   -0.00025334142431863624
-0.004549219126180344   -0.011005787857179289   -0.0002733463591944437
-0.0042033196257560655   -0.013496464890072082   -0.0003418507304711883
-0.006056631780547741   -0.010946566465431429   -0.00027361177546347603
-0.004549219126180344   -0.011005787857179289   -0.0002733463591944437
-0.005592020742752914   -0.013451709739449499   -0.0004012074079278525
-0.0042033196257560655   -0.013496464890072082   -0.0003418507304711883
-0.0045628187632904575   -0.010991211685464262   -0.00025334142431863624
-0.005563543844058206   -0.013436963025502319   -0.0003633459380380166
-0.004203751691713911   -0.013486042546604468   -0.0003144831722764927
-0.0045628187632904575   -0.010991211685464262   -0.00025334142431863624
-0.006056631780547741   -0.010946566465431429   -0.00027361177546347603
-0.005563543844058206   -0.013436963025502319   -0.0003633459380380166
-0.006046717263729508   -0.010937504399712597   -0.000243925256494633
-0.004203751691713911   -0.013486042546604468   -0.0003144831722764927
-0.005539642365694115   -0.013428392450876691   -0.00032268002097927403
-0.006046717263729508   -0.010937504399712597   -0.000243925256494633
-0.005563543844058206   -0.013436963025502319   -0.0003633459380380166
-0.004203751691713911   -0.013486042546604468   -0.0003144831722764927
-0.006046717263729508   -0.010937504399712597   -0.000243925256494633
-0.004570726894232611   -0.010980012015584076   -0.00023187211914766758
-0.0045628187632904575   -0.010991211685464262   -0.00025334142431863624
-0.004203751691713911   -0.013486042546604468   -0.0003144831722764927
-0.006046717263729508   -0.010937504399712597   -0.000243925256494633
-0.0045628187632904575   -0.010991211685464262   -0.00025334142431863624
-0.005563543844058206   -0.013436963025502319   -0.0003633459380380166
-0.004203751691713911   -0.013486042546604468   -0.0003144831722764927
-0.004570726894232611   -0.010980012015584076   -0.00023187211914766758
-0.005539642365694115   -0.013428392450876691   -0.00032268002097927403
-0.004206238604255648   -0.013482165494658334   -0.00028517335390373537
-0.004570726894232611   -0.010980012015584076   -0.00023187211914766758
-0.006046717263729508   -0.010937504399712597   -0.000243925256494633
-0.005539642365694115   -0.013428392450876691   -0.00032268002097927403
-0.006024559957231889   -0.010936391163365892   -0.00021185497556710912
-0.004206238604255648   -0.013482165494658334   -0.00028517335390373537
-0.0055008349637456315   -0.013430848931474388   -0.00027956296448037725
-0.006024559957231889   -0.010936391163365892   -0.00021185497556710912
-0.005539642365694115   -0.013428392450876691   -0.00032268002097927403
-0.004206238604255648   -0.013482165494658334   -0.00028517335390373537
-0.006024559957231889   -0.010936391163365892   -0.00021185497556710912
-0.004579584433525776   -0.010972970457733941   -0.00020863897101147848
-0.004570726894232611   -0.010980012015584076   -0.00023187211914766758
-0.004206238604255648   -0.013482165494658334   -0.00028517335390373537
-0.006024559957231889   -0.010936391163365892   -0.00021185497556710912
-0.004570726894232611   -0.010980012015584076   -0.00023187211914766758
-0.005539642365694115   -0.013428392450876691   -0.00032268002097927403
0.001140298342980967   -0.011081287730527453   -8.083485146698629e-05
0.001194448926897512   -0.00839811080098688   -1.4680411741323402e-05
-0.00033762897178262385   -0.011081999900557998   -0.0001441774681552132
0.0011378084497106452   -0.011046625098192082   -9.23869039770943e-05
0.001194448926897512   -0.00839811080098688   -1.4680411741323402e-05
-0.00037502674057861377   -0.008385244164865071   -7.116469974872455e-05
-0.00033762897178262385   -0.011081999900557998   -0.0001441774681552132
-0.0003924845365452263   -0.008356856312143772   -6.623847540065108e-05
0.0011378084497106452   -0.011046625098192082   -9.23869039770943e-05
-0.00035009028821470807   -0.011052172305774549   -0.00014565197580844363
-0.0003924845365452263   -0.008356856312143772   -6.623847540065108e-05
-0.00033762897178262385   -0.011081999900557998   -0.0001441774681552132
0.0011378084497106452   -0.011046625098192082   -9.23869039770943e-05
-0.0003924845365452263   -0.008356856312143772   -6.623847540065108e-05
0.0011768977527855569   -0.008365205235669875   -1.4711190418350996e-05
0.001194448926897512   -0.00839811080098688   -1.4680411741323402e-05
0.0011378084497106452   -0.011046625098192082   -9.23869039770943e-05
-0.0003924845365452263   -0.008356856312143772   -6.623847540065108e-05
0.001194448926897512   -0.00839811080098688   -1.4680411741323402e-05
-0.00033762897178262385   -0.011081999900557998   -0.0001441774681552132
0.0011378084497106452   -0.011046625098192082   -9.23869039770943e-05
0.0011768977527855569   -0.008365205235669875   -1.4711190418350996e-05
-0.00035009028821470807   -0.011052172305774549   -0.00014565197580844363
0.0011286533506796375   -0.011019456916729066   -0.00010129115389196665
0.0011768977527855569   -0.008365205235669875   -1.4711190418350996e-05
-0.0003924845365452263   -0.008356856312143772   -6.623847540065108e-05
-0.00035009028821470807   -0.011052172305774549   -0.00014565197580844363
-0.0004125472994567527   -0.008330448858487046   -5.978978465565891e-05
0.0011286533506796375   -0.011019456916729066   -0.00010129115389196665
-0.00036395116064688436   -0.011027036389219121   -0.00014547464675423644
-0.0004125472994567527   -0.008330448858487046   -5.978978465565891e-05
-0.00035009028821470807   -0.011052172305774549   -0.00014565197580844363
0.0011286533506796375   -0.011019456916729066   -0.00010129115389196665
-0.0004125472994567527   -0.008330448858487046   -5.978978465565891e-05
0.0011545958281807597   -0.00833638530173324   -1.1647868965085555e-05
0.0011768977527855569   -0.008365205235669875   -1.4711190418350996e-05
0.0011286533506796375   -0.011019456916729066   -0.00010129115389196665
-0.0004125472994567527   -0.008330448858487046   -5.978978465565891e-05
0.0011768977527855569   -0.008365205235669875   -1.4711190418350996e-05
-0.00035009028821470807   -0.011052172305774549   -0.00014565197580844363
0.0011286533506796375   -0.011019456916729066   -0.00010129115389196665
0.0011545958281807597   -0.00833638530173324   -1.1647868965085555e-05
-0.00036395116064688436   -0.011027036389219121   -0.00014547464675423644
0.0011156099268226176   -0.010995031970597768   -0.00010773279428866456
0.0011545958281807597   -0.00833638530173324   -1.1647868965085555e-05
-0.0004125472994567527   -0.008330448858487046   -5.978978465565891e-05
-0.00036395116064688436   -0.011027036389219121   -0.00014547464675423644
-0.00043525333461435015   -0.008305640627193023   -5.144025354738673e-05
0.0011156099268226176   -0.010995031970597768   -0.00010773279428866456
-0.00038142375818676005   -0.01100589748253049   -0.00014358035634161843
-0.00043525333461435015   -0.008305640627193023   -5.144025354738673e-05
-0.00036395116064688436   -0.011027036389219121   -0.00014547464675423644
0.0011156099268226176   -0.010995031970597768   -0.00010773279428866456
-0.00043525333461435015   -0.008305640627193023   -5.144025354738673e-05
0.001124997740571537   -0.008306532287337907   -5.6252748235396405e-06
0.0011545958281807597   -0.00833638530173324   -1.1647868965085555e-05
0.0011156099268226176   -0.010995031970597768   -0.00010773279428866456
-0.00043525333461435015   -0.008305640627193023   -5.144025354738673e-05
0.0011545958281807597   -0.00833638530173324   -1.1647868965085555e-05
-0.00036395116064688436   -0.011027036389219121   -0.00014547464675423644
-0.00033762897178262385   -0.011081999900557998   -0.0001441774681552132
-0.00037502674057861377   -0.008385244164865071   -7.116469974872455e-05
-0.0017481438759662854   -0.011068858912737588   -0.00019567276270332523
-0.00035009028821470807   -0.011052172305774549   -0.00014565197580844363
-0.00037502674057861377   -0.008385244164865071   -7.116469974872455e-05
-0.001861923515914226   -0.008369282327268001   -0.00011815684485802594
-0.0017481438759662854   -0.011068858912737588   -0.00019567276270332523
-0.0018799806660533096   -0.008345899478626346   -0.0001099831617247994
-0.00035009028821470807   -0.011052172305774549   -0.00014565197580844363
-0.0017623706858462328   -0.011044425187659043   -0.00018998237615081373
-0.0018799806660533096   -0.008345899478626346   -0.0001099831617247994
-0.0017481438759662854   -0.011068858912737588   -0.00019567276270332523
-0.00035009028821470807   -0.011052172305774549   -0.00014565197580844363
-0.0018799806660533096   -0.008345899478626346   -0.0001099831617247994
-0.0003924845365452263   -0.008356856312143772   -6.623847540065108e-05
-0.00037502674057861377   -0.008385244164865071   -7.116469974872455e-05
-0.00035009028821470807   -0.011052172305774549   -0.00014565197580844363
-0.0018799806660533096   -0.008345899478626346   -0.0001099831617247994
-0.00037502674057861377   -0.008385244164865071   -7.116469974872455e-05
-0.0017481438759662854   -0.011068858912737588   -0.00019567276270332523
-0.00035009028821470807   -0.011052172305774549   -0.00014565197580844363
-0.0003924845365452263   -0.008356856312143772   -6.623847540065108e-05
-0.0017623706858462328   -0.011044425187659043   -0.00018998237615081373
-0.00036395116064688436   -0.011027036389219121   -0.00014547464675423644
-0.0003924845365452263   -0.008356856312143772   -6.623847540065108e-05
-0.0018799806660533096   -0.008345899478626346   -0.0001099831617247994
-0.0017623706858462328   -0.011044425187659043   -0.00018998237615081373
-0.001898471649419478   -0.008324045248445284   -0.0001003453084298959
-0.00036395116064688436   -0.011027036389219121   -0.00014547464675423644
-0.0017769019662306961   -0.011023808874327098   -0.00018256429850484963
-0.001898471649419478   -0.008324045248445284   -0.0001003453084298959
-0.0017623706858462328   -0.011044425187659043   -0.00018998237615081373
-0.00036395116064688436   -0.011027036389219121   -0.00014547464675423644
-0.001898471649419478   -0.008324045248445284   -0.0001003453084298959
-0.0004125472994567527   -0.008330448858487046   -5.978978465565891e-05
-0.0003924845365452263   -0.008356856312143772   -6.623847540065108e-05
-0.00036395116064688436   -0.011027036389219121   -0.00014547464675423644
-0.001898471649419478   -0.008324045248445284   -0.0001003453084298959
-0.0003924845365452263   -0.008356856312143772   -6.623847540065108e-05
-0.0017623706858462328   -0.011044425187659043   -0.00018998237615081373
-0.00036395116064688436   -0.011027036389219121   -0.00014547464675423644
-0.0004125472994567527   -0.008330448858487046   -5.978978465565891e-05
-0.0017769019662306961   -0.011023808874327098   -0.00018256429850484963
-0.00038142375818676005   -0.01100589748253049   -0.00014358035634161843
-0.0004125472994567527   -0.008330448858487046   -5.978978465565891e-05
-0.001898471649419478   -0.008324045248445284   -0.0001003453084298959
-0.0017769019662306961   -0.011023808874327098   -0.00018256429850484963
-0.0019181840862323204   -0.008304098897137546   -8.92377615381237e-05
-0.00038142375818676005   -0.01100589748253049   -0.00014358035634161843
-0.001792706607305425   -0.011007225405640265   -0.00017350760931638594
-0.0019181840862323204   -0.008304098897137546   -8.92377615381237e-05
-0.0017769019662306961   -0.011023808874327098   -0.00018256429850484963
-0.00038142375818676005   -0.01100589748253049   -0.00014358035634161843
-0.0019181840862323204   -0.008304098897137546   -8.92377615381237e-05
-0.00043525333461435015   -0.008305640627193023   -5.144025354738673e-05
-0.0004125472994567527   -0.008330448858487046   -5.978978465565891e-05
-0.00038142375818676005   -0.01100589748253049   -0.00014358035634161843
-0.0019181840862323204   -0.008304098897137546   -8.92377615381237e-05
-0.0004125472994567527   -0.008330448858487046   -5.978978465565891e-05
-0.0017769019662306961   -0.011023808874327098   -0.00018256429850484963
-0.0017481438759662854   -0.011068858912737588   -0.00019567276270332523
-0.001861923515914226   -0.008369282327268001   -0.00011815684485802594
-0.00313485084292882   -0.011043628985901105   -0.00023867983848006709
-0.0017623706858462328   -0.011044425187659043   -0.00018998237615081373
-0.001861923515914226   -0.008369282327268001   -0.00011815684485802594
-0.0033241281119367524   -0.00834969895887958   -0.00015758320898023414
-0.00313485084292882   -0.011043628985901105   -0.00023867983848006709
-0.00334215163931668   -0.008330901239921017   -0.00014620257300031224
-0.0017623706858462328   -0.011044425187659043   -0.00018998237615081373
-0.0031495914936254914   -0.011024115230697254   -0.00022586160915486855
-0.00334215163931668   -0.008330901239921017   -0.00014620257300031224
-0.00313485084292882   -0.011043628985901105   -0.00023867983848006709
-0.0017623706858462328   -0.011044425187659043   -0.00018998237615081373
-0.00334215163931668   -0.008330901239921017   -0.00014620257300031224
-0.0018799806660533096   -0.008345899478626346   -0.0001099831617247994
-0.001861923515914226   -0.008369282327268001   -0.00011815684485802594
-0.0017623706858462328   -0.011044425187659043   -0.00018998237615081373
-0.00334215163931668   -0.008330901239921017   -0.00014620257300031224
-0.001861923515914226   -0.008369282327268001   -0.00011815684485802594
-0.00313485084292882   -0.011043628985901105   -0.00023867983848006709
-0.0017623706858462328   -0.011044425187659043   -0.00018998237615081373
-0.0018799806660533096   -0.008345899478626346   -0.0001099831617247994
-0.0031495914936254914   -0.011024115230697254   -0.00022586160915486855
-0.0017769019662306961   -0.011023808874327098   -0.00018256429850484963
-0.0018799806660533096   -0.008345899478626346   -0.0001099831617247994
-0.00334215163931668   -0.008330901239921017   -0.00014620257300031224
-0.0031495914936254914   -0.011024115230697254   -0.00022586160915486855
-0.0033589814556659924   -0.008313701565698118   -0.00013340720000323735
-0.0017769019662306961   -0.011023808874327098   -0.00018256429850484963
-0.003162919407812868   -0.011008392139661514   -0.00021135853550056195
-0.0033589814556659924   -0.008313701565698118   -0.00013340720000323735
-0.0031495914936254914   -0.011024115230697254   -0.00022586160915486855
-0.0017769019662306961   -0.011023808874327098   -0.00018256429850484963
-0.0033589814556659924   -0.008313701565698118   -0.00013340720000323735
-0.001898471649419478   -0.008324045248445284   -0.0001003453084298959
-0.0018799806660533096   -0.008345899478626346   -0.0001099831617247994
-0.0017769019662306961   -0.011023808874327098   -0.00018256429850484963
-0.0033589814556659924   -0.008313701565698118   -0.00013340720000323735
-0.0018799806660533096   -0.008345899478626346   -0.0001099831617247994
-0.0031495914936254914   -0.011024115230697254   -0.00022586160915486855
-0.0017769019662306961   -0.011023808874327098   -0.00018256429850484963
-0.001898471649419478   -0.008324045248445284   -0.0001003453084298959
-0.003162919407812868   -0.011008392139661514   -0.00021135853550056195
-0.001792706607305425   -0.011007225405640265   -0.00017350760931638594
-0.001898471649419478   -0.008324045248445284   -0.0001003453084298959
-0.0033589814556659924   -0.008313701565698118   -0.00013340720000323735
-0.003162919407812868   -0.011008392139661514   -0.00021135853550056195
-0.0033758723806829732   -0.008298141295318395   -0.00011926409619999518
-0.001792706607305425   -0.011007225405640265   -0.00017350760931638594
-0.003176379751807539   -0.010996480288684767   -0.00019523178500305017
-0.0033758723806829732   -0.008298141295318395   -0.00011926409619999518
-0.003162919407812868   -0.011008392139661514   -0.00021135853550056195
-0.001792706607305425   -0.011007225405640265   -0.00017350760931638594
-0.0033758723806829732   -0.008298141295318395   -0.00011926409619999518
-0.0019181840862323204   -0.008304098897137546   -8.92377615381237e-05
-0.001898471649419478   -0.008324045248445284   -0.0001003453084298959
-0.001792706607305425   -0.011007225405640265   -0.00017350760931638594
-0.0033758723806829732   -0.008298141295318395   -0.00011926409619999518
-0.001898471649419478   -0.008324045248445284   -0.0001003453084298959
-0.003162919407812868   -0.011008392139661514   -0.00021135853550056195
-0.00313485084292882   -0.011043628985901105   -0.00023867983848006709
-0.0033241281119367524   -0.00834969895887958   -0.00015758320898023414
-0.004549219126180344   -0.011005787857179289   -0.0002733463591944437
-0.0031495914936254914   -0.011024115230697254   -0.00022586160915486855
-0.0033241281119367524   -0.00834969895887958   -0.00015758320898023414
-0.004813045411650037   -0.00832293756800414   -0.00018909940964947114
-0.004549219126180344   -0.011005787857179289   -0.0002733463591944437
-0.004830266232803921   -0.008308957343252186   -0.00017455204229480093
-0.0031495914936254914   -0.011024115230697254   -0.00022586160915486855
-0.0045628187632904575   -0.010991211685464262   -0.00025334142431863624
-0.004830266232803921   -0.008308957343252186   -0.00017455204229480093
-0.004549219126180344   -0.011005787857179289   -0.0002733463591944437
-0.0031495914936254914   -0.011024115230697254   -0.00022586160915486855
-0.004830266232803921   -0.008308957343252186   -0.00017455204229480093
-0.00334215163931668   -0.008330901239921017   -0.00014620257300031224
-0.0033241281119367524   -0.00834969895887958   -0.00015758320898023414
-0.0031495914936254914   -0.011024115230697254   -0.00022586160915486855
-0.004830266232803921   -0.008308957343252186   -0.00017455204229480093
-0.0033241281119367524   -0.00834969895887958   -0.00015758320898023414
-0.004549219126180344   -0.011005787857179289   -0.0002733463591944437
-0.0031495914936254914   -0.011024115230697254   -0.00022586160915486855
-0.00334215163931668   -0.008330901239921017   -0.00014620257300031224
-0.0045628187632904575   -0.010991211685464262   -0.00025334142431863624
-0.003162919407812868   -0.011008392139661514   -0.00021135853550056195
-0.00334215163931668   -0.008330901239921017   -0.00014620257300031224
-0.004830266232803921   -0.008308957343252186   -0.00017455204229480093
-0.0045628187632904575   -0.010991211685464262   -0.00025334142431863624
-0.004843094369456507   -0.008296070036865714   -0.0001588089802229761
-0.003162919407812868   -0.011008392139661514   -0.00021135853550056195
-0.004570726894232611   -0.010980012015584076   -0.00023187211914766758
-0.004843094369456507   -0.008296070036865714   -0.0001588089802229761
-0.0045628187632904575   -0.010991211685464262   -0.00025334142431863624
-0.003162919407812868   -0.011008392139661514   -0.00021135853550056195
-0.004843094369456507   -0.008296070036865714   -0.0001588089802229761
-0.0033589814556659924   -0.008313701565698118   -0.00013340720000323735
-0.00334215163931668   -0.008330901239921017   -0.00014620257300031224
-0.003162919407812868   -0.011008392139661514   -0.00021135853550056195
-0.004843094369456507   -0.008296070036865714   -0.0001588089802229761
-0.00334215163931668   -0.008330901239921017   -0.00014620257300031224
-0.0045628187632904575   -0.010991211685464262   -0.00025334142431863624
-0.003162919407812868   -0.011008392139661514   -0.00021135853550056195
-0.0033589814556659924   -0.008313701565698118   -0.00013340720000323735
-0.004570726894232611   -0.010980012015584076   -0.00023187211914766758
-0.003176379751807539   -0.010996480288684767   -0.00019523178500305017
-0.0033589814556659924   -0.008313701565698118   -0.00013340720000323735
-0.004843094369456507   -0.008296070036865714   -0.0001588089802229761
-0.004570726894232611   -0.010980012015584076   -0.00023187211914766758
-0.004855876534023874   -0.008284931176904339   -0.00014157093266818616
-0.003176379751807539   -0.010996480288684767   -0.00019523178500305017
-0.004579584433525776   -0.010972970457733941   -0.00020863897101147848
-0.004855876534023874   -0.008284931176904339   -0.00014157093266818616
-0.004570726894232611   -0.010980012015584076   -0.00023187211914766758
-0.003176379751807539   -0.010996480288684767   -0.00019523178500305017
-0.004855876534023874   -0.008284931176904339   -0.00014157093266818616
-0.0033758723806829732   -0.008298141295318395   -0.00011926409619999518
-0.0033589814556659924   -0.008313701565698118   -0.00013340720000323735
-0.003176379751807539   -0.010996480288684767   -0.00019523178500305017
-0.004855876534023874   -0.008284931176904339   -0.00014157093266818616
-0.0033589814556659924   -0.008313701565698118   -0.00013340720000323735
-0.004570726894232611   -0.010980012015584076   -0.00023187211914766758
-0.004549219126180344   -0.011005787857179289   -0.0002733463591944437
-0.004813045411650037   -0.00832293756800414   -0.00018909940964947114
-0.006068769204352113   -0.010958668223049337   -0.00030061006855004664
-0.0045628187632904575   -0.010991211685464262   -0.00025334142431863624
-0.004813045411650037   -0.00832293756800414   -0.00018909940964947114
-0.006393308985980355   -0.008290822361670995   -0.00021181893446820603
-0.006068769204352113   -0.010958668223049337   -0.00030061006855004664
-0.006394631255409602   -0.008280040340801391   -0.0001953323049606903
-0.0045628187632904575   -0.010991211685464262   -0.00025334142431863624
-0.006056631780547741   -0.010946566465431429   -0.00027361177546347603
-0.006394631255409602   -0.008280040340801391   -0.0001953323049606903
-0.006068769204352113   -0.010958668223049337   -0.00030061006855004664
-0.0045628187632904575   -0.010991211685464262   -0.00025334142431863624
-0.006394631255409602   -0.008280040340801391   -0.0001953323049606903
-0.004830266232803921   -0.008308957343252186   -0.00017455204229480093
-0.004813045411650037   -0.00832293756800414   -0.00018909940964947114
-0.0045628187632904575   -0.010991211685464262   -0.00025334142431863624
-0.006394631255409602   -0.008280040340801391   -0.0001953323049606903
-0.004813045411650037   -0.00832293756800414   -0.00018909940964947114
-0.006068769204352113   -0.010958668223049337   -0.00030061006855004664
-0.0045628187632904575   -0.010991211685464262   -0.00025334142431863624
-0.004830266232803921   -0.008308957343252186   -0.00017455204229480093
-0.006056631780547741   -0.010946566465431429   -0.00027361177546347603
-0.004570726894232611   -0.010980012015584076   -0.00023187211914766758
-0.004830266232803921   -0.008308957343252186   -0.00017455204229480093
-0.006394631255409602   -0.008280040340801391   -0.0001953323049606903
-0.006056631780547741   -0.010946566465431429   -0.00027361177546347603
-0.0063962087630326184   -0.008269373727739475   -0.000176454511754632
-0.004570726894232611   -0.010980012015584076   -0.00023187211914766758
-0.006046717263729508   -0.010937504399712597   -0.000243925256494633
-0.0063962087630326184   -0.008269373727739475   -0.000176454511754632
-0.006056631780547741   -0.010946566465431429   -0.00027361177546347603
-0.004570726894232611   -0.010980012015584076   -0.00023187211914766758
-0.0063962087630326184   -0.008269373727739475   -0.000176454511754632
-0.004843094369456507   -0.008296070036865714   -0.0001588089802229761
-0.004830266232803921   -0.008308957343252186   -0.00017455204229480093
-0.004570726894232611   -0.010980012015584076   -0.00023187211914766758
-0.0063962087630326184   -0.008269373727739475   -0.000176454511754632
-0.004830266232803921   -0.008308957343252186   -0.00017455204229480093
-0.006056631780547741   -0.010946566465431429   -0.00027361177546347603
-0.004570726894232611   -0.010980012015584076   -0.00023187211914766758
-0.004843094369456507   -0.008296070036865714   -0.0001588089802229761
-0.006046717263729508   -0.010937504399712597   -0.000243925256494633
-0.004579584433525776   -0.010972970457733941   -0.00020863897101147848
-0.004843094369456507   -0.008296070036865714   -0.0001588089802229761
-0.0063962087630326184   -0.008269373727739475   -0.000176454511754632
-0.006046717263729508   -0.010937504399712597   -0.000243925256494633
-0.00638854393279669   -0.008263453801035731   -0.00015545993950201892
-0.004579584433525776   -0.010972970457733941   -0.00020863897101147848
-0.006024559957231889   -0.010936391163365892   -0.00021185497556710912
-0.00638854393279669   -0.008263453801035731   -0.00015545993950201892
-0.006046717263729508   -0.010937504399712597   -0.000243925256494633
-0.004579584433525776   -0.010972970457733941   -0.00020863897101147848
-0.00638854393279669   -0.008263453801035731   -0.00015545993950201892
-0.004855876534023874   -0.008284931176904339   -0.00014157093266818616
-0.004843094369456507   -0.008296070036865714   -0.0001588089802229761
-0.004579584433525776   -0.010972970457733941   -0.00020863897101147848
-0.00638854393279669   -0.008263453801035731   -0.00015545993950201892
-0.004843094369456507   -0.008296070036865714   -0.0001588089802229761
-0.006046717263729508   -0.010937504399712597   -0.000243925256494633
0.001194448926897512   -0.00839811080098688   -1.4680411741323402e-05
0.0010812584105981849   -0.005621493173535107   3.112446746730517e-05
-0.00037502674057861377   -0.008385244164865071   -7.116469974872455e-05
0.0011768977527855569   -0.008365205235669875   -1.4711190418350996e-05
0.0010812584105981849   -0.005621493173535107   3.112446746730517e-05
-0.0005073954934752829   -0.005596253350365085   -1.2776515673692445e-05
-0.00037502674057861377   -0.008385244164865071   -7.116469974872455e-05
-0.0005286892892794008   -0.005570808274467936   -1.835419273180527e-06
0.0011768977527855569   -0.008365205235669875   -1.4711190418350996e-05
-0.0003924845365452263   -0.008356856312143772   -6.623847540065108e-05
-0.0005286892892794008   -0.005570808274467936   -1.835419273180527e-06
-0.00037502674057861377   -0.008385244164865071   -7.116469974872455e-05
0.0011768977527855569   -0.008365205235669875   -1.4711190418350996e-05
-0.0005286892892794008   -0.005570808274467936   -1.835419273180527e-06
0.0010484131410367747   -0.005590340366163808   4.415013531466278e-05
0.0010812584105981849   -0.005621493173535107   3.112446746730517e-05
0.0011768977527855569   -0.008365205235669875   -1.4711190418350996e-05
-0.0005286892892794008   -0.005570808274467936   -1.835419273180527e-06
0.0010812584105981849   -0.005621493173535107   3.112446746730517e-05
-0.00037502674057861377   -0.008385244164865071   -7.116469974872455e-05
0.0011768977527855569   -0.008365205235669875   -1.4711190418350996e-05
0.0010484131410367747   -0.005590340366163808   4.415013531466278e-05
-0.0003924845365452263   -0.008356856312143772   -6.623847540065108e-05
0.0011545958281807597   -0.00833638530173324   -1.1647868965085555e-05
0.0010484131410367747   -0.005590340366163808   4.415013531466278e-05
-0.0005286892892794008   -0.005570808274467936   -1.835419273180527e-06
-0.0003924845365452263   -0.008356856312143772   -6.623847540065108e-05
-0.0005537142081794484   -0.005544103033356939   1.1143431469980573e-05
0.0011545958281807597   -0.00833638530173324   -1.1647868965085555e-05
-0.0004125472994567527   -0.008330448858487046   -5.978978465565891e-05
-0.0005537142081794484   -0.005544103033356939   1.1143431469980573e-05
-0.0003924845365452263   -0.008356856312143772   -6.623847540065108e-05
0.0011545958281807597   -0.00833638530173324   -1.1647868965085555e-05
-0.0005537142081794484   -0.005544103033356939   1.1143431469980573e-05
0.0010111365976544404   -0.005559763214802871   6.339556514760256e-05
0.0010484131410367747   -0.005590340366163808   4.415013531466278e-05
0.0011545958281807597   -0.00833638530173324   -1.1647868965085555e-05
-0.0005537142081794484   -0.005544103033356939   1.1143431469980573e-05
0.0010484131410367747   -0.005590340366163808   4.415013531466278e-05
-0.0003924845365452263   -0.008356856312143772   -6.623847540065108e-05
0.0011545958281807597   -0.00833638530173324   -1.1647868965085555e-05
0.0010111365976544404   -0.005559763214802871   6.339556514760256e-05
-0.0004125472994567527   -0.008330448858487046   -5.978978465565891e-05
0.001124997740571537   -0.008306532287337907   -5.6252748235396405e-06
0.0010111365976544404   -0.005559763214802871   6.339556514760256e-05
-0.0005537142081794484   -0.005544103033356939   1.1143431469980573e-05
-0.0004125472994567527   -0.008330448858487046   -5.978978465565891e-05
-0.0005797351095892122   -0.005515883151921662   2.6151192163963897e-05
0.001124997740571537   -0.008306532287337907   -5.6252748235396405e-06
-0.00043525333461435015   -0.008305640627193023   -5.144025354738673e-05
-0.0005797351095892122   -0.005515883151921662   2.6151192163963897e-05
-0.0004125472994567527   -0.008330448858487046   -5.978978465565891e-05
0.001124997740571537   -0.008306532287337907   -5.6252748235396405e-06
-0.0005797351095892122   -0.005515883151921662   2.6151192163963897e-05
0.0009655316413689976   -0.005522060861308712   8.466577606934341e-05
0.0010111365976544404   -0.005559763214802871   6.339556514760256e-05
0.001124997740571537   -0.008306532287337907   -5.6252748235396405e-06
-0.0005797351095892122   -0.005515883151921662   2.6151192163963897e-05
0.0010111365976544404   -0.005559763214802871   6.339556514760256e-05
-0.0004125472994567527   -0.008330448858487046   -5.978978465565891e-05
-0.00037502674057861377   -0.008385244164865071   -7.116469974872455e-05
-0.0005073954934752829   -0.005596253350365085   -1.2776515673692445e-05
-0.001861923515914226   -0.008369282327268001   -0.00011815684485802594
-0.0003924845365452263   -0.008356856312143772   -6.623847540065108e-05
-0.0005073954934752829   -0.005596253350365085   -1.2776515673692445e-05
-0.002001349693176681   -0.005589672539530724   -5.4657030160770225e-05
-0.001861923515914226   -0.008369282327268001   -0.00011815684485802594
-0.0020208245956978635   -0.00556779644181045   -4.41893717047574e-05
-0.0003924845365452263   -0.008356856312143772   -6.623847540065108e-05
-0.0018799806660533096   -0.008345899478626346   -0.0001099831617247994
-0.0020208245956978635   -0.00556779644181045   -4.41893717047574e-05
-0.001861923515914226   -0.008369282327268001   -0.00011815684485802594
-0.0003924845365452263   -0.008356856312143772   -6.623847540065108e-05
-0.0020208245956978635   -0.00556779644181045   -4.41893717047574e-05
-0.0005286892892794008   -0.005570808274467936   -1.835419273180527e-06
-0.0005073954934752829   -0.005596253350365085   -1.2776515673692445e-05
-0.0003924845365452263   -0.008356856312143772   -6.623847540065108e-05
-0.0020208245956978635   -0.00556779644181045   -4.41893717047574e-05
-0.0005073954934752829   -0.005596253350365085   -1.2776515673692445e-05
-0.001861923515914226   -0.008369282327268001   -0.00011815684485802594
-0.0003924845365452263   -0.008356856312143772   -6.623847540065108e-05
-0.0005286892892794008   -0.005570808274467936   -1.835419273180527e-06
-0.0018799806660533096   -0.008345899478626346   -0.0001099831617247994
-0.0004125472994567527   -0.008330448858487046   -5.978978465565891e-05
-0.0005286892892794008   -0.005570808274467936   -1.835419273180527e-06
-0.0020208245956978635   -0.00556779644181045   -4.41893717047574e-05
-0.0018799806660533096   -0.008345899478626346   -0.0001099831617247994
-0.0020410270046600687   -0.005545099452082442   -3.2628221388522525e-05
-0.0004125472994567527   -0.008330448858487046   -5.978978465565891e-05
-0.001898471649419478   -0.008324045248445284   -0.0001003453084298959
-0.0020410270046600687   -0.005545099452082442   -3.2628221388522525e-05
-0.0018799806660533096   -0.008345899478626346   -0.0001099831617247994
-0.0004125472994567527   -0.008330448858487046   -5.978978465565891e-05
-0.0020410270046600687   -0.005545099452082442   -3.2628221388522525e-05
-0.0005537142081794484   -0.005544103033356939   1.1143431469980573e-05
-0.0005286892892794008   -0.005570808274467936   -1.835419273180527e-06
-0.0004125472994567527   -0.008330448858487046   -5.978978465565891e-05
-0.0020410270046600687   -0.005545099452082442   -3.2628221388522525e-05
-0.0005286892892794008   -0.005570808274467936   -1.835419273180527e-06
-0.0018799806660533096   -0.008345899478626346   -0.0001099831617247994
-0.0004125472994567527   -0.008330448858487046   -5.978978465565891e-05
-0.0005537142081794484   -0.005544103033356939   1.1143431469980573e-05
-0.001898471649419478   -0.008324045248445284   -0.0001003453084298959
-0.00043525333461435015   -0.008305640627193023   -5.144025354738673e-05
-0.0005537142081794484   -0.005544103033356939   1.1143431469980573e-05
-0.0020410270046600687   -0.005545099452082442   -3.2628221388522525e-05
-0.001898471649419478   -0.008324045248445284   -0.0001003453084298959
-0.0020621161354897723   -0.005522066620328064   -1.976763600795915e-05
-0.00043525333461435015   -0.008305640627193023   -5.144025354738673e-05
-0.0019181840862323204   -0.008304098897137546   -8.92377615381237e-05
-0.0020621161354897723   -0.005522066620328064   -1.976763600795915e-05
-0.001898471649419478   -0.008324045248445284   -0.0001003453084298959
-0.00043525333461435015   -0.008305640627193023   -5.144025354738673e-05
-0.0020621161354897723   -0.005522066620328064   -1.976763600795915e-05
-0.0005797351095892122   -0.005515883151921662   2.6151192163963897e-05
-0.0005537142081794484   -0.005544103033356939   1.1143431469980573e-05
-0.00043525333461435015   -0.008305640627193023   -5.144025354738673e-05
-0.0020621161354897723   -0.005522066620328064   -1.976763600795915e-05
-0.0005537142081794484   -0.005544103033356939   1.1143431469980573e-05
-0.001898471649419478   -0.008324045248445284   -0.0001003453084298959
-0.001861923515914226   -0.008369282327268001   -0.00011815684485802594
-0.002001349693176681   -0.005589672539530724   -5.4657030160770225e-05
-0.0033241281119367524   -0.00834969895887958   -0.00015758320898023414
-0.0018799806660533096   -0.008345899478626346   -0.0001099831617247994
-0.002001349693176681   -0.005589672539530724   -5.4657030160770225e-05
-0.003478516157001471   -0.0055877735792279485   -9.224141834686466e-05
-0.0033241281119367524   -0.00834969895887958   -0.00015758320898023414
-0.0034972454854787214   -0.005568831582813928   -8.200928996623591e-05
-0.0018799806660533096   -0.008345899478626346   -0.0001099831617247994
-0.00334215163931668   -0.008330901239921017   -0.00014620257300031224
-0.0034972454854787214   -0.005568831582813928   -8.200928996623591e-05
-0.0033241281119367524   -0.00834969895887958   -0.00015758320898023414
-0.0018799806660533096   -0.008345899478626346   -0.0001099831617247994
-0.0034972454854787214   -0.005568831582813928   -8.200928996623591e-05
-0.0020208245956978635   -0.00556779644181045   -4.41893717047574e-05
-0.002001349693176681   -0.005589672539530724   -5.4657030160770225e-05
-0.0018799806660533096   -0.008345899478626346   -0.0001099831617247994
-0.0034972454854787214   -0.005568831582813928   -8.200928996623591e-05
-0.002001349693176681   -0.005589672539530724   -5.4657030160770225e-05
-0.0033241281119367524   -0.00834969895887958   -0.00015758320898023414
-0.0018799806660533096   -0.008345899478626346   -0.0001099831617247994
-0.0020208245956978635   -0.00556779644181045   -4.41893717047574e-05
-0.00334215163931668   -0.008330901239921017   -0.00014620257300031224
-0.001898471649419478   -0.008324045248445284   -0.0001003453084298959
-0.0020208245956978635   -0.00556779644181045   -4.41893717047574e-05
-0.0034972454854787214   -0.005568831582813928   -8.200928996623591e-05
-0.00334215163931668   -0.008330901239921017   -0.00014620257300031224
-0.0035150937126987424   -0.005549641997568256   -7.081171952444358e-05
-0.001898471649419478   -0.008324045248445284   -0.0001003453084298959
-0.0033589814556659924   -0.008313701565698118   -0.00013340720000323735
-0.0035150937126987424   -0.005549641997568256   -7.081171952444358e-05
-0.00334215163931668   -0.008330901239921017   -0.00014620257300031224
-0.001898471649419478   -0.008324045248445284   -0.0001003453084298959
-0.0035150937126987424   -0.005549641997568256   -7.081171952444358e-05
-0.0020410270046600687   -0.005545099452082442   -3.2628221388522525e-05
-0.0020208245956978635   -0.00556779644181045   -4.41893717047574e-05
-0.001898471649419478   -0.008324045248445284   -0.0001003453084298959
-0.0035150937126987424   -0.005549641997568256   -7.081171952444358e-05
-0.0020208245956978635   -0.00556779644181045   -4.41893717047574e-05
-0.00334215163931668   -0.008330901239921017   -0.00014620257300031224
-0.001898471649419478   -0.008324045248445284   -0.0001003453084298959
-0.0020410270046600687   -0.005545099452082442   -3.2628221388522525e-05
-0.0033589814556659924   -0.008313701565698118   -0.00013340720000323735
-0.0019181840862323204   -0.008304098897137546   -8.92377615381237e-05
-0.0020410270046600687   -0.005545099452082442   -3.2628221388522525e-05
-0.0035150937126987424   -0.005549641997568256   -7.081171952444358e-05
-0.0033589814556659924   -0.008313701565698118   -0.00013340720000323735
-0.0035327685696131383   -0.005530080563480764   -5.8694770213357154e-05
-0.0019181840862323204   -0.008304098897137546   -8.92377615381237e-05
-0.0033758723806829732   -0.008298141295318395   -0.00011926409619999518
-0.0035327685696131383   -0.005530080563480764   -5.8694770213357154e-05
-0.0033589814556659924   -0.008313701565698118   -0.00013340720000323735
-0.0019181840862323204   -0.008304098897137546   -8.92377615381237e-05
-0.0035327685696131383   -0.005530080563480764   -5.8694770213357154e-05
-0.0020621161354897723   -0.005522066620328064   -1.976763600795915e-05
-0.0020410270046600687   -0.005545099452082442   -3.2628221388522525e-05
-0.0019181840862323204   -0.008304098897137546   -8.92377615381237e-05
-0.0035327685696131383   -0.005530080563480764   -5.8694770213357154e-05
-0.0020410270046600687   -0.005545099452082442   -3.2628221388522525e-05
-0.0033589814556659924   -0.008313701565698118   -0.00013340720000323735
-0.0033241281119367524   -0.00834969895887958   -0.00015758320898023414
-0.003478516157001471   -0.0055877735792279485   -9.224141834686466e-05
-0.004813045411650037   -0.00832293756800414   -0.00018909940964947114
-0.00334215163931668   -0.008330901239921017   -0.00014620257300031224
-0.003478516157001471   -0.0055877735792279485   -9.224141834686466e-05
-0.004987192971898331   -0.005578847396118763   -0.00012327136716802276
-0.004813045411650037   -0.00832293756800414   -0.00018909940964947114
-0.005005044050534665   -0.005563798540758698   -0.00011335759022479252
-0.00334215163931668   -0.008330901239921017   -0.00014620257300031224
-0.004830266232803921   -0.008308957343252186   -0.00017455204229480093
-0.005005044050534665   -0.005563798540758698   -0.00011335759022479252
-0.004813045411650037   -0.00832293756800414   -0.00018909940964947114
-0.00334215163931668   -0.008330901239921017   -0.00014620257300031224
-0.005005044050534665   -0.005563798540758698   -0.00011335759022479252
-0.0034972454854787214   -0.005568831582813928   -8.200928996623591e-05
-0.003478516157001471   -0.0055877735792279485   -9.224141834686466e-05
-0.00334215163931668   -0.008330901239921017   -0.00014620257300031224
-0.005005044050534665   -0.005563798540758698   -0.00011335759022479252
-0.003478516157001471   -0.0055877735792279485   -9.224141834686466e-05
-0.004813045411650037   -0.00832293756800414   -0.00018909940964947114
-0.00334215163931668   -0.008330901239921017   -0.00014620257300031224
-0.0034972454854787214   -0.005568831582813928   -8.200928996623591e-05
-0.004830266232803921   -0.008308957343252186   -0.00017455204229480093
-0.0033589814556659924   -0.008313701565698118   -0.00013340720000323735
-0.0034972454854787214   -0.005568831582813928   -8.200928996623591e-05
-0.005005044050534665   -0.005563798540758698   -0.00011335759022479252
-0.004830266232803921   -0.008308957343252186   -0.00017455204229480093
-0.0050200466469241195   -0.005547957966349157   -0.00010273117494877133
-0.0033589814556659924   -0.008313701565698118   -0.00013340720000323735
-0.004843094369456507   -0.008296070036865714   -0.0001588089802229761
-0.0050200466469241195   -0.005547957966349157   -0.00010273117494877133
-0.004830266232803921   -0.008308957343252186   -0.00017455204229480093
-0.0033589814556659924   -0.008313701565698118   -0.00013340720000323735
-0.0050200466469241195   -0.005547957966349157   -0.00010273117494877133
-0.0035150937126987424   -0.005549641997568256   -7.081171952444358e-05
-0.0034972454854787214   -0.005568831582813928   -8.200928996623591e-05
-0.0033589814556659924   -0.008313701565698118   -0.00013340720000323735
-0.0050200466469241195   -0.005547957966349157   -0.00010273117494877133
-0.0034972454854787214   -0.005568831582813928   -8.200928996623591e-05
-0.004830266232803921   -0.008308957343252186   -0.00017455204229480093
-0.0033589814556659924   -0.008313701565698118   -0.00013340720000323735
-0.0035150937126987424   -0.005549641997568256   -7.081171952444358e-05
-0.004843094369456507   -0.008296070036865714   -0.0001588089802229761
-0.0033758723806829732   -0.008298141295318395   -0.00011926409619999518
-0.0035150937126987424   -0.005549641997568256   -7.081171952444358e-05
-0.0050200466469241195   -0.005547957966349157   -0.00010273117494877133
-0.004843094369456507   -0.008296070036865714   -0.0001588089802229761
-0.005034219282742301   -0.00553178263333328   -9.110750711879664e-05
-0.0033758723806829732   -0.008298141295318395   -0.00011926409619999518
-0.004855876534023874   -0.008284931176904339   -0.00014157093266818616
-0.005034219282742301   -0.00553178263333328   -9.110750711879664e-05
-0.004843094369456507   -0.008296070036865714   -0.0001588089802229761
-0.0033758723806829732   -0.008298141295318395   -0.00011926409619999518
-0.005034219282742301   -0.00553178263333328   -9.110750711879664e-05
-0.0035327685696131383   -0.005530080563480764   -5.8694770213357154e-05
-0.0035150937126987424   -0.005549641997568256   -7.081171952444358e-05
-0.0033758723806829732   -0.008298141295318395   -0.00011926409619999518
-0.005034219282742301   -0.00553178263333328   -9.110750711879664e-05
-0.0035150937126987424   -0.005549641997568256   -7.081171952444358e-05
-0.004843094369456507   -0.008296070036865714   -0.0001588089802229761
-0.004813045411650037   -0.00832293756800414   -0.00018909940964947114
-0.004987192971898331   -0.005578847396118763   -0.00012327136716802276
-0.006393308985980355   -0.008290822361670995   -0.00021181893446820603
-0.004830266232803921   -0.008308957343252186   -0.00017455204229480093
-0.004987192971898331   -0.005578847396118763   -0.00012327136716802276
-0.006570168073922116   -0.005563789256521563   -0.00014535461300642862
-0.006393308985980355   -0.008290822361670995   -0.00021181893446820603
-0.006580608890008815   -0.005551539407720133   -0.00013752608529514466
-0.004830266232803921   -0.008308957343252186   -0.00017455204229480093
-0.006394631255409602   -0.008280040340801391   -0.0001953323049606903
-0.006580608890008815   -0.005551539407720133   -0.00013752608529514466
-0.006393308985980355   -0.008290822361670995   -0.00021181893446820603
-0.004830266232803921   -0.008308957343252186   -0.00017455204229480093
-0.006580608890008815   -0.005551539407720133   -0.00013752608529514466
-0.005005044050534665   -0.005563798540758698   -0.00011335759022479252
-0.004987192971898331   -0.005578847396118763   -0.00012327136716802276
-0.004830266232803921   -0.008308957343252186   -0.00017455204229480093
-0.006580608890008815   -0.005551539407720133   -0.00013752608529514466
-0.004987192971898331   -0.005578847396118763   -0.00012327136716802276
-0.006393308985980355   -0.008290822361670995   -0.00021181893446820603
-0.004830266232803921   -0.008308957343252186   -0.00017455204229480093
-0.005005044050534665   -0.005563798540758698   -0.00011335759022479252
-0.006394631255409602   -0.008280040340801391   -0.0001953323049606903
-0.004843094369456507   -0.008296070036865714   -0.0001588089802229761
-0.005005044050534665   -0.005563798540758698   -0.00011335759022479252
-0.006580608890008815   -0.005551539407720133   -0.00013752608529514466
-0.006394631255409602   -0.008280040340801391   -0.0001953323049606903
-0.0065901562499485035   -0.005537518003742256   -0.00012800450000286407
-0.004843094369456507   -0.008296070036865714   -0.0001588089802229761
-0.0063962087630326184   -0.008269373727739475   -0.000176454511754632
-0.0065901562499485035   -0.005537518003742256   -0.00012800450000286407
-0.006394631255409602   -0.008280040340801391   -0.0001953323049606903
-0.004843094369456507   -0.008296070036865714   -0.0001588089802229761
-0.0065901562499485035   -0.005537518003742256   -0.00012800450000286407
-0.0050200466469241195   -0.005547957966349157   -0.00010273117494877133
-0.005005044050534665   -0.005563798540758698   -0.00011335759022479252
-0.004843094369456507   -0.008296070036865714   -0.0001588089802229761
-0.0065901562499485035   -0.005537518003742256   -0.00012800450000286407
-0.005005044050534665   -0.005563798540758698   -0.00011335759022479252
-0.006394631255409602   -0.008280040340801391   -0.0001953323049606903
-0.004843094369456507   -0.008296070036865714   -0.0001588089802229761
-0.0050200466469241195   -0.005547957966349157   -0.00010273117494877133
-0.0063962087630326184   -0.008269373727739475   -0.000176454511754632
-0.004855876534023874   -0.008284931176904339   -0.00014157093266818616
-0.0050200466469241195   -0.005547957966349157   -0.00010273117494877133
-0.0065901562499485035   -0.005537518003742256   -0.00012800450000286407
-0.0063962087630326184   -0.008269373727739475   -0.000176454511754632
-0.006594049722412765   -0.005525129432487676   -0.00011718233661406115
-0.004855876534023874   -0.008284931176904339   -0.00014157093266818616
-0.00638854393279669   -0.008263453801035731   -0.00015545993950201892
-0.006594049722412765   -0.005525129432487676   -0.00011718233661406115
-0.0063962087630326184   -0.008269373727739475   -0.000176454511754632
-0.004855876534023874   -0.008284931176904339   -0.00014157093266818616
-0.006594049722412765   -0.005525129432487676   -0.00011718233661406115
-0.005034219282742301   -0.00553178263333328   -9.110750711879664e-05
-0.0050200466469241195   -0.005547957966349157   -0.00010273117494877133
-0.004855876534023874   -0.008284931176904339   -0.00014157093266818616
-0.006594049722412765   -0.005525129432487676   -0.00011718233661406115
-0.0050200466469241195   -0.005547957966349157   -0.00010273117494877133
-0.0063962087630326184   -0.008269373727739475   -0.000176454511754632
0.0010812584105981849   -0.005621493173535107   3.112446746730517e-05
0.0007643583846279875   -0.0028360766264914163   3.4239234441964243e-05
-0.0005073954934752829   -0.005596253350365085   -1.2776515673692445e-05
0.0010484131410367747   -0.005590340366163808   4.415013531466278e-05
0.0007643583846279875   -0.0028360766264914163   3.4239234441964243e-05
-0.0007252955351510297   -0.0028014187494104195   2.0891321273464975e-05
-0.0005073954934752829   -0.005596253350365085   -1.2776515673692445e-05
-0.0007467599198500624   -0.002789634779766012   3.652707736975863e-05
0.0010484131410367747   -0.005590340366163808   4.415013531466278e-05
-0.0005286892892794008   -0.005570808274467936   -1.835419273180527e-06
-0.0007467599198500624   -0.002789634779766012   3.652707736975863e-05
-0.0005073954934752829   -0.005596253350365085   -1.2776515673692445e-05
0.0010484131410367747   -0.005590340366163808   4.415013531466278e-05
-0.0007467599198500624   -0.002789634779766012   3.652707736975863e-05
0.0006971377667759049   -0.0028024978245906134   7.252496059404772e-05
0.0007643583846279875   -0.0028360766264914163   3.4239234441964243e-05
0.0010484131410367747   -0.005590340366163808   4.415013531466278e-05
-0.0007467599198500624   -0.002789634779766012   3.652707736975863e-05
0.0007643583846279875   -0.0028360766264914163   3.4239234441964243e-05
-0.0005073954934752829   -0.005596253350365085   -1.2776515673692445e-05
0.0010484131410367747   -0.005590340366163808   4.415013531466278e-05
0.0006971377667759049   -0.0028024978245906134   7.252496059404772e-05
-0.0005286892892794008   -0.005570808274467936   -1.835419273180527e-06
0.0010111365976544404   -0.005559763214802871   6.339556514760256e-05
0.0006971377667759049   -0.0028024978245906134   7.252496059404772e-05
-0.0007467599198500624   -0.002789634779766012   3.652707736975863e-05
-0.0005286892892794008   -0.005570808274467936   -1.835419273180527e-06
-0.0007754569600394984   -0.0027669988559472117   5.565372200071621e-05
0.0010111365976544404   -0.005559763214802871   6.339556514760256e-05
-0.0005537142081794484   -0.005544103033356939   1.1143431469980573e-05
-0.0007754569600394984   -0.0027669988559472117   5.565372200071621e-05
-0.0005286892892794008   -0.005570808274467936   -1.835419273180527e-06
0.0010111365976544404   -0.005559763214802871   6.339556514760256e-05
-0.0007754569600394984   -0.0027669988559472117   5.565372200071621e-05
0.000657992589488508   -0.002775811261874438   0.00010082471550707982
0.0006971377667759049   -0.0028024978245906134   7.252496059404772e-05
0.0010111365976544404   -0.005559763214802871   6.339556514760256e-05
-0.0007754569600394984   -0.0027669988559472117   5.565372200071621e-05
0.0006971377667759049   -0.0028024978245906134   7.252496059404772e-05
-0.0005286892892794008   -0.005570808274467936   -1.835419273180527e-06
0.0010111365976544404   -0.005559763214802871   6.339556514760256e-05
0.000657992589488508   -0.002775811261874438   0.00010082471550707982
-0.0005537142081794484   -0.005544103033356939   1.1143431469980573e-05
0.0009655316413689976   -0.005522060861308712   8.466577606934341e-05
0.000657992589488508   -0.002775811261874438   0.00010082471550707982
-0.0007754569600394984   -0.0027669988559472117   5.565372200071621e-05
-0.0005537142081794484   -0.005544103033356939   1.1143431469980573e-05
-0.0007997978519440781   -0.0027429565929939096   7.24612356815797e-05
0.0009655316413689976   -0.005522060861308712   8.466577606934341e-05
-0.0005797351095892122   -0.005515883151921662   2.6151192163963897e-05
-0.0007997978519440781   -0.0027429565929939096   7.24612356815797e-05
-0.0005537142081794484   -0.005544103033356939   1.1143431469980573e-05
0.0009655316413689976   -0.005522060861308712   8.466577606934341e-05
-0.0007997978519440781   -0.0027429565929939096   7.24612356815797e-05
0.0006074750038484413   -0.002734296222582179   0.00013335645387909146
0.000657992589488508   -0.002775811261874438   0.00010082471550707982
0.0009655316413689976   -0.005522060861308712   8.466577606934341e-05
-0.0007997978519440781   -0.0027429565929939096   7.24612356815797e-05
0.000657992589488508   -0.002775811261874438   0.00010082471550707982
-0.0005537142081794484   -0.005544103033356939   1.1143431469980573e-05
-0.0005073954934752829   -0.005596253350365085   -1.2776515673692445e-05
-0.0007252955351510297   -0.0028014187494104195   2.0891321273464975e-05
-0.002001349693176681   -0.005589672539530724   -5.4657030160770225e-05
-0.0005286892892794008   -0.005570808274467936   -1.835419273180527e-06
-0.0007252955351510297   -0.0028014187494104195   2.0891321273464975e-05
-0.0021369524634385893   -0.002844340434340693   -1.1319275933601465e-05
-0.002001349693176681   -0.005589672539530724   -5.4657030160770225e-05
-0.00215714885465774   -0.0028251588429007795   -6.755141216325649e-08
-0.0005286892892794008   -0.005570808274467936   -1.835419273180527e-06
-0.0020208245956978635   -0.00556779644181045   -4.41893717047574e-05
-0.00215714885465774   -0.0028251588429007795   -6.755141216325649e-08
-0.002001349693176681   -0.005589672539530724   -5.4657030160770225e-05
-0.0005286892892794008   -0.005570808274467936   -1.835419273180527e-06
-0.00215714885465774   -0.0028251588429007795   -6.755141216325649e-08
-0.0007467599198500624   -0.002789634779766012   3.652707736975863e-05
-0.0007252955351510297   -0.0028014187494104195   2.0891321273464975e-05
-0.0005286892892794008   -0.005570808274467936   -1.835419273180527e-06
-0.00215714885465774   -0.0028251588429007795   -6.755141216325649e-08
-0.0007252955351510297   -0.0028014187494104195   2.0891321273464975e-05
-0.002001349693176681   -0.005589672539530724   -5.4657030160770225e-05
-0.0005286892892794008   -0.005570808274467936   -1.835419273180527e-06
-0.0007467599198500624   -0.002789634779766012   3.652707736975863e-05
-0.0020208245956978635   -0.00556779644181045   -4.41893717047574e-05
-0.0005537142081794484   -0.005544103033356939   1.1143431469980573e-05
-0.0007467599198500624   -0.002789634779766012   3.652707736975863e-05
-0.00215714885465774   -0.0028251588429007795   -6.755141216325649e-08
-0.0020208245956978635   -0.00556779644181045   -4.41893717047574e-05
-0.0021785234384767292   -0.0028032015194881773   1.1958254042001487e-05
-0.0005537142081794484   -0.005544103033356939   1.1143431469980573e-05
-0.0020410270046600687   -0.005545099452082442   -3.2628221388522525e-05
-0.0021785234384767292   -0.0028032015194881773   1.1958254042001487e-05
-0.0020208245956978635   -0.00556779644181045   -4.41893717047574e-05
-0.0005537142081794484   -0.005544103033356939   1.1143431469980573e-05
-0.0021785234384767292   -0.0028032015194881773   1.1958254042001487e-05
-0.0007754569600394984   -0.0027669988559472117   5.565372200071621e-05
-0.0007467599198500624   -0.002789634779766012   3.652707736975863e-05
-0.0005537142081794484   -0.005544103033356939   1.1143431469980573e-05
-0.0021785234384767292   -0.0028032015194881773   1.1958254042001487e-05
-0.0007467599198500624   -0.002789634779766012   3.652707736975863e-05
-0.0020208245956978635   -0.00556779644181045   -4.41893717047574e-05
-0.0005537142081794484   -0.005544103033356939   1.1143431469980573e-05
-0.0007754569600394984   -0.0027669988559472117   5.565372200071621e-05
-0.0020410270046600687   -0.005545099452082442   -3.2628221388522525e-05
-0.0005797351095892122   -0.005515883151921662   2.6151192163963897e-05
-0.0007754569600394984   -0.0027669988559472117   5.565372200071621e-05
-0.0021785234384767292   -0.0028032015194881773   1.1958254042001487e-05
-0.0020410270046600687   -0.005545099452082442   -3.2628221388522525e-05
-0.0021990342786280944   -0.002779132764820954   2.5290990680975243e-05
-0.0005797351095892122   -0.005515883151921662   2.6151192163963897e-05
-0.0020621161354897723   -0.005522066620328064   -1.976763600795915e-05
-0.0021990342786280944   -0.002779132764820954   2.5290990680975243e-05
-0.0020410270046600687   -0.005545099452082442   -3.2628221388522525e-05
-0.0005797351095892122   -0.005515883151921662   2.6151192163963897e-05
-0.0021990342786280944   -0.002779132764820954   2.5290990680975243e-05
-0.0007997978519440781   -0.0027429565929939096   7.24612356815797e-05
-0.0007754569600394984   -0.0027669988559472117   5.565372200071621e-05
-0.0005797351095892122   -0.005515883151921662   2.6151192163963897e-05
-0.0021990342786280944   -0.002779132764820954   2.5290990680975243e-05
-0.0007754569600394984   -0.0027669988559472117   5.565372200071621e-05
-0.0020410270046600687   -0.005545099452082442   -3.2628221388522525e-05
-0.002001349693176681   -0.005589672539530724   -5.4657030160770225e-05
-0.0021369524634385893   -0.002844340434340693   -1.1319275933601465e-05
-0.003478516157001471   -0.0055877735792279485   -9.224141834686466e-05
-0.0020208245956978635   -0.00556779644181045   -4.41893717047574e-05
-0.0021369524634385893   -0.002844340434340693   -1.1319275933601465e-05
-0.003580566962780981   -0.0028779122440612983   -4.77714032661005e-05
-0.003478516157001471   -0.0055877735792279485   -9.224141834686466e-05
-0.0035988959786486825   -0.0028581320354588717   -3.890711238734064e-05
-0.0020208245956978635   -0.00556779644181045   -4.41893717047574e-05
-0.0034972454854787214   -0.005568831582813928   -8.200928996623591e-05
-0.0035988959786486825   -0.0028581320354588717   -3.890711238734064e-05
-0.003478516157001471   -0.0055877735792279485   -9.224141834686466e-05
-0.0020208245956978635   -0.00556779644181045   -4.41893717047574e-05
-0.0035988959786486825   -0.0028581320354588717   -3.890711238734064e-05
-0.00215714885465774   -0.0028251588429007795   -6.755141216325649e-08
-0.0021369524634385893   -0.002844340434340693   -1.1319275933601465e-05
-0.0020208245956978635   -0.00556779644181045   -4.41893717047574e-05
-0.0035988959786486825   -0.0028581320354588717   -3.890711238734064e-05
-0.0021369524634385893   -0.002844340434340693   -1.1319275933601465e-05
-0.003478516157001471   -0.0055877735792279485   -9.224141834686466e-05
-0.0020208245956978635   -0.00556779644181045   -4.41893717047574e-05
-0.00215714885465774   -0.0028251588429007795   -6.755141216325649e-08
-0.0034972454854787214   -0.005568831582813928   -8.200928996623591e-05
-0.0020410270046600687   -0.005545099452082442   -3.2628221388522525e-05
-0.00215714885465774   -0.0028251588429007795   -6.755141216325649e-08
-0.0035988959786486825   -0.0028581320354588717   -3.890711238734064e-05
-0.0034972454854787214   -0.005568831582813928   -8.200928996623591e-05
-0.0036165732005261422   -0.002837108187286615   -2.998722397371873e-05
-0.0020410270046600687   -0.005545099452082442   -3.2628221388522525e-05
-0.0035150937126987424   -0.005549641997568256   -7.081171952444358e-05
-0.0036165732005261422   -0.002837108187286615   -2.998722397371873e-05
-0.0034972454854787214   -0.005568831582813928   -8.200928996623591e-05
-0.0020410270046600687   -0.005545099452082442   -3.2628221388522525e-05
-0.0036165732005261422   -0.002837108187286615   -2.998722397371873e-05
-0.0021785234384767292   -0.0028032015194881773   1.1958254042001487e-05
-0.00215714885465774   -0.0028251588429007795   -6.755141216325649e-08
-0.0020410270046600687   -0.005545099452082442   -3.2628221388522525e-05
-0.0036165732005261422   -0.002837108187286615   -2.998722397371873e-05
-0.00215714885465774   -0.0028251588429007795   -6.755141216325649e-08
-0.0034972454854787214   -0.005568831582813928   -8.200928996623591e-05
-0.0020410270046600687   -0.005545099452082442   -3.2628221388522525e-05
-0.0021785234384767292   -0.0028032015194881773   1.1958254042001487e-05
-0.0035150937126987424   -0.005549641997568256   -7.081171952444358e-05
-0.0020621161354897723   -0.005522066620328064   -1.976763600795915e-05
-0.0021785234384767292   -0.0028032015194881773   1.1958254042001487e-05
-0.0036165732005261422   -0.002837108187286615   -2.998722397371873e-05
-0.0035150937126987424   -0.005549641997568256   -7.081171952444358e-05
-0.00363297638422572   -0.0028142419467021003   -2.0186706748891266e-05
-0.0020621161354897723   -0.005522066620328064   -1.976763600795915e-05
-0.0035327685696131383   -0.005530080563480764   -5.8694770213357154e-05
-0.00363297638422572   -0.0028142419467021003   -2.0186706748891266e-05
-0.0035150937126987424   -0.005549641997568256   -7.081171952444358e-05
-0.0020621161354897723   -0.005522066620328064   -1.976763600795915e-05
-0.00363297638422572   -0.0028142419467021003   -2.0186706748891266e-05
-0.0021990342786280944   -0.002779132764820954   2.5290990680975243e-05
-0.0021785234384767292   -0.0028032015194881773   1.1958254042001487e-05
-0.0020621161354897723   -0.005522066620328064   -1.976763600795915e-05
-0.00363297638422572   -0.0028142419467021003   -2.0186706748891266e-05
-0.0021785234384767292   -0.0028032015194881773   1.1958254042001487e-05
-0.0035150937126987424   -0.005549641997568256   -7.081171952444358e-05
-0.003478516157001471   -0.0055877735792279485   -9.224141834686466e-05
-0.003580566962780981   -0.0028779122440612983   -4.77714032661005e-05
-0.004987192971898331   -0.005578847396118763   -0.00012327136716802276
-0.0034972454854787214   -0.005568831582813928   -8.200928996623591e-05
-0.003580566962780981   -0.0028779122440612983   -4.77714032661005e-05
-0.005074968450860301   -0.0028918264516124893   -8.124563209802088e-05
-0.004987192971898331   -0.005578847396118763   -0.00012327136716802276
-0.005091523019074148   -0.0028742902436827205   -7.466349649108044e-05
-0.0034972454854787214   -0.005568831582813928   -8.200928996623591e-05
-0.005005044050534665   -0.005563798540758698   -0.00011335759022479252
-0.005091523019074148   -0.0028742902436827205   -7.466349649108044e-05
-0.004987192971898331   -0.005578847396118763   -0.00012327136716802276
-0.0034972454854787214   -0.005568831582813928   -8.200928996623591e-05
-0.005091523019074148   -0.0028742902436827205   -7.466349649108044e-05
-0.0035988959786486825   -0.0028581320354588717   -3.890711238734064e-05
-0.003580566962780981   -0.0028779122440612983   -4.77714032661005e-05
-0.0034972454854787214   -0.005568831582813928   -8.200928996623591e-05
-0.005091523019074148   -0.0028742902436827205   -7.466349649108044e-05
-0.003580566962780981   -0.0028779122440612983   -4.77714032661005e-05
-0.004987192971898331   -0.005578847396118763   -0.00012327136716802276
-0.0034972454854787214   -0.005568831582813928   -8.200928996623591e-05
-0.0035988959786486825   -0.0028581320354588717   -3.890711238734064e-05
-0.005005044050534665   -0.005563798540758698   -0.00011335759022479252
-0.0035150937126987424   -0.005549641997568256   -7.081171952444358e-05
-0.0035988959786486825   -0.0028581320354588717   -3.890711238734064e-05
-0.005091523019074148   -0.0028742902436827205   -7.466349649108044e-05
-0.005005044050534665   -0.005563798540758698   -0.00011335759022479252
-0.005106283317769065   -0.002855010205993623   -6.81914511443822e-05
-0.0035150937126987424   -0.005549641997568256   -7.081171952444358e-05
-0.0050200466469241195   -0.005547957966349157   -0.00010273117494877133
-0.005106283317769065   -0.002855010205993623   -6.81914511443822e-05
-0.005005044050534665   -0.005563798540758698   -0.00011335759022479252
-0.0035150937126987424   -0.005549641997568256   -7.081171952444358e-05
-0.005106283317769065   -0.002855010205993623   -6.81914511443822e-05
-0.0036165732005261422   -0.002837108187286615   -2.998722397371873e-05
-0.0035988959786486825   -0.0028581320354588717   -3.890711238734064e-05
-0.0035150937126987424   -0.005549641997568256   -7.081171952444358e-05
-0.005106283317769065   -0.002855010205993623   -6.81914511443822e-05
-0.0035988959786486825   -0.0028581320354588717   -3.890711238734064e-05
-0.005005044050534665   -0.005563798540758698   -0.00011335759022479252
-0.0035150937126987424   -0.005549641997568256   -7.081171952444358e-05
-0.0036165732005261422   -0.002837108187286615   -2.998722397371873e-05
-0.0050200466469241195   -0.005547957966349157   -0.00010273117494877133
-0.0035327685696131383   -0.005530080563480764   -5.8694770213357154e-05
-0.0036165732005261422   -0.002837108187286615   -2.998722397371873e-05
-0.005106283317769065   -0.002855010205993623   -6.81914511443822e-05
-0.0050200466469241195   -0.005547957966349157   -0.00010273117494877133
-0.005119681965947678   -0.0028343984528804056   -6.143659618987712e-05
-0.0035327685696131383   -0.005530080563480764   -5.8694770213357154e-05
-0.005034219282742301   -0.00553178263333328   -9.110750711879664e-05
-0.005119681965947678   -0.0028343984528804056   -6.143659618987712e-05
-0.0050200466469241195   -0.005547957966349157   -0.00010273117494877133
-0.0035327685696131383   -0.005530080563480764   -5.8694770213357154e-05
-0.005119681965947678   -0.0028343984528804056   -6.143659618987712e-05
-0.00363297638422572   -0.0028142419467021003   -2.0186706748891266e-05
-0.0036165732005261422   -0.002837108187286615   -2.998722397371873e-05
-0.0035327685696131383   -0.005530080563480764   -5.8694770213357154e-05
-0.005119681965947678   -0.0028343984528804056   -6.143659618987712e-05
-0.0036165732005261422   -0.002837108187286615   -2.998722397371873e-05
-0.0050200466469241195   -0.005547957966349157   -0.00010273117494877133
-0.004987192971898331   -0.005578847396118763   -0.00012327136716802276
-0.005074968450860301   -0.0028918264516124893   -8.124563209802088e-05
-0.006570168073922116   -0.005563789256521563   -0.00014535461300642862
-0.005005044050534665   -0.005563798540758698   -0.00011335759022479252
-0.005074968450860301   -0.0028918264516124893   -8.124563209802088e-05
-0.00662509686426416   -0.0028931590896319227   -0.00010843595082239909
-0.006570168073922116   -0.005563789256521563   -0.00014535461300642862
-0.006639119898396461   -0.002876242222217858   -0.00010537779070213652
-0.005005044050534665   -0.005563798540758698   -0.00011335759022479252
-0.006580608890008815   -0.005551539407720133   -0.00013752608529514466
-0.006639119898396461   -0.002876242222217858   -0.00010537779070213652
-0.006570168073922116   -0.005563789256521563   -0.00014535461300642862
-0.005005044050534665   -0.005563798540758698   -0.00011335759022479252
-0.006639119898396461   -0.002876242222217858   -0.00010537779070213652
-0.005091523019074148   -0.0028742902436827205   -7.466349649108044e-05
-0.005074968450860301   -0.0028918264516124893   -8.124563209802088e-05
-0.005005044050534665   -0.005563798540758698   -0.00011335759022479252
-0.006639119898396461   -0.002876242222217858   -0.00010537779070213652
-0.005074968450860301   -0.0028918264516124893   -8.124563209802088e-05
-0.006570168073922116   -0.005563789256521563   -0.00014535461300642862
-0.005005044050534665   -0.005563798540758698   -0.00011335759022479252
-0.005091523019074148   -0.0028742902436827205   -7.466349649108044e-05
-0.006580608890008815   -0.005551539407720133   -0.00013752608529514466
-0.0050200466469241195   -0.005547957966349157   -0.00010273117494877133
-0.005091523019074148   -0.0028742902436827205   -7.466349649108044e-05
-0.006639119898396461   -0.002876242222217858   -0.00010537779070213652
-0.006580608890008815   -0.005551539407720133   -0.00013752608529514466
-0.006651683560765008   -0.0028577694008513487   -0.00010175804039998727
-0.0050200466469241195   -0.005547957966349157   -0.00010273117494877133
-0.0065901562499485035   -0.005537518003742256   -0.00012800450000286407
-0.006651683560765008   -0.0028577694008513487   -0.00010175804039998727
-0.006580608890008815   -0.005551539407720133   -0.00013752608529514466
-0.0050200466469241195   -0.005547957966349157   -0.00010273117494877133
-0.006651683560765008   -0.0028577694008513487   -0.00010175804039998727
-0.005106283317769065   -0.002855010205993623   -6.81914511443822e-05
-0.005091523019074148   -0.0028742902436827205   -7.466349649108044e-05
-0.0050200466469241195   -0.005547957966349157   -0.00010273117494877133
-0.006651683560765008   -0.0028577694008513487   -0.00010175804039998727
-0.005091523019074148   -0.0028742902436827205   -7.466349649108044e-05
-0.006580608890008815   -0.005551539407720133   -0.00013752608529514466
-0.0050200466469241195   -0.005547957966349157   -0.00010273117494877133
-0.005106283317769065   -0.002855010205993623   -6.81914511443822e-05
-0.0065901562499485035   -0.005537518003742256   -0.00012800450000286407
-0.005034219282742301   -0.00553178263333328   -9.110750711879664e-05
-0.005106283317769065   -0.002855010205993623   -6.81914511443822e-05
-0.006651683560765008   -0.0028577694008513487   -0.00010175804039998727
-0.0065901562499485035   -0.005537518003742256   -0.00012800450000286407
-0.006661990105621715   -0.0028382430732251528   -9.824364387856249e-05
-0.005034219282742301   -0.00553178263333328   -9.110750711879664e-05
-0.006594049722412765   -0.005525129432487676   -0.00011718233661406115
-0.006661990105621715   -0.0028382430732251528   -9.824364387856249e-05
-0.0065901562499485035   -0.005537518003742256   -0.00012800450000286407
-0.005034219282742301   -0.00553178263333328   -9.110750711879664e-05
-0.006661990105621715   -0.0028382430732251528   -9.824364387856249e-05
-0.005119681965947678   -0.0028343984528804056   -6.143659618987712e-05
-0.005106283317769065   -0.002855010205993623   -6.81914511443822e-05
-0.005034219282742301   -0.00553178263333328   -9.110750711879664e-05
-0.006661990105621715   -0.0028382430732251528   -9.824364387856249e-05
-0.005106283317769065   -0.002855010205993623   -6.81914511443822e-05
-0.0065901562499485035   -0.005537518003742256   -0.00012800450000286407
0.0007643583846279875   -0.0028360766264914163   3.4239234441964243e-05
0.0   0.0   0.0
-0.0007252955351510297   -0.0028014187494104195   2.0891321273464975e-05
0.0006971377667759049   -0.0028024978245906134   7.252496059404772e-05
0.0   0.0   0.0
-0.000902019325343892   -0.0002430600779953338   -4.200908787916097e-06
-0.0007252955351510297   -0.0028014187494104195   2.0891321273464975e-05
-0.0009562195891642054   -0.00019178147862779966   2.8330741195655668e-05
0.0006971377667759049   -0.0028024978245906134   7.252496059404772e-05
-0.0007467599198500624   -0.002789634779766012   3.652707736975863e-05
-0.0009562195891642054   -0.00019178147862779966   2.8330741195655668e-05
-0.0007252955351510297   -0.0028014187494104195   2.0891321273464975e-05
0.0006971377667759049   -0.0028024978245906134   7.252496059404772e-05
-0.0009562195891642054   -0.00019178147862779966   2.8330741195655668e-05
0.0   0.0   0.0
0.0   0.0   0.0
0.0006971377667759049   -0.0028024978245906134   7.252496059404772e-05
-0.0009562195891642054   -0.00019178147862779966   2.8330741195655668e-05
0.0   0.0   0.0
-0.0007252955351510297   -0.0028014187494104195   2.0891321273464975e-05
0.0006971377667759049   -0.0028024978245906134   7.252496059404772e-05
0.0   0.0   0.0
-0.0007467599198500624   -0.002789634779766012   3.652707736975863e-05
0.000657992589488508   -0.002775811261874438   0.00010082471550707982
0.0   0.0   0.0
-0.0009562195891642054   -0.00019178147862779966   2.8330741195655668e-05
-0.0007467599198500624   -0.002789634779766012   3.652707736975863e-05
-0.000990668150408383   -0.00016745455501988407   4.759037890857715e-05
0.000657992589488508   -0.002775811261874438   0.00010082471550707982
-0.0007754569600394984   -0.0027669988559472117   5.565372200071621e-05
-0.000990668150408383   -0.00016745455501988407   4.759037890857715e-05
-0.0007467599198500624   -0.002789634779766012   3.652707736975863e-05
0.000657992589488508   -0.002775811261874438   0.00010082471550707982
-0.000990668150408383   -0.00016745455501988407   4.759037890857715e-05
0.0   0.0   0.0
0.0   0.0   0.0
0.000657992589488508   -0.002775811261874438   0.00010082471550707982
-0.000990668150408383   -0.00016745455501988407   4.759037890857715e-05
0.0   0.0   0.0
-0.0007467599198500624   -0.002789634779766012   3.652707736975863e-05
0.000657992589488508   -0.002775811261874438   0.00010082471550707982
0.0   0.0   0.0
-0.0007754569600394984   -0.0027669988559472117   5.565372200071621e-05
0.0006074750038484413   -0.002734296222582179   0.00013335645387909146
0.0   0.0   0.0
-0.000990668150408383   -0.00016745455501988407   4.759037890857715e-05
-0.0007754569600394984   -0.0027669988559472117   5.565372200071621e-05
-0.00103760943912362   -0.00013490361174720475   6.978934585976885e-05
0.0006074750038484413   -0.002734296222582179   0.00013335645387909146
-0.0007997978519440781   -0.0027429565929939096   7.24612356815797e-05
-0.00103760943912362   -0.00013490361174720475   6.978934585976885e-05
-0.0007754569600394984   -0.0027669988559472117   5.565372200071621e-05
0.0006074750038484413   -0.002734296222582179   0.00013335645387909146
-0.00103760943912362   -0.00013490361174720475   6.978934585976885e-05
0.0   0.0   0.0
0.0   0.0   0.0
0.0006074750038484413   -0.002734296222582179   0.00013335645387909146
-0.00103760943912362   -0.00013490361174720475   6.978934585976885e-05
0.0   0.0   0.0
-0.0007754569600394984   -0.0027669988559472117   5.565372200071621e-05
-0.0007252955351510297   -0.0028014187494104195   2.0891321273464975e-05
-0.000902019325343892   -0.0002430600779953338   -4.200908787916097e-06
-0.0021369524634385893   -0.002844340434340693   -1.1319275933601465e-05
-0.0007467599198500624   -0.002789634779766012   3.652707736975863e-05
-0.000902019325343892   -0.0002430600779953338   -4.200908787916097e-06
-0.0021976441949451584   -0.00032364480197469796   9.889555733831065e-07
-0.0021369524634385893   -0.002844340434340693   -1.1319275933601465e-05
-0.002226141821648413   -0.0002964346231977143   9.983553482076429e-06
-0.0007467599198500624   -0.002789634779766012   3.652707736975863e-05
-0.00215714885465774   -0.0028251588429007795   -6.755141216325649e-08
-0.002226141821648413   -0.0002964346231977143   9.983553482076429e-06
-0.0021369524634385893   -0.002844340434340693   -1.1319275933601465e-05
-0.0007467599198500624   -0.002789634779766012   3.652707736975863e-05
-0.002226141821648413   -0.0002964346231977143   9.983553482076429e-06
-0.0009562195891642054   -0.00019178147862779966   2.8330741195655668e-05
-0.000902019325343892   -0.0002430600779953338   -4.200908787916097e-06
-0.0007467599198500624   -0.002789634779766012   3.652707736975863e-05
-0.002226141821648413   -0.0002964346231977143   9.983553482076429e-06
-0.000902019325343892   -0.0002430600779953338   -4.200908787916097e-06
-0.0021369524634385893   -0.002844340434340693   -1.1319275933601465e-05
-0.0007467599198500624   -0.002789634779766012   3.652707736975863e-05
-0.0009562195891642054   -0.00019178147862779966   2.8330741195655668e-05
-0.00215714885465774   -0.0028251588429007795   -6.755141216325649e-08
-0.0007754569600394984   -0.0027669988559472117   5.565372200071621e-05
-0.0009562195891642054   -0.00019178147862779966   2.8330741195655668e-05
-0.002226141821648413   -0.0002964346231977143   9.983553482076429e-06
-0.00215714885465774   -0.0028251588429007795   -6.755141216325649e-08
-0.0022547201908762367   -0.0002643805511641706   2.5598206070686232e-05
-0.0007754569600394984   -0.0027669988559472117   5.565372200071621e-05
-0.0021785234384767292   -0.0028032015194881773   1.1958254042001487e-05
-0.0022547201908762367   -0.0002643805511641706   2.5598206070686232e-05
-0.00215714885465774   -0.0028251588429007795   -6.755141216325649e-08
-0.0007754569600394984   -0.0027669988559472117   5.565372200071621e-05
-0.0022547201908762367   -0.0002643805511641706   2.5598206070686232e-05
-0.000990668150408383   -0.00016745455501988407   4.759037890857715e-05
-0.0009562195891642054   -0.00019178147862779966   2.8330741195655668e-05
-0.0007754569600394984   -0.0027669988559472117   5.565372200071621e-05
-0.0022547201908762367   -0.0002643805511641706   2.5598206070686232e-05
-0.0009562195891642054   -0.00019178147862779966   2.8330741195655668e-05
-0.00215714885465774   -0.0028251588429007795   -6.755141216325649e-08
-0.0007754569600394984   -0.0027669988559472117   5.565372200071621e-05
-0.000990668150408383   -0.00016745455501988407   4.759037890857715e-05
-0.0021785234384767292   -0.0028032015194881773   1.1958254042001487e-05
-0.0007997978519440781   -0.0027429565929939096   7.24612356815797e-05
-0.000990668150408383   -0.00016745455501988407   4.759037890857715e-05
-0.0022547201908762367   -0.0002643805511641706   2.5598206070686232e-05
-0.0021785234384767292   -0.0028032015194881773   1.1958254042001487e-05
-0.002287148969600725   -0.00022682709132358666   4.085956097540125e-05
-0.0007997978519440781   -0.0027429565929939096   7.24612356815797e-05
-0.0021990342786280944   -0.002779132764820954   2.5290990680975243e-05
-0.002287148969600725   -0.00022682709132358666   4.085956097540125e-05
-0.0021785234384767292   -0.0028032015194881773   1.1958254042001487e-05
-0.0007997978519440781   -0.0027429565929939096   7.24612356815797e-05
-0.002287148969600725   -0.00022682709132358666   4.085956097540125e-05
-0.00103760943912362   -0.00013490361174720475   6.978934585976885e-05
-0.000990668150408383   -0.00016745455501988407   4.759037890857715e-05
-0.0007997978519440781   -0.0027429565929939096   7.24612356815797e-05
-0.002287148969600725   -0.00022682709132358666   4.085956097540125e-05
-0.000990668150408383   -0.00016745455501988407   4.759037890857715e-05
-0.0021785234384767292   -0.0028032015194881773   1.1958254042001487e-05
-0.0021369524634385893   -0.002844340434340693   -1.1319275933601465e-05
-0.0021976441949451584   -0.00032364480197469796   9.889555733831065e-07
-0.003580566962780981   -0.0028779122440612983   -4.77714032661005e-05
-0.00215714885465774   -0.0028251588429007795   -6.755141216325649e-08
-0.0021976441949451584   -0.00032364480197469796   9.889555733831065e-07
-0.0036149657228255333   -0.00034912001043599535   -2.0255804995129436e-05
-0.003580566962780981   -0.0028779122440612983   -4.77714032661005e-05
-0.0036325805168342645   -0.00032880810199661345   -1.7467792004999213e-05
-0.00215714885465774   -0.0028251588429007795   -6.755141216325649e-08
-0.0035988959786486825   -0.0028581320354588717   -3.890711238734064e-05
-0.0036325805168342645   -0.00032880810199661345   -1.7467792004999213e-05
-0.003580566962780981   -0.0028779122440612983   -4.77714032661005e-05
-0.00215714885465774   -0.0028251588429007795   -6.755141216325649e-08
-0.0036325805168342645   -0.00032880810199661345   -1.7467792004999213e-05
-0.002226141821648413   -0.0002964346231977143   9.983553482076429e-06
-0.0021976441949451584   -0.00032364480197469796   9.889555733831065e-07
-0.00215714885465774   -0.0028251588429007795   -6.755141216325649e-08
-0.0036325805168342645   -0.00032880810199661345   -1.7467792004999213e-05
-0.0021976441949451584   -0.00032364480197469796   9.889555733831065e-07
-0.003580566962780981   -0.0028779122440612983   -4.77714032661005e-05
-0.00215714885465774   -0.0028251588429007795   -6.755141216325649e-08
-0.002226141821648413   -0.0002964346231977143   9.983553482076429e-06
-0.0035988959786486825   -0.0028581320354588717   -3.890711238734064e-05
-0.0021785234384767292   -0.0028032015194881773   1.1958254042001487e-05
-0.002226141821648413   -0.0002964346231977143   9.983553482076429e-06
-0.0036325805168342645   -0.00032880810199661345   -1.7467792004999213e-05
-0.0035988959786486825   -0.0028581320354588717   -3.890711238734064e-05
-0.003650954681306687   -0.0003047818398595927   -1.2744989433452091e-05
-0.0021785234384767292   -0.0028032015194881773   1.1958254042001487e-05
-0.0036165732005261422   -0.002837108187286615   -2.998722397371873e-05
-0.003650954681306687   -0.0003047818398595927   -1.2744989433452091e-05
-0.0035988959786486825   -0.0028581320354588717   -3.890711238734064e-05
-0.0021785234384767292   -0.0028032015194881773   1.1958254042001487e-05
-0.003650954681306687   -0.0003047818398595927   -1.2744989433452091e-05
-0.0022547201908762367   -0.0002643805511641706   2.5598206070686232e-05
-0.002226141821648413   -0.0002964346231977143   9.983553482076429e-06
-0.0021785234384767292   -0.0028032015194881773   1.1958254042001487e-05
-0.003650954681306687   -0.0003047818398595927   -1.2744989433452091e-05
-0.002226141821648413   -0.0002964346231977143   9.983553482076429e-06
-0.0035988959786486825   -0.0028581320354588717   -3.890711238734064e-05
-0.0021785234384767292   -0.0028032015194881773   1.1958254042001487e-05
-0.0022547201908762367   -0.0002643805511641706   2.5598206070686232e-05
-0.0036165732005261422   -0.002837108187286615   -2.998722397371873e-05
-0.0021990342786280944   -0.002779132764820954   2.5290990680975243e-05
-0.0022547201908762367   -0.0002643805511641706   2.5598206070686232e-05
-0.003650954681306687   -0.0003047818398595927   -1.2744989433452091e-05
-0.0036165732005261422   -0.002837108187286615   -2.998722397371873e-05
-0.0036690362414651717   -0.0002747998559579163   -6.494033255075001e-06
-0.0021990342786280944   -0.002779132764820954   2.5290990680975243e-05
-0.00363297638422572   -0.0028142419467021003   -2.0186706748891266e-05
-0.0036690362414651717   -0.0002747998559579163   -6.494033255075001e-06
-0.0036165732005261422   -0.002837108187286615   -2.998722397371873e-05
-0.0021990342786280944   -0.002779132764820954   2.5290990680975243e-05
-0.0036690362414651717   -0.0002747998559579163   -6.494033255075001e-06
-0.002287148969600725   -0.00022682709132358666   4.085956097540125e-05
-0.0022547201908762367   -0.0002643805511641706   2.5598206070686232e-05
-0.0021990342786280944   -0.002779132764820954   2.5290990680975243e-05
-0.0036690362414651717   -0.0002747998559579163   -6.494033255075001e-06
-0.0022547201908762367   -0.0002643805511641706   2.5598206070686232e-05
-0.0036165732005261422   -0.002837108187286615   -2.998722397371873e-05
-0.003580566962780981   -0.0028779122440612983   -4.77714032661005e-05
-0.0036149657228255333   -0.00034912001043599535   -2.0255804995129436e-05
-0.005074968450860301   -0.0028918264516124893   -8.124563209802088e-05
-0.0035988959786486825   -0.0028581320354588717   -3.890711238734064e-05
-0.0036149657228255333   -0.00034912001043599535   -2.0255804995129436e-05
-0.005101728921168445   -0.00034811773897007545   -5.313948761303902e-05
-0.005074968450860301   -0.0028918264516124893   -8.124563209802088e-05
-0.005113710329260763   -0.00033054198526303593   -5.190104961979402e-05
-0.0035988959786486825   -0.0028581320354588717   -3.890711238734064e-05
-0.005091523019074148   -0.0028742902436827205   -7.466349649108044e-05
-0.005113710329260763   -0.00033054198526303593   -5.190104961979402e-05
-0.005074968450860301   -0.0028918264516124893   -8.124563209802088e-05
-0.0035988959786486825   -0.0028581320354588717   -3.890711238734064e-05
-0.005113710329260763   -0.00033054198526303593   -5.190104961979402e-05
-0.0036325805168342645   -0.00032880810199661345   -1.7467792004999213e-05
-0.0036149657228255333   -0.00034912001043599535   -2.0255804995129436e-05
-0.0035988959786486825   -0.0028581320354588717   -3.890711238734064e-05
-0.005113710329260763   -0.00033054198526303593   -5.190104961979402e-05
-0.0036149657228255333   -0.00034912001043599535   -2.0255804995129436e-05
-0.005074968450860301   -0.0028918264516124893   -8.124563209802088e-05
-0.0035988959786486825   -0.0028581320354588717   -3.890711238734064e-05
-0.0036325805168342645   -0.00032880810199661345   -1.7467792004999213e-05
-0.005091523019074148   -0.0028742902436827205   -7.466349649108044e-05
-0.0036165732005261422   -0.002837108187286615   -2.998722397371873e-05
-0.0036325805168342645   -0.00032880810199661345   -1.7467792004999213e-05
-0.005113710329260763   -0.00033054198526303593   -5.190104961979402e-05
-0.005091523019074148   -0.0028742902436827205   -7.466349649108044e-05
-0.005126190658381022   -0.0003105443105209312   -5.0789318768979004e-05
-0.0036165732005261422   -0.002837108187286615   -2.998722397371873e-05
-0.005106283317769065   -0.002855010205993623   -6.81914511443822e-05
-0.005126190658381022   -0.0003105443105209312   -5.0789318768979004e-05
-0.005091523019074148   -0.0028742902436827205   -7.466349649108044e-05
-0.0036165732005261422   -0.002837108187286615   -2.998722397371873e-05
-0.005126190658381022   -0.0003105443105209312   -5.0789318768979004e-05
-0.003650954681306687   -0.0003047818398595927   -1.2744989433452091e-05
-0.0036325805168342645   -0.00032880810199661345   -1.7467792004999213e-05
-0.0036165732005261422   -0.002837108187286615   -2.998722397371873e-05
-0.005126190658381022   -0.0003105443105209312   -5.0789318768979004e-05
-0.0036325805168342645   -0.00032880810199661345   -1.7467792004999213e-05
-0.005091523019074148   -0.0028742902436827205   -7.466349649108044e-05
-0.0036165732005261422   -0.002837108187286615   -2.998722397371873e-05
-0.003650954681306687   -0.0003047818398595927   -1.2744989433452091e-05
-0.005106283317769065   -0.002855010205993623   -6.81914511443822e-05
-0.00363297638422572   -0.0028142419467021003   -2.0186706748891266e-05
-0.003650954681306687   -0.0003047818398595927   -1.2744989433452091e-05
-0.005126190658381022   -0.0003105443105209312   -5.0789318768979004e-05
-0.005106283317769065   -0.002855010205993623   -6.81914511443822e-05
-0.005136125204749326   -0.0002884497317770377   -4.9833750837285706e-05
-0.00363297638422572   -0.0028142419467021003   -2.0186706748891266e-05
-0.005119681965947678   -0.0028343984528804056   -6.143659618987712e-05
-0.005136125204749326   -0.0002884497317770377   -4.9833750837285706e-05
-0.005106283317769065   -0.002855010205993623   -6.81914511443822e-05
-0.00363297638422572   -0.0028142419467021003   -2.0186706748891266e-05
-0.005136125204749326   -0.0002884497317770377   -4.9833750837285706e-05
-0.0036690362414651717   -0.0002747998559579163   -6.494033255075001e-06
-0.003650954681306687   -0.0003047818398595927   -1.2744989433452091e-05
-0.00363297638422572   -0.0028142419467021003   -2.0186706748891266e-05
-0.005136125204749326   -0.0002884497317770377   -4.9833750837285706e-05
-0.003650954681306687   -0.0003047818398595927   -1.2744989433452091e-05
-0.005106283317769065   -0.002855010205993623   -6.81914511443822e-05
-0.005074968450860301   -0.0028918264516124893   -8.124563209802088e-05
-0.005101728921168445   -0.00034811773897007545   -5.313948761303902e-05
-0.00662509686426416   -0.0028931590896319227   -0.00010843595082239909
-0.005091523019074148   -0.0028742902436827205   -7.466349649108044e-05
-0.005101728921168445   -0.00034811773897007545   -5.313948761303902e-05
-0.006631359902901005   -0.000346128787967732   -8.57282636408676e-05
-0.00662509686426416   -0.0028931590896319227   -0.00010843595082239909
-0.006640939544431545   -0.00032722357289059165   -8.556715111087781e-05
-0.005091523019074148   -0.0028742902436827205   -7.466349649108044e-05
-0.006639119898396461   -0.002876242222217858   -0.00010537779070213652
-0.006640939544431545   -0.00032722357289059165   -8.556715111087781e-05
-0.00662509686426416   -0.0028931590896319227   -0.00010843595082239909
-0.005091523019074148   -0.0028742902436827205   -7.466349649108044e-05
-0.006640939544431545   -0.00032722357289059165   -8.556715111087781e-05
-0.005113710329260763   -0.00033054198526303593   -5.190104961979402e-05
-0.005101728921168445   -0.00034811773897007545   -5.313948761303902e-05
-0.005091523019074148   -0.0028742902436827205   -7.466349649108044e-05
-0.006640939544431545   -0.00032722357289059165   -8.556715111087781e-05
-0.005101728921168445   -0.00034811773897007545   -5.313948761303902e-05
-0.00662509686426416   -0.0028931590896319227   -0.00010843595082239909
-0.005091523019074148   -0.0028742902436827205   -7.466349649108044e-05
-0.005113710329260763   -0.00033054198526303593   -5.190104961979402e-05
-0.006639119898396461   -0.002876242222217858   -0.00010537779070213652
-0.005106283317769065   -0.002855010205993623   -6.81914511443822e-05
-0.005113710329260763   -0.00033054198526303593   -5.190104961979402e-05
-0.006640939544431545   -0.00032722357289059165   -8.556715111087781e-05
-0.006639119898396461   -0.002876242222217858   -0.00010537779070213652
-0.006651415939068722   -0.00030804262011051547   -8.689675085236747e-05
-0.005106283317769065   -0.002855010205993623   -6.81914511443822e-05
-0.006651683560765008   -0.0028577694008513487   -0.00010175804039998727
-0.006651415939068722   -0.00030804262011051547   -8.689675085236747e-05
-0.006639119898396461   -0.002876242222217858   -0.00010537779070213652
-0.005106283317769065   -0.002855010205993623   -6.81914511443822e-05
-0.006651415939068722   -0.00030804262011051547   -8.689675085236747e-05
-0.005126190658381022   -0.0003105443105209312   -5.0789318768979004e-05
-0.005113710329260763   -0.00033054198526303593   -5.190104961979402e-05
-0.005106283317769065   -0.002855010205993623   -6.81914511443822e-05
-0.006651415939068722   -0.00030804262011051547   -8.689675085236747e-05
-0.005113710329260763   -0.00033054198526303593   -5.190104961979402e-05
-0.006639119898396461   -0.002876242222217858   -0.00010537779070213652
-0.005106283317769065   -0.002855010205993623   -6.81914511443822e-05
-0.005126190658381022   -0.0003105443105209312   -5.0789318768979004e-05
-0.006651683560765008   -0.0028577694008513487   -0.00010175804039998727
-0.005119681965947678   -0.0028343984528804056   -6.143659618987712e-05
-0.005126190658381022   -0.0003105443105209312   -5.0789318768979004e-05
-0.006651415939068722   -0.00030804262011051547   -8.689675085236747e-05
-0.006651683560765008   -0.0028577694008513487   -0.00010175804039998727
-0.0066592835425576995   -0.0002869540974915757   -8.824112366149097e-05
-0.005119681965947678   -0.0028343984528804056   -6.143659618987712e-05
-0.006661990105621715   -0.0028382430732251528   -9.824364387856249e-05
-0.0066592835425576995   -0.0002869540974915757   -8.824112366149097e-05
-0.006651683560765008   -0.0028577694008513487   -0.00010175804039998727
-0.005119681965947678   -0.0028343984528804056   -6.143659618987712e-05
-0.0066592835425576995   -0.0002869540974915757   -8.824112366149097e-05
-0.005136125204749326   -0.0002884497317770377   -4.9833750837285706e-05
-0.005126190658381022   -0.0003105443105209312   -5.0789318768979004e-05
-0.005119681965947678   -0.0028343984528804056   -6.143659618987712e-05
-0.0066592835425576995   -0.0002869540974915757   -8.824112366149097e-05
-0.005126190658381022   -0.0003105443105209312   -5.0789318768979004e-05
-0.006651683560765008   -0.0028577694008513487   -0.00010175804039998727
              </DataArray>   
          </PointData>  
       </Piece>  
   </UnstructuredGrid> 
</VTKFile> 
