<?xml version="1.0"?> 
<VTKFile type="UnstructuredGrid"> 
   <UnstructuredGrid> 
      <Piece NumberOfPoints="6000"  NumberOfCells="1500">  
          <Points>  
             <DataArray type="Float64" NumberOfComponents="3" format="ascii">   
-500.0   0.0   0.0
-450.0   0.0   0.0
-500.0   30.0   0.0
-500.0   0.0   16.666666666666668
-450.0   0.0   0.0
-450.0   30.0   0.0
-500.0   30.0   0.0
-450.0   30.0   16.666666666666668
-500.0   0.0   16.666666666666668
-500.0   30.0   16.666666666666668
-450.0   30.0   16.666666666666668
-500.0   30.0   0.0
-500.0   0.0   16.666666666666668
-450.0   30.0   16.666666666666668
-450.0   0.0   16.666666666666668
-450.0   0.0   0.0
-500.0   0.0   16.666666666666668
-450.0   30.0   16.666666666666668
-450.0   0.0   0.0
-500.0   30.0   0.0
-500.0   0.0   16.666666666666668
-450.0   0.0   16.666666666666668
-500.0   30.0   16.666666666666668
-500.0   0.0   33.333333333333336
-450.0   0.0   16.666666666666668
-450.0   30.0   16.666666666666668
-500.0   30.0   16.666666666666668
-450.0   30.0   33.333333333333336
-500.0   0.0   33.333333333333336
-500.0   30.0   33.333333333333336
-450.0   30.0   33.333333333333336
-500.0   30.0   16.666666666666668
-500.0   0.0   33.333333333333336
-450.0   30.0   33.333333333333336
-450.0   0.0   33.333333333333336
-450.0   0.0   16.666666666666668
-500.0   0.0   33.333333333333336
-450.0   30.0   33.333333333333336
-450.0   0.0   16.666666666666668
-500.0   30.0   16.666666666666668
-500.0   0.0   33.333333333333336
-450.0   0.0   33.333333333333336
-500.0   30.0   33.333333333333336
-500.0   0.0   50.0
-450.0   0.0   33.333333333333336
-450.0   30.0   33.333333333333336
-500.0   30.0   33.333333333333336
-450.0   30.0   50.0
-500.0   0.0   50.0
-500.0   30.0   50.0
-450.0   30.0   50.0
-500.0   30.0   33.333333333333336
-500.0   0.0   50.0
-450.0   30.0   50.0
-450.0   0.0   50.0
-450.0   0.0   33.333333333333336
-500.0   0.0   50.0
-450.0   30.0   50.0
-450.0   0.0   33.333333333333336
-500.0   30.0   33.333333333333336
-500.0   30.0   0.0
-450.0   30.0   0.0
-500.0   60.0   0.0
-500.0   30.0   16.666666666666668
-450.0   30.0   0.0
-450.0   60.0   0.0
-500.0   60.0   0.0
-450.0   60.0   16.666666666666668
-500.0   30.0   16.666666666666668
-500.0   60.0   16.666666666666668
-450.0   60.0   16.666666666666668
-500.0   60.0   0.0
-500.0   30.0   16.666666666666668
-450.0   60.0   16.666666666666668
-450.0   30.0   16.666666666666668
-450.0   30.0   0.0
-500.0   30.0   16.666666666666668
-450.0   60.0   16.666666666666668
-450.0   30.0   0.0
-500.0   60.0   0.0
-500.0   30.0   16.666666666666668
-450.0   30.0   16.666666666666668
-500.0   60.0   16.666666666666668
-500.0   30.0   33.333333333333336
-450.0   30.0   16.666666666666668
-450.0   60.0   16.666666666666668
-500.0   60.0   16.666666666666668
-450.0   60.0   33.333333333333336
-500.0   30.0   33.333333333333336
-500.0   60.0   33.333333333333336
-450.0   60.0   33.333333333333336
-500.0   60.0   16.666666666666668
-500.0   30.0   33.333333333333336
-450.0   60.0   33.333333333333336
-450.0   30.0   33.333333333333336
-450.0   30.0   16.666666666666668
-500.0   30.0   33.333333333333336
-450.0   60.0   33.333333333333336
-450.0   30.0   16.666666666666668
-500.0   60.0   16.666666666666668
-500.0   30.0   33.333333333333336
-450.0   30.0   33.333333333333336
-500.0   60.0   33.333333333333336
-500.0   30.0   50.0
-450.0   30.0   33.333333333333336
-450.0   60.0   33.333333333333336
-500.0   60.0   33.333333333333336
-450.0   60.0   50.0
-500.0   30.0   50.0
-500.0   60.0   50.0
-450.0   60.0   50.0
-500.0   60.0   33.333333333333336
-500.0   30.0   50.0
-450.0   60.0   50.0
-450.0   30.0   50.0
-450.0   30.0   33.333333333333336
-500.0   30.0   50.0
-450.0   60.0   50.0
-450.0   30.0   33.333333333333336
-500.0   60.0   33.333333333333336
-500.0   60.0   0.0
-450.0   60.0   0.0
-500.0   90.0   0.0
-500.0   60.0   16.666666666666668
-450.0   60.0   0.0
-450.0   90.0   0.0
-500.0   90.0   0.0
-450.0   90.0   16.666666666666668
-500.0   60.0   16.666666666666668
-500.0   90.0   16.666666666666668
-450.0   90.0   16.666666666666668
-500.0   90.0   0.0
-500.0   60.0   16.666666666666668
-450.0   90.0   16.666666666666668
-450.0   60.0   16.666666666666668
-450.0   60.0   0.0
-500.0   60.0   16.666666666666668
-450.0   90.0   16.666666666666668
-450.0   60.0   0.0
-500.0   90.0   0.0
-500.0   60.0   16.666666666666668
-450.0   60.0   16.666666666666668
-500.0   90.0   16.666666666666668
-500.0   60.0   33.333333333333336
-450.0   60.0   16.666666666666668
-450.0   90.0   16.666666666666668
-500.0   90.0   16.666666666666668
-450.0   90.0   33.333333333333336
-500.0   60.0   33.333333333333336
-500.0   90.0   33.333333333333336
-450.0   90.0   33.333333333333336
-500.0   90.0   16.666666666666668
-500.0   60.0   33.333333333333336
-450.0   90.0   33.333333333333336
-450.0   60.0   33.333333333333336
-450.0   60.0   16.666666666666668
-500.0   60.0   33.333333333333336
-450.0   90.0   33.333333333333336
-450.0   60.0   16.666666666666668
-500.0   90.0   16.666666666666668
-500.0   60.0   33.333333333333336
-450.0   60.0   33.333333333333336
-500.0   90.0   33.333333333333336
-500.0   60.0   50.0
-450.0   60.0   33.333333333333336
-450.0   90.0   33.333333333333336
-500.0   90.0   33.333333333333336
-450.0   90.0   50.0
-500.0   60.0   50.0
-500.0   90.0   50.0
-450.0   90.0   50.0
-500.0   90.0   33.333333333333336
-500.0   60.0   50.0
-450.0   90.0   50.0
-450.0   60.0   50.0
-450.0   60.0   33.333333333333336
-500.0   60.0   50.0
-450.0   90.0   50.0
-450.0   60.0   33.333333333333336
-500.0   90.0   33.333333333333336
-500.0   90.0   0.0
-450.0   90.0   0.0
-500.0   120.0   0.0
-500.0   90.0   16.666666666666668
-450.0   90.0   0.0
-450.0   120.0   0.0
-500.0   120.0   0.0
-450.0   120.0   16.666666666666668
-500.0   90.0   16.666666666666668
-500.0   120.0   16.666666666666668
-450.0   120.0   16.666666666666668
-500.0   120.0   0.0
-500.0   90.0   16.666666666666668
-450.0   120.0   16.666666666666668
-450.0   90.0   16.666666666666668
-450.0   90.0   0.0
-500.0   90.0   16.666666666666668
-450.0   120.0   16.666666666666668
-450.0   90.0   0.0
-500.0   120.0   0.0
-500.0   90.0   16.666666666666668
-450.0   90.0   16.666666666666668
-500.0   120.0   16.666666666666668
-500.0   90.0   33.333333333333336
-450.0   90.0   16.666666666666668
-450.0   120.0   16.666666666666668
-500.0   120.0   16.666666666666668
-450.0   120.0   33.333333333333336
-500.0   90.0   33.333333333333336
-500.0   120.0   33.333333333333336
-450.0   120.0   33.333333333333336
-500.0   120.0   16.666666666666668
-500.0   90.0   33.333333333333336
-450.0   120.0   33.333333333333336
-450.0   90.0   33.333333333333336
-450.0   90.0   16.666666666666668
-500.0   90.0   33.333333333333336
-450.0   120.0   33.333333333333336
-450.0   90.0   16.666666666666668
-500.0   120.0   16.666666666666668
-500.0   90.0   33.333333333333336
-450.0   90.0   33.333333333333336
-500.0   120.0   33.333333333333336
-500.0   90.0   50.0
-450.0   90.0   33.333333333333336
-450.0   120.0   33.333333333333336
-500.0   120.0   33.333333333333336
-450.0   120.0   50.0
-500.0   90.0   50.0
-500.0   120.0   50.0
-450.0   120.0   50.0
-500.0   120.0   33.333333333333336
-500.0   90.0   50.0
-450.0   120.0   50.0
-450.0   90.0   50.0
-450.0   90.0   33.333333333333336
-500.0   90.0   50.0
-450.0   120.0   50.0
-450.0   90.0   33.333333333333336
-500.0   120.0   33.333333333333336
-500.0   120.0   0.0
-450.0   120.0   0.0
-500.0   150.0   0.0
-500.0   120.0   16.666666666666668
-450.0   120.0   0.0
-450.0   150.0   0.0
-500.0   150.0   0.0
-450.0   150.0   16.666666666666668
-500.0   120.0   16.666666666666668
-500.0   150.0   16.666666666666668
-450.0   150.0   16.666666666666668
-500.0   150.0   0.0
-500.0   120.0   16.666666666666668
-450.0   150.0   16.666666666666668
-450.0   120.0   16.666666666666668
-450.0   120.0   0.0
-500.0   120.0   16.666666666666668
-450.0   150.0   16.666666666666668
-450.0   120.0   0.0
-500.0   150.0   0.0
-500.0   120.0   16.666666666666668
-450.0   120.0   16.666666666666668
-500.0   150.0   16.666666666666668
-500.0   120.0   33.333333333333336
-450.0   120.0   16.666666666666668
-450.0   150.0   16.666666666666668
-500.0   150.0   16.666666666666668
-450.0   150.0   33.333333333333336
-500.0   120.0   33.333333333333336
-500.0   150.0   33.333333333333336
-450.0   150.0   33.333333333333336
-500.0   150.0   16.666666666666668
-500.0   120.0   33.333333333333336
-450.0   150.0   33.333333333333336
-450.0   120.0   33.333333333333336
-450.0   120.0   16.666666666666668
-500.0   120.0   33.333333333333336
-450.0   150.0   33.333333333333336
-450.0   120.0   16.666666666666668
-500.0   150.0   16.666666666666668
-500.0   120.0   33.333333333333336
-450.0   120.0   33.333333333333336
-500.0   150.0   33.333333333333336
-500.0   120.0   50.0
-450.0   120.0   33.333333333333336
-450.0   150.0   33.333333333333336
-500.0   150.0   33.333333333333336
-450.0   150.0   50.0
-500.0   120.0   50.0
-500.0   150.0   50.0
-450.0   150.0   50.0
-500.0   150.0   33.333333333333336
-500.0   120.0   50.0
-450.0   150.0   50.0
-450.0   120.0   50.0
-450.0   120.0   33.333333333333336
-500.0   120.0   50.0
-450.0   150.0   50.0
-450.0   120.0   33.333333333333336
-500.0   150.0   33.333333333333336
-450.0   0.0   0.0
-400.0   0.0   0.0
-450.0   30.0   0.0
-450.0   0.0   16.666666666666668
-400.0   0.0   0.0
-400.0   30.0   0.0
-450.0   30.0   0.0
-400.0   30.0   16.666666666666668
-450.0   0.0   16.666666666666668
-450.0   30.0   16.666666666666668
-400.0   30.0   16.666666666666668
-450.0   30.0   0.0
-450.0   0.0   16.666666666666668
-400.0   30.0   16.666666666666668
-400.0   0.0   16.666666666666668
-400.0   0.0   0.0
-450.0   0.0   16.666666666666668
-400.0   30.0   16.666666666666668
-400.0   0.0   0.0
-450.0   30.0   0.0
-450.0   0.0   16.666666666666668
-400.0   0.0   16.666666666666668
-450.0   30.0   16.666666666666668
-450.0   0.0   33.333333333333336
-400.0   0.0   16.666666666666668
-400.0   30.0   16.666666666666668
-450.0   30.0   16.666666666666668
-400.0   30.0   33.333333333333336
-450.0   0.0   33.333333333333336
-450.0   30.0   33.333333333333336
-400.0   30.0   33.333333333333336
-450.0   30.0   16.666666666666668
-450.0   0.0   33.333333333333336
-400.0   30.0   33.333333333333336
-400.0   0.0   33.333333333333336
-400.0   0.0   16.666666666666668
-450.0   0.0   33.333333333333336
-400.0   30.0   33.333333333333336
-400.0   0.0   16.666666666666668
-450.0   30.0   16.666666666666668
-450.0   0.0   33.333333333333336
-400.0   0.0   33.333333333333336
-450.0   30.0   33.333333333333336
-450.0   0.0   50.0
-400.0   0.0   33.333333333333336
-400.0   30.0   33.333333333333336
-450.0   30.0   33.333333333333336
-400.0   30.0   50.0
-450.0   0.0   50.0
-450.0   30.0   50.0
-400.0   30.0   50.0
-450.0   30.0   33.333333333333336
-450.0   0.0   50.0
-400.0   30.0   50.0
-400.0   0.0   50.0
-400.0   0.0   33.333333333333336
-450.0   0.0   50.0
-400.0   30.0   50.0
-400.0   0.0   33.333333333333336
-450.0   30.0   33.333333333333336
-450.0   30.0   0.0
-400.0   30.0   0.0
-450.0   60.0   0.0
-450.0   30.0   16.666666666666668
-400.0   30.0   0.0
-400.0   60.0   0.0
-450.0   60.0   0.0
-400.0   60.0   16.666666666666668
-450.0   30.0   16.666666666666668
-450.0   60.0   16.666666666666668
-400.0   60.0   16.666666666666668
-450.0   60.0   0.0
-450.0   30.0   16.666666666666668
-400.0   60.0   16.666666666666668
-400.0   30.0   16.666666666666668
-400.0   30.0   0.0
-450.0   30.0   16.666666666666668
-400.0   60.0   16.666666666666668
-400.0   30.0   0.0
-450.0   60.0   0.0
-450.0   30.0   16.666666666666668
-400.0   30.0   16.666666666666668
-450.0   60.0   16.666666666666668
-450.0   30.0   33.333333333333336
-400.0   30.0   16.666666666666668
-400.0   60.0   16.666666666666668
-450.0   60.0   16.666666666666668
-400.0   60.0   33.333333333333336
-450.0   30.0   33.333333333333336
-450.0   60.0   33.333333333333336
-400.0   60.0   33.333333333333336
-450.0   60.0   16.666666666666668
-450.0   30.0   33.333333333333336
-400.0   60.0   33.333333333333336
-400.0   30.0   33.333333333333336
-400.0   30.0   16.666666666666668
-450.0   30.0   33.333333333333336
-400.0   60.0   33.333333333333336
-400.0   30.0   16.666666666666668
-450.0   60.0   16.666666666666668
-450.0   30.0   33.333333333333336
-400.0   30.0   33.333333333333336
-450.0   60.0   33.333333333333336
-450.0   30.0   50.0
-400.0   30.0   33.333333333333336
-400.0   60.0   33.333333333333336
-450.0   60.0   33.333333333333336
-400.0   60.0   50.0
-450.0   30.0   50.0
-450.0   60.0   50.0
-400.0   60.0   50.0
-450.0   60.0   33.333333333333336
-450.0   30.0   50.0
-400.0   60.0   50.0
-400.0   30.0   50.0
-400.0   30.0   33.333333333333336
-450.0   30.0   50.0
-400.0   60.0   50.0
-400.0   30.0   33.333333333333336
-450.0   60.0   33.333333333333336
-450.0   60.0   0.0
-400.0   60.0   0.0
-450.0   90.0   0.0
-450.0   60.0   16.666666666666668
-400.0   60.0   0.0
-400.0   90.0   0.0
-450.0   90.0   0.0
-400.0   90.0   16.666666666666668
-450.0   60.0   16.666666666666668
-450.0   90.0   16.666666666666668
-400.0   90.0   16.666666666666668
-450.0   90.0   0.0
-450.0   60.0   16.666666666666668
-400.0   90.0   16.666666666666668
-400.0   60.0   16.666666666666668
-400.0   60.0   0.0
-450.0   60.0   16.666666666666668
-400.0   90.0   16.666666666666668
-400.0   60.0   0.0
-450.0   90.0   0.0
-450.0   60.0   16.666666666666668
-400.0   60.0   16.666666666666668
-450.0   90.0   16.666666666666668
-450.0   60.0   33.333333333333336
-400.0   60.0   16.666666666666668
-400.0   90.0   16.666666666666668
-450.0   90.0   16.666666666666668
-400.0   90.0   33.333333333333336
-450.0   60.0   33.333333333333336
-450.0   90.0   33.333333333333336
-400.0   90.0   33.333333333333336
-450.0   90.0   16.666666666666668
-450.0   60.0   33.333333333333336
-400.0   90.0   33.333333333333336
-400.0   60.0   33.333333333333336
-400.0   60.0   16.666666666666668
-450.0   60.0   33.333333333333336
-400.0   90.0   33.333333333333336
-400.0   60.0   16.666666666666668
-450.0   90.0   16.666666666666668
-450.0   60.0   33.333333333333336
-400.0   60.0   33.333333333333336
-450.0   90.0   33.333333333333336
-450.0   60.0   50.0
-400.0   60.0   33.333333333333336
-400.0   90.0   33.333333333333336
-450.0   90.0   33.333333333333336
-400.0   90.0   50.0
-450.0   60.0   50.0
-450.0   90.0   50.0
-400.0   90.0   50.0
-450.0   90.0   33.333333333333336
-450.0   60.0   50.0
-400.0   90.0   50.0
-400.0   60.0   50.0
-400.0   60.0   33.333333333333336
-450.0   60.0   50.0
-400.0   90.0   50.0
-400.0   60.0   33.333333333333336
-450.0   90.0   33.333333333333336
-450.0   90.0   0.0
-400.0   90.0   0.0
-450.0   120.0   0.0
-450.0   90.0   16.666666666666668
-400.0   90.0   0.0
-400.0   120.0   0.0
-450.0   120.0   0.0
-400.0   120.0   16.666666666666668
-450.0   90.0   16.666666666666668
-450.0   120.0   16.666666666666668
-400.0   120.0   16.666666666666668
-450.0   120.0   0.0
-450.0   90.0   16.666666666666668
-400.0   120.0   16.666666666666668
-400.0   90.0   16.666666666666668
-400.0   90.0   0.0
-450.0   90.0   16.666666666666668
-400.0   120.0   16.666666666666668
-400.0   90.0   0.0
-450.0   120.0   0.0
-450.0   90.0   16.666666666666668
-400.0   90.0   16.666666666666668
-450.0   120.0   16.666666666666668
-450.0   90.0   33.333333333333336
-400.0   90.0   16.666666666666668
-400.0   120.0   16.666666666666668
-450.0   120.0   16.666666666666668
-400.0   120.0   33.333333333333336
-450.0   90.0   33.333333333333336
-450.0   120.0   33.333333333333336
-400.0   120.0   33.333333333333336
-450.0   120.0   16.666666666666668
-450.0   90.0   33.333333333333336
-400.0   120.0   33.333333333333336
-400.0   90.0   33.333333333333336
-400.0   90.0   16.666666666666668
-450.0   90.0   33.333333333333336
-400.0   120.0   33.333333333333336
-400.0   90.0   16.666666666666668
-450.0   120.0   16.666666666666668
-450.0   90.0   33.333333333333336
-400.0   90.0   33.333333333333336
-450.0   120.0   33.333333333333336
-450.0   90.0   50.0
-400.0   90.0   33.333333333333336
-400.0   120.0   33.333333333333336
-450.0   120.0   33.333333333333336
-400.0   120.0   50.0
-450.0   90.0   50.0
-450.0   120.0   50.0
-400.0   120.0   50.0
-450.0   120.0   33.333333333333336
-450.0   90.0   50.0
-400.0   120.0   50.0
-400.0   90.0   50.0
-400.0   90.0   33.333333333333336
-450.0   90.0   50.0
-400.0   120.0   50.0
-400.0   90.0   33.333333333333336
-450.0   120.0   33.333333333333336
-450.0   120.0   0.0
-400.0   120.0   0.0
-450.0   150.0   0.0
-450.0   120.0   16.666666666666668
-400.0   120.0   0.0
-400.0   150.0   0.0
-450.0   150.0   0.0
-400.0   150.0   16.666666666666668
-450.0   120.0   16.666666666666668
-450.0   150.0   16.666666666666668
-400.0   150.0   16.666666666666668
-450.0   150.0   0.0
-450.0   120.0   16.666666666666668
-400.0   150.0   16.666666666666668
-400.0   120.0   16.666666666666668
-400.0   120.0   0.0
-450.0   120.0   16.666666666666668
-400.0   150.0   16.666666666666668
-400.0   120.0   0.0
-450.0   150.0   0.0
-450.0   120.0   16.666666666666668
-400.0   120.0   16.666666666666668
-450.0   150.0   16.666666666666668
-450.0   120.0   33.333333333333336
-400.0   120.0   16.666666666666668
-400.0   150.0   16.666666666666668
-450.0   150.0   16.666666666666668
-400.0   150.0   33.333333333333336
-450.0   120.0   33.333333333333336
-450.0   150.0   33.333333333333336
-400.0   150.0   33.333333333333336
-450.0   150.0   16.666666666666668
-450.0   120.0   33.333333333333336
-400.0   150.0   33.333333333333336
-400.0   120.0   33.333333333333336
-400.0   120.0   16.666666666666668
-450.0   120.0   33.333333333333336
-400.0   150.0   33.333333333333336
-400.0   120.0   16.666666666666668
-450.0   150.0   16.666666666666668
-450.0   120.0   33.333333333333336
-400.0   120.0   33.333333333333336
-450.0   150.0   33.333333333333336
-450.0   120.0   50.0
-400.0   120.0   33.333333333333336
-400.0   150.0   33.333333333333336
-450.0   150.0   33.333333333333336
-400.0   150.0   50.0
-450.0   120.0   50.0
-450.0   150.0   50.0
-400.0   150.0   50.0
-450.0   150.0   33.333333333333336
-450.0   120.0   50.0
-400.0   150.0   50.0
-400.0   120.0   50.0
-400.0   120.0   33.333333333333336
-450.0   120.0   50.0
-400.0   150.0   50.0
-400.0   120.0   33.333333333333336
-450.0   150.0   33.333333333333336
-400.0   0.0   0.0
-350.0   0.0   0.0
-400.0   30.0   0.0
-400.0   0.0   16.666666666666668
-350.0   0.0   0.0
-350.0   30.0   0.0
-400.0   30.0   0.0
-350.0   30.0   16.666666666666668
-400.0   0.0   16.666666666666668
-400.0   30.0   16.666666666666668
-350.0   30.0   16.666666666666668
-400.0   30.0   0.0
-400.0   0.0   16.666666666666668
-350.0   30.0   16.666666666666668
-350.0   0.0   16.666666666666668
-350.0   0.0   0.0
-400.0   0.0   16.666666666666668
-350.0   30.0   16.666666666666668
-350.0   0.0   0.0
-400.0   30.0   0.0
-400.0   0.0   16.666666666666668
-350.0   0.0   16.666666666666668
-400.0   30.0   16.666666666666668
-400.0   0.0   33.333333333333336
-350.0   0.0   16.666666666666668
-350.0   30.0   16.666666666666668
-400.0   30.0   16.666666666666668
-350.0   30.0   33.333333333333336
-400.0   0.0   33.333333333333336
-400.0   30.0   33.333333333333336
-350.0   30.0   33.333333333333336
-400.0   30.0   16.666666666666668
-400.0   0.0   33.333333333333336
-350.0   30.0   33.333333333333336
-350.0   0.0   33.333333333333336
-350.0   0.0   16.666666666666668
-400.0   0.0   33.333333333333336
-350.0   30.0   33.333333333333336
-350.0   0.0   16.666666666666668
-400.0   30.0   16.666666666666668
-400.0   0.0   33.333333333333336
-350.0   0.0   33.333333333333336
-400.0   30.0   33.333333333333336
-400.0   0.0   50.0
-350.0   0.0   33.333333333333336
-350.0   30.0   33.333333333333336
-400.0   30.0   33.333333333333336
-350.0   30.0   50.0
-400.0   0.0   50.0
-400.0   30.0   50.0
-350.0   30.0   50.0
-400.0   30.0   33.333333333333336
-400.0   0.0   50.0
-350.0   30.0   50.0
-350.0   0.0   50.0
-350.0   0.0   33.333333333333336
-400.0   0.0   50.0
-350.0   30.0   50.0
-350.0   0.0   33.333333333333336
-400.0   30.0   33.333333333333336
-400.0   30.0   0.0
-350.0   30.0   0.0
-400.0   60.0   0.0
-400.0   30.0   16.666666666666668
-350.0   30.0   0.0
-350.0   60.0   0.0
-400.0   60.0   0.0
-350.0   60.0   16.666666666666668
-400.0   30.0   16.666666666666668
-400.0   60.0   16.666666666666668
-350.0   60.0   16.666666666666668
-400.0   60.0   0.0
-400.0   30.0   16.666666666666668
-350.0   60.0   16.666666666666668
-350.0   30.0   16.666666666666668
-350.0   30.0   0.0
-400.0   30.0   16.666666666666668
-350.0   60.0   16.666666666666668
-350.0   30.0   0.0
-400.0   60.0   0.0
-400.0   30.0   16.666666666666668
-350.0   30.0   16.666666666666668
-400.0   60.0   16.666666666666668
-400.0   30.0   33.333333333333336
-350.0   30.0   16.666666666666668
-350.0   60.0   16.666666666666668
-400.0   60.0   16.666666666666668
-350.0   60.0   33.333333333333336
-400.0   30.0   33.333333333333336
-400.0   60.0   33.333333333333336
-350.0   60.0   33.333333333333336
-400.0   60.0   16.666666666666668
-400.0   30.0   33.333333333333336
-350.0   60.0   33.333333333333336
-350.0   30.0   33.333333333333336
-350.0   30.0   16.666666666666668
-400.0   30.0   33.333333333333336
-350.0   60.0   33.333333333333336
-350.0   30.0   16.666666666666668
-400.0   60.0   16.666666666666668
-400.0   30.0   33.333333333333336
-350.0   30.0   33.333333333333336
-400.0   60.0   33.333333333333336
-400.0   30.0   50.0
-350.0   30.0   33.333333333333336
-350.0   60.0   33.333333333333336
-400.0   60.0   33.333333333333336
-350.0   60.0   50.0
-400.0   30.0   50.0
-400.0   60.0   50.0
-350.0   60.0   50.0
-400.0   60.0   33.333333333333336
-400.0   30.0   50.0
-350.0   60.0   50.0
-350.0   30.0   50.0
-350.0   30.0   33.333333333333336
-400.0   30.0   50.0
-350.0   60.0   50.0
-350.0   30.0   33.333333333333336
-400.0   60.0   33.333333333333336
-400.0   60.0   0.0
-350.0   60.0   0.0
-400.0   90.0   0.0
-400.0   60.0   16.666666666666668
-350.0   60.0   0.0
-350.0   90.0   0.0
-400.0   90.0   0.0
-350.0   90.0   16.666666666666668
-400.0   60.0   16.666666666666668
-400.0   90.0   16.666666666666668
-350.0   90.0   16.666666666666668
-400.0   90.0   0.0
-400.0   60.0   16.666666666666668
-350.0   90.0   16.666666666666668
-350.0   60.0   16.666666666666668
-350.0   60.0   0.0
-400.0   60.0   16.666666666666668
-350.0   90.0   16.666666666666668
-350.0   60.0   0.0
-400.0   90.0   0.0
-400.0   60.0   16.666666666666668
-350.0   60.0   16.666666666666668
-400.0   90.0   16.666666666666668
-400.0   60.0   33.333333333333336
-350.0   60.0   16.666666666666668
-350.0   90.0   16.666666666666668
-400.0   90.0   16.666666666666668
-350.0   90.0   33.333333333333336
-400.0   60.0   33.333333333333336
-400.0   90.0   33.333333333333336
-350.0   90.0   33.333333333333336
-400.0   90.0   16.666666666666668
-400.0   60.0   33.333333333333336
-350.0   90.0   33.333333333333336
-350.0   60.0   33.333333333333336
-350.0   60.0   16.666666666666668
-400.0   60.0   33.333333333333336
-350.0   90.0   33.333333333333336
-350.0   60.0   16.666666666666668
-400.0   90.0   16.666666666666668
-400.0   60.0   33.333333333333336
-350.0   60.0   33.333333333333336
-400.0   90.0   33.333333333333336
-400.0   60.0   50.0
-350.0   60.0   33.333333333333336
-350.0   90.0   33.333333333333336
-400.0   90.0   33.333333333333336
-350.0   90.0   50.0
-400.0   60.0   50.0
-400.0   90.0   50.0
-350.0   90.0   50.0
-400.0   90.0   33.333333333333336
-400.0   60.0   50.0
-350.0   90.0   50.0
-350.0   60.0   50.0
-350.0   60.0   33.333333333333336
-400.0   60.0   50.0
-350.0   90.0   50.0
-350.0   60.0   33.333333333333336
-400.0   90.0   33.333333333333336
-400.0   90.0   0.0
-350.0   90.0   0.0
-400.0   120.0   0.0
-400.0   90.0   16.666666666666668
-350.0   90.0   0.0
-350.0   120.0   0.0
-400.0   120.0   0.0
-350.0   120.0   16.666666666666668
-400.0   90.0   16.666666666666668
-400.0   120.0   16.666666666666668
-350.0   120.0   16.666666666666668
-400.0   120.0   0.0
-400.0   90.0   16.666666666666668
-350.0   120.0   16.666666666666668
-350.0   90.0   16.666666666666668
-350.0   90.0   0.0
-400.0   90.0   16.666666666666668
-350.0   120.0   16.666666666666668
-350.0   90.0   0.0
-400.0   120.0   0.0
-400.0   90.0   16.666666666666668
-350.0   90.0   16.666666666666668
-400.0   120.0   16.666666666666668
-400.0   90.0   33.333333333333336
-350.0   90.0   16.666666666666668
-350.0   120.0   16.666666666666668
-400.0   120.0   16.666666666666668
-350.0   120.0   33.333333333333336
-400.0   90.0   33.333333333333336
-400.0   120.0   33.333333333333336
-350.0   120.0   33.333333333333336
-400.0   120.0   16.666666666666668
-400.0   90.0   33.333333333333336
-350.0   120.0   33.333333333333336
-350.0   90.0   33.333333333333336
-350.0   90.0   16.666666666666668
-400.0   90.0   33.333333333333336
-350.0   120.0   33.333333333333336
-350.0   90.0   16.666666666666668
-400.0   120.0   16.666666666666668
-400.0   90.0   33.333333333333336
-350.0   90.0   33.333333333333336
-400.0   120.0   33.333333333333336
-400.0   90.0   50.0
-350.0   90.0   33.333333333333336
-350.0   120.0   33.333333333333336
-400.0   120.0   33.333333333333336
-350.0   120.0   50.0
-400.0   90.0   50.0
-400.0   120.0   50.0
-350.0   120.0   50.0
-400.0   120.0   33.333333333333336
-400.0   90.0   50.0
-350.0   120.0   50.0
-350.0   90.0   50.0
-350.0   90.0   33.333333333333336
-400.0   90.0   50.0
-350.0   120.0   50.0
-350.0   90.0   33.333333333333336
-400.0   120.0   33.333333333333336
-400.0   120.0   0.0
-350.0   120.0   0.0
-400.0   150.0   0.0
-400.0   120.0   16.666666666666668
-350.0   120.0   0.0
-350.0   150.0   0.0
-400.0   150.0   0.0
-350.0   150.0   16.666666666666668
-400.0   120.0   16.666666666666668
-400.0   150.0   16.666666666666668
-350.0   150.0   16.666666666666668
-400.0   150.0   0.0
-400.0   120.0   16.666666666666668
-350.0   150.0   16.666666666666668
-350.0   120.0   16.666666666666668
-350.0   120.0   0.0
-400.0   120.0   16.666666666666668
-350.0   150.0   16.666666666666668
-350.0   120.0   0.0
-400.0   150.0   0.0
-400.0   120.0   16.666666666666668
-350.0   120.0   16.666666666666668
-400.0   150.0   16.666666666666668
-400.0   120.0   33.333333333333336
-350.0   120.0   16.666666666666668
-350.0   150.0   16.666666666666668
-400.0   150.0   16.666666666666668
-350.0   150.0   33.333333333333336
-400.0   120.0   33.333333333333336
-400.0   150.0   33.333333333333336
-350.0   150.0   33.333333333333336
-400.0   150.0   16.666666666666668
-400.0   120.0   33.333333333333336
-350.0   150.0   33.333333333333336
-350.0   120.0   33.333333333333336
-350.0   120.0   16.666666666666668
-400.0   120.0   33.333333333333336
-350.0   150.0   33.333333333333336
-350.0   120.0   16.666666666666668
-400.0   150.0   16.666666666666668
-400.0   120.0   33.333333333333336
-350.0   120.0   33.333333333333336
-400.0   150.0   33.333333333333336
-400.0   120.0   50.0
-350.0   120.0   33.333333333333336
-350.0   150.0   33.333333333333336
-400.0   150.0   33.333333333333336
-350.0   150.0   50.0
-400.0   120.0   50.0
-400.0   150.0   50.0
-350.0   150.0   50.0
-400.0   150.0   33.333333333333336
-400.0   120.0   50.0
-350.0   150.0   50.0
-350.0   120.0   50.0
-350.0   120.0   33.333333333333336
-400.0   120.0   50.0
-350.0   150.0   50.0
-350.0   120.0   33.333333333333336
-400.0   150.0   33.333333333333336
-350.0   0.0   0.0
-300.0   0.0   0.0
-350.0   30.0   0.0
-350.0   0.0   16.666666666666668
-300.0   0.0   0.0
-300.0   30.0   0.0
-350.0   30.0   0.0
-300.0   30.0   16.666666666666668
-350.0   0.0   16.666666666666668
-350.0   30.0   16.666666666666668
-300.0   30.0   16.666666666666668
-350.0   30.0   0.0
-350.0   0.0   16.666666666666668
-300.0   30.0   16.666666666666668
-300.0   0.0   16.666666666666668
-300.0   0.0   0.0
-350.0   0.0   16.666666666666668
-300.0   30.0   16.666666666666668
-300.0   0.0   0.0
-350.0   30.0   0.0
-350.0   0.0   16.666666666666668
-300.0   0.0   16.666666666666668
-350.0   30.0   16.666666666666668
-350.0   0.0   33.333333333333336
-300.0   0.0   16.666666666666668
-300.0   30.0   16.666666666666668
-350.0   30.0   16.666666666666668
-300.0   30.0   33.333333333333336
-350.0   0.0   33.333333333333336
-350.0   30.0   33.333333333333336
-300.0   30.0   33.333333333333336
-350.0   30.0   16.666666666666668
-350.0   0.0   33.333333333333336
-300.0   30.0   33.333333333333336
-300.0   0.0   33.333333333333336
-300.0   0.0   16.666666666666668
-350.0   0.0   33.333333333333336
-300.0   30.0   33.333333333333336
-300.0   0.0   16.666666666666668
-350.0   30.0   16.666666666666668
-350.0   0.0   33.333333333333336
-300.0   0.0   33.333333333333336
-350.0   30.0   33.333333333333336
-350.0   0.0   50.0
-300.0   0.0   33.333333333333336
-300.0   30.0   33.333333333333336
-350.0   30.0   33.333333333333336
-300.0   30.0   50.0
-350.0   0.0   50.0
-350.0   30.0   50.0
-300.0   30.0   50.0
-350.0   30.0   33.333333333333336
-350.0   0.0   50.0
-300.0   30.0   50.0
-300.0   0.0   50.0
-300.0   0.0   33.333333333333336
-350.0   0.0   50.0
-300.0   30.0   50.0
-300.0   0.0   33.333333333333336
-350.0   30.0   33.333333333333336
-350.0   30.0   0.0
-300.0   30.0   0.0
-350.0   60.0   0.0
-350.0   30.0   16.666666666666668
-300.0   30.0   0.0
-300.0   60.0   0.0
-350.0   60.0   0.0
-300.0   60.0   16.666666666666668
-350.0   30.0   16.666666666666668
-350.0   60.0   16.666666666666668
-300.0   60.0   16.666666666666668
-350.0   60.0   0.0
-350.0   30.0   16.666666666666668
-300.0   60.0   16.666666666666668
-300.0   30.0   16.666666666666668
-300.0   30.0   0.0
-350.0   30.0   16.666666666666668
-300.0   60.0   16.666666666666668
-300.0   30.0   0.0
-350.0   60.0   0.0
-350.0   30.0   16.666666666666668
-300.0   30.0   16.666666666666668
-350.0   60.0   16.666666666666668
-350.0   30.0   33.333333333333336
-300.0   30.0   16.666666666666668
-300.0   60.0   16.666666666666668
-350.0   60.0   16.666666666666668
-300.0   60.0   33.333333333333336
-350.0   30.0   33.333333333333336
-350.0   60.0   33.333333333333336
-300.0   60.0   33.333333333333336
-350.0   60.0   16.666666666666668
-350.0   30.0   33.333333333333336
-300.0   60.0   33.333333333333336
-300.0   30.0   33.333333333333336
-300.0   30.0   16.666666666666668
-350.0   30.0   33.333333333333336
-300.0   60.0   33.333333333333336
-300.0   30.0   16.666666666666668
-350.0   60.0   16.666666666666668
-350.0   30.0   33.333333333333336
-300.0   30.0   33.333333333333336
-350.0   60.0   33.333333333333336
-350.0   30.0   50.0
-300.0   30.0   33.333333333333336
-300.0   60.0   33.333333333333336
-350.0   60.0   33.333333333333336
-300.0   60.0   50.0
-350.0   30.0   50.0
-350.0   60.0   50.0
-300.0   60.0   50.0
-350.0   60.0   33.333333333333336
-350.0   30.0   50.0
-300.0   60.0   50.0
-300.0   30.0   50.0
-300.0   30.0   33.333333333333336
-350.0   30.0   50.0
-300.0   60.0   50.0
-300.0   30.0   33.333333333333336
-350.0   60.0   33.333333333333336
-350.0   60.0   0.0
-300.0   60.0   0.0
-350.0   90.0   0.0
-350.0   60.0   16.666666666666668
-300.0   60.0   0.0
-300.0   90.0   0.0
-350.0   90.0   0.0
-300.0   90.0   16.666666666666668
-350.0   60.0   16.666666666666668
-350.0   90.0   16.666666666666668
-300.0   90.0   16.666666666666668
-350.0   90.0   0.0
-350.0   60.0   16.666666666666668
-300.0   90.0   16.666666666666668
-300.0   60.0   16.666666666666668
-300.0   60.0   0.0
-350.0   60.0   16.666666666666668
-300.0   90.0   16.666666666666668
-300.0   60.0   0.0
-350.0   90.0   0.0
-350.0   60.0   16.666666666666668
-300.0   60.0   16.666666666666668
-350.0   90.0   16.666666666666668
-350.0   60.0   33.333333333333336
-300.0   60.0   16.666666666666668
-300.0   90.0   16.666666666666668
-350.0   90.0   16.666666666666668
-300.0   90.0   33.333333333333336
-350.0   60.0   33.333333333333336
-350.0   90.0   33.333333333333336
-300.0   90.0   33.333333333333336
-350.0   90.0   16.666666666666668
-350.0   60.0   33.333333333333336
-300.0   90.0   33.333333333333336
-300.0   60.0   33.333333333333336
-300.0   60.0   16.666666666666668
-350.0   60.0   33.333333333333336
-300.0   90.0   33.333333333333336
-300.0   60.0   16.666666666666668
-350.0   90.0   16.666666666666668
-350.0   60.0   33.333333333333336
-300.0   60.0   33.333333333333336
-350.0   90.0   33.333333333333336
-350.0   60.0   50.0
-300.0   60.0   33.333333333333336
-300.0   90.0   33.333333333333336
-350.0   90.0   33.333333333333336
-300.0   90.0   50.0
-350.0   60.0   50.0
-350.0   90.0   50.0
-300.0   90.0   50.0
-350.0   90.0   33.333333333333336
-350.0   60.0   50.0
-300.0   90.0   50.0
-300.0   60.0   50.0
-300.0   60.0   33.333333333333336
-350.0   60.0   50.0
-300.0   90.0   50.0
-300.0   60.0   33.333333333333336
-350.0   90.0   33.333333333333336
-350.0   90.0   0.0
-300.0   90.0   0.0
-350.0   120.0   0.0
-350.0   90.0   16.666666666666668
-300.0   90.0   0.0
-300.0   120.0   0.0
-350.0   120.0   0.0
-300.0   120.0   16.666666666666668
-350.0   90.0   16.666666666666668
-350.0   120.0   16.666666666666668
-300.0   120.0   16.666666666666668
-350.0   120.0   0.0
-350.0   90.0   16.666666666666668
-300.0   120.0   16.666666666666668
-300.0   90.0   16.666666666666668
-300.0   90.0   0.0
-350.0   90.0   16.666666666666668
-300.0   120.0   16.666666666666668
-300.0   90.0   0.0
-350.0   120.0   0.0
-350.0   90.0   16.666666666666668
-300.0   90.0   16.666666666666668
-350.0   120.0   16.666666666666668
-350.0   90.0   33.333333333333336
-300.0   90.0   16.666666666666668
-300.0   120.0   16.666666666666668
-350.0   120.0   16.666666666666668
-300.0   120.0   33.333333333333336
-350.0   90.0   33.333333333333336
-350.0   120.0   33.333333333333336
-300.0   120.0   33.333333333333336
-350.0   120.0   16.666666666666668
-350.0   90.0   33.333333333333336
-300.0   120.0   33.333333333333336
-300.0   90.0   33.333333333333336
-300.0   90.0   16.666666666666668
-350.0   90.0   33.333333333333336
-300.0   120.0   33.333333333333336
-300.0   90.0   16.666666666666668
-350.0   120.0   16.666666666666668
-350.0   90.0   33.333333333333336
-300.0   90.0   33.333333333333336
-350.0   120.0   33.333333333333336
-350.0   90.0   50.0
-300.0   90.0   33.333333333333336
-300.0   120.0   33.333333333333336
-350.0   120.0   33.333333333333336
-300.0   120.0   50.0
-350.0   90.0   50.0
-350.0   120.0   50.0
-300.0   120.0   50.0
-350.0   120.0   33.333333333333336
-350.0   90.0   50.0
-300.0   120.0   50.0
-300.0   90.0   50.0
-300.0   90.0   33.333333333333336
-350.0   90.0   50.0
-300.0   120.0   50.0
-300.0   90.0   33.333333333333336
-350.0   120.0   33.333333333333336
-350.0   120.0   0.0
-300.0   120.0   0.0
-350.0   150.0   0.0
-350.0   120.0   16.666666666666668
-300.0   120.0   0.0
-300.0   150.0   0.0
-350.0   150.0   0.0
-300.0   150.0   16.666666666666668
-350.0   120.0   16.666666666666668
-350.0   150.0   16.666666666666668
-300.0   150.0   16.666666666666668
-350.0   150.0   0.0
-350.0   120.0   16.666666666666668
-300.0   150.0   16.666666666666668
-300.0   120.0   16.666666666666668
-300.0   120.0   0.0
-350.0   120.0   16.666666666666668
-300.0   150.0   16.666666666666668
-300.0   120.0   0.0
-350.0   150.0   0.0
-350.0   120.0   16.666666666666668
-300.0   120.0   16.666666666666668
-350.0   150.0   16.666666666666668
-350.0   120.0   33.333333333333336
-300.0   120.0   16.666666666666668
-300.0   150.0   16.666666666666668
-350.0   150.0   16.666666666666668
-300.0   150.0   33.333333333333336
-350.0   120.0   33.333333333333336
-350.0   150.0   33.333333333333336
-300.0   150.0   33.333333333333336
-350.0   150.0   16.666666666666668
-350.0   120.0   33.333333333333336
-300.0   150.0   33.333333333333336
-300.0   120.0   33.333333333333336
-300.0   120.0   16.666666666666668
-350.0   120.0   33.333333333333336
-300.0   150.0   33.333333333333336
-300.0   120.0   16.666666666666668
-350.0   150.0   16.666666666666668
-350.0   120.0   33.333333333333336
-300.0   120.0   33.333333333333336
-350.0   150.0   33.333333333333336
-350.0   120.0   50.0
-300.0   120.0   33.333333333333336
-300.0   150.0   33.333333333333336
-350.0   150.0   33.333333333333336
-300.0   150.0   50.0
-350.0   120.0   50.0
-350.0   150.0   50.0
-300.0   150.0   50.0
-350.0   150.0   33.333333333333336
-350.0   120.0   50.0
-300.0   150.0   50.0
-300.0   120.0   50.0
-300.0   120.0   33.333333333333336
-350.0   120.0   50.0
-300.0   150.0   50.0
-300.0   120.0   33.333333333333336
-350.0   150.0   33.333333333333336
-300.0   0.0   0.0
-250.0   0.0   0.0
-300.0   30.0   0.0
-300.0   0.0   16.666666666666668
-250.0   0.0   0.0
-250.0   30.0   0.0
-300.0   30.0   0.0
-250.0   30.0   16.666666666666668
-300.0   0.0   16.666666666666668
-300.0   30.0   16.666666666666668
-250.0   30.0   16.666666666666668
-300.0   30.0   0.0
-300.0   0.0   16.666666666666668
-250.0   30.0   16.666666666666668
-250.0   0.0   16.666666666666668
-250.0   0.0   0.0
-300.0   0.0   16.666666666666668
-250.0   30.0   16.666666666666668
-250.0   0.0   0.0
-300.0   30.0   0.0
-300.0   0.0   16.666666666666668
-250.0   0.0   16.666666666666668
-300.0   30.0   16.666666666666668
-300.0   0.0   33.333333333333336
-250.0   0.0   16.666666666666668
-250.0   30.0   16.666666666666668
-300.0   30.0   16.666666666666668
-250.0   30.0   33.333333333333336
-300.0   0.0   33.333333333333336
-300.0   30.0   33.333333333333336
-250.0   30.0   33.333333333333336
-300.0   30.0   16.666666666666668
-300.0   0.0   33.333333333333336
-250.0   30.0   33.333333333333336
-250.0   0.0   33.333333333333336
-250.0   0.0   16.666666666666668
-300.0   0.0   33.333333333333336
-250.0   30.0   33.333333333333336
-250.0   0.0   16.666666666666668
-300.0   30.0   16.666666666666668
-300.0   0.0   33.333333333333336
-250.0   0.0   33.333333333333336
-300.0   30.0   33.333333333333336
-300.0   0.0   50.0
-250.0   0.0   33.333333333333336
-250.0   30.0   33.333333333333336
-300.0   30.0   33.333333333333336
-250.0   30.0   50.0
-300.0   0.0   50.0
-300.0   30.0   50.0
-250.0   30.0   50.0
-300.0   30.0   33.333333333333336
-300.0   0.0   50.0
-250.0   30.0   50.0
-250.0   0.0   50.0
-250.0   0.0   33.333333333333336
-300.0   0.0   50.0
-250.0   30.0   50.0
-250.0   0.0   33.333333333333336
-300.0   30.0   33.333333333333336
-300.0   30.0   0.0
-250.0   30.0   0.0
-300.0   60.0   0.0
-300.0   30.0   16.666666666666668
-250.0   30.0   0.0
-250.0   60.0   0.0
-300.0   60.0   0.0
-250.0   60.0   16.666666666666668
-300.0   30.0   16.666666666666668
-300.0   60.0   16.666666666666668
-250.0   60.0   16.666666666666668
-300.0   60.0   0.0
-300.0   30.0   16.666666666666668
-250.0   60.0   16.666666666666668
-250.0   30.0   16.666666666666668
-250.0   30.0   0.0
-300.0   30.0   16.666666666666668
-250.0   60.0   16.666666666666668
-250.0   30.0   0.0
-300.0   60.0   0.0
-300.0   30.0   16.666666666666668
-250.0   30.0   16.666666666666668
-300.0   60.0   16.666666666666668
-300.0   30.0   33.333333333333336
-250.0   30.0   16.666666666666668
-250.0   60.0   16.666666666666668
-300.0   60.0   16.666666666666668
-250.0   60.0   33.333333333333336
-300.0   30.0   33.333333333333336
-300.0   60.0   33.333333333333336
-250.0   60.0   33.333333333333336
-300.0   60.0   16.666666666666668
-300.0   30.0   33.333333333333336
-250.0   60.0   33.333333333333336
-250.0   30.0   33.333333333333336
-250.0   30.0   16.666666666666668
-300.0   30.0   33.333333333333336
-250.0   60.0   33.333333333333336
-250.0   30.0   16.666666666666668
-300.0   60.0   16.666666666666668
-300.0   30.0   33.333333333333336
-250.0   30.0   33.333333333333336
-300.0   60.0   33.333333333333336
-300.0   30.0   50.0
-250.0   30.0   33.333333333333336
-250.0   60.0   33.333333333333336
-300.0   60.0   33.333333333333336
-250.0   60.0   50.0
-300.0   30.0   50.0
-300.0   60.0   50.0
-250.0   60.0   50.0
-300.0   60.0   33.333333333333336
-300.0   30.0   50.0
-250.0   60.0   50.0
-250.0   30.0   50.0
-250.0   30.0   33.333333333333336
-300.0   30.0   50.0
-250.0   60.0   50.0
-250.0   30.0   33.333333333333336
-300.0   60.0   33.333333333333336
-300.0   60.0   0.0
-250.0   60.0   0.0
-300.0   90.0   0.0
-300.0   60.0   16.666666666666668
-250.0   60.0   0.0
-250.0   90.0   0.0
-300.0   90.0   0.0
-250.0   90.0   16.666666666666668
-300.0   60.0   16.666666666666668
-300.0   90.0   16.666666666666668
-250.0   90.0   16.666666666666668
-300.0   90.0   0.0
-300.0   60.0   16.666666666666668
-250.0   90.0   16.666666666666668
-250.0   60.0   16.666666666666668
-250.0   60.0   0.0
-300.0   60.0   16.666666666666668
-250.0   90.0   16.666666666666668
-250.0   60.0   0.0
-300.0   90.0   0.0
-300.0   60.0   16.666666666666668
-250.0   60.0   16.666666666666668
-300.0   90.0   16.666666666666668
-300.0   60.0   33.333333333333336
-250.0   60.0   16.666666666666668
-250.0   90.0   16.666666666666668
-300.0   90.0   16.666666666666668
-250.0   90.0   33.333333333333336
-300.0   60.0   33.333333333333336
-300.0   90.0   33.333333333333336
-250.0   90.0   33.333333333333336
-300.0   90.0   16.666666666666668
-300.0   60.0   33.333333333333336
-250.0   90.0   33.333333333333336
-250.0   60.0   33.333333333333336
-250.0   60.0   16.666666666666668
-300.0   60.0   33.333333333333336
-250.0   90.0   33.333333333333336
-250.0   60.0   16.666666666666668
-300.0   90.0   16.666666666666668
-300.0   60.0   33.333333333333336
-250.0   60.0   33.333333333333336
-300.0   90.0   33.333333333333336
-300.0   60.0   50.0
-250.0   60.0   33.333333333333336
-250.0   90.0   33.333333333333336
-300.0   90.0   33.333333333333336
-250.0   90.0   50.0
-300.0   60.0   50.0
-300.0   90.0   50.0
-250.0   90.0   50.0
-300.0   90.0   33.333333333333336
-300.0   60.0   50.0
-250.0   90.0   50.0
-250.0   60.0   50.0
-250.0   60.0   33.333333333333336
-300.0   60.0   50.0
-250.0   90.0   50.0
-250.0   60.0   33.333333333333336
-300.0   90.0   33.333333333333336
-300.0   90.0   0.0
-250.0   90.0   0.0
-300.0   120.0   0.0
-300.0   90.0   16.666666666666668
-250.0   90.0   0.0
-250.0   120.0   0.0
-300.0   120.0   0.0
-250.0   120.0   16.666666666666668
-300.0   90.0   16.666666666666668
-300.0   120.0   16.666666666666668
-250.0   120.0   16.666666666666668
-300.0   120.0   0.0
-300.0   90.0   16.666666666666668
-250.0   120.0   16.666666666666668
-250.0   90.0   16.666666666666668
-250.0   90.0   0.0
-300.0   90.0   16.666666666666668
-250.0   120.0   16.666666666666668
-250.0   90.0   0.0
-300.0   120.0   0.0
-300.0   90.0   16.666666666666668
-250.0   90.0   16.666666666666668
-300.0   120.0   16.666666666666668
-300.0   90.0   33.333333333333336
-250.0   90.0   16.666666666666668
-250.0   120.0   16.666666666666668
-300.0   120.0   16.666666666666668
-250.0   120.0   33.333333333333336
-300.0   90.0   33.333333333333336
-300.0   120.0   33.333333333333336
-250.0   120.0   33.333333333333336
-300.0   120.0   16.666666666666668
-300.0   90.0   33.333333333333336
-250.0   120.0   33.333333333333336
-250.0   90.0   33.333333333333336
-250.0   90.0   16.666666666666668
-300.0   90.0   33.333333333333336
-250.0   120.0   33.333333333333336
-250.0   90.0   16.666666666666668
-300.0   120.0   16.666666666666668
-300.0   90.0   33.333333333333336
-250.0   90.0   33.333333333333336
-300.0   120.0   33.333333333333336
-300.0   90.0   50.0
-250.0   90.0   33.333333333333336
-250.0   120.0   33.333333333333336
-300.0   120.0   33.333333333333336
-250.0   120.0   50.0
-300.0   90.0   50.0
-300.0   120.0   50.0
-250.0   120.0   50.0
-300.0   120.0   33.333333333333336
-300.0   90.0   50.0
-250.0   120.0   50.0
-250.0   90.0   50.0
-250.0   90.0   33.333333333333336
-300.0   90.0   50.0
-250.0   120.0   50.0
-250.0   90.0   33.333333333333336
-300.0   120.0   33.333333333333336
-300.0   120.0   0.0
-250.0   120.0   0.0
-300.0   150.0   0.0
-300.0   120.0   16.666666666666668
-250.0   120.0   0.0
-250.0   150.0   0.0
-300.0   150.0   0.0
-250.0   150.0   16.666666666666668
-300.0   120.0   16.666666666666668
-300.0   150.0   16.666666666666668
-250.0   150.0   16.666666666666668
-300.0   150.0   0.0
-300.0   120.0   16.666666666666668
-250.0   150.0   16.666666666666668
-250.0   120.0   16.666666666666668
-250.0   120.0   0.0
-300.0   120.0   16.666666666666668
-250.0   150.0   16.666666666666668
-250.0   120.0   0.0
-300.0   150.0   0.0
-300.0   120.0   16.666666666666668
-250.0   120.0   16.666666666666668
-300.0   150.0   16.666666666666668
-300.0   120.0   33.333333333333336
-250.0   120.0   16.666666666666668
-250.0   150.0   16.666666666666668
-300.0   150.0   16.666666666666668
-250.0   150.0   33.333333333333336
-300.0   120.0   33.333333333333336
-300.0   150.0   33.333333333333336
-250.0   150.0   33.333333333333336
-300.0   150.0   16.666666666666668
-300.0   120.0   33.333333333333336
-250.0   150.0   33.333333333333336
-250.0   120.0   33.333333333333336
-250.0   120.0   16.666666666666668
-300.0   120.0   33.333333333333336
-250.0   150.0   33.333333333333336
-250.0   120.0   16.666666666666668
-300.0   150.0   16.666666666666668
-300.0   120.0   33.333333333333336
-250.0   120.0   33.333333333333336
-300.0   150.0   33.333333333333336
-300.0   120.0   50.0
-250.0   120.0   33.333333333333336
-250.0   150.0   33.333333333333336
-300.0   150.0   33.333333333333336
-250.0   150.0   50.0
-300.0   120.0   50.0
-300.0   150.0   50.0
-250.0   150.0   50.0
-300.0   150.0   33.333333333333336
-300.0   120.0   50.0
-250.0   150.0   50.0
-250.0   120.0   50.0
-250.0   120.0   33.333333333333336
-300.0   120.0   50.0
-250.0   150.0   50.0
-250.0   120.0   33.333333333333336
-300.0   150.0   33.333333333333336
-250.0   0.0   0.0
-200.0   0.0   0.0
-250.0   30.0   0.0
-250.0   0.0   16.666666666666668
-200.0   0.0   0.0
-200.0   30.0   0.0
-250.0   30.0   0.0
-200.0   30.0   16.666666666666668
-250.0   0.0   16.666666666666668
-250.0   30.0   16.666666666666668
-200.0   30.0   16.666666666666668
-250.0   30.0   0.0
-250.0   0.0   16.666666666666668
-200.0   30.0   16.666666666666668
-200.0   0.0   16.666666666666668
-200.0   0.0   0.0
-250.0   0.0   16.666666666666668
-200.0   30.0   16.666666666666668
-200.0   0.0   0.0
-250.0   30.0   0.0
-250.0   0.0   16.666666666666668
-200.0   0.0   16.666666666666668
-250.0   30.0   16.666666666666668
-250.0   0.0   33.333333333333336
-200.0   0.0   16.666666666666668
-200.0   30.0   16.666666666666668
-250.0   30.0   16.666666666666668
-200.0   30.0   33.333333333333336
-250.0   0.0   33.333333333333336
-250.0   30.0   33.333333333333336
-200.0   30.0   33.333333333333336
-250.0   30.0   16.666666666666668
-250.0   0.0   33.333333333333336
-200.0   30.0   33.333333333333336
-200.0   0.0   33.333333333333336
-200.0   0.0   16.666666666666668
-250.0   0.0   33.333333333333336
-200.0   30.0   33.333333333333336
-200.0   0.0   16.666666666666668
-250.0   30.0   16.666666666666668
-250.0   0.0   33.333333333333336
-200.0   0.0   33.333333333333336
-250.0   30.0   33.333333333333336
-250.0   0.0   50.0
-200.0   0.0   33.333333333333336
-200.0   30.0   33.333333333333336
-250.0   30.0   33.333333333333336
-200.0   30.0   50.0
-250.0   0.0   50.0
-250.0   30.0   50.0
-200.0   30.0   50.0
-250.0   30.0   33.333333333333336
-250.0   0.0   50.0
-200.0   30.0   50.0
-200.0   0.0   50.0
-200.0   0.0   33.333333333333336
-250.0   0.0   50.0
-200.0   30.0   50.0
-200.0   0.0   33.333333333333336
-250.0   30.0   33.333333333333336
-250.0   30.0   0.0
-200.0   30.0   0.0
-250.0   60.0   0.0
-250.0   30.0   16.666666666666668
-200.0   30.0   0.0
-200.0   60.0   0.0
-250.0   60.0   0.0
-200.0   60.0   16.666666666666668
-250.0   30.0   16.666666666666668
-250.0   60.0   16.666666666666668
-200.0   60.0   16.666666666666668
-250.0   60.0   0.0
-250.0   30.0   16.666666666666668
-200.0   60.0   16.666666666666668
-200.0   30.0   16.666666666666668
-200.0   30.0   0.0
-250.0   30.0   16.666666666666668
-200.0   60.0   16.666666666666668
-200.0   30.0   0.0
-250.0   60.0   0.0
-250.0   30.0   16.666666666666668
-200.0   30.0   16.666666666666668
-250.0   60.0   16.666666666666668
-250.0   30.0   33.333333333333336
-200.0   30.0   16.666666666666668
-200.0   60.0   16.666666666666668
-250.0   60.0   16.666666666666668
-200.0   60.0   33.333333333333336
-250.0   30.0   33.333333333333336
-250.0   60.0   33.333333333333336
-200.0   60.0   33.333333333333336
-250.0   60.0   16.666666666666668
-250.0   30.0   33.333333333333336
-200.0   60.0   33.333333333333336
-200.0   30.0   33.333333333333336
-200.0   30.0   16.666666666666668
-250.0   30.0   33.333333333333336
-200.0   60.0   33.333333333333336
-200.0   30.0   16.666666666666668
-250.0   60.0   16.666666666666668
-250.0   30.0   33.333333333333336
-200.0   30.0   33.333333333333336
-250.0   60.0   33.333333333333336
-250.0   30.0   50.0
-200.0   30.0   33.333333333333336
-200.0   60.0   33.333333333333336
-250.0   60.0   33.333333333333336
-200.0   60.0   50.0
-250.0   30.0   50.0
-250.0   60.0   50.0
-200.0   60.0   50.0
-250.0   60.0   33.333333333333336
-250.0   30.0   50.0
-200.0   60.0   50.0
-200.0   30.0   50.0
-200.0   30.0   33.333333333333336
-250.0   30.0   50.0
-200.0   60.0   50.0
-200.0   30.0   33.333333333333336
-250.0   60.0   33.333333333333336
-250.0   60.0   0.0
-200.0   60.0   0.0
-250.0   90.0   0.0
-250.0   60.0   16.666666666666668
-200.0   60.0   0.0
-200.0   90.0   0.0
-250.0   90.0   0.0
-200.0   90.0   16.666666666666668
-250.0   60.0   16.666666666666668
-250.0   90.0   16.666666666666668
-200.0   90.0   16.666666666666668
-250.0   90.0   0.0
-250.0   60.0   16.666666666666668
-200.0   90.0   16.666666666666668
-200.0   60.0   16.666666666666668
-200.0   60.0   0.0
-250.0   60.0   16.666666666666668
-200.0   90.0   16.666666666666668
-200.0   60.0   0.0
-250.0   90.0   0.0
-250.0   60.0   16.666666666666668
-200.0   60.0   16.666666666666668
-250.0   90.0   16.666666666666668
-250.0   60.0   33.333333333333336
-200.0   60.0   16.666666666666668
-200.0   90.0   16.666666666666668
-250.0   90.0   16.666666666666668
-200.0   90.0   33.333333333333336
-250.0   60.0   33.333333333333336
-250.0   90.0   33.333333333333336
-200.0   90.0   33.333333333333336
-250.0   90.0   16.666666666666668
-250.0   60.0   33.333333333333336
-200.0   90.0   33.333333333333336
-200.0   60.0   33.333333333333336
-200.0   60.0   16.666666666666668
-250.0   60.0   33.333333333333336
-200.0   90.0   33.333333333333336
-200.0   60.0   16.666666666666668
-250.0   90.0   16.666666666666668
-250.0   60.0   33.333333333333336
-200.0   60.0   33.333333333333336
-250.0   90.0   33.333333333333336
-250.0   60.0   50.0
-200.0   60.0   33.333333333333336
-200.0   90.0   33.333333333333336
-250.0   90.0   33.333333333333336
-200.0   90.0   50.0
-250.0   60.0   50.0
-250.0   90.0   50.0
-200.0   90.0   50.0
-250.0   90.0   33.333333333333336
-250.0   60.0   50.0
-200.0   90.0   50.0
-200.0   60.0   50.0
-200.0   60.0   33.333333333333336
-250.0   60.0   50.0
-200.0   90.0   50.0
-200.0   60.0   33.333333333333336
-250.0   90.0   33.333333333333336
-250.0   90.0   0.0
-200.0   90.0   0.0
-250.0   120.0   0.0
-250.0   90.0   16.666666666666668
-200.0   90.0   0.0
-200.0   120.0   0.0
-250.0   120.0   0.0
-200.0   120.0   16.666666666666668
-250.0   90.0   16.666666666666668
-250.0   120.0   16.666666666666668
-200.0   120.0   16.666666666666668
-250.0   120.0   0.0
-250.0   90.0   16.666666666666668
-200.0   120.0   16.666666666666668
-200.0   90.0   16.666666666666668
-200.0   90.0   0.0
-250.0   90.0   16.666666666666668
-200.0   120.0   16.666666666666668
-200.0   90.0   0.0
-250.0   120.0   0.0
-250.0   90.0   16.666666666666668
-200.0   90.0   16.666666666666668
-250.0   120.0   16.666666666666668
-250.0   90.0   33.333333333333336
-200.0   90.0   16.666666666666668
-200.0   120.0   16.666666666666668
-250.0   120.0   16.666666666666668
-200.0   120.0   33.333333333333336
-250.0   90.0   33.333333333333336
-250.0   120.0   33.333333333333336
-200.0   120.0   33.333333333333336
-250.0   120.0   16.666666666666668
-250.0   90.0   33.333333333333336
-200.0   120.0   33.333333333333336
-200.0   90.0   33.333333333333336
-200.0   90.0   16.666666666666668
-250.0   90.0   33.333333333333336
-200.0   120.0   33.333333333333336
-200.0   90.0   16.666666666666668
-250.0   120.0   16.666666666666668
-250.0   90.0   33.333333333333336
-200.0   90.0   33.333333333333336
-250.0   120.0   33.333333333333336
-250.0   90.0   50.0
-200.0   90.0   33.333333333333336
-200.0   120.0   33.333333333333336
-250.0   120.0   33.333333333333336
-200.0   120.0   50.0
-250.0   90.0   50.0
-250.0   120.0   50.0
-200.0   120.0   50.0
-250.0   120.0   33.333333333333336
-250.0   90.0   50.0
-200.0   120.0   50.0
-200.0   90.0   50.0
-200.0   90.0   33.333333333333336
-250.0   90.0   50.0
-200.0   120.0   50.0
-200.0   90.0   33.333333333333336
-250.0   120.0   33.333333333333336
-250.0   120.0   0.0
-200.0   120.0   0.0
-250.0   150.0   0.0
-250.0   120.0   16.666666666666668
-200.0   120.0   0.0
-200.0   150.0   0.0
-250.0   150.0   0.0
-200.0   150.0   16.666666666666668
-250.0   120.0   16.666666666666668
-250.0   150.0   16.666666666666668
-200.0   150.0   16.666666666666668
-250.0   150.0   0.0
-250.0   120.0   16.666666666666668
-200.0   150.0   16.666666666666668
-200.0   120.0   16.666666666666668
-200.0   120.0   0.0
-250.0   120.0   16.666666666666668
-200.0   150.0   16.666666666666668
-200.0   120.0   0.0
-250.0   150.0   0.0
-250.0   120.0   16.666666666666668
-200.0   120.0   16.666666666666668
-250.0   150.0   16.666666666666668
-250.0   120.0   33.333333333333336
-200.0   120.0   16.666666666666668
-200.0   150.0   16.666666666666668
-250.0   150.0   16.666666666666668
-200.0   150.0   33.333333333333336
-250.0   120.0   33.333333333333336
-250.0   150.0   33.333333333333336
-200.0   150.0   33.333333333333336
-250.0   150.0   16.666666666666668
-250.0   120.0   33.333333333333336
-200.0   150.0   33.333333333333336
-200.0   120.0   33.333333333333336
-200.0   120.0   16.666666666666668
-250.0   120.0   33.333333333333336
-200.0   150.0   33.333333333333336
-200.0   120.0   16.666666666666668
-250.0   150.0   16.666666666666668
-250.0   120.0   33.333333333333336
-200.0   120.0   33.333333333333336
-250.0   150.0   33.333333333333336
-250.0   120.0   50.0
-200.0   120.0   33.333333333333336
-200.0   150.0   33.333333333333336
-250.0   150.0   33.333333333333336
-200.0   150.0   50.0
-250.0   120.0   50.0
-250.0   150.0   50.0
-200.0   150.0   50.0
-250.0   150.0   33.333333333333336
-250.0   120.0   50.0
-200.0   150.0   50.0
-200.0   120.0   50.0
-200.0   120.0   33.333333333333336
-250.0   120.0   50.0
-200.0   150.0   50.0
-200.0   120.0   33.333333333333336
-250.0   150.0   33.333333333333336
-200.0   0.0   0.0
-150.0   0.0   0.0
-200.0   30.0   0.0
-200.0   0.0   16.666666666666668
-150.0   0.0   0.0
-150.0   30.0   0.0
-200.0   30.0   0.0
-150.0   30.0   16.666666666666668
-200.0   0.0   16.666666666666668
-200.0   30.0   16.666666666666668
-150.0   30.0   16.666666666666668
-200.0   30.0   0.0
-200.0   0.0   16.666666666666668
-150.0   30.0   16.666666666666668
-150.0   0.0   16.666666666666668
-150.0   0.0   0.0
-200.0   0.0   16.666666666666668
-150.0   30.0   16.666666666666668
-150.0   0.0   0.0
-200.0   30.0   0.0
-200.0   0.0   16.666666666666668
-150.0   0.0   16.666666666666668
-200.0   30.0   16.666666666666668
-200.0   0.0   33.333333333333336
-150.0   0.0   16.666666666666668
-150.0   30.0   16.666666666666668
-200.0   30.0   16.666666666666668
-150.0   30.0   33.333333333333336
-200.0   0.0   33.333333333333336
-200.0   30.0   33.333333333333336
-150.0   30.0   33.333333333333336
-200.0   30.0   16.666666666666668
-200.0   0.0   33.333333333333336
-150.0   30.0   33.333333333333336
-150.0   0.0   33.333333333333336
-150.0   0.0   16.666666666666668
-200.0   0.0   33.333333333333336
-150.0   30.0   33.333333333333336
-150.0   0.0   16.666666666666668
-200.0   30.0   16.666666666666668
-200.0   0.0   33.333333333333336
-150.0   0.0   33.333333333333336
-200.0   30.0   33.333333333333336
-200.0   0.0   50.0
-150.0   0.0   33.333333333333336
-150.0   30.0   33.333333333333336
-200.0   30.0   33.333333333333336
-150.0   30.0   50.0
-200.0   0.0   50.0
-200.0   30.0   50.0
-150.0   30.0   50.0
-200.0   30.0   33.333333333333336
-200.0   0.0   50.0
-150.0   30.0   50.0
-150.0   0.0   50.0
-150.0   0.0   33.333333333333336
-200.0   0.0   50.0
-150.0   30.0   50.0
-150.0   0.0   33.333333333333336
-200.0   30.0   33.333333333333336
-200.0   30.0   0.0
-150.0   30.0   0.0
-200.0   60.0   0.0
-200.0   30.0   16.666666666666668
-150.0   30.0   0.0
-150.0   60.0   0.0
-200.0   60.0   0.0
-150.0   60.0   16.666666666666668
-200.0   30.0   16.666666666666668
-200.0   60.0   16.666666666666668
-150.0   60.0   16.666666666666668
-200.0   60.0   0.0
-200.0   30.0   16.666666666666668
-150.0   60.0   16.666666666666668
-150.0   30.0   16.666666666666668
-150.0   30.0   0.0
-200.0   30.0   16.666666666666668
-150.0   60.0   16.666666666666668
-150.0   30.0   0.0
-200.0   60.0   0.0
-200.0   30.0   16.666666666666668
-150.0   30.0   16.666666666666668
-200.0   60.0   16.666666666666668
-200.0   30.0   33.333333333333336
-150.0   30.0   16.666666666666668
-150.0   60.0   16.666666666666668
-200.0   60.0   16.666666666666668
-150.0   60.0   33.333333333333336
-200.0   30.0   33.333333333333336
-200.0   60.0   33.333333333333336
-150.0   60.0   33.333333333333336
-200.0   60.0   16.666666666666668
-200.0   30.0   33.333333333333336
-150.0   60.0   33.333333333333336
-150.0   30.0   33.333333333333336
-150.0   30.0   16.666666666666668
-200.0   30.0   33.333333333333336
-150.0   60.0   33.333333333333336
-150.0   30.0   16.666666666666668
-200.0   60.0   16.666666666666668
-200.0   30.0   33.333333333333336
-150.0   30.0   33.333333333333336
-200.0   60.0   33.333333333333336
-200.0   30.0   50.0
-150.0   30.0   33.333333333333336
-150.0   60.0   33.333333333333336
-200.0   60.0   33.333333333333336
-150.0   60.0   50.0
-200.0   30.0   50.0
-200.0   60.0   50.0
-150.0   60.0   50.0
-200.0   60.0   33.333333333333336
-200.0   30.0   50.0
-150.0   60.0   50.0
-150.0   30.0   50.0
-150.0   30.0   33.333333333333336
-200.0   30.0   50.0
-150.0   60.0   50.0
-150.0   30.0   33.333333333333336
-200.0   60.0   33.333333333333336
-200.0   60.0   0.0
-150.0   60.0   0.0
-200.0   90.0   0.0
-200.0   60.0   16.666666666666668
-150.0   60.0   0.0
-150.0   90.0   0.0
-200.0   90.0   0.0
-150.0   90.0   16.666666666666668
-200.0   60.0   16.666666666666668
-200.0   90.0   16.666666666666668
-150.0   90.0   16.666666666666668
-200.0   90.0   0.0
-200.0   60.0   16.666666666666668
-150.0   90.0   16.666666666666668
-150.0   60.0   16.666666666666668
-150.0   60.0   0.0
-200.0   60.0   16.666666666666668
-150.0   90.0   16.666666666666668
-150.0   60.0   0.0
-200.0   90.0   0.0
-200.0   60.0   16.666666666666668
-150.0   60.0   16.666666666666668
-200.0   90.0   16.666666666666668
-200.0   60.0   33.333333333333336
-150.0   60.0   16.666666666666668
-150.0   90.0   16.666666666666668
-200.0   90.0   16.666666666666668
-150.0   90.0   33.333333333333336
-200.0   60.0   33.333333333333336
-200.0   90.0   33.333333333333336
-150.0   90.0   33.333333333333336
-200.0   90.0   16.666666666666668
-200.0   60.0   33.333333333333336
-150.0   90.0   33.333333333333336
-150.0   60.0   33.333333333333336
-150.0   60.0   16.666666666666668
-200.0   60.0   33.333333333333336
-150.0   90.0   33.333333333333336
-150.0   60.0   16.666666666666668
-200.0   90.0   16.666666666666668
-200.0   60.0   33.333333333333336
-150.0   60.0   33.333333333333336
-200.0   90.0   33.333333333333336
-200.0   60.0   50.0
-150.0   60.0   33.333333333333336
-150.0   90.0   33.333333333333336
-200.0   90.0   33.333333333333336
-150.0   90.0   50.0
-200.0   60.0   50.0
-200.0   90.0   50.0
-150.0   90.0   50.0
-200.0   90.0   33.333333333333336
-200.0   60.0   50.0
-150.0   90.0   50.0
-150.0   60.0   50.0
-150.0   60.0   33.333333333333336
-200.0   60.0   50.0
-150.0   90.0   50.0
-150.0   60.0   33.333333333333336
-200.0   90.0   33.333333333333336
-200.0   90.0   0.0
-150.0   90.0   0.0
-200.0   120.0   0.0
-200.0   90.0   16.666666666666668
-150.0   90.0   0.0
-150.0   120.0   0.0
-200.0   120.0   0.0
-150.0   120.0   16.666666666666668
-200.0   90.0   16.666666666666668
-200.0   120.0   16.666666666666668
-150.0   120.0   16.666666666666668
-200.0   120.0   0.0
-200.0   90.0   16.666666666666668
-150.0   120.0   16.666666666666668
-150.0   90.0   16.666666666666668
-150.0   90.0   0.0
-200.0   90.0   16.666666666666668
-150.0   120.0   16.666666666666668
-150.0   90.0   0.0
-200.0   120.0   0.0
-200.0   90.0   16.666666666666668
-150.0   90.0   16.666666666666668
-200.0   120.0   16.666666666666668
-200.0   90.0   33.333333333333336
-150.0   90.0   16.666666666666668
-150.0   120.0   16.666666666666668
-200.0   120.0   16.666666666666668
-150.0   120.0   33.333333333333336
-200.0   90.0   33.333333333333336
-200.0   120.0   33.333333333333336
-150.0   120.0   33.333333333333336
-200.0   120.0   16.666666666666668
-200.0   90.0   33.333333333333336
-150.0   120.0   33.333333333333336
-150.0   90.0   33.333333333333336
-150.0   90.0   16.666666666666668
-200.0   90.0   33.333333333333336
-150.0   120.0   33.333333333333336
-150.0   90.0   16.666666666666668
-200.0   120.0   16.666666666666668
-200.0   90.0   33.333333333333336
-150.0   90.0   33.333333333333336
-200.0   120.0   33.333333333333336
-200.0   90.0   50.0
-150.0   90.0   33.333333333333336
-150.0   120.0   33.333333333333336
-200.0   120.0   33.333333333333336
-150.0   120.0   50.0
-200.0   90.0   50.0
-200.0   120.0   50.0
-150.0   120.0   50.0
-200.0   120.0   33.333333333333336
-200.0   90.0   50.0
-150.0   120.0   50.0
-150.0   90.0   50.0
-150.0   90.0   33.333333333333336
-200.0   90.0   50.0
-150.0   120.0   50.0
-150.0   90.0   33.333333333333336
-200.0   120.0   33.333333333333336
-200.0   120.0   0.0
-150.0   120.0   0.0
-200.0   150.0   0.0
-200.0   120.0   16.666666666666668
-150.0   120.0   0.0
-150.0   150.0   0.0
-200.0   150.0   0.0
-150.0   150.0   16.666666666666668
-200.0   120.0   16.666666666666668
-200.0   150.0   16.666666666666668
-150.0   150.0   16.666666666666668
-200.0   150.0   0.0
-200.0   120.0   16.666666666666668
-150.0   150.0   16.666666666666668
-150.0   120.0   16.666666666666668
-150.0   120.0   0.0
-200.0   120.0   16.666666666666668
-150.0   150.0   16.666666666666668
-150.0   120.0   0.0
-200.0   150.0   0.0
-200.0   120.0   16.666666666666668
-150.0   120.0   16.666666666666668
-200.0   150.0   16.666666666666668
-200.0   120.0   33.333333333333336
-150.0   120.0   16.666666666666668
-150.0   150.0   16.666666666666668
-200.0   150.0   16.666666666666668
-150.0   150.0   33.333333333333336
-200.0   120.0   33.333333333333336
-200.0   150.0   33.333333333333336
-150.0   150.0   33.333333333333336
-200.0   150.0   16.666666666666668
-200.0   120.0   33.333333333333336
-150.0   150.0   33.333333333333336
-150.0   120.0   33.333333333333336
-150.0   120.0   16.666666666666668
-200.0   120.0   33.333333333333336
-150.0   150.0   33.333333333333336
-150.0   120.0   16.666666666666668
-200.0   150.0   16.666666666666668
-200.0   120.0   33.333333333333336
-150.0   120.0   33.333333333333336
-200.0   150.0   33.333333333333336
-200.0   120.0   50.0
-150.0   120.0   33.333333333333336
-150.0   150.0   33.333333333333336
-200.0   150.0   33.333333333333336
-150.0   150.0   50.0
-200.0   120.0   50.0
-200.0   150.0   50.0
-150.0   150.0   50.0
-200.0   150.0   33.333333333333336
-200.0   120.0   50.0
-150.0   150.0   50.0
-150.0   120.0   50.0
-150.0   120.0   33.333333333333336
-200.0   120.0   50.0
-150.0   150.0   50.0
-150.0   120.0   33.333333333333336
-200.0   150.0   33.333333333333336
-150.0   0.0   0.0
-100.0   0.0   0.0
-150.0   30.0   0.0
-150.0   0.0   16.666666666666668
-100.0   0.0   0.0
-100.0   30.0   0.0
-150.0   30.0   0.0
-100.0   30.0   16.666666666666668
-150.0   0.0   16.666666666666668
-150.0   30.0   16.666666666666668
-100.0   30.0   16.666666666666668
-150.0   30.0   0.0
-150.0   0.0   16.666666666666668
-100.0   30.0   16.666666666666668
-100.0   0.0   16.666666666666668
-100.0   0.0   0.0
-150.0   0.0   16.666666666666668
-100.0   30.0   16.666666666666668
-100.0   0.0   0.0
-150.0   30.0   0.0
-150.0   0.0   16.666666666666668
-100.0   0.0   16.666666666666668
-150.0   30.0   16.666666666666668
-150.0   0.0   33.333333333333336
-100.0   0.0   16.666666666666668
-100.0   30.0   16.666666666666668
-150.0   30.0   16.666666666666668
-100.0   30.0   33.333333333333336
-150.0   0.0   33.333333333333336
-150.0   30.0   33.333333333333336
-100.0   30.0   33.333333333333336
-150.0   30.0   16.666666666666668
-150.0   0.0   33.333333333333336
-100.0   30.0   33.333333333333336
-100.0   0.0   33.333333333333336
-100.0   0.0   16.666666666666668
-150.0   0.0   33.333333333333336
-100.0   30.0   33.333333333333336
-100.0   0.0   16.666666666666668
-150.0   30.0   16.666666666666668
-150.0   0.0   33.333333333333336
-100.0   0.0   33.333333333333336
-150.0   30.0   33.333333333333336
-150.0   0.0   50.0
-100.0   0.0   33.333333333333336
-100.0   30.0   33.333333333333336
-150.0   30.0   33.333333333333336
-100.0   30.0   50.0
-150.0   0.0   50.0
-150.0   30.0   50.0
-100.0   30.0   50.0
-150.0   30.0   33.333333333333336
-150.0   0.0   50.0
-100.0   30.0   50.0
-100.0   0.0   50.0
-100.0   0.0   33.333333333333336
-150.0   0.0   50.0
-100.0   30.0   50.0
-100.0   0.0   33.333333333333336
-150.0   30.0   33.333333333333336
-150.0   30.0   0.0
-100.0   30.0   0.0
-150.0   60.0   0.0
-150.0   30.0   16.666666666666668
-100.0   30.0   0.0
-100.0   60.0   0.0
-150.0   60.0   0.0
-100.0   60.0   16.666666666666668
-150.0   30.0   16.666666666666668
-150.0   60.0   16.666666666666668
-100.0   60.0   16.666666666666668
-150.0   60.0   0.0
-150.0   30.0   16.666666666666668
-100.0   60.0   16.666666666666668
-100.0   30.0   16.666666666666668
-100.0   30.0   0.0
-150.0   30.0   16.666666666666668
-100.0   60.0   16.666666666666668
-100.0   30.0   0.0
-150.0   60.0   0.0
-150.0   30.0   16.666666666666668
-100.0   30.0   16.666666666666668
-150.0   60.0   16.666666666666668
-150.0   30.0   33.333333333333336
-100.0   30.0   16.666666666666668
-100.0   60.0   16.666666666666668
-150.0   60.0   16.666666666666668
-100.0   60.0   33.333333333333336
-150.0   30.0   33.333333333333336
-150.0   60.0   33.333333333333336
-100.0   60.0   33.333333333333336
-150.0   60.0   16.666666666666668
-150.0   30.0   33.333333333333336
-100.0   60.0   33.333333333333336
-100.0   30.0   33.333333333333336
-100.0   30.0   16.666666666666668
-150.0   30.0   33.333333333333336
-100.0   60.0   33.333333333333336
-100.0   30.0   16.666666666666668
-150.0   60.0   16.666666666666668
-150.0   30.0   33.333333333333336
-100.0   30.0   33.333333333333336
-150.0   60.0   33.333333333333336
-150.0   30.0   50.0
-100.0   30.0   33.333333333333336
-100.0   60.0   33.333333333333336
-150.0   60.0   33.333333333333336
-100.0   60.0   50.0
-150.0   30.0   50.0
-150.0   60.0   50.0
-100.0   60.0   50.0
-150.0   60.0   33.333333333333336
-150.0   30.0   50.0
-100.0   60.0   50.0
-100.0   30.0   50.0
-100.0   30.0   33.333333333333336
-150.0   30.0   50.0
-100.0   60.0   50.0
-100.0   30.0   33.333333333333336
-150.0   60.0   33.333333333333336
-150.0   60.0   0.0
-100.0   60.0   0.0
-150.0   90.0   0.0
-150.0   60.0   16.666666666666668
-100.0   60.0   0.0
-100.0   90.0   0.0
-150.0   90.0   0.0
-100.0   90.0   16.666666666666668
-150.0   60.0   16.666666666666668
-150.0   90.0   16.666666666666668
-100.0   90.0   16.666666666666668
-150.0   90.0   0.0
-150.0   60.0   16.666666666666668
-100.0   90.0   16.666666666666668
-100.0   60.0   16.666666666666668
-100.0   60.0   0.0
-150.0   60.0   16.666666666666668
-100.0   90.0   16.666666666666668
-100.0   60.0   0.0
-150.0   90.0   0.0
-150.0   60.0   16.666666666666668
-100.0   60.0   16.666666666666668
-150.0   90.0   16.666666666666668
-150.0   60.0   33.333333333333336
-100.0   60.0   16.666666666666668
-100.0   90.0   16.666666666666668
-150.0   90.0   16.666666666666668
-100.0   90.0   33.333333333333336
-150.0   60.0   33.333333333333336
-150.0   90.0   33.333333333333336
-100.0   90.0   33.333333333333336
-150.0   90.0   16.666666666666668
-150.0   60.0   33.333333333333336
-100.0   90.0   33.333333333333336
-100.0   60.0   33.333333333333336
-100.0   60.0   16.666666666666668
-150.0   60.0   33.333333333333336
-100.0   90.0   33.333333333333336
-100.0   60.0   16.666666666666668
-150.0   90.0   16.666666666666668
-150.0   60.0   33.333333333333336
-100.0   60.0   33.333333333333336
-150.0   90.0   33.333333333333336
-150.0   60.0   50.0
-100.0   60.0   33.333333333333336
-100.0   90.0   33.333333333333336
-150.0   90.0   33.333333333333336
-100.0   90.0   50.0
-150.0   60.0   50.0
-150.0   90.0   50.0
-100.0   90.0   50.0
-150.0   90.0   33.333333333333336
-150.0   60.0   50.0
-100.0   90.0   50.0
-100.0   60.0   50.0
-100.0   60.0   33.333333333333336
-150.0   60.0   50.0
-100.0   90.0   50.0
-100.0   60.0   33.333333333333336
-150.0   90.0   33.333333333333336
-150.0   90.0   0.0
-100.0   90.0   0.0
-150.0   120.0   0.0
-150.0   90.0   16.666666666666668
-100.0   90.0   0.0
-100.0   120.0   0.0
-150.0   120.0   0.0
-100.0   120.0   16.666666666666668
-150.0   90.0   16.666666666666668
-150.0   120.0   16.666666666666668
-100.0   120.0   16.666666666666668
-150.0   120.0   0.0
-150.0   90.0   16.666666666666668
-100.0   120.0   16.666666666666668
-100.0   90.0   16.666666666666668
-100.0   90.0   0.0
-150.0   90.0   16.666666666666668
-100.0   120.0   16.666666666666668
-100.0   90.0   0.0
-150.0   120.0   0.0
-150.0   90.0   16.666666666666668
-100.0   90.0   16.666666666666668
-150.0   120.0   16.666666666666668
-150.0   90.0   33.333333333333336
-100.0   90.0   16.666666666666668
-100.0   120.0   16.666666666666668
-150.0   120.0   16.666666666666668
-100.0   120.0   33.333333333333336
-150.0   90.0   33.333333333333336
-150.0   120.0   33.333333333333336
-100.0   120.0   33.333333333333336
-150.0   120.0   16.666666666666668
-150.0   90.0   33.333333333333336
-100.0   120.0   33.333333333333336
-100.0   90.0   33.333333333333336
-100.0   90.0   16.666666666666668
-150.0   90.0   33.333333333333336
-100.0   120.0   33.333333333333336
-100.0   90.0   16.666666666666668
-150.0   120.0   16.666666666666668
-150.0   90.0   33.333333333333336
-100.0   90.0   33.333333333333336
-150.0   120.0   33.333333333333336
-150.0   90.0   50.0
-100.0   90.0   33.333333333333336
-100.0   120.0   33.333333333333336
-150.0   120.0   33.333333333333336
-100.0   120.0   50.0
-150.0   90.0   50.0
-150.0   120.0   50.0
-100.0   120.0   50.0
-150.0   120.0   33.333333333333336
-150.0   90.0   50.0
-100.0   120.0   50.0
-100.0   90.0   50.0
-100.0   90.0   33.333333333333336
-150.0   90.0   50.0
-100.0   120.0   50.0
-100.0   90.0   33.333333333333336
-150.0   120.0   33.333333333333336
-150.0   120.0   0.0
-100.0   120.0   0.0
-150.0   150.0   0.0
-150.0   120.0   16.666666666666668
-100.0   120.0   0.0
-100.0   150.0   0.0
-150.0   150.0   0.0
-100.0   150.0   16.666666666666668
-150.0   120.0   16.666666666666668
-150.0   150.0   16.666666666666668
-100.0   150.0   16.666666666666668
-150.0   150.0   0.0
-150.0   120.0   16.666666666666668
-100.0   150.0   16.666666666666668
-100.0   120.0   16.666666666666668
-100.0   120.0   0.0
-150.0   120.0   16.666666666666668
-100.0   150.0   16.666666666666668
-100.0   120.0   0.0
-150.0   150.0   0.0
-150.0   120.0   16.666666666666668
-100.0   120.0   16.666666666666668
-150.0   150.0   16.666666666666668
-150.0   120.0   33.333333333333336
-100.0   120.0   16.666666666666668
-100.0   150.0   16.666666666666668
-150.0   150.0   16.666666666666668
-100.0   150.0   33.333333333333336
-150.0   120.0   33.333333333333336
-150.0   150.0   33.333333333333336
-100.0   150.0   33.333333333333336
-150.0   150.0   16.666666666666668
-150.0   120.0   33.333333333333336
-100.0   150.0   33.333333333333336
-100.0   120.0   33.333333333333336
-100.0   120.0   16.666666666666668
-150.0   120.0   33.333333333333336
-100.0   150.0   33.333333333333336
-100.0   120.0   16.666666666666668
-150.0   150.0   16.666666666666668
-150.0   120.0   33.333333333333336
-100.0   120.0   33.333333333333336
-150.0   150.0   33.333333333333336
-150.0   120.0   50.0
-100.0   120.0   33.333333333333336
-100.0   150.0   33.333333333333336
-150.0   150.0   33.333333333333336
-100.0   150.0   50.0
-150.0   120.0   50.0
-150.0   150.0   50.0
-100.0   150.0   50.0
-150.0   150.0   33.333333333333336
-150.0   120.0   50.0
-100.0   150.0   50.0
-100.0   120.0   50.0
-100.0   120.0   33.333333333333336
-150.0   120.0   50.0
-100.0   150.0   50.0
-100.0   120.0   33.333333333333336
-150.0   150.0   33.333333333333336
-100.0   0.0   0.0
-50.0   0.0   0.0
-100.0   30.0   0.0
-100.0   0.0   16.666666666666668
-50.0   0.0   0.0
-50.0   30.0   0.0
-100.0   30.0   0.0
-50.0   30.0   16.666666666666668
-100.0   0.0   16.666666666666668
-100.0   30.0   16.666666666666668
-50.0   30.0   16.666666666666668
-100.0   30.0   0.0
-100.0   0.0   16.666666666666668
-50.0   30.0   16.666666666666668
-50.0   0.0   16.666666666666668
-50.0   0.0   0.0
-100.0   0.0   16.666666666666668
-50.0   30.0   16.666666666666668
-50.0   0.0   0.0
-100.0   30.0   0.0
-100.0   0.0   16.666666666666668
-50.0   0.0   16.666666666666668
-100.0   30.0   16.666666666666668
-100.0   0.0   33.333333333333336
-50.0   0.0   16.666666666666668
-50.0   30.0   16.666666666666668
-100.0   30.0   16.666666666666668
-50.0   30.0   33.333333333333336
-100.0   0.0   33.333333333333336
-100.0   30.0   33.333333333333336
-50.0   30.0   33.333333333333336
-100.0   30.0   16.666666666666668
-100.0   0.0   33.333333333333336
-50.0   30.0   33.333333333333336
-50.0   0.0   33.333333333333336
-50.0   0.0   16.666666666666668
-100.0   0.0   33.333333333333336
-50.0   30.0   33.333333333333336
-50.0   0.0   16.666666666666668
-100.0   30.0   16.666666666666668
-100.0   0.0   33.333333333333336
-50.0   0.0   33.333333333333336
-100.0   30.0   33.333333333333336
-100.0   0.0   50.0
-50.0   0.0   33.333333333333336
-50.0   30.0   33.333333333333336
-100.0   30.0   33.333333333333336
-50.0   30.0   50.0
-100.0   0.0   50.0
-100.0   30.0   50.0
-50.0   30.0   50.0
-100.0   30.0   33.333333333333336
-100.0   0.0   50.0
-50.0   30.0   50.0
-50.0   0.0   50.0
-50.0   0.0   33.333333333333336
-100.0   0.0   50.0
-50.0   30.0   50.0
-50.0   0.0   33.333333333333336
-100.0   30.0   33.333333333333336
-100.0   30.0   0.0
-50.0   30.0   0.0
-100.0   60.0   0.0
-100.0   30.0   16.666666666666668
-50.0   30.0   0.0
-50.0   60.0   0.0
-100.0   60.0   0.0
-50.0   60.0   16.666666666666668
-100.0   30.0   16.666666666666668
-100.0   60.0   16.666666666666668
-50.0   60.0   16.666666666666668
-100.0   60.0   0.0
-100.0   30.0   16.666666666666668
-50.0   60.0   16.666666666666668
-50.0   30.0   16.666666666666668
-50.0   30.0   0.0
-100.0   30.0   16.666666666666668
-50.0   60.0   16.666666666666668
-50.0   30.0   0.0
-100.0   60.0   0.0
-100.0   30.0   16.666666666666668
-50.0   30.0   16.666666666666668
-100.0   60.0   16.666666666666668
-100.0   30.0   33.333333333333336
-50.0   30.0   16.666666666666668
-50.0   60.0   16.666666666666668
-100.0   60.0   16.666666666666668
-50.0   60.0   33.333333333333336
-100.0   30.0   33.333333333333336
-100.0   60.0   33.333333333333336
-50.0   60.0   33.333333333333336
-100.0   60.0   16.666666666666668
-100.0   30.0   33.333333333333336
-50.0   60.0   33.333333333333336
-50.0   30.0   33.333333333333336
-50.0   30.0   16.666666666666668
-100.0   30.0   33.333333333333336
-50.0   60.0   33.333333333333336
-50.0   30.0   16.666666666666668
-100.0   60.0   16.666666666666668
-100.0   30.0   33.333333333333336
-50.0   30.0   33.333333333333336
-100.0   60.0   33.333333333333336
-100.0   30.0   50.0
-50.0   30.0   33.333333333333336
-50.0   60.0   33.333333333333336
-100.0   60.0   33.333333333333336
-50.0   60.0   50.0
-100.0   30.0   50.0
-100.0   60.0   50.0
-50.0   60.0   50.0
-100.0   60.0   33.333333333333336
-100.0   30.0   50.0
-50.0   60.0   50.0
-50.0   30.0   50.0
-50.0   30.0   33.333333333333336
-100.0   30.0   50.0
-50.0   60.0   50.0
-50.0   30.0   33.333333333333336
-100.0   60.0   33.333333333333336
-100.0   60.0   0.0
-50.0   60.0   0.0
-100.0   90.0   0.0
-100.0   60.0   16.666666666666668
-50.0   60.0   0.0
-50.0   90.0   0.0
-100.0   90.0   0.0
-50.0   90.0   16.666666666666668
-100.0   60.0   16.666666666666668
-100.0   90.0   16.666666666666668
-50.0   90.0   16.666666666666668
-100.0   90.0   0.0
-100.0   60.0   16.666666666666668
-50.0   90.0   16.666666666666668
-50.0   60.0   16.666666666666668
-50.0   60.0   0.0
-100.0   60.0   16.666666666666668
-50.0   90.0   16.666666666666668
-50.0   60.0   0.0
-100.0   90.0   0.0
-100.0   60.0   16.666666666666668
-50.0   60.0   16.666666666666668
-100.0   90.0   16.666666666666668
-100.0   60.0   33.333333333333336
-50.0   60.0   16.666666666666668
-50.0   90.0   16.666666666666668
-100.0   90.0   16.666666666666668
-50.0   90.0   33.333333333333336
-100.0   60.0   33.333333333333336
-100.0   90.0   33.333333333333336
-50.0   90.0   33.333333333333336
-100.0   90.0   16.666666666666668
-100.0   60.0   33.333333333333336
-50.0   90.0   33.333333333333336
-50.0   60.0   33.333333333333336
-50.0   60.0   16.666666666666668
-100.0   60.0   33.333333333333336
-50.0   90.0   33.333333333333336
-50.0   60.0   16.666666666666668
-100.0   90.0   16.666666666666668
-100.0   60.0   33.333333333333336
-50.0   60.0   33.333333333333336
-100.0   90.0   33.333333333333336
-100.0   60.0   50.0
-50.0   60.0   33.333333333333336
-50.0   90.0   33.333333333333336
-100.0   90.0   33.333333333333336
-50.0   90.0   50.0
-100.0   60.0   50.0
-100.0   90.0   50.0
-50.0   90.0   50.0
-100.0   90.0   33.333333333333336
-100.0   60.0   50.0
-50.0   90.0   50.0
-50.0   60.0   50.0
-50.0   60.0   33.333333333333336
-100.0   60.0   50.0
-50.0   90.0   50.0
-50.0   60.0   33.333333333333336
-100.0   90.0   33.333333333333336
-100.0   90.0   0.0
-50.0   90.0   0.0
-100.0   120.0   0.0
-100.0   90.0   16.666666666666668
-50.0   90.0   0.0
-50.0   120.0   0.0
-100.0   120.0   0.0
-50.0   120.0   16.666666666666668
-100.0   90.0   16.666666666666668
-100.0   120.0   16.666666666666668
-50.0   120.0   16.666666666666668
-100.0   120.0   0.0
-100.0   90.0   16.666666666666668
-50.0   120.0   16.666666666666668
-50.0   90.0   16.666666666666668
-50.0   90.0   0.0
-100.0   90.0   16.666666666666668
-50.0   120.0   16.666666666666668
-50.0   90.0   0.0
-100.0   120.0   0.0
-100.0   90.0   16.666666666666668
-50.0   90.0   16.666666666666668
-100.0   120.0   16.666666666666668
-100.0   90.0   33.333333333333336
-50.0   90.0   16.666666666666668
-50.0   120.0   16.666666666666668
-100.0   120.0   16.666666666666668
-50.0   120.0   33.333333333333336
-100.0   90.0   33.333333333333336
-100.0   120.0   33.333333333333336
-50.0   120.0   33.333333333333336
-100.0   120.0   16.666666666666668
-100.0   90.0   33.333333333333336
-50.0   120.0   33.333333333333336
-50.0   90.0   33.333333333333336
-50.0   90.0   16.666666666666668
-100.0   90.0   33.333333333333336
-50.0   120.0   33.333333333333336
-50.0   90.0   16.666666666666668
-100.0   120.0   16.666666666666668
-100.0   90.0   33.333333333333336
-50.0   90.0   33.333333333333336
-100.0   120.0   33.333333333333336
-100.0   90.0   50.0
-50.0   90.0   33.333333333333336
-50.0   120.0   33.333333333333336
-100.0   120.0   33.333333333333336
-50.0   120.0   50.0
-100.0   90.0   50.0
-100.0   120.0   50.0
-50.0   120.0   50.0
-100.0   120.0   33.333333333333336
-100.0   90.0   50.0
-50.0   120.0   50.0
-50.0   90.0   50.0
-50.0   90.0   33.333333333333336
-100.0   90.0   50.0
-50.0   120.0   50.0
-50.0   90.0   33.333333333333336
-100.0   120.0   33.333333333333336
-100.0   120.0   0.0
-50.0   120.0   0.0
-100.0   150.0   0.0
-100.0   120.0   16.666666666666668
-50.0   120.0   0.0
-50.0   150.0   0.0
-100.0   150.0   0.0
-50.0   150.0   16.666666666666668
-100.0   120.0   16.666666666666668
-100.0   150.0   16.666666666666668
-50.0   150.0   16.666666666666668
-100.0   150.0   0.0
-100.0   120.0   16.666666666666668
-50.0   150.0   16.666666666666668
-50.0   120.0   16.666666666666668
-50.0   120.0   0.0
-100.0   120.0   16.666666666666668
-50.0   150.0   16.666666666666668
-50.0   120.0   0.0
-100.0   150.0   0.0
-100.0   120.0   16.666666666666668
-50.0   120.0   16.666666666666668
-100.0   150.0   16.666666666666668
-100.0   120.0   33.333333333333336
-50.0   120.0   16.666666666666668
-50.0   150.0   16.666666666666668
-100.0   150.0   16.666666666666668
-50.0   150.0   33.333333333333336
-100.0   120.0   33.333333333333336
-100.0   150.0   33.333333333333336
-50.0   150.0   33.333333333333336
-100.0   150.0   16.666666666666668
-100.0   120.0   33.333333333333336
-50.0   150.0   33.333333333333336
-50.0   120.0   33.333333333333336
-50.0   120.0   16.666666666666668
-100.0   120.0   33.333333333333336
-50.0   150.0   33.333333333333336
-50.0   120.0   16.666666666666668
-100.0   150.0   16.666666666666668
-100.0   120.0   33.333333333333336
-50.0   120.0   33.333333333333336
-100.0   150.0   33.333333333333336
-100.0   120.0   50.0
-50.0   120.0   33.333333333333336
-50.0   150.0   33.333333333333336
-100.0   150.0   33.333333333333336
-50.0   150.0   50.0
-100.0   120.0   50.0
-100.0   150.0   50.0
-50.0   150.0   50.0
-100.0   150.0   33.333333333333336
-100.0   120.0   50.0
-50.0   150.0   50.0
-50.0   120.0   50.0
-50.0   120.0   33.333333333333336
-100.0   120.0   50.0
-50.0   150.0   50.0
-50.0   120.0   33.333333333333336
-100.0   150.0   33.333333333333336
-50.0   0.0   0.0
0.0   0.0   0.0
-50.0   30.0   0.0
-50.0   0.0   16.666666666666668
0.0   0.0   0.0
0.0   30.0   0.0
-50.0   30.0   0.0
0.0   30.0   16.666666666666668
-50.0   0.0   16.666666666666668
-50.0   30.0   16.666666666666668
0.0   30.0   16.666666666666668
-50.0   30.0   0.0
-50.0   0.0   16.666666666666668
0.0   30.0   16.666666666666668
0.0   0.0   16.666666666666668
0.0   0.0   0.0
-50.0   0.0   16.666666666666668
0.0   30.0   16.666666666666668
0.0   0.0   0.0
-50.0   30.0   0.0
-50.0   0.0   16.666666666666668
0.0   0.0   16.666666666666668
-50.0   30.0   16.666666666666668
-50.0   0.0   33.333333333333336
0.0   0.0   16.666666666666668
0.0   30.0   16.666666666666668
-50.0   30.0   16.666666666666668
0.0   30.0   33.333333333333336
-50.0   0.0   33.333333333333336
-50.0   30.0   33.333333333333336
0.0   30.0   33.333333333333336
-50.0   30.0   16.666666666666668
-50.0   0.0   33.333333333333336
0.0   30.0   33.333333333333336
0.0   0.0   33.333333333333336
0.0   0.0   16.666666666666668
-50.0   0.0   33.333333333333336
0.0   30.0   33.333333333333336
0.0   0.0   16.666666666666668
-50.0   30.0   16.666666666666668
-50.0   0.0   33.333333333333336
0.0   0.0   33.333333333333336
-50.0   30.0   33.333333333333336
-50.0   0.0   50.0
0.0   0.0   33.333333333333336
0.0   30.0   33.333333333333336
-50.0   30.0   33.333333333333336
0.0   30.0   50.0
-50.0   0.0   50.0
-50.0   30.0   50.0
0.0   30.0   50.0
-50.0   30.0   33.333333333333336
-50.0   0.0   50.0
0.0   30.0   50.0
0.0   0.0   50.0
0.0   0.0   33.333333333333336
-50.0   0.0   50.0
0.0   30.0   50.0
0.0   0.0   33.333333333333336
-50.0   30.0   33.333333333333336
-50.0   30.0   0.0
0.0   30.0   0.0
-50.0   60.0   0.0
-50.0   30.0   16.666666666666668
0.0   30.0   0.0
0.0   60.0   0.0
-50.0   60.0   0.0
0.0   60.0   16.666666666666668
-50.0   30.0   16.666666666666668
-50.0   60.0   16.666666666666668
0.0   60.0   16.666666666666668
-50.0   60.0   0.0
-50.0   30.0   16.666666666666668
0.0   60.0   16.666666666666668
0.0   30.0   16.666666666666668
0.0   30.0   0.0
-50.0   30.0   16.666666666666668
0.0   60.0   16.666666666666668
0.0   30.0   0.0
-50.0   60.0   0.0
-50.0   30.0   16.666666666666668
0.0   30.0   16.666666666666668
-50.0   60.0   16.666666666666668
-50.0   30.0   33.333333333333336
0.0   30.0   16.666666666666668
0.0   60.0   16.666666666666668
-50.0   60.0   16.666666666666668
0.0   60.0   33.333333333333336
-50.0   30.0   33.333333333333336
-50.0   60.0   33.333333333333336
0.0   60.0   33.333333333333336
-50.0   60.0   16.666666666666668
-50.0   30.0   33.333333333333336
0.0   60.0   33.333333333333336
0.0   30.0   33.333333333333336
0.0   30.0   16.666666666666668
-50.0   30.0   33.333333333333336
0.0   60.0   33.333333333333336
0.0   30.0   16.666666666666668
-50.0   60.0   16.666666666666668
-50.0   30.0   33.333333333333336
0.0   30.0   33.333333333333336
-50.0   60.0   33.333333333333336
-50.0   30.0   50.0
0.0   30.0   33.333333333333336
0.0   60.0   33.333333333333336
-50.0   60.0   33.333333333333336
0.0   60.0   50.0
-50.0   30.0   50.0
-50.0   60.0   50.0
0.0   60.0   50.0
-50.0   60.0   33.333333333333336
-50.0   30.0   50.0
0.0   60.0   50.0
0.0   30.0   50.0
0.0   30.0   33.333333333333336
-50.0   30.0   50.0
0.0   60.0   50.0
0.0   30.0   33.333333333333336
-50.0   60.0   33.333333333333336
-50.0   60.0   0.0
0.0   60.0   0.0
-50.0   90.0   0.0
-50.0   60.0   16.666666666666668
0.0   60.0   0.0
0.0   90.0   0.0
-50.0   90.0   0.0
0.0   90.0   16.666666666666668
-50.0   60.0   16.666666666666668
-50.0   90.0   16.666666666666668
0.0   90.0   16.666666666666668
-50.0   90.0   0.0
-50.0   60.0   16.666666666666668
0.0   90.0   16.666666666666668
0.0   60.0   16.666666666666668
0.0   60.0   0.0
-50.0   60.0   16.666666666666668
0.0   90.0   16.666666666666668
0.0   60.0   0.0
-50.0   90.0   0.0
-50.0   60.0   16.666666666666668
0.0   60.0   16.666666666666668
-50.0   90.0   16.666666666666668
-50.0   60.0   33.333333333333336
0.0   60.0   16.666666666666668
0.0   90.0   16.666666666666668
-50.0   90.0   16.666666666666668
0.0   90.0   33.333333333333336
-50.0   60.0   33.333333333333336
-50.0   90.0   33.333333333333336
0.0   90.0   33.333333333333336
-50.0   90.0   16.666666666666668
-50.0   60.0   33.333333333333336
0.0   90.0   33.333333333333336
0.0   60.0   33.333333333333336
0.0   60.0   16.666666666666668
-50.0   60.0   33.333333333333336
0.0   90.0   33.333333333333336
0.0   60.0   16.666666666666668
-50.0   90.0   16.666666666666668
-50.0   60.0   33.333333333333336
0.0   60.0   33.333333333333336
-50.0   90.0   33.333333333333336
-50.0   60.0   50.0
0.0   60.0   33.333333333333336
0.0   90.0   33.333333333333336
-50.0   90.0   33.333333333333336
0.0   90.0   50.0
-50.0   60.0   50.0
-50.0   90.0   50.0
0.0   90.0   50.0
-50.0   90.0   33.333333333333336
-50.0   60.0   50.0
0.0   90.0   50.0
0.0   60.0   50.0
0.0   60.0   33.333333333333336
-50.0   60.0   50.0
0.0   90.0   50.0
0.0   60.0   33.333333333333336
-50.0   90.0   33.333333333333336
-50.0   90.0   0.0
0.0   90.0   0.0
-50.0   120.0   0.0
-50.0   90.0   16.666666666666668
0.0   90.0   0.0
0.0   120.0   0.0
-50.0   120.0   0.0
0.0   120.0   16.666666666666668
-50.0   90.0   16.666666666666668
-50.0   120.0   16.666666666666668
0.0   120.0   16.666666666666668
-50.0   120.0   0.0
-50.0   90.0   16.666666666666668
0.0   120.0   16.666666666666668
0.0   90.0   16.666666666666668
0.0   90.0   0.0
-50.0   90.0   16.666666666666668
0.0   120.0   16.666666666666668
0.0   90.0   0.0
-50.0   120.0   0.0
-50.0   90.0   16.666666666666668
0.0   90.0   16.666666666666668
-50.0   120.0   16.666666666666668
-50.0   90.0   33.333333333333336
0.0   90.0   16.666666666666668
0.0   120.0   16.666666666666668
-50.0   120.0   16.666666666666668
0.0   120.0   33.333333333333336
-50.0   90.0   33.333333333333336
-50.0   120.0   33.333333333333336
0.0   120.0   33.333333333333336
-50.0   120.0   16.666666666666668
-50.0   90.0   33.333333333333336
0.0   120.0   33.333333333333336
0.0   90.0   33.333333333333336
0.0   90.0   16.666666666666668
-50.0   90.0   33.333333333333336
0.0   120.0   33.333333333333336
0.0   90.0   16.666666666666668
-50.0   120.0   16.666666666666668
-50.0   90.0   33.333333333333336
0.0   90.0   33.333333333333336
-50.0   120.0   33.333333333333336
-50.0   90.0   50.0
0.0   90.0   33.333333333333336
0.0   120.0   33.333333333333336
-50.0   120.0   33.333333333333336
0.0   120.0   50.0
-50.0   90.0   50.0
-50.0   120.0   50.0
0.0   120.0   50.0
-50.0   120.0   33.333333333333336
-50.0   90.0   50.0
0.0   120.0   50.0
0.0   90.0   50.0
0.0   90.0   33.333333333333336
-50.0   90.0   50.0
0.0   120.0   50.0
0.0   90.0   33.333333333333336
-50.0   120.0   33.333333333333336
-50.0   120.0   0.0
0.0   120.0   0.0
-50.0   150.0   0.0
-50.0   120.0   16.666666666666668
0.0   120.0   0.0
0.0   150.0   0.0
-50.0   150.0   0.0
0.0   150.0   16.666666666666668
-50.0   120.0   16.666666666666668
-50.0   150.0   16.666666666666668
0.0   150.0   16.666666666666668
-50.0   150.0   0.0
-50.0   120.0   16.666666666666668
0.0   150.0   16.666666666666668
0.0   120.0   16.666666666666668
0.0   120.0   0.0
-50.0   120.0   16.666666666666668
0.0   150.0   16.666666666666668
0.0   120.0   0.0
-50.0   150.0   0.0
-50.0   120.0   16.666666666666668
0.0   120.0   16.666666666666668
-50.0   150.0   16.666666666666668
-50.0   120.0   33.333333333333336
0.0   120.0   16.666666666666668
0.0   150.0   16.666666666666668
-50.0   150.0   16.666666666666668
0.0   150.0   33.333333333333336
-50.0   120.0   33.333333333333336
-50.0   150.0   33.333333333333336
0.0   150.0   33.333333333333336
-50.0   150.0   16.666666666666668
-50.0   120.0   33.333333333333336
0.0   150.0   33.333333333333336
0.0   120.0   33.333333333333336
0.0   120.0   16.666666666666668
-50.0   120.0   33.333333333333336
0.0   150.0   33.333333333333336
0.0   120.0   16.666666666666668
-50.0   150.0   16.666666666666668
-50.0   120.0   33.333333333333336
0.0   120.0   33.333333333333336
-50.0   150.0   33.333333333333336
-50.0   120.0   50.0
0.0   120.0   33.333333333333336
0.0   150.0   33.333333333333336
-50.0   150.0   33.333333333333336
0.0   150.0   50.0
-50.0   120.0   50.0
-50.0   150.0   50.0
0.0   150.0   50.0
-50.0   150.0   33.333333333333336
-50.0   120.0   50.0
0.0   150.0   50.0
0.0   120.0   50.0
0.0   120.0   33.333333333333336
-50.0   120.0   50.0
0.0   150.0   50.0
0.0   120.0   33.333333333333336
-50.0   150.0   33.333333333333336
0.0   0.0   0.0
50.0   0.0   0.0
0.0   30.0   0.0
0.0   0.0   16.666666666666668
50.0   0.0   0.0
50.0   30.0   0.0
0.0   30.0   0.0
50.0   30.0   16.666666666666668
0.0   0.0   16.666666666666668
0.0   30.0   16.666666666666668
50.0   30.0   16.666666666666668
0.0   30.0   0.0
0.0   0.0   16.666666666666668
50.0   30.0   16.666666666666668
50.0   0.0   16.666666666666668
50.0   0.0   0.0
0.0   0.0   16.666666666666668
50.0   30.0   16.666666666666668
50.0   0.0   0.0
0.0   30.0   0.0
0.0   0.0   16.666666666666668
50.0   0.0   16.666666666666668
0.0   30.0   16.666666666666668
0.0   0.0   33.333333333333336
50.0   0.0   16.666666666666668
50.0   30.0   16.666666666666668
0.0   30.0   16.666666666666668
50.0   30.0   33.333333333333336
0.0   0.0   33.333333333333336
0.0   30.0   33.333333333333336
50.0   30.0   33.333333333333336
0.0   30.0   16.666666666666668
0.0   0.0   33.333333333333336
50.0   30.0   33.333333333333336
50.0   0.0   33.333333333333336
50.0   0.0   16.666666666666668
0.0   0.0   33.333333333333336
50.0   30.0   33.333333333333336
50.0   0.0   16.666666666666668
0.0   30.0   16.666666666666668
0.0   0.0   33.333333333333336
50.0   0.0   33.333333333333336
0.0   30.0   33.333333333333336
0.0   0.0   50.0
50.0   0.0   33.333333333333336
50.0   30.0   33.333333333333336
0.0   30.0   33.333333333333336
50.0   30.0   50.0
0.0   0.0   50.0
0.0   30.0   50.0
50.0   30.0   50.0
0.0   30.0   33.333333333333336
0.0   0.0   50.0
50.0   30.0   50.0
50.0   0.0   50.0
50.0   0.0   33.333333333333336
0.0   0.0   50.0
50.0   30.0   50.0
50.0   0.0   33.333333333333336
0.0   30.0   33.333333333333336
0.0   30.0   0.0
50.0   30.0   0.0
0.0   60.0   0.0
0.0   30.0   16.666666666666668
50.0   30.0   0.0
50.0   60.0   0.0
0.0   60.0   0.0
50.0   60.0   16.666666666666668
0.0   30.0   16.666666666666668
0.0   60.0   16.666666666666668
50.0   60.0   16.666666666666668
0.0   60.0   0.0
0.0   30.0   16.666666666666668
50.0   60.0   16.666666666666668
50.0   30.0   16.666666666666668
50.0   30.0   0.0
0.0   30.0   16.666666666666668
50.0   60.0   16.666666666666668
50.0   30.0   0.0
0.0   60.0   0.0
0.0   30.0   16.666666666666668
50.0   30.0   16.666666666666668
0.0   60.0   16.666666666666668
0.0   30.0   33.333333333333336
50.0   30.0   16.666666666666668
50.0   60.0   16.666666666666668
0.0   60.0   16.666666666666668
50.0   60.0   33.333333333333336
0.0   30.0   33.333333333333336
0.0   60.0   33.333333333333336
50.0   60.0   33.333333333333336
0.0   60.0   16.666666666666668
0.0   30.0   33.333333333333336
50.0   60.0   33.333333333333336
50.0   30.0   33.333333333333336
50.0   30.0   16.666666666666668
0.0   30.0   33.333333333333336
50.0   60.0   33.333333333333336
50.0   30.0   16.666666666666668
0.0   60.0   16.666666666666668
0.0   30.0   33.333333333333336
50.0   30.0   33.333333333333336
0.0   60.0   33.333333333333336
0.0   30.0   50.0
50.0   30.0   33.333333333333336
50.0   60.0   33.333333333333336
0.0   60.0   33.333333333333336
50.0   60.0   50.0
0.0   30.0   50.0
0.0   60.0   50.0
50.0   60.0   50.0
0.0   60.0   33.333333333333336
0.0   30.0   50.0
50.0   60.0   50.0
50.0   30.0   50.0
50.0   30.0   33.333333333333336
0.0   30.0   50.0
50.0   60.0   50.0
50.0   30.0   33.333333333333336
0.0   60.0   33.333333333333336
0.0   60.0   0.0
50.0   60.0   0.0
0.0   90.0   0.0
0.0   60.0   16.666666666666668
50.0   60.0   0.0
50.0   90.0   0.0
0.0   90.0   0.0
50.0   90.0   16.666666666666668
0.0   60.0   16.666666666666668
0.0   90.0   16.666666666666668
50.0   90.0   16.666666666666668
0.0   90.0   0.0
0.0   60.0   16.666666666666668
50.0   90.0   16.666666666666668
50.0   60.0   16.666666666666668
50.0   60.0   0.0
0.0   60.0   16.666666666666668
50.0   90.0   16.666666666666668
50.0   60.0   0.0
0.0   90.0   0.0
0.0   60.0   16.666666666666668
50.0   60.0   16.666666666666668
0.0   90.0   16.666666666666668
0.0   60.0   33.333333333333336
50.0   60.0   16.666666666666668
50.0   90.0   16.666666666666668
0.0   90.0   16.666666666666668
50.0   90.0   33.333333333333336
0.0   60.0   33.333333333333336
0.0   90.0   33.333333333333336
50.0   90.0   33.333333333333336
0.0   90.0   16.666666666666668
0.0   60.0   33.333333333333336
50.0   90.0   33.333333333333336
50.0   60.0   33.333333333333336
50.0   60.0   16.666666666666668
0.0   60.0   33.333333333333336
50.0   90.0   33.333333333333336
50.0   60.0   16.666666666666668
0.0   90.0   16.666666666666668
0.0   60.0   33.333333333333336
50.0   60.0   33.333333333333336
0.0   90.0   33.333333333333336
0.0   60.0   50.0
50.0   60.0   33.333333333333336
50.0   90.0   33.333333333333336
0.0   90.0   33.333333333333336
50.0   90.0   50.0
0.0   60.0   50.0
0.0   90.0   50.0
50.0   90.0   50.0
0.0   90.0   33.333333333333336
0.0   60.0   50.0
50.0   90.0   50.0
50.0   60.0   50.0
50.0   60.0   33.333333333333336
0.0   60.0   50.0
50.0   90.0   50.0
50.0   60.0   33.333333333333336
0.0   90.0   33.333333333333336
0.0   90.0   0.0
50.0   90.0   0.0
0.0   120.0   0.0
0.0   90.0   16.666666666666668
50.0   90.0   0.0
50.0   120.0   0.0
0.0   120.0   0.0
50.0   120.0   16.666666666666668
0.0   90.0   16.666666666666668
0.0   120.0   16.666666666666668
50.0   120.0   16.666666666666668
0.0   120.0   0.0
0.0   90.0   16.666666666666668
50.0   120.0   16.666666666666668
50.0   90.0   16.666666666666668
50.0   90.0   0.0
0.0   90.0   16.666666666666668
50.0   120.0   16.666666666666668
50.0   90.0   0.0
0.0   120.0   0.0
0.0   90.0   16.666666666666668
50.0   90.0   16.666666666666668
0.0   120.0   16.666666666666668
0.0   90.0   33.333333333333336
50.0   90.0   16.666666666666668
50.0   120.0   16.666666666666668
0.0   120.0   16.666666666666668
50.0   120.0   33.333333333333336
0.0   90.0   33.333333333333336
0.0   120.0   33.333333333333336
50.0   120.0   33.333333333333336
0.0   120.0   16.666666666666668
0.0   90.0   33.333333333333336
50.0   120.0   33.333333333333336
50.0   90.0   33.333333333333336
50.0   90.0   16.666666666666668
0.0   90.0   33.333333333333336
50.0   120.0   33.333333333333336
50.0   90.0   16.666666666666668
0.0   120.0   16.666666666666668
0.0   90.0   33.333333333333336
50.0   90.0   33.333333333333336
0.0   120.0   33.333333333333336
0.0   90.0   50.0
50.0   90.0   33.333333333333336
50.0   120.0   33.333333333333336
0.0   120.0   33.333333333333336
50.0   120.0   50.0
0.0   90.0   50.0
0.0   120.0   50.0
50.0   120.0   50.0
0.0   120.0   33.333333333333336
0.0   90.0   50.0
50.0   120.0   50.0
50.0   90.0   50.0
50.0   90.0   33.333333333333336
0.0   90.0   50.0
50.0   120.0   50.0
50.0   90.0   33.333333333333336
0.0   120.0   33.333333333333336
0.0   120.0   0.0
50.0   120.0   0.0
0.0   150.0   0.0
0.0   120.0   16.666666666666668
50.0   120.0   0.0
50.0   150.0   0.0
0.0   150.0   0.0
50.0   150.0   16.666666666666668
0.0   120.0   16.666666666666668
0.0   150.0   16.666666666666668
50.0   150.0   16.666666666666668
0.0   150.0   0.0
0.0   120.0   16.666666666666668
50.0   150.0   16.666666666666668
50.0   120.0   16.666666666666668
50.0   120.0   0.0
0.0   120.0   16.666666666666668
50.0   150.0   16.666666666666668
50.0   120.0   0.0
0.0   150.0   0.0
0.0   120.0   16.666666666666668
50.0   120.0   16.666666666666668
0.0   150.0   16.666666666666668
0.0   120.0   33.333333333333336
50.0   120.0   16.666666666666668
50.0   150.0   16.666666666666668
0.0   150.0   16.666666666666668
50.0   150.0   33.333333333333336
0.0   120.0   33.333333333333336
0.0   150.0   33.333333333333336
50.0   150.0   33.333333333333336
0.0   150.0   16.666666666666668
0.0   120.0   33.333333333333336
50.0   150.0   33.333333333333336
50.0   120.0   33.333333333333336
50.0   120.0   16.666666666666668
0.0   120.0   33.333333333333336
50.0   150.0   33.333333333333336
50.0   120.0   16.666666666666668
0.0   150.0   16.666666666666668
0.0   120.0   33.333333333333336
50.0   120.0   33.333333333333336
0.0   150.0   33.333333333333336
0.0   120.0   50.0
50.0   120.0   33.333333333333336
50.0   150.0   33.333333333333336
0.0   150.0   33.333333333333336
50.0   150.0   50.0
0.0   120.0   50.0
0.0   150.0   50.0
50.0   150.0   50.0
0.0   150.0   33.333333333333336
0.0   120.0   50.0
50.0   150.0   50.0
50.0   120.0   50.0
50.0   120.0   33.333333333333336
0.0   120.0   50.0
50.0   150.0   50.0
50.0   120.0   33.333333333333336
0.0   150.0   33.333333333333336
50.0   0.0   0.0
100.0   0.0   0.0
50.0   30.0   0.0
50.0   0.0   16.666666666666668
100.0   0.0   0.0
100.0   30.0   0.0
50.0   30.0   0.0
100.0   30.0   16.666666666666668
50.0   0.0   16.666666666666668
50.0   30.0   16.666666666666668
100.0   30.0   16.666666666666668
50.0   30.0   0.0
50.0   0.0   16.666666666666668
100.0   30.0   16.666666666666668
100.0   0.0   16.666666666666668
100.0   0.0   0.0
50.0   0.0   16.666666666666668
100.0   30.0   16.666666666666668
100.0   0.0   0.0
50.0   30.0   0.0
50.0   0.0   16.666666666666668
100.0   0.0   16.666666666666668
50.0   30.0   16.666666666666668
50.0   0.0   33.333333333333336
100.0   0.0   16.666666666666668
100.0   30.0   16.666666666666668
50.0   30.0   16.666666666666668
100.0   30.0   33.333333333333336
50.0   0.0   33.333333333333336
50.0   30.0   33.333333333333336
100.0   30.0   33.333333333333336
50.0   30.0   16.666666666666668
50.0   0.0   33.333333333333336
100.0   30.0   33.333333333333336
100.0   0.0   33.333333333333336
100.0   0.0   16.666666666666668
50.0   0.0   33.333333333333336
100.0   30.0   33.333333333333336
100.0   0.0   16.666666666666668
50.0   30.0   16.666666666666668
50.0   0.0   33.333333333333336
100.0   0.0   33.333333333333336
50.0   30.0   33.333333333333336
50.0   0.0   50.0
100.0   0.0   33.333333333333336
100.0   30.0   33.333333333333336
50.0   30.0   33.333333333333336
100.0   30.0   50.0
50.0   0.0   50.0
50.0   30.0   50.0
100.0   30.0   50.0
50.0   30.0   33.333333333333336
50.0   0.0   50.0
100.0   30.0   50.0
100.0   0.0   50.0
100.0   0.0   33.333333333333336
50.0   0.0   50.0
100.0   30.0   50.0
100.0   0.0   33.333333333333336
50.0   30.0   33.333333333333336
50.0   30.0   0.0
100.0   30.0   0.0
50.0   60.0   0.0
50.0   30.0   16.666666666666668
100.0   30.0   0.0
100.0   60.0   0.0
50.0   60.0   0.0
100.0   60.0   16.666666666666668
50.0   30.0   16.666666666666668
50.0   60.0   16.666666666666668
100.0   60.0   16.666666666666668
50.0   60.0   0.0
50.0   30.0   16.666666666666668
100.0   60.0   16.666666666666668
100.0   30.0   16.666666666666668
100.0   30.0   0.0
50.0   30.0   16.666666666666668
100.0   60.0   16.666666666666668
100.0   30.0   0.0
50.0   60.0   0.0
50.0   30.0   16.666666666666668
100.0   30.0   16.666666666666668
50.0   60.0   16.666666666666668
50.0   30.0   33.333333333333336
100.0   30.0   16.666666666666668
100.0   60.0   16.666666666666668
50.0   60.0   16.666666666666668
100.0   60.0   33.333333333333336
50.0   30.0   33.333333333333336
50.0   60.0   33.333333333333336
100.0   60.0   33.333333333333336
50.0   60.0   16.666666666666668
50.0   30.0   33.333333333333336
100.0   60.0   33.333333333333336
100.0   30.0   33.333333333333336
100.0   30.0   16.666666666666668
50.0   30.0   33.333333333333336
100.0   60.0   33.333333333333336
100.0   30.0   16.666666666666668
50.0   60.0   16.666666666666668
50.0   30.0   33.333333333333336
100.0   30.0   33.333333333333336
50.0   60.0   33.333333333333336
50.0   30.0   50.0
100.0   30.0   33.333333333333336
100.0   60.0   33.333333333333336
50.0   60.0   33.333333333333336
100.0   60.0   50.0
50.0   30.0   50.0
50.0   60.0   50.0
100.0   60.0   50.0
50.0   60.0   33.333333333333336
50.0   30.0   50.0
100.0   60.0   50.0
100.0   30.0   50.0
100.0   30.0   33.333333333333336
50.0   30.0   50.0
100.0   60.0   50.0
100.0   30.0   33.333333333333336
50.0   60.0   33.333333333333336
50.0   60.0   0.0
100.0   60.0   0.0
50.0   90.0   0.0
50.0   60.0   16.666666666666668
100.0   60.0   0.0
100.0   90.0   0.0
50.0   90.0   0.0
100.0   90.0   16.666666666666668
50.0   60.0   16.666666666666668
50.0   90.0   16.666666666666668
100.0   90.0   16.666666666666668
50.0   90.0   0.0
50.0   60.0   16.666666666666668
100.0   90.0   16.666666666666668
100.0   60.0   16.666666666666668
100.0   60.0   0.0
50.0   60.0   16.666666666666668
100.0   90.0   16.666666666666668
100.0   60.0   0.0
50.0   90.0   0.0
50.0   60.0   16.666666666666668
100.0   60.0   16.666666666666668
50.0   90.0   16.666666666666668
50.0   60.0   33.333333333333336
100.0   60.0   16.666666666666668
100.0   90.0   16.666666666666668
50.0   90.0   16.666666666666668
100.0   90.0   33.333333333333336
50.0   60.0   33.333333333333336
50.0   90.0   33.333333333333336
100.0   90.0   33.333333333333336
50.0   90.0   16.666666666666668
50.0   60.0   33.333333333333336
100.0   90.0   33.333333333333336
100.0   60.0   33.333333333333336
100.0   60.0   16.666666666666668
50.0   60.0   33.333333333333336
100.0   90.0   33.333333333333336
100.0   60.0   16.666666666666668
50.0   90.0   16.666666666666668
50.0   60.0   33.333333333333336
100.0   60.0   33.333333333333336
50.0   90.0   33.333333333333336
50.0   60.0   50.0
100.0   60.0   33.333333333333336
100.0   90.0   33.333333333333336
50.0   90.0   33.333333333333336
100.0   90.0   50.0
50.0   60.0   50.0
50.0   90.0   50.0
100.0   90.0   50.0
50.0   90.0   33.333333333333336
50.0   60.0   50.0
100.0   90.0   50.0
100.0   60.0   50.0
100.0   60.0   33.333333333333336
50.0   60.0   50.0
100.0   90.0   50.0
100.0   60.0   33.333333333333336
50.0   90.0   33.333333333333336
50.0   90.0   0.0
100.0   90.0   0.0
50.0   120.0   0.0
50.0   90.0   16.666666666666668
100.0   90.0   0.0
100.0   120.0   0.0
50.0   120.0   0.0
100.0   120.0   16.666666666666668
50.0   90.0   16.666666666666668
50.0   120.0   16.666666666666668
100.0   120.0   16.666666666666668
50.0   120.0   0.0
50.0   90.0   16.666666666666668
100.0   120.0   16.666666666666668
100.0   90.0   16.666666666666668
100.0   90.0   0.0
50.0   90.0   16.666666666666668
100.0   120.0   16.666666666666668
100.0   90.0   0.0
50.0   120.0   0.0
50.0   90.0   16.666666666666668
100.0   90.0   16.666666666666668
50.0   120.0   16.666666666666668
50.0   90.0   33.333333333333336
100.0   90.0   16.666666666666668
100.0   120.0   16.666666666666668
50.0   120.0   16.666666666666668
100.0   120.0   33.333333333333336
50.0   90.0   33.333333333333336
50.0   120.0   33.333333333333336
100.0   120.0   33.333333333333336
50.0   120.0   16.666666666666668
50.0   90.0   33.333333333333336
100.0   120.0   33.333333333333336
100.0   90.0   33.333333333333336
100.0   90.0   16.666666666666668
50.0   90.0   33.333333333333336
100.0   120.0   33.333333333333336
100.0   90.0   16.666666666666668
50.0   120.0   16.666666666666668
50.0   90.0   33.333333333333336
100.0   90.0   33.333333333333336
50.0   120.0   33.333333333333336
50.0   90.0   50.0
100.0   90.0   33.333333333333336
100.0   120.0   33.333333333333336
50.0   120.0   33.333333333333336
100.0   120.0   50.0
50.0   90.0   50.0
50.0   120.0   50.0
100.0   120.0   50.0
50.0   120.0   33.333333333333336
50.0   90.0   50.0
100.0   120.0   50.0
100.0   90.0   50.0
100.0   90.0   33.333333333333336
50.0   90.0   50.0
100.0   120.0   50.0
100.0   90.0   33.333333333333336
50.0   120.0   33.333333333333336
50.0   120.0   0.0
100.0   120.0   0.0
50.0   150.0   0.0
50.0   120.0   16.666666666666668
100.0   120.0   0.0
100.0   150.0   0.0
50.0   150.0   0.0
100.0   150.0   16.666666666666668
50.0   120.0   16.666666666666668
50.0   150.0   16.666666666666668
100.0   150.0   16.666666666666668
50.0   150.0   0.0
50.0   120.0   16.666666666666668
100.0   150.0   16.666666666666668
100.0   120.0   16.666666666666668
100.0   120.0   0.0
50.0   120.0   16.666666666666668
100.0   150.0   16.666666666666668
100.0   120.0   0.0
50.0   150.0   0.0
50.0   120.0   16.666666666666668
100.0   120.0   16.666666666666668
50.0   150.0   16.666666666666668
50.0   120.0   33.333333333333336
100.0   120.0   16.666666666666668
100.0   150.0   16.666666666666668
50.0   150.0   16.666666666666668
100.0   150.0   33.333333333333336
50.0   120.0   33.333333333333336
50.0   150.0   33.333333333333336
100.0   150.0   33.333333333333336
50.0   150.0   16.666666666666668
50.0   120.0   33.333333333333336
100.0   150.0   33.333333333333336
100.0   120.0   33.333333333333336
100.0   120.0   16.666666666666668
50.0   120.0   33.333333333333336
100.0   150.0   33.333333333333336
100.0   120.0   16.666666666666668
50.0   150.0   16.666666666666668
50.0   120.0   33.333333333333336
100.0   120.0   33.333333333333336
50.0   150.0   33.333333333333336
50.0   120.0   50.0
100.0   120.0   33.333333333333336
100.0   150.0   33.333333333333336
50.0   150.0   33.333333333333336
100.0   150.0   50.0
50.0   120.0   50.0
50.0   150.0   50.0
100.0   150.0   50.0
50.0   150.0   33.333333333333336
50.0   120.0   50.0
100.0   150.0   50.0
100.0   120.0   50.0
100.0   120.0   33.333333333333336
50.0   120.0   50.0
100.0   150.0   50.0
100.0   120.0   33.333333333333336
50.0   150.0   33.333333333333336
100.0   0.0   0.0
150.0   0.0   0.0
100.0   30.0   0.0
100.0   0.0   16.666666666666668
150.0   0.0   0.0
150.0   30.0   0.0
100.0   30.0   0.0
150.0   30.0   16.666666666666668
100.0   0.0   16.666666666666668
100.0   30.0   16.666666666666668
150.0   30.0   16.666666666666668
100.0   30.0   0.0
100.0   0.0   16.666666666666668
150.0   30.0   16.666666666666668
150.0   0.0   16.666666666666668
150.0   0.0   0.0
100.0   0.0   16.666666666666668
150.0   30.0   16.666666666666668
150.0   0.0   0.0
100.0   30.0   0.0
100.0   0.0   16.666666666666668
150.0   0.0   16.666666666666668
100.0   30.0   16.666666666666668
100.0   0.0   33.333333333333336
150.0   0.0   16.666666666666668
150.0   30.0   16.666666666666668
100.0   30.0   16.666666666666668
150.0   30.0   33.333333333333336
100.0   0.0   33.333333333333336
100.0   30.0   33.333333333333336
150.0   30.0   33.333333333333336
100.0   30.0   16.666666666666668
100.0   0.0   33.333333333333336
150.0   30.0   33.333333333333336
150.0   0.0   33.333333333333336
150.0   0.0   16.666666666666668
100.0   0.0   33.333333333333336
150.0   30.0   33.333333333333336
150.0   0.0   16.666666666666668
100.0   30.0   16.666666666666668
100.0   0.0   33.333333333333336
150.0   0.0   33.333333333333336
100.0   30.0   33.333333333333336
100.0   0.0   50.0
150.0   0.0   33.333333333333336
150.0   30.0   33.333333333333336
100.0   30.0   33.333333333333336
150.0   30.0   50.0
100.0   0.0   50.0
100.0   30.0   50.0
150.0   30.0   50.0
100.0   30.0   33.333333333333336
100.0   0.0   50.0
150.0   30.0   50.0
150.0   0.0   50.0
150.0   0.0   33.333333333333336
100.0   0.0   50.0
150.0   30.0   50.0
150.0   0.0   33.333333333333336
100.0   30.0   33.333333333333336
100.0   30.0   0.0
150.0   30.0   0.0
100.0   60.0   0.0
100.0   30.0   16.666666666666668
150.0   30.0   0.0
150.0   60.0   0.0
100.0   60.0   0.0
150.0   60.0   16.666666666666668
100.0   30.0   16.666666666666668
100.0   60.0   16.666666666666668
150.0   60.0   16.666666666666668
100.0   60.0   0.0
100.0   30.0   16.666666666666668
150.0   60.0   16.666666666666668
150.0   30.0   16.666666666666668
150.0   30.0   0.0
100.0   30.0   16.666666666666668
150.0   60.0   16.666666666666668
150.0   30.0   0.0
100.0   60.0   0.0
100.0   30.0   16.666666666666668
150.0   30.0   16.666666666666668
100.0   60.0   16.666666666666668
100.0   30.0   33.333333333333336
150.0   30.0   16.666666666666668
150.0   60.0   16.666666666666668
100.0   60.0   16.666666666666668
150.0   60.0   33.333333333333336
100.0   30.0   33.333333333333336
100.0   60.0   33.333333333333336
150.0   60.0   33.333333333333336
100.0   60.0   16.666666666666668
100.0   30.0   33.333333333333336
150.0   60.0   33.333333333333336
150.0   30.0   33.333333333333336
150.0   30.0   16.666666666666668
100.0   30.0   33.333333333333336
150.0   60.0   33.333333333333336
150.0   30.0   16.666666666666668
100.0   60.0   16.666666666666668
100.0   30.0   33.333333333333336
150.0   30.0   33.333333333333336
100.0   60.0   33.333333333333336
100.0   30.0   50.0
150.0   30.0   33.333333333333336
150.0   60.0   33.333333333333336
100.0   60.0   33.333333333333336
150.0   60.0   50.0
100.0   30.0   50.0
100.0   60.0   50.0
150.0   60.0   50.0
100.0   60.0   33.333333333333336
100.0   30.0   50.0
150.0   60.0   50.0
150.0   30.0   50.0
150.0   30.0   33.333333333333336
100.0   30.0   50.0
150.0   60.0   50.0
150.0   30.0   33.333333333333336
100.0   60.0   33.333333333333336
100.0   60.0   0.0
150.0   60.0   0.0
100.0   90.0   0.0
100.0   60.0   16.666666666666668
150.0   60.0   0.0
150.0   90.0   0.0
100.0   90.0   0.0
150.0   90.0   16.666666666666668
100.0   60.0   16.666666666666668
100.0   90.0   16.666666666666668
150.0   90.0   16.666666666666668
100.0   90.0   0.0
100.0   60.0   16.666666666666668
150.0   90.0   16.666666666666668
150.0   60.0   16.666666666666668
150.0   60.0   0.0
100.0   60.0   16.666666666666668
150.0   90.0   16.666666666666668
150.0   60.0   0.0
100.0   90.0   0.0
100.0   60.0   16.666666666666668
150.0   60.0   16.666666666666668
100.0   90.0   16.666666666666668
100.0   60.0   33.333333333333336
150.0   60.0   16.666666666666668
150.0   90.0   16.666666666666668
100.0   90.0   16.666666666666668
150.0   90.0   33.333333333333336
100.0   60.0   33.333333333333336
100.0   90.0   33.333333333333336
150.0   90.0   33.333333333333336
100.0   90.0   16.666666666666668
100.0   60.0   33.333333333333336
150.0   90.0   33.333333333333336
150.0   60.0   33.333333333333336
150.0   60.0   16.666666666666668
100.0   60.0   33.333333333333336
150.0   90.0   33.333333333333336
150.0   60.0   16.666666666666668
100.0   90.0   16.666666666666668
100.0   60.0   33.333333333333336
150.0   60.0   33.333333333333336
100.0   90.0   33.333333333333336
100.0   60.0   50.0
150.0   60.0   33.333333333333336
150.0   90.0   33.333333333333336
100.0   90.0   33.333333333333336
150.0   90.0   50.0
100.0   60.0   50.0
100.0   90.0   50.0
150.0   90.0   50.0
100.0   90.0   33.333333333333336
100.0   60.0   50.0
150.0   90.0   50.0
150.0   60.0   50.0
150.0   60.0   33.333333333333336
100.0   60.0   50.0
150.0   90.0   50.0
150.0   60.0   33.333333333333336
100.0   90.0   33.333333333333336
100.0   90.0   0.0
150.0   90.0   0.0
100.0   120.0   0.0
100.0   90.0   16.666666666666668
150.0   90.0   0.0
150.0   120.0   0.0
100.0   120.0   0.0
150.0   120.0   16.666666666666668
100.0   90.0   16.666666666666668
100.0   120.0   16.666666666666668
150.0   120.0   16.666666666666668
100.0   120.0   0.0
100.0   90.0   16.666666666666668
150.0   120.0   16.666666666666668
150.0   90.0   16.666666666666668
150.0   90.0   0.0
100.0   90.0   16.666666666666668
150.0   120.0   16.666666666666668
150.0   90.0   0.0
100.0   120.0   0.0
100.0   90.0   16.666666666666668
150.0   90.0   16.666666666666668
100.0   120.0   16.666666666666668
100.0   90.0   33.333333333333336
150.0   90.0   16.666666666666668
150.0   120.0   16.666666666666668
100.0   120.0   16.666666666666668
150.0   120.0   33.333333333333336
100.0   90.0   33.333333333333336
100.0   120.0   33.333333333333336
150.0   120.0   33.333333333333336
100.0   120.0   16.666666666666668
100.0   90.0   33.333333333333336
150.0   120.0   33.333333333333336
150.0   90.0   33.333333333333336
150.0   90.0   16.666666666666668
100.0   90.0   33.333333333333336
150.0   120.0   33.333333333333336
150.0   90.0   16.666666666666668
100.0   120.0   16.666666666666668
100.0   90.0   33.333333333333336
150.0   90.0   33.333333333333336
100.0   120.0   33.333333333333336
100.0   90.0   50.0
150.0   90.0   33.333333333333336
150.0   120.0   33.333333333333336
100.0   120.0   33.333333333333336
150.0   120.0   50.0
100.0   90.0   50.0
100.0   120.0   50.0
150.0   120.0   50.0
100.0   120.0   33.333333333333336
100.0   90.0   50.0
150.0   120.0   50.0
150.0   90.0   50.0
150.0   90.0   33.333333333333336
100.0   90.0   50.0
150.0   120.0   50.0
150.0   90.0   33.333333333333336
100.0   120.0   33.333333333333336
100.0   120.0   0.0
150.0   120.0   0.0
100.0   150.0   0.0
100.0   120.0   16.666666666666668
150.0   120.0   0.0
150.0   150.0   0.0
100.0   150.0   0.0
150.0   150.0   16.666666666666668
100.0   120.0   16.666666666666668
100.0   150.0   16.666666666666668
150.0   150.0   16.666666666666668
100.0   150.0   0.0
100.0   120.0   16.666666666666668
150.0   150.0   16.666666666666668
150.0   120.0   16.666666666666668
150.0   120.0   0.0
100.0   120.0   16.666666666666668
150.0   150.0   16.666666666666668
150.0   120.0   0.0
100.0   150.0   0.0
100.0   120.0   16.666666666666668
150.0   120.0   16.666666666666668
100.0   150.0   16.666666666666668
100.0   120.0   33.333333333333336
150.0   120.0   16.666666666666668
150.0   150.0   16.666666666666668
100.0   150.0   16.666666666666668
150.0   150.0   33.333333333333336
100.0   120.0   33.333333333333336
100.0   150.0   33.333333333333336
150.0   150.0   33.333333333333336
100.0   150.0   16.666666666666668
100.0   120.0   33.333333333333336
150.0   150.0   33.333333333333336
150.0   120.0   33.333333333333336
150.0   120.0   16.666666666666668
100.0   120.0   33.333333333333336
150.0   150.0   33.333333333333336
150.0   120.0   16.666666666666668
100.0   150.0   16.666666666666668
100.0   120.0   33.333333333333336
150.0   120.0   33.333333333333336
100.0   150.0   33.333333333333336
100.0   120.0   50.0
150.0   120.0   33.333333333333336
150.0   150.0   33.333333333333336
100.0   150.0   33.333333333333336
150.0   150.0   50.0
100.0   120.0   50.0
100.0   150.0   50.0
150.0   150.0   50.0
100.0   150.0   33.333333333333336
100.0   120.0   50.0
150.0   150.0   50.0
150.0   120.0   50.0
150.0   120.0   33.333333333333336
100.0   120.0   50.0
150.0   150.0   50.0
150.0   120.0   33.333333333333336
100.0   150.0   33.333333333333336
150.0   0.0   0.0
200.0   0.0   0.0
150.0   30.0   0.0
150.0   0.0   16.666666666666668
200.0   0.0   0.0
200.0   30.0   0.0
150.0   30.0   0.0
200.0   30.0   16.666666666666668
150.0   0.0   16.666666666666668
150.0   30.0   16.666666666666668
200.0   30.0   16.666666666666668
150.0   30.0   0.0
150.0   0.0   16.666666666666668
200.0   30.0   16.666666666666668
200.0   0.0   16.666666666666668
200.0   0.0   0.0
150.0   0.0   16.666666666666668
200.0   30.0   16.666666666666668
200.0   0.0   0.0
150.0   30.0   0.0
150.0   0.0   16.666666666666668
200.0   0.0   16.666666666666668
150.0   30.0   16.666666666666668
150.0   0.0   33.333333333333336
200.0   0.0   16.666666666666668
200.0   30.0   16.666666666666668
150.0   30.0   16.666666666666668
200.0   30.0   33.333333333333336
150.0   0.0   33.333333333333336
150.0   30.0   33.333333333333336
200.0   30.0   33.333333333333336
150.0   30.0   16.666666666666668
150.0   0.0   33.333333333333336
200.0   30.0   33.333333333333336
200.0   0.0   33.333333333333336
200.0   0.0   16.666666666666668
150.0   0.0   33.333333333333336
200.0   30.0   33.333333333333336
200.0   0.0   16.666666666666668
150.0   30.0   16.666666666666668
150.0   0.0   33.333333333333336
200.0   0.0   33.333333333333336
150.0   30.0   33.333333333333336
150.0   0.0   50.0
200.0   0.0   33.333333333333336
200.0   30.0   33.333333333333336
150.0   30.0   33.333333333333336
200.0   30.0   50.0
150.0   0.0   50.0
150.0   30.0   50.0
200.0   30.0   50.0
150.0   30.0   33.333333333333336
150.0   0.0   50.0
200.0   30.0   50.0
200.0   0.0   50.0
200.0   0.0   33.333333333333336
150.0   0.0   50.0
200.0   30.0   50.0
200.0   0.0   33.333333333333336
150.0   30.0   33.333333333333336
150.0   30.0   0.0
200.0   30.0   0.0
150.0   60.0   0.0
150.0   30.0   16.666666666666668
200.0   30.0   0.0
200.0   60.0   0.0
150.0   60.0   0.0
200.0   60.0   16.666666666666668
150.0   30.0   16.666666666666668
150.0   60.0   16.666666666666668
200.0   60.0   16.666666666666668
150.0   60.0   0.0
150.0   30.0   16.666666666666668
200.0   60.0   16.666666666666668
200.0   30.0   16.666666666666668
200.0   30.0   0.0
150.0   30.0   16.666666666666668
200.0   60.0   16.666666666666668
200.0   30.0   0.0
150.0   60.0   0.0
150.0   30.0   16.666666666666668
200.0   30.0   16.666666666666668
150.0   60.0   16.666666666666668
150.0   30.0   33.333333333333336
200.0   30.0   16.666666666666668
200.0   60.0   16.666666666666668
150.0   60.0   16.666666666666668
200.0   60.0   33.333333333333336
150.0   30.0   33.333333333333336
150.0   60.0   33.333333333333336
200.0   60.0   33.333333333333336
150.0   60.0   16.666666666666668
150.0   30.0   33.333333333333336
200.0   60.0   33.333333333333336
200.0   30.0   33.333333333333336
200.0   30.0   16.666666666666668
150.0   30.0   33.333333333333336
200.0   60.0   33.333333333333336
200.0   30.0   16.666666666666668
150.0   60.0   16.666666666666668
150.0   30.0   33.333333333333336
200.0   30.0   33.333333333333336
150.0   60.0   33.333333333333336
150.0   30.0   50.0
200.0   30.0   33.333333333333336
200.0   60.0   33.333333333333336
150.0   60.0   33.333333333333336
200.0   60.0   50.0
150.0   30.0   50.0
150.0   60.0   50.0
200.0   60.0   50.0
150.0   60.0   33.333333333333336
150.0   30.0   50.0
200.0   60.0   50.0
200.0   30.0   50.0
200.0   30.0   33.333333333333336
150.0   30.0   50.0
200.0   60.0   50.0
200.0   30.0   33.333333333333336
150.0   60.0   33.333333333333336
150.0   60.0   0.0
200.0   60.0   0.0
150.0   90.0   0.0
150.0   60.0   16.666666666666668
200.0   60.0   0.0
200.0   90.0   0.0
150.0   90.0   0.0
200.0   90.0   16.666666666666668
150.0   60.0   16.666666666666668
150.0   90.0   16.666666666666668
200.0   90.0   16.666666666666668
150.0   90.0   0.0
150.0   60.0   16.666666666666668
200.0   90.0   16.666666666666668
200.0   60.0   16.666666666666668
200.0   60.0   0.0
150.0   60.0   16.666666666666668
200.0   90.0   16.666666666666668
200.0   60.0   0.0
150.0   90.0   0.0
150.0   60.0   16.666666666666668
200.0   60.0   16.666666666666668
150.0   90.0   16.666666666666668
150.0   60.0   33.333333333333336
200.0   60.0   16.666666666666668
200.0   90.0   16.666666666666668
150.0   90.0   16.666666666666668
200.0   90.0   33.333333333333336
150.0   60.0   33.333333333333336
150.0   90.0   33.333333333333336
200.0   90.0   33.333333333333336
150.0   90.0   16.666666666666668
150.0   60.0   33.333333333333336
200.0   90.0   33.333333333333336
200.0   60.0   33.333333333333336
200.0   60.0   16.666666666666668
150.0   60.0   33.333333333333336
200.0   90.0   33.333333333333336
200.0   60.0   16.666666666666668
150.0   90.0   16.666666666666668
150.0   60.0   33.333333333333336
200.0   60.0   33.333333333333336
150.0   90.0   33.333333333333336
150.0   60.0   50.0
200.0   60.0   33.333333333333336
200.0   90.0   33.333333333333336
150.0   90.0   33.333333333333336
200.0   90.0   50.0
150.0   60.0   50.0
150.0   90.0   50.0
200.0   90.0   50.0
150.0   90.0   33.333333333333336
150.0   60.0   50.0
200.0   90.0   50.0
200.0   60.0   50.0
200.0   60.0   33.333333333333336
150.0   60.0   50.0
200.0   90.0   50.0
200.0   60.0   33.333333333333336
150.0   90.0   33.333333333333336
150.0   90.0   0.0
200.0   90.0   0.0
150.0   120.0   0.0
150.0   90.0   16.666666666666668
200.0   90.0   0.0
200.0   120.0   0.0
150.0   120.0   0.0
200.0   120.0   16.666666666666668
150.0   90.0   16.666666666666668
150.0   120.0   16.666666666666668
200.0   120.0   16.666666666666668
150.0   120.0   0.0
150.0   90.0   16.666666666666668
200.0   120.0   16.666666666666668
200.0   90.0   16.666666666666668
200.0   90.0   0.0
150.0   90.0   16.666666666666668
200.0   120.0   16.666666666666668
200.0   90.0   0.0
150.0   120.0   0.0
150.0   90.0   16.666666666666668
200.0   90.0   16.666666666666668
150.0   120.0   16.666666666666668
150.0   90.0   33.333333333333336
200.0   90.0   16.666666666666668
200.0   120.0   16.666666666666668
150.0   120.0   16.666666666666668
200.0   120.0   33.333333333333336
150.0   90.0   33.333333333333336
150.0   120.0   33.333333333333336
200.0   120.0   33.333333333333336
150.0   120.0   16.666666666666668
150.0   90.0   33.333333333333336
200.0   120.0   33.333333333333336
200.0   90.0   33.333333333333336
200.0   90.0   16.666666666666668
150.0   90.0   33.333333333333336
200.0   120.0   33.333333333333336
200.0   90.0   16.666666666666668
150.0   120.0   16.666666666666668
150.0   90.0   33.333333333333336
200.0   90.0   33.333333333333336
150.0   120.0   33.333333333333336
150.0   90.0   50.0
200.0   90.0   33.333333333333336
200.0   120.0   33.333333333333336
150.0   120.0   33.333333333333336
200.0   120.0   50.0
150.0   90.0   50.0
150.0   120.0   50.0
200.0   120.0   50.0
150.0   120.0   33.333333333333336
150.0   90.0   50.0
200.0   120.0   50.0
200.0   90.0   50.0
200.0   90.0   33.333333333333336
150.0   90.0   50.0
200.0   120.0   50.0
200.0   90.0   33.333333333333336
150.0   120.0   33.333333333333336
150.0   120.0   0.0
200.0   120.0   0.0
150.0   150.0   0.0
150.0   120.0   16.666666666666668
200.0   120.0   0.0
200.0   150.0   0.0
150.0   150.0   0.0
200.0   150.0   16.666666666666668
150.0   120.0   16.666666666666668
150.0   150.0   16.666666666666668
200.0   150.0   16.666666666666668
150.0   150.0   0.0
150.0   120.0   16.666666666666668
200.0   150.0   16.666666666666668
200.0   120.0   16.666666666666668
200.0   120.0   0.0
150.0   120.0   16.666666666666668
200.0   150.0   16.666666666666668
200.0   120.0   0.0
150.0   150.0   0.0
150.0   120.0   16.666666666666668
200.0   120.0   16.666666666666668
150.0   150.0   16.666666666666668
150.0   120.0   33.333333333333336
200.0   120.0   16.666666666666668
200.0   150.0   16.666666666666668
150.0   150.0   16.666666666666668
200.0   150.0   33.333333333333336
150.0   120.0   33.333333333333336
150.0   150.0   33.333333333333336
200.0   150.0   33.333333333333336
150.0   150.0   16.666666666666668
150.0   120.0   33.333333333333336
200.0   150.0   33.333333333333336
200.0   120.0   33.333333333333336
200.0   120.0   16.666666666666668
150.0   120.0   33.333333333333336
200.0   150.0   33.333333333333336
200.0   120.0   16.666666666666668
150.0   150.0   16.666666666666668
150.0   120.0   33.333333333333336
200.0   120.0   33.333333333333336
150.0   150.0   33.333333333333336
150.0   120.0   50.0
200.0   120.0   33.333333333333336
200.0   150.0   33.333333333333336
150.0   150.0   33.333333333333336
200.0   150.0   50.0
150.0   120.0   50.0
150.0   150.0   50.0
200.0   150.0   50.0
150.0   150.0   33.333333333333336
150.0   120.0   50.0
200.0   150.0   50.0
200.0   120.0   50.0
200.0   120.0   33.333333333333336
150.0   120.0   50.0
200.0   150.0   50.0
200.0   120.0   33.333333333333336
150.0   150.0   33.333333333333336
200.0   0.0   0.0
250.0   0.0   0.0
200.0   30.0   0.0
200.0   0.0   16.666666666666668
250.0   0.0   0.0
250.0   30.0   0.0
200.0   30.0   0.0
250.0   30.0   16.666666666666668
200.0   0.0   16.666666666666668
200.0   30.0   16.666666666666668
250.0   30.0   16.666666666666668
200.0   30.0   0.0
200.0   0.0   16.666666666666668
250.0   30.0   16.666666666666668
250.0   0.0   16.666666666666668
250.0   0.0   0.0
200.0   0.0   16.666666666666668
250.0   30.0   16.666666666666668
250.0   0.0   0.0
200.0   30.0   0.0
200.0   0.0   16.666666666666668
250.0   0.0   16.666666666666668
200.0   30.0   16.666666666666668
200.0   0.0   33.333333333333336
250.0   0.0   16.666666666666668
250.0   30.0   16.666666666666668
200.0   30.0   16.666666666666668
250.0   30.0   33.333333333333336
200.0   0.0   33.333333333333336
200.0   30.0   33.333333333333336
250.0   30.0   33.333333333333336
200.0   30.0   16.666666666666668
200.0   0.0   33.333333333333336
250.0   30.0   33.333333333333336
250.0   0.0   33.333333333333336
250.0   0.0   16.666666666666668
200.0   0.0   33.333333333333336
250.0   30.0   33.333333333333336
250.0   0.0   16.666666666666668
200.0   30.0   16.666666666666668
200.0   0.0   33.333333333333336
250.0   0.0   33.333333333333336
200.0   30.0   33.333333333333336
200.0   0.0   50.0
250.0   0.0   33.333333333333336
250.0   30.0   33.333333333333336
200.0   30.0   33.333333333333336
250.0   30.0   50.0
200.0   0.0   50.0
200.0   30.0   50.0
250.0   30.0   50.0
200.0   30.0   33.333333333333336
200.0   0.0   50.0
250.0   30.0   50.0
250.0   0.0   50.0
250.0   0.0   33.333333333333336
200.0   0.0   50.0
250.0   30.0   50.0
250.0   0.0   33.333333333333336
200.0   30.0   33.333333333333336
200.0   30.0   0.0
250.0   30.0   0.0
200.0   60.0   0.0
200.0   30.0   16.666666666666668
250.0   30.0   0.0
250.0   60.0   0.0
200.0   60.0   0.0
250.0   60.0   16.666666666666668
200.0   30.0   16.666666666666668
200.0   60.0   16.666666666666668
250.0   60.0   16.666666666666668
200.0   60.0   0.0
200.0   30.0   16.666666666666668
250.0   60.0   16.666666666666668
250.0   30.0   16.666666666666668
250.0   30.0   0.0
200.0   30.0   16.666666666666668
250.0   60.0   16.666666666666668
250.0   30.0   0.0
200.0   60.0   0.0
200.0   30.0   16.666666666666668
250.0   30.0   16.666666666666668
200.0   60.0   16.666666666666668
200.0   30.0   33.333333333333336
250.0   30.0   16.666666666666668
250.0   60.0   16.666666666666668
200.0   60.0   16.666666666666668
250.0   60.0   33.333333333333336
200.0   30.0   33.333333333333336
200.0   60.0   33.333333333333336
250.0   60.0   33.333333333333336
200.0   60.0   16.666666666666668
200.0   30.0   33.333333333333336
250.0   60.0   33.333333333333336
250.0   30.0   33.333333333333336
250.0   30.0   16.666666666666668
200.0   30.0   33.333333333333336
250.0   60.0   33.333333333333336
250.0   30.0   16.666666666666668
200.0   60.0   16.666666666666668
200.0   30.0   33.333333333333336
250.0   30.0   33.333333333333336
200.0   60.0   33.333333333333336
200.0   30.0   50.0
250.0   30.0   33.333333333333336
250.0   60.0   33.333333333333336
200.0   60.0   33.333333333333336
250.0   60.0   50.0
200.0   30.0   50.0
200.0   60.0   50.0
250.0   60.0   50.0
200.0   60.0   33.333333333333336
200.0   30.0   50.0
250.0   60.0   50.0
250.0   30.0   50.0
250.0   30.0   33.333333333333336
200.0   30.0   50.0
250.0   60.0   50.0
250.0   30.0   33.333333333333336
200.0   60.0   33.333333333333336
200.0   60.0   0.0
250.0   60.0   0.0
200.0   90.0   0.0
200.0   60.0   16.666666666666668
250.0   60.0   0.0
250.0   90.0   0.0
200.0   90.0   0.0
250.0   90.0   16.666666666666668
200.0   60.0   16.666666666666668
200.0   90.0   16.666666666666668
250.0   90.0   16.666666666666668
200.0   90.0   0.0
200.0   60.0   16.666666666666668
250.0   90.0   16.666666666666668
250.0   60.0   16.666666666666668
250.0   60.0   0.0
200.0   60.0   16.666666666666668
250.0   90.0   16.666666666666668
250.0   60.0   0.0
200.0   90.0   0.0
200.0   60.0   16.666666666666668
250.0   60.0   16.666666666666668
200.0   90.0   16.666666666666668
200.0   60.0   33.333333333333336
250.0   60.0   16.666666666666668
250.0   90.0   16.666666666666668
200.0   90.0   16.666666666666668
250.0   90.0   33.333333333333336
200.0   60.0   33.333333333333336
200.0   90.0   33.333333333333336
250.0   90.0   33.333333333333336
200.0   90.0   16.666666666666668
200.0   60.0   33.333333333333336
250.0   90.0   33.333333333333336
250.0   60.0   33.333333333333336
250.0   60.0   16.666666666666668
200.0   60.0   33.333333333333336
250.0   90.0   33.333333333333336
250.0   60.0   16.666666666666668
200.0   90.0   16.666666666666668
200.0   60.0   33.333333333333336
250.0   60.0   33.333333333333336
200.0   90.0   33.333333333333336
200.0   60.0   50.0
250.0   60.0   33.333333333333336
250.0   90.0   33.333333333333336
200.0   90.0   33.333333333333336
250.0   90.0   50.0
200.0   60.0   50.0
200.0   90.0   50.0
250.0   90.0   50.0
200.0   90.0   33.333333333333336
200.0   60.0   50.0
250.0   90.0   50.0
250.0   60.0   50.0
250.0   60.0   33.333333333333336
200.0   60.0   50.0
250.0   90.0   50.0
250.0   60.0   33.333333333333336
200.0   90.0   33.333333333333336
200.0   90.0   0.0
250.0   90.0   0.0
200.0   120.0   0.0
200.0   90.0   16.666666666666668
250.0   90.0   0.0
250.0   120.0   0.0
200.0   120.0   0.0
250.0   120.0   16.666666666666668
200.0   90.0   16.666666666666668
200.0   120.0   16.666666666666668
250.0   120.0   16.666666666666668
200.0   120.0   0.0
200.0   90.0   16.666666666666668
250.0   120.0   16.666666666666668
250.0   90.0   16.666666666666668
250.0   90.0   0.0
200.0   90.0   16.666666666666668
250.0   120.0   16.666666666666668
250.0   90.0   0.0
200.0   120.0   0.0
200.0   90.0   16.666666666666668
250.0   90.0   16.666666666666668
200.0   120.0   16.666666666666668
200.0   90.0   33.333333333333336
250.0   90.0   16.666666666666668
250.0   120.0   16.666666666666668
200.0   120.0   16.666666666666668
250.0   120.0   33.333333333333336
200.0   90.0   33.333333333333336
200.0   120.0   33.333333333333336
250.0   120.0   33.333333333333336
200.0   120.0   16.666666666666668
200.0   90.0   33.333333333333336
250.0   120.0   33.333333333333336
250.0   90.0   33.333333333333336
250.0   90.0   16.666666666666668
200.0   90.0   33.333333333333336
250.0   120.0   33.333333333333336
250.0   90.0   16.666666666666668
200.0   120.0   16.666666666666668
200.0   90.0   33.333333333333336
250.0   90.0   33.333333333333336
200.0   120.0   33.333333333333336
200.0   90.0   50.0
250.0   90.0   33.333333333333336
250.0   120.0   33.333333333333336
200.0   120.0   33.333333333333336
250.0   120.0   50.0
200.0   90.0   50.0
200.0   120.0   50.0
250.0   120.0   50.0
200.0   120.0   33.333333333333336
200.0   90.0   50.0
250.0   120.0   50.0
250.0   90.0   50.0
250.0   90.0   33.333333333333336
200.0   90.0   50.0
250.0   120.0   50.0
250.0   90.0   33.333333333333336
200.0   120.0   33.333333333333336
200.0   120.0   0.0
250.0   120.0   0.0
200.0   150.0   0.0
200.0   120.0   16.666666666666668
250.0   120.0   0.0
250.0   150.0   0.0
200.0   150.0   0.0
250.0   150.0   16.666666666666668
200.0   120.0   16.666666666666668
200.0   150.0   16.666666666666668
250.0   150.0   16.666666666666668
200.0   150.0   0.0
200.0   120.0   16.666666666666668
250.0   150.0   16.666666666666668
250.0   120.0   16.666666666666668
250.0   120.0   0.0
200.0   120.0   16.666666666666668
250.0   150.0   16.666666666666668
250.0   120.0   0.0
200.0   150.0   0.0
200.0   120.0   16.666666666666668
250.0   120.0   16.666666666666668
200.0   150.0   16.666666666666668
200.0   120.0   33.333333333333336
250.0   120.0   16.666666666666668
250.0   150.0   16.666666666666668
200.0   150.0   16.666666666666668
250.0   150.0   33.333333333333336
200.0   120.0   33.333333333333336
200.0   150.0   33.333333333333336
250.0   150.0   33.333333333333336
200.0   150.0   16.666666666666668
200.0   120.0   33.333333333333336
250.0   150.0   33.333333333333336
250.0   120.0   33.333333333333336
250.0   120.0   16.666666666666668
200.0   120.0   33.333333333333336
250.0   150.0   33.333333333333336
250.0   120.0   16.666666666666668
200.0   150.0   16.666666666666668
200.0   120.0   33.333333333333336
250.0   120.0   33.333333333333336
200.0   150.0   33.333333333333336
200.0   120.0   50.0
250.0   120.0   33.333333333333336
250.0   150.0   33.333333333333336
200.0   150.0   33.333333333333336
250.0   150.0   50.0
200.0   120.0   50.0
200.0   150.0   50.0
250.0   150.0   50.0
200.0   150.0   33.333333333333336
200.0   120.0   50.0
250.0   150.0   50.0
250.0   120.0   50.0
250.0   120.0   33.333333333333336
200.0   120.0   50.0
250.0   150.0   50.0
250.0   120.0   33.333333333333336
200.0   150.0   33.333333333333336
250.0   0.0   0.0
300.0   0.0   0.0
250.0   30.0   0.0
250.0   0.0   16.666666666666668
300.0   0.0   0.0
300.0   30.0   0.0
250.0   30.0   0.0
300.0   30.0   16.666666666666668
250.0   0.0   16.666666666666668
250.0   30.0   16.666666666666668
300.0   30.0   16.666666666666668
250.0   30.0   0.0
250.0   0.0   16.666666666666668
300.0   30.0   16.666666666666668
300.0   0.0   16.666666666666668
300.0   0.0   0.0
250.0   0.0   16.666666666666668
300.0   30.0   16.666666666666668
300.0   0.0   0.0
250.0   30.0   0.0
250.0   0.0   16.666666666666668
300.0   0.0   16.666666666666668
250.0   30.0   16.666666666666668
250.0   0.0   33.333333333333336
300.0   0.0   16.666666666666668
300.0   30.0   16.666666666666668
250.0   30.0   16.666666666666668
300.0   30.0   33.333333333333336
250.0   0.0   33.333333333333336
250.0   30.0   33.333333333333336
300.0   30.0   33.333333333333336
250.0   30.0   16.666666666666668
250.0   0.0   33.333333333333336
300.0   30.0   33.333333333333336
300.0   0.0   33.333333333333336
300.0   0.0   16.666666666666668
250.0   0.0   33.333333333333336
300.0   30.0   33.333333333333336
300.0   0.0   16.666666666666668
250.0   30.0   16.666666666666668
250.0   0.0   33.333333333333336
300.0   0.0   33.333333333333336
250.0   30.0   33.333333333333336
250.0   0.0   50.0
300.0   0.0   33.333333333333336
300.0   30.0   33.333333333333336
250.0   30.0   33.333333333333336
300.0   30.0   50.0
250.0   0.0   50.0
250.0   30.0   50.0
300.0   30.0   50.0
250.0   30.0   33.333333333333336
250.0   0.0   50.0
300.0   30.0   50.0
300.0   0.0   50.0
300.0   0.0   33.333333333333336
250.0   0.0   50.0
300.0   30.0   50.0
300.0   0.0   33.333333333333336
250.0   30.0   33.333333333333336
250.0   30.0   0.0
300.0   30.0   0.0
250.0   60.0   0.0
250.0   30.0   16.666666666666668
300.0   30.0   0.0
300.0   60.0   0.0
250.0   60.0   0.0
300.0   60.0   16.666666666666668
250.0   30.0   16.666666666666668
250.0   60.0   16.666666666666668
300.0   60.0   16.666666666666668
250.0   60.0   0.0
250.0   30.0   16.666666666666668
300.0   60.0   16.666666666666668
300.0   30.0   16.666666666666668
300.0   30.0   0.0
250.0   30.0   16.666666666666668
300.0   60.0   16.666666666666668
300.0   30.0   0.0
250.0   60.0   0.0
250.0   30.0   16.666666666666668
300.0   30.0   16.666666666666668
250.0   60.0   16.666666666666668
250.0   30.0   33.333333333333336
300.0   30.0   16.666666666666668
300.0   60.0   16.666666666666668
250.0   60.0   16.666666666666668
300.0   60.0   33.333333333333336
250.0   30.0   33.333333333333336
250.0   60.0   33.333333333333336
300.0   60.0   33.333333333333336
250.0   60.0   16.666666666666668
250.0   30.0   33.333333333333336
300.0   60.0   33.333333333333336
300.0   30.0   33.333333333333336
300.0   30.0   16.666666666666668
250.0   30.0   33.333333333333336
300.0   60.0   33.333333333333336
300.0   30.0   16.666666666666668
250.0   60.0   16.666666666666668
250.0   30.0   33.333333333333336
300.0   30.0   33.333333333333336
250.0   60.0   33.333333333333336
250.0   30.0   50.0
300.0   30.0   33.333333333333336
300.0   60.0   33.333333333333336
250.0   60.0   33.333333333333336
300.0   60.0   50.0
250.0   30.0   50.0
250.0   60.0   50.0
300.0   60.0   50.0
250.0   60.0   33.333333333333336
250.0   30.0   50.0
300.0   60.0   50.0
300.0   30.0   50.0
300.0   30.0   33.333333333333336
250.0   30.0   50.0
300.0   60.0   50.0
300.0   30.0   33.333333333333336
250.0   60.0   33.333333333333336
250.0   60.0   0.0
300.0   60.0   0.0
250.0   90.0   0.0
250.0   60.0   16.666666666666668
300.0   60.0   0.0
300.0   90.0   0.0
250.0   90.0   0.0
300.0   90.0   16.666666666666668
250.0   60.0   16.666666666666668
250.0   90.0   16.666666666666668
300.0   90.0   16.666666666666668
250.0   90.0   0.0
250.0   60.0   16.666666666666668
300.0   90.0   16.666666666666668
300.0   60.0   16.666666666666668
300.0   60.0   0.0
250.0   60.0   16.666666666666668
300.0   90.0   16.666666666666668
300.0   60.0   0.0
250.0   90.0   0.0
250.0   60.0   16.666666666666668
300.0   60.0   16.666666666666668
250.0   90.0   16.666666666666668
250.0   60.0   33.333333333333336
300.0   60.0   16.666666666666668
300.0   90.0   16.666666666666668
250.0   90.0   16.666666666666668
300.0   90.0   33.333333333333336
250.0   60.0   33.333333333333336
250.0   90.0   33.333333333333336
300.0   90.0   33.333333333333336
250.0   90.0   16.666666666666668
250.0   60.0   33.333333333333336
300.0   90.0   33.333333333333336
300.0   60.0   33.333333333333336
300.0   60.0   16.666666666666668
250.0   60.0   33.333333333333336
300.0   90.0   33.333333333333336
300.0   60.0   16.666666666666668
250.0   90.0   16.666666666666668
250.0   60.0   33.333333333333336
300.0   60.0   33.333333333333336
250.0   90.0   33.333333333333336
250.0   60.0   50.0
300.0   60.0   33.333333333333336
300.0   90.0   33.333333333333336
250.0   90.0   33.333333333333336
300.0   90.0   50.0
250.0   60.0   50.0
250.0   90.0   50.0
300.0   90.0   50.0
250.0   90.0   33.333333333333336
250.0   60.0   50.0
300.0   90.0   50.0
300.0   60.0   50.0
300.0   60.0   33.333333333333336
250.0   60.0   50.0
300.0   90.0   50.0
300.0   60.0   33.333333333333336
250.0   90.0   33.333333333333336
250.0   90.0   0.0
300.0   90.0   0.0
250.0   120.0   0.0
250.0   90.0   16.666666666666668
300.0   90.0   0.0
300.0   120.0   0.0
250.0   120.0   0.0
300.0   120.0   16.666666666666668
250.0   90.0   16.666666666666668
250.0   120.0   16.666666666666668
300.0   120.0   16.666666666666668
250.0   120.0   0.0
250.0   90.0   16.666666666666668
300.0   120.0   16.666666666666668
300.0   90.0   16.666666666666668
300.0   90.0   0.0
250.0   90.0   16.666666666666668
300.0   120.0   16.666666666666668
300.0   90.0   0.0
250.0   120.0   0.0
250.0   90.0   16.666666666666668
300.0   90.0   16.666666666666668
250.0   120.0   16.666666666666668
250.0   90.0   33.333333333333336
300.0   90.0   16.666666666666668
300.0   120.0   16.666666666666668
250.0   120.0   16.666666666666668
300.0   120.0   33.333333333333336
250.0   90.0   33.333333333333336
250.0   120.0   33.333333333333336
300.0   120.0   33.333333333333336
250.0   120.0   16.666666666666668
250.0   90.0   33.333333333333336
300.0   120.0   33.333333333333336
300.0   90.0   33.333333333333336
300.0   90.0   16.666666666666668
250.0   90.0   33.333333333333336
300.0   120.0   33.333333333333336
300.0   90.0   16.666666666666668
250.0   120.0   16.666666666666668
250.0   90.0   33.333333333333336
300.0   90.0   33.333333333333336
250.0   120.0   33.333333333333336
250.0   90.0   50.0
300.0   90.0   33.333333333333336
300.0   120.0   33.333333333333336
250.0   120.0   33.333333333333336
300.0   120.0   50.0
250.0   90.0   50.0
250.0   120.0   50.0
300.0   120.0   50.0
250.0   120.0   33.333333333333336
250.0   90.0   50.0
300.0   120.0   50.0
300.0   90.0   50.0
300.0   90.0   33.333333333333336
250.0   90.0   50.0
300.0   120.0   50.0
300.0   90.0   33.333333333333336
250.0   120.0   33.333333333333336
250.0   120.0   0.0
300.0   120.0   0.0
250.0   150.0   0.0
250.0   120.0   16.666666666666668
300.0   120.0   0.0
300.0   150.0   0.0
250.0   150.0   0.0
300.0   150.0   16.666666666666668
250.0   120.0   16.666666666666668
250.0   150.0   16.666666666666668
300.0   150.0   16.666666666666668
250.0   150.0   0.0
250.0   120.0   16.666666666666668
300.0   150.0   16.666666666666668
300.0   120.0   16.666666666666668
300.0   120.0   0.0
250.0   120.0   16.666666666666668
300.0   150.0   16.666666666666668
300.0   120.0   0.0
250.0   150.0   0.0
250.0   120.0   16.666666666666668
300.0   120.0   16.666666666666668
250.0   150.0   16.666666666666668
250.0   120.0   33.333333333333336
300.0   120.0   16.666666666666668
300.0   150.0   16.666666666666668
250.0   150.0   16.666666666666668
300.0   150.0   33.333333333333336
250.0   120.0   33.333333333333336
250.0   150.0   33.333333333333336
300.0   150.0   33.333333333333336
250.0   150.0   16.666666666666668
250.0   120.0   33.333333333333336
300.0   150.0   33.333333333333336
300.0   120.0   33.333333333333336
300.0   120.0   16.666666666666668
250.0   120.0   33.333333333333336
300.0   150.0   33.333333333333336
300.0   120.0   16.666666666666668
250.0   150.0   16.666666666666668
250.0   120.0   33.333333333333336
300.0   120.0   33.333333333333336
250.0   150.0   33.333333333333336
250.0   120.0   50.0
300.0   120.0   33.333333333333336
300.0   150.0   33.333333333333336
250.0   150.0   33.333333333333336
300.0   150.0   50.0
250.0   120.0   50.0
250.0   150.0   50.0
300.0   150.0   50.0
250.0   150.0   33.333333333333336
250.0   120.0   50.0
300.0   150.0   50.0
300.0   120.0   50.0
300.0   120.0   33.333333333333336
250.0   120.0   50.0
300.0   150.0   50.0
300.0   120.0   33.333333333333336
250.0   150.0   33.333333333333336
300.0   0.0   0.0
350.0   0.0   0.0
300.0   30.0   0.0
300.0   0.0   16.666666666666668
350.0   0.0   0.0
350.0   30.0   0.0
300.0   30.0   0.0
350.0   30.0   16.666666666666668
300.0   0.0   16.666666666666668
300.0   30.0   16.666666666666668
350.0   30.0   16.666666666666668
300.0   30.0   0.0
300.0   0.0   16.666666666666668
350.0   30.0   16.666666666666668
350.0   0.0   16.666666666666668
350.0   0.0   0.0
300.0   0.0   16.666666666666668
350.0   30.0   16.666666666666668
350.0   0.0   0.0
300.0   30.0   0.0
300.0   0.0   16.666666666666668
350.0   0.0   16.666666666666668
300.0   30.0   16.666666666666668
300.0   0.0   33.333333333333336
350.0   0.0   16.666666666666668
350.0   30.0   16.666666666666668
300.0   30.0   16.666666666666668
350.0   30.0   33.333333333333336
300.0   0.0   33.333333333333336
300.0   30.0   33.333333333333336
350.0   30.0   33.333333333333336
300.0   30.0   16.666666666666668
300.0   0.0   33.333333333333336
350.0   30.0   33.333333333333336
350.0   0.0   33.333333333333336
350.0   0.0   16.666666666666668
300.0   0.0   33.333333333333336
350.0   30.0   33.333333333333336
350.0   0.0   16.666666666666668
300.0   30.0   16.666666666666668
300.0   0.0   33.333333333333336
350.0   0.0   33.333333333333336
300.0   30.0   33.333333333333336
300.0   0.0   50.0
350.0   0.0   33.333333333333336
350.0   30.0   33.333333333333336
300.0   30.0   33.333333333333336
350.0   30.0   50.0
300.0   0.0   50.0
300.0   30.0   50.0
350.0   30.0   50.0
300.0   30.0   33.333333333333336
300.0   0.0   50.0
350.0   30.0   50.0
350.0   0.0   50.0
350.0   0.0   33.333333333333336
300.0   0.0   50.0
350.0   30.0   50.0
350.0   0.0   33.333333333333336
300.0   30.0   33.333333333333336
300.0   30.0   0.0
350.0   30.0   0.0
300.0   60.0   0.0
300.0   30.0   16.666666666666668
350.0   30.0   0.0
350.0   60.0   0.0
300.0   60.0   0.0
350.0   60.0   16.666666666666668
300.0   30.0   16.666666666666668
300.0   60.0   16.666666666666668
350.0   60.0   16.666666666666668
300.0   60.0   0.0
300.0   30.0   16.666666666666668
350.0   60.0   16.666666666666668
350.0   30.0   16.666666666666668
350.0   30.0   0.0
300.0   30.0   16.666666666666668
350.0   60.0   16.666666666666668
350.0   30.0   0.0
300.0   60.0   0.0
300.0   30.0   16.666666666666668
350.0   30.0   16.666666666666668
300.0   60.0   16.666666666666668
300.0   30.0   33.333333333333336
350.0   30.0   16.666666666666668
350.0   60.0   16.666666666666668
300.0   60.0   16.666666666666668
350.0   60.0   33.333333333333336
300.0   30.0   33.333333333333336
300.0   60.0   33.333333333333336
350.0   60.0   33.333333333333336
300.0   60.0   16.666666666666668
300.0   30.0   33.333333333333336
350.0   60.0   33.333333333333336
350.0   30.0   33.333333333333336
350.0   30.0   16.666666666666668
300.0   30.0   33.333333333333336
350.0   60.0   33.333333333333336
350.0   30.0   16.666666666666668
300.0   60.0   16.666666666666668
300.0   30.0   33.333333333333336
350.0   30.0   33.333333333333336
300.0   60.0   33.333333333333336
300.0   30.0   50.0
350.0   30.0   33.333333333333336
350.0   60.0   33.333333333333336
300.0   60.0   33.333333333333336
350.0   60.0   50.0
300.0   30.0   50.0
300.0   60.0   50.0
350.0   60.0   50.0
300.0   60.0   33.333333333333336
300.0   30.0   50.0
350.0   60.0   50.0
350.0   30.0   50.0
350.0   30.0   33.333333333333336
300.0   30.0   50.0
350.0   60.0   50.0
350.0   30.0   33.333333333333336
300.0   60.0   33.333333333333336
300.0   60.0   0.0
350.0   60.0   0.0
300.0   90.0   0.0
300.0   60.0   16.666666666666668
350.0   60.0   0.0
350.0   90.0   0.0
300.0   90.0   0.0
350.0   90.0   16.666666666666668
300.0   60.0   16.666666666666668
300.0   90.0   16.666666666666668
350.0   90.0   16.666666666666668
300.0   90.0   0.0
300.0   60.0   16.666666666666668
350.0   90.0   16.666666666666668
350.0   60.0   16.666666666666668
350.0   60.0   0.0
300.0   60.0   16.666666666666668
350.0   90.0   16.666666666666668
350.0   60.0   0.0
300.0   90.0   0.0
300.0   60.0   16.666666666666668
350.0   60.0   16.666666666666668
300.0   90.0   16.666666666666668
300.0   60.0   33.333333333333336
350.0   60.0   16.666666666666668
350.0   90.0   16.666666666666668
300.0   90.0   16.666666666666668
350.0   90.0   33.333333333333336
300.0   60.0   33.333333333333336
300.0   90.0   33.333333333333336
350.0   90.0   33.333333333333336
300.0   90.0   16.666666666666668
300.0   60.0   33.333333333333336
350.0   90.0   33.333333333333336
350.0   60.0   33.333333333333336
350.0   60.0   16.666666666666668
300.0   60.0   33.333333333333336
350.0   90.0   33.333333333333336
350.0   60.0   16.666666666666668
300.0   90.0   16.666666666666668
300.0   60.0   33.333333333333336
350.0   60.0   33.333333333333336
300.0   90.0   33.333333333333336
300.0   60.0   50.0
350.0   60.0   33.333333333333336
350.0   90.0   33.333333333333336
300.0   90.0   33.333333333333336
350.0   90.0   50.0
300.0   60.0   50.0
300.0   90.0   50.0
350.0   90.0   50.0
300.0   90.0   33.333333333333336
300.0   60.0   50.0
350.0   90.0   50.0
350.0   60.0   50.0
350.0   60.0   33.333333333333336
300.0   60.0   50.0
350.0   90.0   50.0
350.0   60.0   33.333333333333336
300.0   90.0   33.333333333333336
300.0   90.0   0.0
350.0   90.0   0.0
300.0   120.0   0.0
300.0   90.0   16.666666666666668
350.0   90.0   0.0
350.0   120.0   0.0
300.0   120.0   0.0
350.0   120.0   16.666666666666668
300.0   90.0   16.666666666666668
300.0   120.0   16.666666666666668
350.0   120.0   16.666666666666668
300.0   120.0   0.0
300.0   90.0   16.666666666666668
350.0   120.0   16.666666666666668
350.0   90.0   16.666666666666668
350.0   90.0   0.0
300.0   90.0   16.666666666666668
350.0   120.0   16.666666666666668
350.0   90.0   0.0
300.0   120.0   0.0
300.0   90.0   16.666666666666668
350.0   90.0   16.666666666666668
300.0   120.0   16.666666666666668
300.0   90.0   33.333333333333336
350.0   90.0   16.666666666666668
350.0   120.0   16.666666666666668
300.0   120.0   16.666666666666668
350.0   120.0   33.333333333333336
300.0   90.0   33.333333333333336
300.0   120.0   33.333333333333336
350.0   120.0   33.333333333333336
300.0   120.0   16.666666666666668
300.0   90.0   33.333333333333336
350.0   120.0   33.333333333333336
350.0   90.0   33.333333333333336
350.0   90.0   16.666666666666668
300.0   90.0   33.333333333333336
350.0   120.0   33.333333333333336
350.0   90.0   16.666666666666668
300.0   120.0   16.666666666666668
300.0   90.0   33.333333333333336
350.0   90.0   33.333333333333336
300.0   120.0   33.333333333333336
300.0   90.0   50.0
350.0   90.0   33.333333333333336
350.0   120.0   33.333333333333336
300.0   120.0   33.333333333333336
350.0   120.0   50.0
300.0   90.0   50.0
300.0   120.0   50.0
350.0   120.0   50.0
300.0   120.0   33.333333333333336
300.0   90.0   50.0
350.0   120.0   50.0
350.0   90.0   50.0
350.0   90.0   33.333333333333336
300.0   90.0   50.0
350.0   120.0   50.0
350.0   90.0   33.333333333333336
300.0   120.0   33.333333333333336
300.0   120.0   0.0
350.0   120.0   0.0
300.0   150.0   0.0
300.0   120.0   16.666666666666668
350.0   120.0   0.0
350.0   150.0   0.0
300.0   150.0   0.0
350.0   150.0   16.666666666666668
300.0   120.0   16.666666666666668
300.0   150.0   16.666666666666668
350.0   150.0   16.666666666666668
300.0   150.0   0.0
300.0   120.0   16.666666666666668
350.0   150.0   16.666666666666668
350.0   120.0   16.666666666666668
350.0   120.0   0.0
300.0   120.0   16.666666666666668
350.0   150.0   16.666666666666668
350.0   120.0   0.0
300.0   150.0   0.0
300.0   120.0   16.666666666666668
350.0   120.0   16.666666666666668
300.0   150.0   16.666666666666668
300.0   120.0   33.333333333333336
350.0   120.0   16.666666666666668
350.0   150.0   16.666666666666668
300.0   150.0   16.666666666666668
350.0   150.0   33.333333333333336
300.0   120.0   33.333333333333336
300.0   150.0   33.333333333333336
350.0   150.0   33.333333333333336
300.0   150.0   16.666666666666668
300.0   120.0   33.333333333333336
350.0   150.0   33.333333333333336
350.0   120.0   33.333333333333336
350.0   120.0   16.666666666666668
300.0   120.0   33.333333333333336
350.0   150.0   33.333333333333336
350.0   120.0   16.666666666666668
300.0   150.0   16.666666666666668
300.0   120.0   33.333333333333336
350.0   120.0   33.333333333333336
300.0   150.0   33.333333333333336
300.0   120.0   50.0
350.0   120.0   33.333333333333336
350.0   150.0   33.333333333333336
300.0   150.0   33.333333333333336
350.0   150.0   50.0
300.0   120.0   50.0
300.0   150.0   50.0
350.0   150.0   50.0
300.0   150.0   33.333333333333336
300.0   120.0   50.0
350.0   150.0   50.0
350.0   120.0   50.0
350.0   120.0   33.333333333333336
300.0   120.0   50.0
350.0   150.0   50.0
350.0   120.0   33.333333333333336
300.0   150.0   33.333333333333336
350.0   0.0   0.0
400.0   0.0   0.0
350.0   30.0   0.0
350.0   0.0   16.666666666666668
400.0   0.0   0.0
400.0   30.0   0.0
350.0   30.0   0.0
400.0   30.0   16.666666666666668
350.0   0.0   16.666666666666668
350.0   30.0   16.666666666666668
400.0   30.0   16.666666666666668
350.0   30.0   0.0
350.0   0.0   16.666666666666668
400.0   30.0   16.666666666666668
400.0   0.0   16.666666666666668
400.0   0.0   0.0
350.0   0.0   16.666666666666668
400.0   30.0   16.666666666666668
400.0   0.0   0.0
350.0   30.0   0.0
350.0   0.0   16.666666666666668
400.0   0.0   16.666666666666668
350.0   30.0   16.666666666666668
350.0   0.0   33.333333333333336
400.0   0.0   16.666666666666668
400.0   30.0   16.666666666666668
350.0   30.0   16.666666666666668
400.0   30.0   33.333333333333336
350.0   0.0   33.333333333333336
350.0   30.0   33.333333333333336
400.0   30.0   33.333333333333336
350.0   30.0   16.666666666666668
350.0   0.0   33.333333333333336
400.0   30.0   33.333333333333336
400.0   0.0   33.333333333333336
400.0   0.0   16.666666666666668
350.0   0.0   33.333333333333336
400.0   30.0   33.333333333333336
400.0   0.0   16.666666666666668
350.0   30.0   16.666666666666668
350.0   0.0   33.333333333333336
400.0   0.0   33.333333333333336
350.0   30.0   33.333333333333336
350.0   0.0   50.0
400.0   0.0   33.333333333333336
400.0   30.0   33.333333333333336
350.0   30.0   33.333333333333336
400.0   30.0   50.0
350.0   0.0   50.0
350.0   30.0   50.0
400.0   30.0   50.0
350.0   30.0   33.333333333333336
350.0   0.0   50.0
400.0   30.0   50.0
400.0   0.0   50.0
400.0   0.0   33.333333333333336
350.0   0.0   50.0
400.0   30.0   50.0
400.0   0.0   33.333333333333336
350.0   30.0   33.333333333333336
350.0   30.0   0.0
400.0   30.0   0.0
350.0   60.0   0.0
350.0   30.0   16.666666666666668
400.0   30.0   0.0
400.0   60.0   0.0
350.0   60.0   0.0
400.0   60.0   16.666666666666668
350.0   30.0   16.666666666666668
350.0   60.0   16.666666666666668
400.0   60.0   16.666666666666668
350.0   60.0   0.0
350.0   30.0   16.666666666666668
400.0   60.0   16.666666666666668
400.0   30.0   16.666666666666668
400.0   30.0   0.0
350.0   30.0   16.666666666666668
400.0   60.0   16.666666666666668
400.0   30.0   0.0
350.0   60.0   0.0
350.0   30.0   16.666666666666668
400.0   30.0   16.666666666666668
350.0   60.0   16.666666666666668
350.0   30.0   33.333333333333336
400.0   30.0   16.666666666666668
400.0   60.0   16.666666666666668
350.0   60.0   16.666666666666668
400.0   60.0   33.333333333333336
350.0   30.0   33.333333333333336
350.0   60.0   33.333333333333336
400.0   60.0   33.333333333333336
350.0   60.0   16.666666666666668
350.0   30.0   33.333333333333336
400.0   60.0   33.333333333333336
400.0   30.0   33.333333333333336
400.0   30.0   16.666666666666668
350.0   30.0   33.333333333333336
400.0   60.0   33.333333333333336
400.0   30.0   16.666666666666668
350.0   60.0   16.666666666666668
350.0   30.0   33.333333333333336
400.0   30.0   33.333333333333336
350.0   60.0   33.333333333333336
350.0   30.0   50.0
400.0   30.0   33.333333333333336
400.0   60.0   33.333333333333336
350.0   60.0   33.333333333333336
400.0   60.0   50.0
350.0   30.0   50.0
350.0   60.0   50.0
400.0   60.0   50.0
350.0   60.0   33.333333333333336
350.0   30.0   50.0
400.0   60.0   50.0
400.0   30.0   50.0
400.0   30.0   33.333333333333336
350.0   30.0   50.0
400.0   60.0   50.0
400.0   30.0   33.333333333333336
350.0   60.0   33.333333333333336
350.0   60.0   0.0
400.0   60.0   0.0
350.0   90.0   0.0
350.0   60.0   16.666666666666668
400.0   60.0   0.0
400.0   90.0   0.0
350.0   90.0   0.0
400.0   90.0   16.666666666666668
350.0   60.0   16.666666666666668
350.0   90.0   16.666666666666668
400.0   90.0   16.666666666666668
350.0   90.0   0.0
350.0   60.0   16.666666666666668
400.0   90.0   16.666666666666668
400.0   60.0   16.666666666666668
400.0   60.0   0.0
350.0   60.0   16.666666666666668
400.0   90.0   16.666666666666668
400.0   60.0   0.0
350.0   90.0   0.0
350.0   60.0   16.666666666666668
400.0   60.0   16.666666666666668
350.0   90.0   16.666666666666668
350.0   60.0   33.333333333333336
400.0   60.0   16.666666666666668
400.0   90.0   16.666666666666668
350.0   90.0   16.666666666666668
400.0   90.0   33.333333333333336
350.0   60.0   33.333333333333336
350.0   90.0   33.333333333333336
400.0   90.0   33.333333333333336
350.0   90.0   16.666666666666668
350.0   60.0   33.333333333333336
400.0   90.0   33.333333333333336
400.0   60.0   33.333333333333336
400.0   60.0   16.666666666666668
350.0   60.0   33.333333333333336
400.0   90.0   33.333333333333336
400.0   60.0   16.666666666666668
350.0   90.0   16.666666666666668
350.0   60.0   33.333333333333336
400.0   60.0   33.333333333333336
350.0   90.0   33.333333333333336
350.0   60.0   50.0
400.0   60.0   33.333333333333336
400.0   90.0   33.333333333333336
350.0   90.0   33.333333333333336
400.0   90.0   50.0
350.0   60.0   50.0
350.0   90.0   50.0
400.0   90.0   50.0
350.0   90.0   33.333333333333336
350.0   60.0   50.0
400.0   90.0   50.0
400.0   60.0   50.0
400.0   60.0   33.333333333333336
350.0   60.0   50.0
400.0   90.0   50.0
400.0   60.0   33.333333333333336
350.0   90.0   33.333333333333336
350.0   90.0   0.0
400.0   90.0   0.0
350.0   120.0   0.0
350.0   90.0   16.666666666666668
400.0   90.0   0.0
400.0   120.0   0.0
350.0   120.0   0.0
400.0   120.0   16.666666666666668
350.0   90.0   16.666666666666668
350.0   120.0   16.666666666666668
400.0   120.0   16.666666666666668
350.0   120.0   0.0
350.0   90.0   16.666666666666668
400.0   120.0   16.666666666666668
400.0   90.0   16.666666666666668
400.0   90.0   0.0
350.0   90.0   16.666666666666668
400.0   120.0   16.666666666666668
400.0   90.0   0.0
350.0   120.0   0.0
350.0   90.0   16.666666666666668
400.0   90.0   16.666666666666668
350.0   120.0   16.666666666666668
350.0   90.0   33.333333333333336
400.0   90.0   16.666666666666668
400.0   120.0   16.666666666666668
350.0   120.0   16.666666666666668
400.0   120.0   33.333333333333336
350.0   90.0   33.333333333333336
350.0   120.0   33.333333333333336
400.0   120.0   33.333333333333336
350.0   120.0   16.666666666666668
350.0   90.0   33.333333333333336
400.0   120.0   33.333333333333336
400.0   90.0   33.333333333333336
400.0   90.0   16.666666666666668
350.0   90.0   33.333333333333336
400.0   120.0   33.333333333333336
400.0   90.0   16.666666666666668
350.0   120.0   16.666666666666668
350.0   90.0   33.333333333333336
400.0   90.0   33.333333333333336
350.0   120.0   33.333333333333336
350.0   90.0   50.0
400.0   90.0   33.333333333333336
400.0   120.0   33.333333333333336
350.0   120.0   33.333333333333336
400.0   120.0   50.0
350.0   90.0   50.0
350.0   120.0   50.0
400.0   120.0   50.0
350.0   120.0   33.333333333333336
350.0   90.0   50.0
400.0   120.0   50.0
400.0   90.0   50.0
400.0   90.0   33.333333333333336
350.0   90.0   50.0
400.0   120.0   50.0
400.0   90.0   33.333333333333336
350.0   120.0   33.333333333333336
350.0   120.0   0.0
400.0   120.0   0.0
350.0   150.0   0.0
350.0   120.0   16.666666666666668
400.0   120.0   0.0
400.0   150.0   0.0
350.0   150.0   0.0
400.0   150.0   16.666666666666668
350.0   120.0   16.666666666666668
350.0   150.0   16.666666666666668
400.0   150.0   16.666666666666668
350.0   150.0   0.0
350.0   120.0   16.666666666666668
400.0   150.0   16.666666666666668
400.0   120.0   16.666666666666668
400.0   120.0   0.0
350.0   120.0   16.666666666666668
400.0   150.0   16.666666666666668
400.0   120.0   0.0
350.0   150.0   0.0
350.0   120.0   16.666666666666668
400.0   120.0   16.666666666666668
350.0   150.0   16.666666666666668
350.0   120.0   33.333333333333336
400.0   120.0   16.666666666666668
400.0   150.0   16.666666666666668
350.0   150.0   16.666666666666668
400.0   150.0   33.333333333333336
350.0   120.0   33.333333333333336
350.0   150.0   33.333333333333336
400.0   150.0   33.333333333333336
350.0   150.0   16.666666666666668
350.0   120.0   33.333333333333336
400.0   150.0   33.333333333333336
400.0   120.0   33.333333333333336
400.0   120.0   16.666666666666668
350.0   120.0   33.333333333333336
400.0   150.0   33.333333333333336
400.0   120.0   16.666666666666668
350.0   150.0   16.666666666666668
350.0   120.0   33.333333333333336
400.0   120.0   33.333333333333336
350.0   150.0   33.333333333333336
350.0   120.0   50.0
400.0   120.0   33.333333333333336
400.0   150.0   33.333333333333336
350.0   150.0   33.333333333333336
400.0   150.0   50.0
350.0   120.0   50.0
350.0   150.0   50.0
400.0   150.0   50.0
350.0   150.0   33.333333333333336
350.0   120.0   50.0
400.0   150.0   50.0
400.0   120.0   50.0
400.0   120.0   33.333333333333336
350.0   120.0   50.0
400.0   150.0   50.0
400.0   120.0   33.333333333333336
350.0   150.0   33.333333333333336
400.0   0.0   0.0
450.0   0.0   0.0
400.0   30.0   0.0
400.0   0.0   16.666666666666668
450.0   0.0   0.0
450.0   30.0   0.0
400.0   30.0   0.0
450.0   30.0   16.666666666666668
400.0   0.0   16.666666666666668
400.0   30.0   16.666666666666668
450.0   30.0   16.666666666666668
400.0   30.0   0.0
400.0   0.0   16.666666666666668
450.0   30.0   16.666666666666668
450.0   0.0   16.666666666666668
450.0   0.0   0.0
400.0   0.0   16.666666666666668
450.0   30.0   16.666666666666668
450.0   0.0   0.0
400.0   30.0   0.0
400.0   0.0   16.666666666666668
450.0   0.0   16.666666666666668
400.0   30.0   16.666666666666668
400.0   0.0   33.333333333333336
450.0   0.0   16.666666666666668
450.0   30.0   16.666666666666668
400.0   30.0   16.666666666666668
450.0   30.0   33.333333333333336
400.0   0.0   33.333333333333336
400.0   30.0   33.333333333333336
450.0   30.0   33.333333333333336
400.0   30.0   16.666666666666668
400.0   0.0   33.333333333333336
450.0   30.0   33.333333333333336
450.0   0.0   33.333333333333336
450.0   0.0   16.666666666666668
400.0   0.0   33.333333333333336
450.0   30.0   33.333333333333336
450.0   0.0   16.666666666666668
400.0   30.0   16.666666666666668
400.0   0.0   33.333333333333336
450.0   0.0   33.333333333333336
400.0   30.0   33.333333333333336
400.0   0.0   50.0
450.0   0.0   33.333333333333336
450.0   30.0   33.333333333333336
400.0   30.0   33.333333333333336
450.0   30.0   50.0
400.0   0.0   50.0
400.0   30.0   50.0
450.0   30.0   50.0
400.0   30.0   33.333333333333336
400.0   0.0   50.0
450.0   30.0   50.0
450.0   0.0   50.0
450.0   0.0   33.333333333333336
400.0   0.0   50.0
450.0   30.0   50.0
450.0   0.0   33.333333333333336
400.0   30.0   33.333333333333336
400.0   30.0   0.0
450.0   30.0   0.0
400.0   60.0   0.0
400.0   30.0   16.666666666666668
450.0   30.0   0.0
450.0   60.0   0.0
400.0   60.0   0.0
450.0   60.0   16.666666666666668
400.0   30.0   16.666666666666668
400.0   60.0   16.666666666666668
450.0   60.0   16.666666666666668
400.0   60.0   0.0
400.0   30.0   16.666666666666668
450.0   60.0   16.666666666666668
450.0   30.0   16.666666666666668
450.0   30.0   0.0
400.0   30.0   16.666666666666668
450.0   60.0   16.666666666666668
450.0   30.0   0.0
400.0   60.0   0.0
400.0   30.0   16.666666666666668
450.0   30.0   16.666666666666668
400.0   60.0   16.666666666666668
400.0   30.0   33.333333333333336
450.0   30.0   16.666666666666668
450.0   60.0   16.666666666666668
400.0   60.0   16.666666666666668
450.0   60.0   33.333333333333336
400.0   30.0   33.333333333333336
400.0   60.0   33.333333333333336
450.0   60.0   33.333333333333336
400.0   60.0   16.666666666666668
400.0   30.0   33.333333333333336
450.0   60.0   33.333333333333336
450.0   30.0   33.333333333333336
450.0   30.0   16.666666666666668
400.0   30.0   33.333333333333336
450.0   60.0   33.333333333333336
450.0   30.0   16.666666666666668
400.0   60.0   16.666666666666668
400.0   30.0   33.333333333333336
450.0   30.0   33.333333333333336
400.0   60.0   33.333333333333336
400.0   30.0   50.0
450.0   30.0   33.333333333333336
450.0   60.0   33.333333333333336
400.0   60.0   33.333333333333336
450.0   60.0   50.0
400.0   30.0   50.0
400.0   60.0   50.0
450.0   60.0   50.0
400.0   60.0   33.333333333333336
400.0   30.0   50.0
450.0   60.0   50.0
450.0   30.0   50.0
450.0   30.0   33.333333333333336
400.0   30.0   50.0
450.0   60.0   50.0
450.0   30.0   33.333333333333336
400.0   60.0   33.333333333333336
400.0   60.0   0.0
450.0   60.0   0.0
400.0   90.0   0.0
400.0   60.0   16.666666666666668
450.0   60.0   0.0
450.0   90.0   0.0
400.0   90.0   0.0
450.0   90.0   16.666666666666668
400.0   60.0   16.666666666666668
400.0   90.0   16.666666666666668
450.0   90.0   16.666666666666668
400.0   90.0   0.0
400.0   60.0   16.666666666666668
450.0   90.0   16.666666666666668
450.0   60.0   16.666666666666668
450.0   60.0   0.0
400.0   60.0   16.666666666666668
450.0   90.0   16.666666666666668
450.0   60.0   0.0
400.0   90.0   0.0
400.0   60.0   16.666666666666668
450.0   60.0   16.666666666666668
400.0   90.0   16.666666666666668
400.0   60.0   33.333333333333336
450.0   60.0   16.666666666666668
450.0   90.0   16.666666666666668
400.0   90.0   16.666666666666668
450.0   90.0   33.333333333333336
400.0   60.0   33.333333333333336
400.0   90.0   33.333333333333336
450.0   90.0   33.333333333333336
400.0   90.0   16.666666666666668
400.0   60.0   33.333333333333336
450.0   90.0   33.333333333333336
450.0   60.0   33.333333333333336
450.0   60.0   16.666666666666668
400.0   60.0   33.333333333333336
450.0   90.0   33.333333333333336
450.0   60.0   16.666666666666668
400.0   90.0   16.666666666666668
400.0   60.0   33.333333333333336
450.0   60.0   33.333333333333336
400.0   90.0   33.333333333333336
400.0   60.0   50.0
450.0   60.0   33.333333333333336
450.0   90.0   33.333333333333336
400.0   90.0   33.333333333333336
450.0   90.0   50.0
400.0   60.0   50.0
400.0   90.0   50.0
450.0   90.0   50.0
400.0   90.0   33.333333333333336
400.0   60.0   50.0
450.0   90.0   50.0
450.0   60.0   50.0
450.0   60.0   33.333333333333336
400.0   60.0   50.0
450.0   90.0   50.0
450.0   60.0   33.333333333333336
400.0   90.0   33.333333333333336
400.0   90.0   0.0
450.0   90.0   0.0
400.0   120.0   0.0
400.0   90.0   16.666666666666668
450.0   90.0   0.0
450.0   120.0   0.0
400.0   120.0   0.0
450.0   120.0   16.666666666666668
400.0   90.0   16.666666666666668
400.0   120.0   16.666666666666668
450.0   120.0   16.666666666666668
400.0   120.0   0.0
400.0   90.0   16.666666666666668
450.0   120.0   16.666666666666668
450.0   90.0   16.666666666666668
450.0   90.0   0.0
400.0   90.0   16.666666666666668
450.0   120.0   16.666666666666668
450.0   90.0   0.0
400.0   120.0   0.0
400.0   90.0   16.666666666666668
450.0   90.0   16.666666666666668
400.0   120.0   16.666666666666668
400.0   90.0   33.333333333333336
450.0   90.0   16.666666666666668
450.0   120.0   16.666666666666668
400.0   120.0   16.666666666666668
450.0   120.0   33.333333333333336
400.0   90.0   33.333333333333336
400.0   120.0   33.333333333333336
450.0   120.0   33.333333333333336
400.0   120.0   16.666666666666668
400.0   90.0   33.333333333333336
450.0   120.0   33.333333333333336
450.0   90.0   33.333333333333336
450.0   90.0   16.666666666666668
400.0   90.0   33.333333333333336
450.0   120.0   33.333333333333336
450.0   90.0   16.666666666666668
400.0   120.0   16.666666666666668
400.0   90.0   33.333333333333336
450.0   90.0   33.333333333333336
400.0   120.0   33.333333333333336
400.0   90.0   50.0
450.0   90.0   33.333333333333336
450.0   120.0   33.333333333333336
400.0   120.0   33.333333333333336
450.0   120.0   50.0
400.0   90.0   50.0
400.0   120.0   50.0
450.0   120.0   50.0
400.0   120.0   33.333333333333336
400.0   90.0   50.0
450.0   120.0   50.0
450.0   90.0   50.0
450.0   90.0   33.333333333333336
400.0   90.0   50.0
450.0   120.0   50.0
450.0   90.0   33.333333333333336
400.0   120.0   33.333333333333336
400.0   120.0   0.0
450.0   120.0   0.0
400.0   150.0   0.0
400.0   120.0   16.666666666666668
450.0   120.0   0.0
450.0   150.0   0.0
400.0   150.0   0.0
450.0   150.0   16.666666666666668
400.0   120.0   16.666666666666668
400.0   150.0   16.666666666666668
450.0   150.0   16.666666666666668
400.0   150.0   0.0
400.0   120.0   16.666666666666668
450.0   150.0   16.666666666666668
450.0   120.0   16.666666666666668
450.0   120.0   0.0
400.0   120.0   16.666666666666668
450.0   150.0   16.666666666666668
450.0   120.0   0.0
400.0   150.0   0.0
400.0   120.0   16.666666666666668
450.0   120.0   16.666666666666668
400.0   150.0   16.666666666666668
400.0   120.0   33.333333333333336
450.0   120.0   16.666666666666668
450.0   150.0   16.666666666666668
400.0   150.0   16.666666666666668
450.0   150.0   33.333333333333336
400.0   120.0   33.333333333333336
400.0   150.0   33.333333333333336
450.0   150.0   33.333333333333336
400.0   150.0   16.666666666666668
400.0   120.0   33.333333333333336
450.0   150.0   33.333333333333336
450.0   120.0   33.333333333333336
450.0   120.0   16.666666666666668
400.0   120.0   33.333333333333336
450.0   150.0   33.333333333333336
450.0   120.0   16.666666666666668
400.0   150.0   16.666666666666668
400.0   120.0   33.333333333333336
450.0   120.0   33.333333333333336
400.0   150.0   33.333333333333336
400.0   120.0   50.0
450.0   120.0   33.333333333333336
450.0   150.0   33.333333333333336
400.0   150.0   33.333333333333336
450.0   150.0   50.0
400.0   120.0   50.0
400.0   150.0   50.0
450.0   150.0   50.0
400.0   150.0   33.333333333333336
400.0   120.0   50.0
450.0   150.0   50.0
450.0   120.0   50.0
450.0   120.0   33.333333333333336
400.0   120.0   50.0
450.0   150.0   50.0
450.0   120.0   33.333333333333336
400.0   150.0   33.333333333333336
450.0   0.0   0.0
500.0   0.0   0.0
450.0   30.0   0.0
450.0   0.0   16.666666666666668
500.0   0.0   0.0
500.0   30.0   0.0
450.0   30.0   0.0
500.0   30.0   16.666666666666668
450.0   0.0   16.666666666666668
450.0   30.0   16.666666666666668
500.0   30.0   16.666666666666668
450.0   30.0   0.0
450.0   0.0   16.666666666666668
500.0   30.0   16.666666666666668
500.0   0.0   16.666666666666668
500.0   0.0   0.0
450.0   0.0   16.666666666666668
500.0   30.0   16.666666666666668
500.0   0.0   0.0
450.0   30.0   0.0
450.0   0.0   16.666666666666668
500.0   0.0   16.666666666666668
450.0   30.0   16.666666666666668
450.0   0.0   33.333333333333336
500.0   0.0   16.666666666666668
500.0   30.0   16.666666666666668
450.0   30.0   16.666666666666668
500.0   30.0   33.333333333333336
450.0   0.0   33.333333333333336
450.0   30.0   33.333333333333336
500.0   30.0   33.333333333333336
450.0   30.0   16.666666666666668
450.0   0.0   33.333333333333336
500.0   30.0   33.333333333333336
500.0   0.0   33.333333333333336
500.0   0.0   16.666666666666668
450.0   0.0   33.333333333333336
500.0   30.0   33.333333333333336
500.0   0.0   16.666666666666668
450.0   30.0   16.666666666666668
450.0   0.0   33.333333333333336
500.0   0.0   33.333333333333336
450.0   30.0   33.333333333333336
450.0   0.0   50.0
500.0   0.0   33.333333333333336
500.0   30.0   33.333333333333336
450.0   30.0   33.333333333333336
500.0   30.0   50.0
450.0   0.0   50.0
450.0   30.0   50.0
500.0   30.0   50.0
450.0   30.0   33.333333333333336
450.0   0.0   50.0
500.0   30.0   50.0
500.0   0.0   50.0
500.0   0.0   33.333333333333336
450.0   0.0   50.0
500.0   30.0   50.0
500.0   0.0   33.333333333333336
450.0   30.0   33.333333333333336
450.0   30.0   0.0
500.0   30.0   0.0
450.0   60.0   0.0
450.0   30.0   16.666666666666668
500.0   30.0   0.0
500.0   60.0   0.0
450.0   60.0   0.0
500.0   60.0   16.666666666666668
450.0   30.0   16.666666666666668
450.0   60.0   16.666666666666668
500.0   60.0   16.666666666666668
450.0   60.0   0.0
450.0   30.0   16.666666666666668
500.0   60.0   16.666666666666668
500.0   30.0   16.666666666666668
500.0   30.0   0.0
450.0   30.0   16.666666666666668
500.0   60.0   16.666666666666668
500.0   30.0   0.0
450.0   60.0   0.0
450.0   30.0   16.666666666666668
500.0   30.0   16.666666666666668
450.0   60.0   16.666666666666668
450.0   30.0   33.333333333333336
500.0   30.0   16.666666666666668
500.0   60.0   16.666666666666668
450.0   60.0   16.666666666666668
500.0   60.0   33.333333333333336
450.0   30.0   33.333333333333336
450.0   60.0   33.333333333333336
500.0   60.0   33.333333333333336
450.0   60.0   16.666666666666668
450.0   30.0   33.333333333333336
500.0   60.0   33.333333333333336
500.0   30.0   33.333333333333336
500.0   30.0   16.666666666666668
450.0   30.0   33.333333333333336
500.0   60.0   33.333333333333336
500.0   30.0   16.666666666666668
450.0   60.0   16.666666666666668
450.0   30.0   33.333333333333336
500.0   30.0   33.333333333333336
450.0   60.0   33.333333333333336
450.0   30.0   50.0
500.0   30.0   33.333333333333336
500.0   60.0   33.333333333333336
450.0   60.0   33.333333333333336
500.0   60.0   50.0
450.0   30.0   50.0
450.0   60.0   50.0
500.0   60.0   50.0
450.0   60.0   33.333333333333336
450.0   30.0   50.0
500.0   60.0   50.0
500.0   30.0   50.0
500.0   30.0   33.333333333333336
450.0   30.0   50.0
500.0   60.0   50.0
500.0   30.0   33.333333333333336
450.0   60.0   33.333333333333336
450.0   60.0   0.0
500.0   60.0   0.0
450.0   90.0   0.0
450.0   60.0   16.666666666666668
500.0   60.0   0.0
500.0   90.0   0.0
450.0   90.0   0.0
500.0   90.0   16.666666666666668
450.0   60.0   16.666666666666668
450.0   90.0   16.666666666666668
500.0   90.0   16.666666666666668
450.0   90.0   0.0
450.0   60.0   16.666666666666668
500.0   90.0   16.666666666666668
500.0   60.0   16.666666666666668
500.0   60.0   0.0
450.0   60.0   16.666666666666668
500.0   90.0   16.666666666666668
500.0   60.0   0.0
450.0   90.0   0.0
450.0   60.0   16.666666666666668
500.0   60.0   16.666666666666668
450.0   90.0   16.666666666666668
450.0   60.0   33.333333333333336
500.0   60.0   16.666666666666668
500.0   90.0   16.666666666666668
450.0   90.0   16.666666666666668
500.0   90.0   33.333333333333336
450.0   60.0   33.333333333333336
450.0   90.0   33.333333333333336
500.0   90.0   33.333333333333336
450.0   90.0   16.666666666666668
450.0   60.0   33.333333333333336
500.0   90.0   33.333333333333336
500.0   60.0   33.333333333333336
500.0   60.0   16.666666666666668
450.0   60.0   33.333333333333336
500.0   90.0   33.333333333333336
500.0   60.0   16.666666666666668
450.0   90.0   16.666666666666668
450.0   60.0   33.333333333333336
500.0   60.0   33.333333333333336
450.0   90.0   33.333333333333336
450.0   60.0   50.0
500.0   60.0   33.333333333333336
500.0   90.0   33.333333333333336
450.0   90.0   33.333333333333336
500.0   90.0   50.0
450.0   60.0   50.0
450.0   90.0   50.0
500.0   90.0   50.0
450.0   90.0   33.333333333333336
450.0   60.0   50.0
500.0   90.0   50.0
500.0   60.0   50.0
500.0   60.0   33.333333333333336
450.0   60.0   50.0
500.0   90.0   50.0
500.0   60.0   33.333333333333336
450.0   90.0   33.333333333333336
450.0   90.0   0.0
500.0   90.0   0.0
450.0   120.0   0.0
450.0   90.0   16.666666666666668
500.0   90.0   0.0
500.0   120.0   0.0
450.0   120.0   0.0
500.0   120.0   16.666666666666668
450.0   90.0   16.666666666666668
450.0   120.0   16.666666666666668
500.0   120.0   16.666666666666668
450.0   120.0   0.0
450.0   90.0   16.666666666666668
500.0   120.0   16.666666666666668
500.0   90.0   16.666666666666668
500.0   90.0   0.0
450.0   90.0   16.666666666666668
500.0   120.0   16.666666666666668
500.0   90.0   0.0
450.0   120.0   0.0
450.0   90.0   16.666666666666668
500.0   90.0   16.666666666666668
450.0   120.0   16.666666666666668
450.0   90.0   33.333333333333336
500.0   90.0   16.666666666666668
500.0   120.0   16.666666666666668
450.0   120.0   16.666666666666668
500.0   120.0   33.333333333333336
450.0   90.0   33.333333333333336
450.0   120.0   33.333333333333336
500.0   120.0   33.333333333333336
450.0   120.0   16.666666666666668
450.0   90.0   33.333333333333336
500.0   120.0   33.333333333333336
500.0   90.0   33.333333333333336
500.0   90.0   16.666666666666668
450.0   90.0   33.333333333333336
500.0   120.0   33.333333333333336
500.0   90.0   16.666666666666668
450.0   120.0   16.666666666666668
450.0   90.0   33.333333333333336
500.0   90.0   33.333333333333336
450.0   120.0   33.333333333333336
450.0   90.0   50.0
500.0   90.0   33.333333333333336
500.0   120.0   33.333333333333336
450.0   120.0   33.333333333333336
500.0   120.0   50.0
450.0   90.0   50.0
450.0   120.0   50.0
500.0   120.0   50.0
450.0   120.0   33.333333333333336
450.0   90.0   50.0
500.0   120.0   50.0
500.0   90.0   50.0
500.0   90.0   33.333333333333336
450.0   90.0   50.0
500.0   120.0   50.0
500.0   90.0   33.333333333333336
450.0   120.0   33.333333333333336
450.0   120.0   0.0
500.0   120.0   0.0
450.0   150.0   0.0
450.0   120.0   16.666666666666668
500.0   120.0   0.0
500.0   150.0   0.0
450.0   150.0   0.0
500.0   150.0   16.666666666666668
450.0   120.0   16.666666666666668
450.0   150.0   16.666666666666668
500.0   150.0   16.666666666666668
450.0   150.0   0.0
450.0   120.0   16.666666666666668
500.0   150.0   16.666666666666668
500.0   120.0   16.666666666666668
500.0   120.0   0.0
450.0   120.0   16.666666666666668
500.0   150.0   16.666666666666668
500.0   120.0   0.0
450.0   150.0   0.0
450.0   120.0   16.666666666666668
500.0   120.0   16.666666666666668
450.0   150.0   16.666666666666668
450.0   120.0   33.333333333333336
500.0   120.0   16.666666666666668
500.0   150.0   16.666666666666668
450.0   150.0   16.666666666666668
500.0   150.0   33.333333333333336
450.0   120.0   33.333333333333336
450.0   150.0   33.333333333333336
500.0   150.0   33.333333333333336
450.0   150.0   16.666666666666668
450.0   120.0   33.333333333333336
500.0   150.0   33.333333333333336
500.0   120.0   33.333333333333336
500.0   120.0   16.666666666666668
450.0   120.0   33.333333333333336
500.0   150.0   33.333333333333336
500.0   120.0   16.666666666666668
450.0   150.0   16.666666666666668
450.0   120.0   33.333333333333336
500.0   120.0   33.333333333333336
450.0   150.0   33.333333333333336
450.0   120.0   50.0
500.0   120.0   33.333333333333336
500.0   150.0   33.333333333333336
450.0   150.0   33.333333333333336
500.0   150.0   50.0
450.0   120.0   50.0
450.0   150.0   50.0
500.0   150.0   50.0
450.0   150.0   33.333333333333336
450.0   120.0   50.0
500.0   150.0   50.0
500.0   120.0   50.0
500.0   120.0   33.333333333333336
450.0   120.0   50.0
500.0   150.0   50.0
500.0   120.0   33.333333333333336
450.0   150.0   33.333333333333336
             </DataArray>   
          </Points>  
          <Cells>  
             <DataArray type="Int32" Name="connectivity" format="ascii">   
0   1   2   3
4   5   6   7
8   9   10   11
12   13   14   15
16   17   18   19
20   21   22   23
24   25   26   27
28   29   30   31
32   33   34   35
36   37   38   39
40   41   42   43
44   45   46   47
48   49   50   51
52   53   54   55
56   57   58   59
60   61   62   63
64   65   66   67
68   69   70   71
72   73   74   75
76   77   78   79
80   81   82   83
84   85   86   87
88   89   90   91
92   93   94   95
96   97   98   99
100   101   102   103
104   105   106   107
108   109   110   111
112   113   114   115
116   117   118   119
120   121   122   123
124   125   126   127
128   129   130   131
132   133   134   135
136   137   138   139
140   141   142   143
144   145   146   147
148   149   150   151
152   153   154   155
156   157   158   159
160   161   162   163
164   165   166   167
168   169   170   171
172   173   174   175
176   177   178   179
180   181   182   183
184   185   186   187
188   189   190   191
192   193   194   195
196   197   198   199
200   201   202   203
204   205   206   207
208   209   210   211
212   213   214   215
216   217   218   219
220   221   222   223
224   225   226   227
228   229   230   231
232   233   234   235
236   237   238   239
240   241   242   243
244   245   246   247
248   249   250   251
252   253   254   255
256   257   258   259
260   261   262   263
264   265   266   267
268   269   270   271
272   273   274   275
276   277   278   279
280   281   282   283
284   285   286   287
288   289   290   291
292   293   294   295
296   297   298   299
300   301   302   303
304   305   306   307
308   309   310   311
312   313   314   315
316   317   318   319
320   321   322   323
324   325   326   327
328   329   330   331
332   333   334   335
336   337   338   339
340   341   342   343
344   345   346   347
348   349   350   351
352   353   354   355
356   357   358   359
360   361   362   363
364   365   366   367
368   369   370   371
372   373   374   375
376   377   378   379
380   381   382   383
384   385   386   387
388   389   390   391
392   393   394   395
396   397   398   399
400   401   402   403
404   405   406   407
408   409   410   411
412   413   414   415
416   417   418   419
420   421   422   423
424   425   426   427
428   429   430   431
432   433   434   435
436   437   438   439
440   441   442   443
444   445   446   447
448   449   450   451
452   453   454   455
456   457   458   459
460   461   462   463
464   465   466   467
468   469   470   471
472   473   474   475
476   477   478   479
480   481   482   483
484   485   486   487
488   489   490   491
492   493   494   495
496   497   498   499
500   501   502   503
504   505   506   507
508   509   510   511
512   513   514   515
516   517   518   519
520   521   522   523
524   525   526   527
528   529   530   531
532   533   534   535
536   537   538   539
540   541   542   543
544   545   546   547
548   549   550   551
552   553   554   555
556   557   558   559
560   561   562   563
564   565   566   567
568   569   570   571
572   573   574   575
576   577   578   579
580   581   582   583
584   585   586   587
588   589   590   591
592   593   594   595
596   597   598   599
600   601   602   603
604   605   606   607
608   609   610   611
612   613   614   615
616   617   618   619
620   621   622   623
624   625   626   627
628   629   630   631
632   633   634   635
636   637   638   639
640   641   642   643
644   645   646   647
648   649   650   651
652   653   654   655
656   657   658   659
660   661   662   663
664   665   666   667
668   669   670   671
672   673   674   675
676   677   678   679
680   681   682   683
684   685   686   687
688   689   690   691
692   693   694   695
696   697   698   699
700   701   702   703
704   705   706   707
708   709   710   711
712   713   714   715
716   717   718   719
720   721   722   723
724   725   726   727
728   729   730   731
732   733   734   735
736   737   738   739
740   741   742   743
744   745   746   747
748   749   750   751
752   753   754   755
756   757   758   759
760   761   762   763
764   765   766   767
768   769   770   771
772   773   774   775
776   777   778   779
780   781   782   783
784   785   786   787
788   789   790   791
792   793   794   795
796   797   798   799
800   801   802   803
804   805   806   807
808   809   810   811
812   813   814   815
816   817   818   819
820   821   822   823
824   825   826   827
828   829   830   831
832   833   834   835
836   837   838   839
840   841   842   843
844   845   846   847
848   849   850   851
852   853   854   855
856   857   858   859
860   861   862   863
864   865   866   867
868   869   870   871
872   873   874   875
876   877   878   879
880   881   882   883
884   885   886   887
888   889   890   891
892   893   894   895
896   897   898   899
900   901   902   903
904   905   906   907
908   909   910   911
912   913   914   915
916   917   918   919
920   921   922   923
924   925   926   927
928   929   930   931
932   933   934   935
936   937   938   939
940   941   942   943
944   945   946   947
948   949   950   951
952   953   954   955
956   957   958   959
960   961   962   963
964   965   966   967
968   969   970   971
972   973   974   975
976   977   978   979
980   981   982   983
984   985   986   987
988   989   990   991
992   993   994   995
996   997   998   999
1000   1001   1002   1003
1004   1005   1006   1007
1008   1009   1010   1011
1012   1013   1014   1015
1016   1017   1018   1019
1020   1021   1022   1023
1024   1025   1026   1027
1028   1029   1030   1031
1032   1033   1034   1035
1036   1037   1038   1039
1040   1041   1042   1043
1044   1045   1046   1047
1048   1049   1050   1051
1052   1053   1054   1055
1056   1057   1058   1059
1060   1061   1062   1063
1064   1065   1066   1067
1068   1069   1070   1071
1072   1073   1074   1075
1076   1077   1078   1079
1080   1081   1082   1083
1084   1085   1086   1087
1088   1089   1090   1091
1092   1093   1094   1095
1096   1097   1098   1099
1100   1101   1102   1103
1104   1105   1106   1107
1108   1109   1110   1111
1112   1113   1114   1115
1116   1117   1118   1119
1120   1121   1122   1123
1124   1125   1126   1127
1128   1129   1130   1131
1132   1133   1134   1135
1136   1137   1138   1139
1140   1141   1142   1143
1144   1145   1146   1147
1148   1149   1150   1151
1152   1153   1154   1155
1156   1157   1158   1159
1160   1161   1162   1163
1164   1165   1166   1167
1168   1169   1170   1171
1172   1173   1174   1175
1176   1177   1178   1179
1180   1181   1182   1183
1184   1185   1186   1187
1188   1189   1190   1191
1192   1193   1194   1195
1196   1197   1198   1199
1200   1201   1202   1203
1204   1205   1206   1207
1208   1209   1210   1211
1212   1213   1214   1215
1216   1217   1218   1219
1220   1221   1222   1223
1224   1225   1226   1227
1228   1229   1230   1231
1232   1233   1234   1235
1236   1237   1238   1239
1240   1241   1242   1243
1244   1245   1246   1247
1248   1249   1250   1251
1252   1253   1254   1255
1256   1257   1258   1259
1260   1261   1262   1263
1264   1265   1266   1267
1268   1269   1270   1271
1272   1273   1274   1275
1276   1277   1278   1279
1280   1281   1282   1283
1284   1285   1286   1287
1288   1289   1290   1291
1292   1293   1294   1295
1296   1297   1298   1299
1300   1301   1302   1303
1304   1305   1306   1307
1308   1309   1310   1311
1312   1313   1314   1315
1316   1317   1318   1319
1320   1321   1322   1323
1324   1325   1326   1327
1328   1329   1330   1331
1332   1333   1334   1335
1336   1337   1338   1339
1340   1341   1342   1343
1344   1345   1346   1347
1348   1349   1350   1351
1352   1353   1354   1355
1356   1357   1358   1359
1360   1361   1362   1363
1364   1365   1366   1367
1368   1369   1370   1371
1372   1373   1374   1375
1376   1377   1378   1379
1380   1381   1382   1383
1384   1385   1386   1387
1388   1389   1390   1391
1392   1393   1394   1395
1396   1397   1398   1399
1400   1401   1402   1403
1404   1405   1406   1407
1408   1409   1410   1411
1412   1413   1414   1415
1416   1417   1418   1419
1420   1421   1422   1423
1424   1425   1426   1427
1428   1429   1430   1431
1432   1433   1434   1435
1436   1437   1438   1439
1440   1441   1442   1443
1444   1445   1446   1447
1448   1449   1450   1451
1452   1453   1454   1455
1456   1457   1458   1459
1460   1461   1462   1463
1464   1465   1466   1467
1468   1469   1470   1471
1472   1473   1474   1475
1476   1477   1478   1479
1480   1481   1482   1483
1484   1485   1486   1487
1488   1489   1490   1491
1492   1493   1494   1495
1496   1497   1498   1499
1500   1501   1502   1503
1504   1505   1506   1507
1508   1509   1510   1511
1512   1513   1514   1515
1516   1517   1518   1519
1520   1521   1522   1523
1524   1525   1526   1527
1528   1529   1530   1531
1532   1533   1534   1535
1536   1537   1538   1539
1540   1541   1542   1543
1544   1545   1546   1547
1548   1549   1550   1551
1552   1553   1554   1555
1556   1557   1558   1559
1560   1561   1562   1563
1564   1565   1566   1567
1568   1569   1570   1571
1572   1573   1574   1575
1576   1577   1578   1579
1580   1581   1582   1583
1584   1585   1586   1587
1588   1589   1590   1591
1592   1593   1594   1595
1596   1597   1598   1599
1600   1601   1602   1603
1604   1605   1606   1607
1608   1609   1610   1611
1612   1613   1614   1615
1616   1617   1618   1619
1620   1621   1622   1623
1624   1625   1626   1627
1628   1629   1630   1631
1632   1633   1634   1635
1636   1637   1638   1639
1640   1641   1642   1643
1644   1645   1646   1647
1648   1649   1650   1651
1652   1653   1654   1655
1656   1657   1658   1659
1660   1661   1662   1663
1664   1665   1666   1667
1668   1669   1670   1671
1672   1673   1674   1675
1676   1677   1678   1679
1680   1681   1682   1683
1684   1685   1686   1687
1688   1689   1690   1691
1692   1693   1694   1695
1696   1697   1698   1699
1700   1701   1702   1703
1704   1705   1706   1707
1708   1709   1710   1711
1712   1713   1714   1715
1716   1717   1718   1719
1720   1721   1722   1723
1724   1725   1726   1727
1728   1729   1730   1731
1732   1733   1734   1735
1736   1737   1738   1739
1740   1741   1742   1743
1744   1745   1746   1747
1748   1749   1750   1751
1752   1753   1754   1755
1756   1757   1758   1759
1760   1761   1762   1763
1764   1765   1766   1767
1768   1769   1770   1771
1772   1773   1774   1775
1776   1777   1778   1779
1780   1781   1782   1783
1784   1785   1786   1787
1788   1789   1790   1791
1792   1793   1794   1795
1796   1797   1798   1799
1800   1801   1802   1803
1804   1805   1806   1807
1808   1809   1810   1811
1812   1813   1814   1815
1816   1817   1818   1819
1820   1821   1822   1823
1824   1825   1826   1827
1828   1829   1830   1831
1832   1833   1834   1835
1836   1837   1838   1839
1840   1841   1842   1843
1844   1845   1846   1847
1848   1849   1850   1851
1852   1853   1854   1855
1856   1857   1858   1859
1860   1861   1862   1863
1864   1865   1866   1867
1868   1869   1870   1871
1872   1873   1874   1875
1876   1877   1878   1879
1880   1881   1882   1883
1884   1885   1886   1887
1888   1889   1890   1891
1892   1893   1894   1895
1896   1897   1898   1899
1900   1901   1902   1903
1904   1905   1906   1907
1908   1909   1910   1911
1912   1913   1914   1915
1916   1917   1918   1919
1920   1921   1922   1923
1924   1925   1926   1927
1928   1929   1930   1931
1932   1933   1934   1935
1936   1937   1938   1939
1940   1941   1942   1943
1944   1945   1946   1947
1948   1949   1950   1951
1952   1953   1954   1955
1956   1957   1958   1959
1960   1961   1962   1963
1964   1965   1966   1967
1968   1969   1970   1971
1972   1973   1974   1975
1976   1977   1978   1979
1980   1981   1982   1983
1984   1985   1986   1987
1988   1989   1990   1991
1992   1993   1994   1995
1996   1997   1998   1999
2000   2001   2002   2003
2004   2005   2006   2007
2008   2009   2010   2011
2012   2013   2014   2015
2016   2017   2018   2019
2020   2021   2022   2023
2024   2025   2026   2027
2028   2029   2030   2031
2032   2033   2034   2035
2036   2037   2038   2039
2040   2041   2042   2043
2044   2045   2046   2047
2048   2049   2050   2051
2052   2053   2054   2055
2056   2057   2058   2059
2060   2061   2062   2063
2064   2065   2066   2067
2068   2069   2070   2071
2072   2073   2074   2075
2076   2077   2078   2079
2080   2081   2082   2083
2084   2085   2086   2087
2088   2089   2090   2091
2092   2093   2094   2095
2096   2097   2098   2099
2100   2101   2102   2103
2104   2105   2106   2107
2108   2109   2110   2111
2112   2113   2114   2115
2116   2117   2118   2119
2120   2121   2122   2123
2124   2125   2126   2127
2128   2129   2130   2131
2132   2133   2134   2135
2136   2137   2138   2139
2140   2141   2142   2143
2144   2145   2146   2147
2148   2149   2150   2151
2152   2153   2154   2155
2156   2157   2158   2159
2160   2161   2162   2163
2164   2165   2166   2167
2168   2169   2170   2171
2172   2173   2174   2175
2176   2177   2178   2179
2180   2181   2182   2183
2184   2185   2186   2187
2188   2189   2190   2191
2192   2193   2194   2195
2196   2197   2198   2199
2200   2201   2202   2203
2204   2205   2206   2207
2208   2209   2210   2211
2212   2213   2214   2215
2216   2217   2218   2219
2220   2221   2222   2223
2224   2225   2226   2227
2228   2229   2230   2231
2232   2233   2234   2235
2236   2237   2238   2239
2240   2241   2242   2243
2244   2245   2246   2247
2248   2249   2250   2251
2252   2253   2254   2255
2256   2257   2258   2259
2260   2261   2262   2263
2264   2265   2266   2267
2268   2269   2270   2271
2272   2273   2274   2275
2276   2277   2278   2279
2280   2281   2282   2283
2284   2285   2286   2287
2288   2289   2290   2291
2292   2293   2294   2295
2296   2297   2298   2299
2300   2301   2302   2303
2304   2305   2306   2307
2308   2309   2310   2311
2312   2313   2314   2315
2316   2317   2318   2319
2320   2321   2322   2323
2324   2325   2326   2327
2328   2329   2330   2331
2332   2333   2334   2335
2336   2337   2338   2339
2340   2341   2342   2343
2344   2345   2346   2347
2348   2349   2350   2351
2352   2353   2354   2355
2356   2357   2358   2359
2360   2361   2362   2363
2364   2365   2366   2367
2368   2369   2370   2371
2372   2373   2374   2375
2376   2377   2378   2379
2380   2381   2382   2383
2384   2385   2386   2387
2388   2389   2390   2391
2392   2393   2394   2395
2396   2397   2398   2399
2400   2401   2402   2403
2404   2405   2406   2407
2408   2409   2410   2411
2412   2413   2414   2415
2416   2417   2418   2419
2420   2421   2422   2423
2424   2425   2426   2427
2428   2429   2430   2431
2432   2433   2434   2435
2436   2437   2438   2439
2440   2441   2442   2443
2444   2445   2446   2447
2448   2449   2450   2451
2452   2453   2454   2455
2456   2457   2458   2459
2460   2461   2462   2463
2464   2465   2466   2467
2468   2469   2470   2471
2472   2473   2474   2475
2476   2477   2478   2479
2480   2481   2482   2483
2484   2485   2486   2487
2488   2489   2490   2491
2492   2493   2494   2495
2496   2497   2498   2499
2500   2501   2502   2503
2504   2505   2506   2507
2508   2509   2510   2511
2512   2513   2514   2515
2516   2517   2518   2519
2520   2521   2522   2523
2524   2525   2526   2527
2528   2529   2530   2531
2532   2533   2534   2535
2536   2537   2538   2539
2540   2541   2542   2543
2544   2545   2546   2547
2548   2549   2550   2551
2552   2553   2554   2555
2556   2557   2558   2559
2560   2561   2562   2563
2564   2565   2566   2567
2568   2569   2570   2571
2572   2573   2574   2575
2576   2577   2578   2579
2580   2581   2582   2583
2584   2585   2586   2587
2588   2589   2590   2591
2592   2593   2594   2595
2596   2597   2598   2599
2600   2601   2602   2603
2604   2605   2606   2607
2608   2609   2610   2611
2612   2613   2614   2615
2616   2617   2618   2619
2620   2621   2622   2623
2624   2625   2626   2627
2628   2629   2630   2631
2632   2633   2634   2635
2636   2637   2638   2639
2640   2641   2642   2643
2644   2645   2646   2647
2648   2649   2650   2651
2652   2653   2654   2655
2656   2657   2658   2659
2660   2661   2662   2663
2664   2665   2666   2667
2668   2669   2670   2671
2672   2673   2674   2675
2676   2677   2678   2679
2680   2681   2682   2683
2684   2685   2686   2687
2688   2689   2690   2691
2692   2693   2694   2695
2696   2697   2698   2699
2700   2701   2702   2703
2704   2705   2706   2707
2708   2709   2710   2711
2712   2713   2714   2715
2716   2717   2718   2719
2720   2721   2722   2723
2724   2725   2726   2727
2728   2729   2730   2731
2732   2733   2734   2735
2736   2737   2738   2739
2740   2741   2742   2743
2744   2745   2746   2747
2748   2749   2750   2751
2752   2753   2754   2755
2756   2757   2758   2759
2760   2761   2762   2763
2764   2765   2766   2767
2768   2769   2770   2771
2772   2773   2774   2775
2776   2777   2778   2779
2780   2781   2782   2783
2784   2785   2786   2787
2788   2789   2790   2791
2792   2793   2794   2795
2796   2797   2798   2799
2800   2801   2802   2803
2804   2805   2806   2807
2808   2809   2810   2811
2812   2813   2814   2815
2816   2817   2818   2819
2820   2821   2822   2823
2824   2825   2826   2827
2828   2829   2830   2831
2832   2833   2834   2835
2836   2837   2838   2839
2840   2841   2842   2843
2844   2845   2846   2847
2848   2849   2850   2851
2852   2853   2854   2855
2856   2857   2858   2859
2860   2861   2862   2863
2864   2865   2866   2867
2868   2869   2870   2871
2872   2873   2874   2875
2876   2877   2878   2879
2880   2881   2882   2883
2884   2885   2886   2887
2888   2889   2890   2891
2892   2893   2894   2895
2896   2897   2898   2899
2900   2901   2902   2903
2904   2905   2906   2907
2908   2909   2910   2911
2912   2913   2914   2915
2916   2917   2918   2919
2920   2921   2922   2923
2924   2925   2926   2927
2928   2929   2930   2931
2932   2933   2934   2935
2936   2937   2938   2939
2940   2941   2942   2943
2944   2945   2946   2947
2948   2949   2950   2951
2952   2953   2954   2955
2956   2957   2958   2959
2960   2961   2962   2963
2964   2965   2966   2967
2968   2969   2970   2971
2972   2973   2974   2975
2976   2977   2978   2979
2980   2981   2982   2983
2984   2985   2986   2987
2988   2989   2990   2991
2992   2993   2994   2995
2996   2997   2998   2999
3000   3001   3002   3003
3004   3005   3006   3007
3008   3009   3010   3011
3012   3013   3014   3015
3016   3017   3018   3019
3020   3021   3022   3023
3024   3025   3026   3027
3028   3029   3030   3031
3032   3033   3034   3035
3036   3037   3038   3039
3040   3041   3042   3043
3044   3045   3046   3047
3048   3049   3050   3051
3052   3053   3054   3055
3056   3057   3058   3059
3060   3061   3062   3063
3064   3065   3066   3067
3068   3069   3070   3071
3072   3073   3074   3075
3076   3077   3078   3079
3080   3081   3082   3083
3084   3085   3086   3087
3088   3089   3090   3091
3092   3093   3094   3095
3096   3097   3098   3099
3100   3101   3102   3103
3104   3105   3106   3107
3108   3109   3110   3111
3112   3113   3114   3115
3116   3117   3118   3119
3120   3121   3122   3123
3124   3125   3126   3127
3128   3129   3130   3131
3132   3133   3134   3135
3136   3137   3138   3139
3140   3141   3142   3143
3144   3145   3146   3147
3148   3149   3150   3151
3152   3153   3154   3155
3156   3157   3158   3159
3160   3161   3162   3163
3164   3165   3166   3167
3168   3169   3170   3171
3172   3173   3174   3175
3176   3177   3178   3179
3180   3181   3182   3183
3184   3185   3186   3187
3188   3189   3190   3191
3192   3193   3194   3195
3196   3197   3198   3199
3200   3201   3202   3203
3204   3205   3206   3207
3208   3209   3210   3211
3212   3213   3214   3215
3216   3217   3218   3219
3220   3221   3222   3223
3224   3225   3226   3227
3228   3229   3230   3231
3232   3233   3234   3235
3236   3237   3238   3239
3240   3241   3242   3243
3244   3245   3246   3247
3248   3249   3250   3251
3252   3253   3254   3255
3256   3257   3258   3259
3260   3261   3262   3263
3264   3265   3266   3267
3268   3269   3270   3271
3272   3273   3274   3275
3276   3277   3278   3279
3280   3281   3282   3283
3284   3285   3286   3287
3288   3289   3290   3291
3292   3293   3294   3295
3296   3297   3298   3299
3300   3301   3302   3303
3304   3305   3306   3307
3308   3309   3310   3311
3312   3313   3314   3315
3316   3317   3318   3319
3320   3321   3322   3323
3324   3325   3326   3327
3328   3329   3330   3331
3332   3333   3334   3335
3336   3337   3338   3339
3340   3341   3342   3343
3344   3345   3346   3347
3348   3349   3350   3351
3352   3353   3354   3355
3356   3357   3358   3359
3360   3361   3362   3363
3364   3365   3366   3367
3368   3369   3370   3371
3372   3373   3374   3375
3376   3377   3378   3379
3380   3381   3382   3383
3384   3385   3386   3387
3388   3389   3390   3391
3392   3393   3394   3395
3396   3397   3398   3399
3400   3401   3402   3403
3404   3405   3406   3407
3408   3409   3410   3411
3412   3413   3414   3415
3416   3417   3418   3419
3420   3421   3422   3423
3424   3425   3426   3427
3428   3429   3430   3431
3432   3433   3434   3435
3436   3437   3438   3439
3440   3441   3442   3443
3444   3445   3446   3447
3448   3449   3450   3451
3452   3453   3454   3455
3456   3457   3458   3459
3460   3461   3462   3463
3464   3465   3466   3467
3468   3469   3470   3471
3472   3473   3474   3475
3476   3477   3478   3479
3480   3481   3482   3483
3484   3485   3486   3487
3488   3489   3490   3491
3492   3493   3494   3495
3496   3497   3498   3499
3500   3501   3502   3503
3504   3505   3506   3507
3508   3509   3510   3511
3512   3513   3514   3515
3516   3517   3518   3519
3520   3521   3522   3523
3524   3525   3526   3527
3528   3529   3530   3531
3532   3533   3534   3535
3536   3537   3538   3539
3540   3541   3542   3543
3544   3545   3546   3547
3548   3549   3550   3551
3552   3553   3554   3555
3556   3557   3558   3559
3560   3561   3562   3563
3564   3565   3566   3567
3568   3569   3570   3571
3572   3573   3574   3575
3576   3577   3578   3579
3580   3581   3582   3583
3584   3585   3586   3587
3588   3589   3590   3591
3592   3593   3594   3595
3596   3597   3598   3599
3600   3601   3602   3603
3604   3605   3606   3607
3608   3609   3610   3611
3612   3613   3614   3615
3616   3617   3618   3619
3620   3621   3622   3623
3624   3625   3626   3627
3628   3629   3630   3631
3632   3633   3634   3635
3636   3637   3638   3639
3640   3641   3642   3643
3644   3645   3646   3647
3648   3649   3650   3651
3652   3653   3654   3655
3656   3657   3658   3659
3660   3661   3662   3663
3664   3665   3666   3667
3668   3669   3670   3671
3672   3673   3674   3675
3676   3677   3678   3679
3680   3681   3682   3683
3684   3685   3686   3687
3688   3689   3690   3691
3692   3693   3694   3695
3696   3697   3698   3699
3700   3701   3702   3703
3704   3705   3706   3707
3708   3709   3710   3711
3712   3713   3714   3715
3716   3717   3718   3719
3720   3721   3722   3723
3724   3725   3726   3727
3728   3729   3730   3731
3732   3733   3734   3735
3736   3737   3738   3739
3740   3741   3742   3743
3744   3745   3746   3747
3748   3749   3750   3751
3752   3753   3754   3755
3756   3757   3758   3759
3760   3761   3762   3763
3764   3765   3766   3767
3768   3769   3770   3771
3772   3773   3774   3775
3776   3777   3778   3779
3780   3781   3782   3783
3784   3785   3786   3787
3788   3789   3790   3791
3792   3793   3794   3795
3796   3797   3798   3799
3800   3801   3802   3803
3804   3805   3806   3807
3808   3809   3810   3811
3812   3813   3814   3815
3816   3817   3818   3819
3820   3821   3822   3823
3824   3825   3826   3827
3828   3829   3830   3831
3832   3833   3834   3835
3836   3837   3838   3839
3840   3841   3842   3843
3844   3845   3846   3847
3848   3849   3850   3851
3852   3853   3854   3855
3856   3857   3858   3859
3860   3861   3862   3863
3864   3865   3866   3867
3868   3869   3870   3871
3872   3873   3874   3875
3876   3877   3878   3879
3880   3881   3882   3883
3884   3885   3886   3887
3888   3889   3890   3891
3892   3893   3894   3895
3896   3897   3898   3899
3900   3901   3902   3903
3904   3905   3906   3907
3908   3909   3910   3911
3912   3913   3914   3915
3916   3917   3918   3919
3920   3921   3922   3923
3924   3925   3926   3927
3928   3929   3930   3931
3932   3933   3934   3935
3936   3937   3938   3939
3940   3941   3942   3943
3944   3945   3946   3947
3948   3949   3950   3951
3952   3953   3954   3955
3956   3957   3958   3959
3960   3961   3962   3963
3964   3965   3966   3967
3968   3969   3970   3971
3972   3973   3974   3975
3976   3977   3978   3979
3980   3981   3982   3983
3984   3985   3986   3987
3988   3989   3990   3991
3992   3993   3994   3995
3996   3997   3998   3999
4000   4001   4002   4003
4004   4005   4006   4007
4008   4009   4010   4011
4012   4013   4014   4015
4016   4017   4018   4019
4020   4021   4022   4023
4024   4025   4026   4027
4028   4029   4030   4031
4032   4033   4034   4035
4036   4037   4038   4039
4040   4041   4042   4043
4044   4045   4046   4047
4048   4049   4050   4051
4052   4053   4054   4055
4056   4057   4058   4059
4060   4061   4062   4063
4064   4065   4066   4067
4068   4069   4070   4071
4072   4073   4074   4075
4076   4077   4078   4079
4080   4081   4082   4083
4084   4085   4086   4087
4088   4089   4090   4091
4092   4093   4094   4095
4096   4097   4098   4099
4100   4101   4102   4103
4104   4105   4106   4107
4108   4109   4110   4111
4112   4113   4114   4115
4116   4117   4118   4119
4120   4121   4122   4123
4124   4125   4126   4127
4128   4129   4130   4131
4132   4133   4134   4135
4136   4137   4138   4139
4140   4141   4142   4143
4144   4145   4146   4147
4148   4149   4150   4151
4152   4153   4154   4155
4156   4157   4158   4159
4160   4161   4162   4163
4164   4165   4166   4167
4168   4169   4170   4171
4172   4173   4174   4175
4176   4177   4178   4179
4180   4181   4182   4183
4184   4185   4186   4187
4188   4189   4190   4191
4192   4193   4194   4195
4196   4197   4198   4199
4200   4201   4202   4203
4204   4205   4206   4207
4208   4209   4210   4211
4212   4213   4214   4215
4216   4217   4218   4219
4220   4221   4222   4223
4224   4225   4226   4227
4228   4229   4230   4231
4232   4233   4234   4235
4236   4237   4238   4239
4240   4241   4242   4243
4244   4245   4246   4247
4248   4249   4250   4251
4252   4253   4254   4255
4256   4257   4258   4259
4260   4261   4262   4263
4264   4265   4266   4267
4268   4269   4270   4271
4272   4273   4274   4275
4276   4277   4278   4279
4280   4281   4282   4283
4284   4285   4286   4287
4288   4289   4290   4291
4292   4293   4294   4295
4296   4297   4298   4299
4300   4301   4302   4303
4304   4305   4306   4307
4308   4309   4310   4311
4312   4313   4314   4315
4316   4317   4318   4319
4320   4321   4322   4323
4324   4325   4326   4327
4328   4329   4330   4331
4332   4333   4334   4335
4336   4337   4338   4339
4340   4341   4342   4343
4344   4345   4346   4347
4348   4349   4350   4351
4352   4353   4354   4355
4356   4357   4358   4359
4360   4361   4362   4363
4364   4365   4366   4367
4368   4369   4370   4371
4372   4373   4374   4375
4376   4377   4378   4379
4380   4381   4382   4383
4384   4385   4386   4387
4388   4389   4390   4391
4392   4393   4394   4395
4396   4397   4398   4399
4400   4401   4402   4403
4404   4405   4406   4407
4408   4409   4410   4411
4412   4413   4414   4415
4416   4417   4418   4419
4420   4421   4422   4423
4424   4425   4426   4427
4428   4429   4430   4431
4432   4433   4434   4435
4436   4437   4438   4439
4440   4441   4442   4443
4444   4445   4446   4447
4448   4449   4450   4451
4452   4453   4454   4455
4456   4457   4458   4459
4460   4461   4462   4463
4464   4465   4466   4467
4468   4469   4470   4471
4472   4473   4474   4475
4476   4477   4478   4479
4480   4481   4482   4483
4484   4485   4486   4487
4488   4489   4490   4491
4492   4493   4494   4495
4496   4497   4498   4499
4500   4501   4502   4503
4504   4505   4506   4507
4508   4509   4510   4511
4512   4513   4514   4515
4516   4517   4518   4519
4520   4521   4522   4523
4524   4525   4526   4527
4528   4529   4530   4531
4532   4533   4534   4535
4536   4537   4538   4539
4540   4541   4542   4543
4544   4545   4546   4547
4548   4549   4550   4551
4552   4553   4554   4555
4556   4557   4558   4559
4560   4561   4562   4563
4564   4565   4566   4567
4568   4569   4570   4571
4572   4573   4574   4575
4576   4577   4578   4579
4580   4581   4582   4583
4584   4585   4586   4587
4588   4589   4590   4591
4592   4593   4594   4595
4596   4597   4598   4599
4600   4601   4602   4603
4604   4605   4606   4607
4608   4609   4610   4611
4612   4613   4614   4615
4616   4617   4618   4619
4620   4621   4622   4623
4624   4625   4626   4627
4628   4629   4630   4631
4632   4633   4634   4635
4636   4637   4638   4639
4640   4641   4642   4643
4644   4645   4646   4647
4648   4649   4650   4651
4652   4653   4654   4655
4656   4657   4658   4659
4660   4661   4662   4663
4664   4665   4666   4667
4668   4669   4670   4671
4672   4673   4674   4675
4676   4677   4678   4679
4680   4681   4682   4683
4684   4685   4686   4687
4688   4689   4690   4691
4692   4693   4694   4695
4696   4697   4698   4699
4700   4701   4702   4703
4704   4705   4706   4707
4708   4709   4710   4711
4712   4713   4714   4715
4716   4717   4718   4719
4720   4721   4722   4723
4724   4725   4726   4727
4728   4729   4730   4731
4732   4733   4734   4735
4736   4737   4738   4739
4740   4741   4742   4743
4744   4745   4746   4747
4748   4749   4750   4751
4752   4753   4754   4755
4756   4757   4758   4759
4760   4761   4762   4763
4764   4765   4766   4767
4768   4769   4770   4771
4772   4773   4774   4775
4776   4777   4778   4779
4780   4781   4782   4783
4784   4785   4786   4787
4788   4789   4790   4791
4792   4793   4794   4795
4796   4797   4798   4799
4800   4801   4802   4803
4804   4805   4806   4807
4808   4809   4810   4811
4812   4813   4814   4815
4816   4817   4818   4819
4820   4821   4822   4823
4824   4825   4826   4827
4828   4829   4830   4831
4832   4833   4834   4835
4836   4837   4838   4839
4840   4841   4842   4843
4844   4845   4846   4847
4848   4849   4850   4851
4852   4853   4854   4855
4856   4857   4858   4859
4860   4861   4862   4863
4864   4865   4866   4867
4868   4869   4870   4871
4872   4873   4874   4875
4876   4877   4878   4879
4880   4881   4882   4883
4884   4885   4886   4887
4888   4889   4890   4891
4892   4893   4894   4895
4896   4897   4898   4899
4900   4901   4902   4903
4904   4905   4906   4907
4908   4909   4910   4911
4912   4913   4914   4915
4916   4917   4918   4919
4920   4921   4922   4923
4924   4925   4926   4927
4928   4929   4930   4931
4932   4933   4934   4935
4936   4937   4938   4939
4940   4941   4942   4943
4944   4945   4946   4947
4948   4949   4950   4951
4952   4953   4954   4955
4956   4957   4958   4959
4960   4961   4962   4963
4964   4965   4966   4967
4968   4969   4970   4971
4972   4973   4974   4975
4976   4977   4978   4979
4980   4981   4982   4983
4984   4985   4986   4987
4988   4989   4990   4991
4992   4993   4994   4995
4996   4997   4998   4999
5000   5001   5002   5003
5004   5005   5006   5007
5008   5009   5010   5011
5012   5013   5014   5015
5016   5017   5018   5019
5020   5021   5022   5023
5024   5025   5026   5027
5028   5029   5030   5031
5032   5033   5034   5035
5036   5037   5038   5039
5040   5041   5042   5043
5044   5045   5046   5047
5048   5049   5050   5051
5052   5053   5054   5055
5056   5057   5058   5059
5060   5061   5062   5063
5064   5065   5066   5067
5068   5069   5070   5071
5072   5073   5074   5075
5076   5077   5078   5079
5080   5081   5082   5083
5084   5085   5086   5087
5088   5089   5090   5091
5092   5093   5094   5095
5096   5097   5098   5099
5100   5101   5102   5103
5104   5105   5106   5107
5108   5109   5110   5111
5112   5113   5114   5115
5116   5117   5118   5119
5120   5121   5122   5123
5124   5125   5126   5127
5128   5129   5130   5131
5132   5133   5134   5135
5136   5137   5138   5139
5140   5141   5142   5143
5144   5145   5146   5147
5148   5149   5150   5151
5152   5153   5154   5155
5156   5157   5158   5159
5160   5161   5162   5163
5164   5165   5166   5167
5168   5169   5170   5171
5172   5173   5174   5175
5176   5177   5178   5179
5180   5181   5182   5183
5184   5185   5186   5187
5188   5189   5190   5191
5192   5193   5194   5195
5196   5197   5198   5199
5200   5201   5202   5203
5204   5205   5206   5207
5208   5209   5210   5211
5212   5213   5214   5215
5216   5217   5218   5219
5220   5221   5222   5223
5224   5225   5226   5227
5228   5229   5230   5231
5232   5233   5234   5235
5236   5237   5238   5239
5240   5241   5242   5243
5244   5245   5246   5247
5248   5249   5250   5251
5252   5253   5254   5255
5256   5257   5258   5259
5260   5261   5262   5263
5264   5265   5266   5267
5268   5269   5270   5271
5272   5273   5274   5275
5276   5277   5278   5279
5280   5281   5282   5283
5284   5285   5286   5287
5288   5289   5290   5291
5292   5293   5294   5295
5296   5297   5298   5299
5300   5301   5302   5303
5304   5305   5306   5307
5308   5309   5310   5311
5312   5313   5314   5315
5316   5317   5318   5319
5320   5321   5322   5323
5324   5325   5326   5327
5328   5329   5330   5331
5332   5333   5334   5335
5336   5337   5338   5339
5340   5341   5342   5343
5344   5345   5346   5347
5348   5349   5350   5351
5352   5353   5354   5355
5356   5357   5358   5359
5360   5361   5362   5363
5364   5365   5366   5367
5368   5369   5370   5371
5372   5373   5374   5375
5376   5377   5378   5379
5380   5381   5382   5383
5384   5385   5386   5387
5388   5389   5390   5391
5392   5393   5394   5395
5396   5397   5398   5399
5400   5401   5402   5403
5404   5405   5406   5407
5408   5409   5410   5411
5412   5413   5414   5415
5416   5417   5418   5419
5420   5421   5422   5423
5424   5425   5426   5427
5428   5429   5430   5431
5432   5433   5434   5435
5436   5437   5438   5439
5440   5441   5442   5443
5444   5445   5446   5447
5448   5449   5450   5451
5452   5453   5454   5455
5456   5457   5458   5459
5460   5461   5462   5463
5464   5465   5466   5467
5468   5469   5470   5471
5472   5473   5474   5475
5476   5477   5478   5479
5480   5481   5482   5483
5484   5485   5486   5487
5488   5489   5490   5491
5492   5493   5494   5495
5496   5497   5498   5499
5500   5501   5502   5503
5504   5505   5506   5507
5508   5509   5510   5511
5512   5513   5514   5515
5516   5517   5518   5519
5520   5521   5522   5523
5524   5525   5526   5527
5528   5529   5530   5531
5532   5533   5534   5535
5536   5537   5538   5539
5540   5541   5542   5543
5544   5545   5546   5547
5548   5549   5550   5551
5552   5553   5554   5555
5556   5557   5558   5559
5560   5561   5562   5563
5564   5565   5566   5567
5568   5569   5570   5571
5572   5573   5574   5575
5576   5577   5578   5579
5580   5581   5582   5583
5584   5585   5586   5587
5588   5589   5590   5591
5592   5593   5594   5595
5596   5597   5598   5599
5600   5601   5602   5603
5604   5605   5606   5607
5608   5609   5610   5611
5612   5613   5614   5615
5616   5617   5618   5619
5620   5621   5622   5623
5624   5625   5626   5627
5628   5629   5630   5631
5632   5633   5634   5635
5636   5637   5638   5639
5640   5641   5642   5643
5644   5645   5646   5647
5648   5649   5650   5651
5652   5653   5654   5655
5656   5657   5658   5659
5660   5661   5662   5663
5664   5665   5666   5667
5668   5669   5670   5671
5672   5673   5674   5675
5676   5677   5678   5679
5680   5681   5682   5683
5684   5685   5686   5687
5688   5689   5690   5691
5692   5693   5694   5695
5696   5697   5698   5699
5700   5701   5702   5703
5704   5705   5706   5707
5708   5709   5710   5711
5712   5713   5714   5715
5716   5717   5718   5719
5720   5721   5722   5723
5724   5725   5726   5727
5728   5729   5730   5731
5732   5733   5734   5735
5736   5737   5738   5739
5740   5741   5742   5743
5744   5745   5746   5747
5748   5749   5750   5751
5752   5753   5754   5755
5756   5757   5758   5759
5760   5761   5762   5763
5764   5765   5766   5767
5768   5769   5770   5771
5772   5773   5774   5775
5776   5777   5778   5779
5780   5781   5782   5783
5784   5785   5786   5787
5788   5789   5790   5791
5792   5793   5794   5795
5796   5797   5798   5799
5800   5801   5802   5803
5804   5805   5806   5807
5808   5809   5810   5811
5812   5813   5814   5815
5816   5817   5818   5819
5820   5821   5822   5823
5824   5825   5826   5827
5828   5829   5830   5831
5832   5833   5834   5835
5836   5837   5838   5839
5840   5841   5842   5843
5844   5845   5846   5847
5848   5849   5850   5851
5852   5853   5854   5855
5856   5857   5858   5859
5860   5861   5862   5863
5864   5865   5866   5867
5868   5869   5870   5871
5872   5873   5874   5875
5876   5877   5878   5879
5880   5881   5882   5883
5884   5885   5886   5887
5888   5889   5890   5891
5892   5893   5894   5895
5896   5897   5898   5899
5900   5901   5902   5903
5904   5905   5906   5907
5908   5909   5910   5911
5912   5913   5914   5915
5916   5917   5918   5919
5920   5921   5922   5923
5924   5925   5926   5927
5928   5929   5930   5931
5932   5933   5934   5935
5936   5937   5938   5939
5940   5941   5942   5943
5944   5945   5946   5947
5948   5949   5950   5951
5952   5953   5954   5955
5956   5957   5958   5959
5960   5961   5962   5963
5964   5965   5966   5967
5968   5969   5970   5971
5972   5973   5974   5975
5976   5977   5978   5979
5980   5981   5982   5983
5984   5985   5986   5987
5988   5989   5990   5991
5992   5993   5994   5995
5996   5997   5998   5999
              </DataArray>   
              <DataArray type="Int32" Name="offsets" format="ascii">   
4
8
12
16
20
24
28
32
36
40
44
48
52
56
60
64
68
72
76
80
84
88
92
96
100
104
108
112
116
120
124
128
132
136
140
144
148
152
156
160
164
168
172
176
180
184
188
192
196
200
204
208
212
216
220
224
228
232
236
240
244
248
252
256
260
264
268
272
276
280
284
288
292
296
300
304
308
312
316
320
324
328
332
336
340
344
348
352
356
360
364
368
372
376
380
384
388
392
396
400
404
408
412
416
420
424
428
432
436
440
444
448
452
456
460
464
468
472
476
480
484
488
492
496
500
504
508
512
516
520
524
528
532
536
540
544
548
552
556
560
564
568
572
576
580
584
588
592
596
600
604
608
612
616
620
624
628
632
636
640
644
648
652
656
660
664
668
672
676
680
684
688
692
696
700
704
708
712
716
720
724
728
732
736
740
744
748
752
756
760
764
768
772
776
780
784
788
792
796
800
804
808
812
816
820
824
828
832
836
840
844
848
852
856
860
864
868
872
876
880
884
888
892
896
900
904
908
912
916
920
924
928
932
936
940
944
948
952
956
960
964
968
972
976
980
984
988
992
996
1000
1004
1008
1012
1016
1020
1024
1028
1032
1036
1040
1044
1048
1052
1056
1060
1064
1068
1072
1076
1080
1084
1088
1092
1096
1100
1104
1108
1112
1116
1120
1124
1128
1132
1136
1140
1144
1148
1152
1156
1160
1164
1168
1172
1176
1180
1184
1188
1192
1196
1200
1204
1208
1212
1216
1220
1224
1228
1232
1236
1240
1244
1248
1252
1256
1260
1264
1268
1272
1276
1280
1284
1288
1292
1296
1300
1304
1308
1312
1316
1320
1324
1328
1332
1336
1340
1344
1348
1352
1356
1360
1364
1368
1372
1376
1380
1384
1388
1392
1396
1400
1404
1408
1412
1416
1420
1424
1428
1432
1436
1440
1444
1448
1452
1456
1460
1464
1468
1472
1476
1480
1484
1488
1492
1496
1500
1504
1508
1512
1516
1520
1524
1528
1532
1536
1540
1544
1548
1552
1556
1560
1564
1568
1572
1576
1580
1584
1588
1592
1596
1600
1604
1608
1612
1616
1620
1624
1628
1632
1636
1640
1644
1648
1652
1656
1660
1664
1668
1672
1676
1680
1684
1688
1692
1696
1700
1704
1708
1712
1716
1720
1724
1728
1732
1736
1740
1744
1748
1752
1756
1760
1764
1768
1772
1776
1780
1784
1788
1792
1796
1800
1804
1808
1812
1816
1820
1824
1828
1832
1836
1840
1844
1848
1852
1856
1860
1864
1868
1872
1876
1880
1884
1888
1892
1896
1900
1904
1908
1912
1916
1920
1924
1928
1932
1936
1940
1944
1948
1952
1956
1960
1964
1968
1972
1976
1980
1984
1988
1992
1996
2000
2004
2008
2012
2016
2020
2024
2028
2032
2036
2040
2044
2048
2052
2056
2060
2064
2068
2072
2076
2080
2084
2088
2092
2096
2100
2104
2108
2112
2116
2120
2124
2128
2132
2136
2140
2144
2148
2152
2156
2160
2164
2168
2172
2176
2180
2184
2188
2192
2196
2200
2204
2208
2212
2216
2220
2224
2228
2232
2236
2240
2244
2248
2252
2256
2260
2264
2268
2272
2276
2280
2284
2288
2292
2296
2300
2304
2308
2312
2316
2320
2324
2328
2332
2336
2340
2344
2348
2352
2356
2360
2364
2368
2372
2376
2380
2384
2388
2392
2396
2400
2404
2408
2412
2416
2420
2424
2428
2432
2436
2440
2444
2448
2452
2456
2460
2464
2468
2472
2476
2480
2484
2488
2492
2496
2500
2504
2508
2512
2516
2520
2524
2528
2532
2536
2540
2544
2548
2552
2556
2560
2564
2568
2572
2576
2580
2584
2588
2592
2596
2600
2604
2608
2612
2616
2620
2624
2628
2632
2636
2640
2644
2648
2652
2656
2660
2664
2668
2672
2676
2680
2684
2688
2692
2696
2700
2704
2708
2712
2716
2720
2724
2728
2732
2736
2740
2744
2748
2752
2756
2760
2764
2768
2772
2776
2780
2784
2788
2792
2796
2800
2804
2808
2812
2816
2820
2824
2828
2832
2836
2840
2844
2848
2852
2856
2860
2864
2868
2872
2876
2880
2884
2888
2892
2896
2900
2904
2908
2912
2916
2920
2924
2928
2932
2936
2940
2944
2948
2952
2956
2960
2964
2968
2972
2976
2980
2984
2988
2992
2996
3000
3004
3008
3012
3016
3020
3024
3028
3032
3036
3040
3044
3048
3052
3056
3060
3064
3068
3072
3076
3080
3084
3088
3092
3096
3100
3104
3108
3112
3116
3120
3124
3128
3132
3136
3140
3144
3148
3152
3156
3160
3164
3168
3172
3176
3180
3184
3188
3192
3196
3200
3204
3208
3212
3216
3220
3224
3228
3232
3236
3240
3244
3248
3252
3256
3260
3264
3268
3272
3276
3280
3284
3288
3292
3296
3300
3304
3308
3312
3316
3320
3324
3328
3332
3336
3340
3344
3348
3352
3356
3360
3364
3368
3372
3376
3380
3384
3388
3392
3396
3400
3404
3408
3412
3416
3420
3424
3428
3432
3436
3440
3444
3448
3452
3456
3460
3464
3468
3472
3476
3480
3484
3488
3492
3496
3500
3504
3508
3512
3516
3520
3524
3528
3532
3536
3540
3544
3548
3552
3556
3560
3564
3568
3572
3576
3580
3584
3588
3592
3596
3600
3604
3608
3612
3616
3620
3624
3628
3632
3636
3640
3644
3648
3652
3656
3660
3664
3668
3672
3676
3680
3684
3688
3692
3696
3700
3704
3708
3712
3716
3720
3724
3728
3732
3736
3740
3744
3748
3752
3756
3760
3764
3768
3772
3776
3780
3784
3788
3792
3796
3800
3804
3808
3812
3816
3820
3824
3828
3832
3836
3840
3844
3848
3852
3856
3860
3864
3868
3872
3876
3880
3884
3888
3892
3896
3900
3904
3908
3912
3916
3920
3924
3928
3932
3936
3940
3944
3948
3952
3956
3960
3964
3968
3972
3976
3980
3984
3988
3992
3996
4000
4004
4008
4012
4016
4020
4024
4028
4032
4036
4040
4044
4048
4052
4056
4060
4064
4068
4072
4076
4080
4084
4088
4092
4096
4100
4104
4108
4112
4116
4120
4124
4128
4132
4136
4140
4144
4148
4152
4156
4160
4164
4168
4172
4176
4180
4184
4188
4192
4196
4200
4204
4208
4212
4216
4220
4224
4228
4232
4236
4240
4244
4248
4252
4256
4260
4264
4268
4272
4276
4280
4284
4288
4292
4296
4300
4304
4308
4312
4316
4320
4324
4328
4332
4336
4340
4344
4348
4352
4356
4360
4364
4368
4372
4376
4380
4384
4388
4392
4396
4400
4404
4408
4412
4416
4420
4424
4428
4432
4436
4440
4444
4448
4452
4456
4460
4464
4468
4472
4476
4480
4484
4488
4492
4496
4500
4504
4508
4512
4516
4520
4524
4528
4532
4536
4540
4544
4548
4552
4556
4560
4564
4568
4572
4576
4580
4584
4588
4592
4596
4600
4604
4608
4612
4616
4620
4624
4628
4632
4636
4640
4644
4648
4652
4656
4660
4664
4668
4672
4676
4680
4684
4688
4692
4696
4700
4704
4708
4712
4716
4720
4724
4728
4732
4736
4740
4744
4748
4752
4756
4760
4764
4768
4772
4776
4780
4784
4788
4792
4796
4800
4804
4808
4812
4816
4820
4824
4828
4832
4836
4840
4844
4848
4852
4856
4860
4864
4868
4872
4876
4880
4884
4888
4892
4896
4900
4904
4908
4912
4916
4920
4924
4928
4932
4936
4940
4944
4948
4952
4956
4960
4964
4968
4972
4976
4980
4984
4988
4992
4996
5000
5004
5008
5012
5016
5020
5024
5028
5032
5036
5040
5044
5048
5052
5056
5060
5064
5068
5072
5076
5080
5084
5088
5092
5096
5100
5104
5108
5112
5116
5120
5124
5128
5132
5136
5140
5144
5148
5152
5156
5160
5164
5168
5172
5176
5180
5184
5188
5192
5196
5200
5204
5208
5212
5216
5220
5224
5228
5232
5236
5240
5244
5248
5252
5256
5260
5264
5268
5272
5276
5280
5284
5288
5292
5296
5300
5304
5308
5312
5316
5320
5324
5328
5332
5336
5340
5344
5348
5352
5356
5360
5364
5368
5372
5376
5380
5384
5388
5392
5396
5400
5404
5408
5412
5416
5420
5424
5428
5432
5436
5440
5444
5448
5452
5456
5460
5464
5468
5472
5476
5480
5484
5488
5492
5496
5500
5504
5508
5512
5516
5520
5524
5528
5532
5536
5540
5544
5548
5552
5556
5560
5564
5568
5572
5576
5580
5584
5588
5592
5596
5600
5604
5608
5612
5616
5620
5624
5628
5632
5636
5640
5644
5648
5652
5656
5660
5664
5668
5672
5676
5680
5684
5688
5692
5696
5700
5704
5708
5712
5716
5720
5724
5728
5732
5736
5740
5744
5748
5752
5756
5760
5764
5768
5772
5776
5780
5784
5788
5792
5796
5800
5804
5808
5812
5816
5820
5824
5828
5832
5836
5840
5844
5848
5852
5856
5860
5864
5868
5872
5876
5880
5884
5888
5892
5896
5900
5904
5908
5912
5916
5920
5924
5928
5932
5936
5940
5944
5948
5952
5956
5960
5964
5968
5972
5976
5980
5984
5988
5992
5996
6000
              </DataArray>   
              <DataArray type="UInt8" Name="types" format="ascii">   
10
10
10
10
10
10
10
10
10
10
10
10
10
10
10
10
10
10
10
10
10
10
10
10
10
10
10
10
10
10
10
10
10
10
10
10
10
10
10
10
10
10
10
10
10
10
10
10
10
10
10
10
10
10
10
10
10
10
10
10
10
10
10
10
10
10
10
10
10
10
10
10
10
10
10
10
10
10
10
10
10
10
10
10
10
10
10
10
10
10
10
10
10
10
10
10
10
10
10
10
10
10
10
10
10
10
10
10
10
10
10
10
10
10
10
10
10
10
10
10
10
10
10
10
10
10
10
10
10
10
10
10
10
10
10
10
10
10
10
10
10
10
10
10
10
10
10
10
10
10
10
10
10
10
10
10
10
10
10
10
10
10
10
10
10
10
10
10
10
10
10
10
10
10
10
10
10
10
10
10
10
10
10
10
10
10
10
10
10
10
10
10
10
10
10
10
10
10
10
10
10
10
10
10
10
10
10
10
10
10
10
10
10
10
10
10
10
10
10
10
10
10
10
10
10
10
10
10
10
10
10
10
10
10
10
10
10
10
10
10
10
10
10
10
10
10
10
10
10
10
10
10
10
10
10
10
10
10
10
10
10
10
10
10
10
10
10
10
10
10
10
10
10
10
10
10
10
10
10
10
10
10
10
10
10
10
10
10
10
10
10
10
10
10
10
10
10
10
10
10
10
10
10
10
10
10
10
10
10
10
10
10
10
10
10
10
10
10
10
10
10
10
10
10
10
10
10
10
10
10
10
10
10
10
10
10
10
10
10
10
10
10
10
10
10
10
10
10
10
10
10
10
10
10
10
10
10
10
10
10
10
10
10
10
10
10
10
10
10
10
10
10
10
10
10
10
10
10
10
10
10
10
10
10
10
10
10
10
10
10
10
10
10
10
10
10
10
10
10
10
10
10
10
10
10
10
10
10
10
10
10
10
10
10
10
10
10
10
10
10
10
10
10
10
10
10
10
10
10
10
10
10
10
10
10
10
10
10
10
10
10
10
10
10
10
10
10
10
10
10
10
10
10
10
10
10
10
10
10
10
10
10
10
10
10
10
10
10
10
10
10
10
10
10
10
10
10
10
10
10
10
10
10
10
10
10
10
10
10
10
10
10
10
10
10
10
10
10
10
10
10
10
10
10
10
10
10
10
10
10
10
10
10
10
10
10
10
10
10
10
10
10
10
10
10
10
10
10
10
10
10
10
10
10
10
10
10
10
10
10
10
10
10
10
10
10
10
10
10
10
10
10
10
10
10
10
10
10
10
10
10
10
10
10
10
10
10
10
10
10
10
10
10
10
10
10
10
10
10
10
10
10
10
10
10
10
10
10
10
10
10
10
10
10
10
10
10
10
10
10
10
10
10
10
10
10
10
10
10
10
10
10
10
10
10
10
10
10
10
10
10
10
10
10
10
10
10
10
10
10
10
10
10
10
10
10
10
10
10
10
10
10
10
10
10
10
10
10
10
10
10
10
10
10
10
10
10
10
10
10
10
10
10
10
10
10
10
10
10
10
10
10
10
10
10
10
10
10
10
10
10
10
10
10
10
10
10
10
10
10
10
10
10
10
10
10
10
10
10
10
10
10
10
10
10
10
10
10
10
10
10
10
10
10
10
10
10
10
10
10
10
10
10
10
10
10
10
10
10
10
10
10
10
10
10
10
10
10
10
10
10
10
10
10
10
10
10
10
10
10
10
10
10
10
10
10
10
10
10
10
10
10
10
10
10
10
10
10
10
10
10
10
10
10
10
10
10
10
10
10
10
10
10
10
10
10
10
10
10
10
10
10
10
10
10
10
10
10
10
10
10
10
10
10
10
10
10
10
10
10
10
10
10
10
10
10
10
10
10
10
10
10
10
10
10
10
10
10
10
10
10
10
10
10
10
10
10
10
10
10
10
10
10
10
10
10
10
10
10
10
10
10
10
10
10
10
10
10
10
10
10
10
10
10
10
10
10
10
10
10
10
10
10
10
10
10
10
10
10
10
10
10
10
10
10
10
10
10
10
10
10
10
10
10
10
10
10
10
10
10
10
10
10
10
10
10
10
10
10
10
10
10
10
10
10
10
10
10
10
10
10
10
10
10
10
10
10
10
10
10
10
10
10
10
10
10
10
10
10
10
10
10
10
10
10
10
10
10
10
10
10
10
10
10
10
10
10
10
10
10
10
10
10
10
10
10
10
10
10
10
10
10
10
10
10
10
10
10
10
10
10
10
10
10
10
10
10
10
10
10
10
10
10
10
10
10
10
10
10
10
10
10
10
10
10
10
10
10
10
10
10
10
10
10
10
10
10
10
10
10
10
10
10
10
10
10
10
10
10
10
10
10
10
10
10
10
10
10
10
10
10
10
10
10
10
10
10
10
10
10
10
10
10
10
10
10
10
10
10
10
10
10
10
10
10
10
10
10
10
10
10
10
10
10
10
10
10
10
10
10
10
10
10
10
10
10
10
10
10
10
10
10
10
10
10
10
10
10
10
10
10
10
10
10
10
10
10
10
10
10
10
10
10
10
10
10
10
10
10
10
10
10
10
10
10
10
10
10
10
10
10
10
10
10
10
10
10
10
10
10
10
10
10
10
10
10
10
10
10
10
10
10
10
10
10
10
10
10
10
10
10
10
10
10
10
10
10
10
10
10
10
10
10
10
10
10
10
10
10
10
10
10
10
10
10
10
10
10
10
10
10
10
10
10
10
10
10
10
10
10
10
10
10
10
10
10
10
10
10
10
10
10
10
10
10
10
10
10
10
10
10
10
10
10
10
10
10
10
10
10
10
10
10
10
10
10
10
10
10
10
10
10
10
10
10
10
10
10
10
10
10
10
10
10
10
10
10
10
10
10
10
10
10
10
10
10
10
10
10
10
10
10
10
10
10
10
10
10
10
10
10
10
10
10
10
10
10
10
10
10
10
10
10
10
10
10
10
10
10
10
10
10
10
10
10
10
10
10
10
10
10
10
10
10
10
10
10
10
10
10
10
10
10
10
10
10
10
10
10
10
10
10
10
10
10
10
10
10
10
10
10
10
10
10
10
10
10
10
10
10
10
10
10
10
10
10
10
10
10
10
10
10
10
10
10
10
10
10
10
10
10
10
10
10
10
10
10
10
10
10
10
10
10
10
10
10
10
10
10
10
10
10
10
10
10
10
10
10
10
10
10
10
10
10
10
10
10
10
10
10
10
10
10
10
10
10
10
10
10
10
10
10
10
10
10
10
10
10
10
10
10
10
10
10
10
10
10
10
10
10
10
10
10
10
10
10
10
10
10
10
10
10
10
10
10
10
10
10
10
10
10
10
10
10
10
10
10
10
10
10
10
10
10
10
10
10
10
10
10
10
10
10
10
10
10
10
10
10
10
10
10
10
10
10
10
10
10
10
10
10
              </DataArray>   
          </Cells>  
          <PointData>  
             <DataArray type="Float64" NumberOfComponents="3" Name="Strains" format="ascii">   
-0.0001256662772533763   0.0   -8.238872985365678e-05
-0.0001256662772533763   0.0   -8.238872985365678e-05
-0.0001256662772533763   0.0   -8.238872985365678e-05
-0.0001256662772533763   0.0   -8.238872985365678e-05
-7.99724208207784e-05   1.3932860892949676e-05   2.1274140697760137e-06
-7.99724208207784e-05   1.3932860892949676e-05   2.1274140697760137e-06
-7.99724208207784e-05   1.3932860892949676e-05   2.1274140697760137e-06
-7.99724208207784e-05   1.3932860892949676e-05   2.1274140697760137e-06
-7.839695842424315e-05   0.0   -7.774734525313569e-05
-7.839695842424315e-05   0.0   -7.774734525313569e-05
-7.839695842424315e-05   0.0   -7.774734525313569e-05
-7.839695842424315e-05   0.0   -7.774734525313569e-05
-0.00013152329092700596   1.671468108232322e-05   7.677336020753961e-07
-0.00013152329092700596   1.671468108232322e-05   7.677336020753961e-07
-0.00013152329092700596   1.671468108232322e-05   7.677336020753961e-07
-0.00013152329092700596   1.671468108232322e-05   7.677336020753961e-07
-0.00010203161783880955   3.8678205004342466e-06   -4.067693852911852e-05
-0.00010203161783880955   3.8678205004342466e-06   -4.067693852911852e-05
-0.00010203161783880955   3.8678205004342466e-06   -4.067693852911852e-05
-0.00010203161783880955   3.8678205004342466e-06   -4.067693852911852e-05
-0.00013152329092700618   0.0   -8.777615390252963e-05
-0.00013152329092700618   0.0   -8.777615390252963e-05
-0.00013152329092700618   0.0   -8.777615390252963e-05
-0.00013152329092700618   0.0   -8.777615390252963e-05
-7.839695842424315e-05   1.6714681082323246e-05   1.0796542251469322e-05
-7.839695842424315e-05   1.6714681082323246e-05   1.0796542251469322e-05
-7.839695842424315e-05   1.6714681082323246e-05   1.0796542251469322e-05
-7.839695842424315e-05   1.6714681082323246e-05   1.0796542251469322e-05
-7.8624683812929e-05   0.0   -7.96521121922994e-05
-7.8624683812929e-05   0.0   -7.96521121922994e-05
-7.8624683812929e-05   0.0   -7.96521121922994e-05
-7.8624683812929e-05   0.0   -7.96521121922994e-05
-0.0001356396589035669   1.7905773259717947e-05   4.629382336266677e-06
-0.0001356396589035669   1.7905773259717947e-05   4.629382336266677e-06
-0.0001356396589035669   1.7905773259717947e-05   4.629382336266677e-06
-0.0001356396589035669   1.7905773259717947e-05   4.629382336266677e-06
-0.0001050739873699674   6.770034758525178e-06   -3.96319604523501e-05
-0.0001050739873699674   6.770034758525178e-06   -3.96319604523501e-05
-0.0001050739873699674   6.770034758525178e-06   -3.96319604523501e-05
-0.0001050739873699674   6.770034758525178e-06   -3.96319604523501e-05
-0.00013563965890356713   0.0   -9.039557614813019e-05
-0.00013563965890356713   0.0   -9.039557614813019e-05
-0.00013563965890356713   0.0   -9.039557614813019e-05
-0.00013563965890356713   0.0   -9.039557614813019e-05
-7.8624683812929e-05   1.7905773259717974e-05   1.5372846292097478e-05
-7.8624683812929e-05   1.7905773259717974e-05   1.5372846292097478e-05
-7.8624683812929e-05   1.7905773259717974e-05   1.5372846292097478e-05
-7.8624683812929e-05   1.7905773259717974e-05   1.5372846292097478e-05
-7.859083316390445e-05   0.0   -8.01405155168805e-05
-7.859083316390445e-05   0.0   -8.01405155168805e-05
-7.859083316390445e-05   0.0   -8.01405155168805e-05
-7.859083316390445e-05   0.0   -8.01405155168805e-05
-0.00014450086792640332   2.0393697999184526e-05   1.7473323621107234e-05
-0.00014450086792640332   2.0393697999184526e-05   1.7473323621107234e-05
-0.00014450086792640332   2.0393697999184526e-05   1.7473323621107234e-05
-0.00014450086792640332   2.0393697999184526e-05   1.7473323621107234e-05
-0.0001071152460337356   8.545883859374735e-06   -3.772735771611969e-05
-0.0001071152460337356   8.545883859374735e-06   -3.772735771611969e-05
-0.0001071152460337356   8.545883859374735e-06   -3.772735771611969e-05
-0.0001071152460337356   8.545883859374735e-06   -3.772735771611969e-05
-7.997242082077855e-05   0.0   -7.402901331788696e-05
-7.997242082077855e-05   0.0   -7.402901331788696e-05
-7.997242082077855e-05   0.0   -7.402901331788696e-05
-7.997242082077855e-05   0.0   -7.402901331788696e-05
-3.641220336714219e-05   5.112234174994989e-06   1.6386896098372251e-06
-3.641220336714219e-05   5.112234174994989e-06   1.6386896098372251e-06
-3.641220336714219e-05   5.112234174994989e-06   1.6386896098372251e-06
-3.641220336714219e-05   5.112234174994989e-06   1.6386896098372251e-06
-3.502720595829082e-05   0.0   -7.33826651389885e-05
-3.502720595829082e-05   0.0   -7.33826651389885e-05
-3.502720595829082e-05   0.0   -7.33826651389885e-05
-3.502720595829082e-05   0.0   -7.33826651389885e-05
-7.839695842424315e-05   7.274466856911974e-06   -5.464424476548475e-06
-7.839695842424315e-05   7.274466856911974e-06   -5.464424476548475e-06
-7.839695842424315e-05   7.274466856911974e-06   -5.464424476548475e-06
-7.839695842424315e-05   7.274466856911974e-06   -5.464424476548475e-06
-5.749981338953458e-05   5.386234824153956e-07   -3.625149350969787e-05
-5.749981338953458e-05   5.386234824153956e-07   -3.625149350969787e-05
-5.749981338953458e-05   5.386234824153956e-07   -3.625149350969787e-05
-5.749981338953458e-05   5.386234824153956e-07   -3.625149350969787e-05
-7.839695842424309e-05   0.0   -7.774734525313562e-05
-7.839695842424309e-05   0.0   -7.774734525313562e-05
-7.839695842424309e-05   0.0   -7.774734525313562e-05
-7.839695842424309e-05   0.0   -7.774734525313562e-05
-3.502720595829082e-05   7.274466856911974e-06   -1.099744362401284e-06
-3.502720595829082e-05   7.274466856911974e-06   -1.099744362401284e-06
-3.502720595829082e-05   7.274466856911974e-06   -1.099744362401284e-06
-3.502720595829082e-05   7.274466856911974e-06   -1.099744362401284e-06
-3.42520598027976e-05   0.0   -7.430518708936382e-05
-3.42520598027976e-05   0.0   -7.430518708936382e-05
-3.42520598027976e-05   0.0   -7.430518708936382e-05
-3.42520598027976e-05   0.0   -7.430518708936382e-05
-7.8624683812929e-05   8.911541838225963e-06   -5.697738842080409e-06
-7.8624683812929e-05   8.911541838225963e-06   -5.697738842080409e-06
-7.8624683812929e-05   8.911541838225963e-06   -5.697738842080409e-06
-7.8624683812929e-05   8.911541838225963e-06   -5.697738842080409e-06
-5.632450911352026e-05   2.8684651364765495e-06   -3.923885065337832e-05
-5.632450911352026e-05   2.8684651364765495e-06   -3.923885065337832e-05
-5.632450911352026e-05   2.8684651364765495e-06   -3.923885065337832e-05
-5.632450911352026e-05   2.8684651364765495e-06   -3.923885065337832e-05
-7.8624683812929e-05   0.0   -7.96521121922994e-05
-7.8624683812929e-05   0.0   -7.96521121922994e-05
-7.8624683812929e-05   0.0   -7.96521121922994e-05
-7.8624683812929e-05   0.0   -7.96521121922994e-05
-3.42520598027976e-05   8.911541838225963e-06   -3.508137391448351e-07
-3.42520598027976e-05   8.911541838225963e-06   -3.508137391448351e-07
-3.42520598027976e-05   8.911541838225963e-06   -3.508137391448351e-07
-3.42520598027976e-05   8.911541838225963e-06   -3.508137391448351e-07
-3.354732409691625e-05   0.0   -7.391968799240427e-05
-3.354732409691625e-05   0.0   -7.391968799240427e-05
-3.354732409691625e-05   0.0   -7.391968799240427e-05
-3.354732409691625e-05   0.0   -7.391968799240427e-05
-7.859083316390425e-05   1.0368045874126946e-05   -5.0680004052334636e-06
-7.859083316390425e-05   1.0368045874126946e-05   -5.0680004052334636e-06
-7.859083316390425e-05   1.0368045874126946e-05   -5.0680004052334636e-06
-7.859083316390425e-05   1.0368045874126946e-05   -5.0680004052334636e-06
-5.60860039549226e-05   4.7770201665792205e-06   -3.9221433662341215e-05
-5.60860039549226e-05   4.7770201665792205e-06   -3.9221433662341215e-05
-5.60860039549226e-05   4.7770201665792205e-06   -3.9221433662341215e-05
-5.60860039549226e-05   4.7770201665792205e-06   -3.9221433662341215e-05
-3.641220336714225e-05   0.0   -7.096167281288997e-05
-3.641220336714225e-05   0.0   -7.096167281288997e-05
-3.641220336714225e-05   0.0   -7.096167281288997e-05
-3.641220336714225e-05   0.0   -7.096167281288997e-05
4.74968709994172e-06   -6.532899665072486e-07   -2.7504960143209564e-06
4.74968709994172e-06   -6.532899665072486e-07   -2.7504960143209564e-06
4.74968709994172e-06   -6.532899665072486e-07   -2.7504960143209564e-06
4.74968709994172e-06   -6.532899665072486e-07   -2.7504960143209564e-06
5.630654315925139e-06   0.0   -7.26093074004045e-05
5.630654315925139e-06   0.0   -7.26093074004045e-05
5.630654315925139e-06   0.0   -7.26093074004045e-05
5.630654315925139e-06   0.0   -7.26093074004045e-05
-3.502720595829082e-05   1.2889295643062445e-06   -5.61956468196187e-06
-3.502720595829082e-05   1.2889295643062445e-06   -5.61956468196187e-06
-3.502720595829082e-05   1.2889295643062445e-06   -5.61956468196187e-06
-3.502720595829082e-05   1.2889295643062445e-06   -5.61956468196187e-06
-1.539077452560852e-05   -1.3730288229289766e-06   -3.6749775370757756e-05
-1.539077452560852e-05   -1.3730288229289766e-06   -3.6749775370757756e-05
-1.539077452560852e-05   -1.3730288229289766e-06   -3.6749775370757756e-05
-1.539077452560852e-05   -1.3730288229289766e-06   -3.6749775370757756e-05
-3.502720595829082e-05   0.0   -7.33826651389885e-05
-3.502720595829082e-05   0.0   -7.33826651389885e-05
-3.502720595829082e-05   0.0   -7.33826651389885e-05
-3.502720595829082e-05   0.0   -7.33826651389885e-05
5.6306543159251486e-06   1.288929564306231e-06   -4.846206943378106e-06
5.6306543159251486e-06   1.288929564306231e-06   -4.846206943378106e-06
5.6306543159251486e-06   1.288929564306231e-06   -4.846206943378106e-06
5.6306543159251486e-06   1.288929564306231e-06   -4.846206943378106e-06
6.325092892861566e-06   0.0   -7.250593813482888e-05
6.325092892861566e-06   0.0   -7.250593813482888e-05
6.325092892861566e-06   0.0   -7.250593813482888e-05
6.325092892861566e-06   0.0   -7.250593813482888e-05
-3.425205980279754e-05   2.99874825755802e-06   -6.676599263265199e-06
-3.425205980279754e-05   2.99874825755802e-06   -6.676599263265199e-06
-3.425205980279754e-05   2.99874825755802e-06   -6.676599263265199e-06
-3.425205980279754e-05   2.99874825755802e-06   -6.676599263265199e-06
-1.4351056532714623e-05   7.306058367995727e-07   -3.848405259428173e-05
-1.4351056532714623e-05   7.306058367995727e-07   -3.848405259428173e-05
-1.4351056532714623e-05   7.306058367995727e-07   -3.848405259428173e-05
-1.4351056532714623e-05   7.306058367995727e-07   -3.848405259428173e-05
-3.42520598027976e-05   0.0   -7.430518708936382e-05
-3.42520598027976e-05   0.0   -7.430518708936382e-05
-3.42520598027976e-05   0.0   -7.430518708936382e-05
-3.42520598027976e-05   0.0   -7.430518708936382e-05
6.325092892861577e-06   2.99874825755802e-06   -4.877350308730402e-06
6.325092892861577e-06   2.99874825755802e-06   -4.877350308730402e-06
6.325092892861577e-06   2.99874825755802e-06   -4.877350308730402e-06
6.325092892861577e-06   2.99874825755802e-06   -4.877350308730402e-06
7.261664879809476e-06   0.0   -7.093195895801705e-05
7.261664879809476e-06   0.0   -7.093195895801705e-05
7.261664879809476e-06   0.0   -7.093195895801705e-05
7.261664879809476e-06   0.0   -7.093195895801705e-05
-3.354732409691622e-05   4.979548390645253e-06   -5.904706364528043e-06
-3.354732409691622e-05   4.979548390645253e-06   -5.904706364528043e-06
-3.354732409691622e-05   4.979548390645253e-06   -5.904706364528043e-06
-3.354732409691622e-05   4.979548390645253e-06   -5.904706364528043e-06
-1.349519746149403e-05   2.8110234427888655e-06   -3.8023802454851176e-05
-1.349519746149403e-05   2.8110234427888655e-06   -3.8023802454851176e-05
-1.349519746149403e-05   2.8110234427888655e-06   -3.8023802454851176e-05
-1.349519746149403e-05   2.8110234427888655e-06   -3.8023802454851176e-05
4.749687099941728e-06   0.0   -7.135364679279432e-05
4.749687099941728e-06   0.0   -7.135364679279432e-05
4.749687099941728e-06   0.0   -7.135364679279432e-05
4.749687099941728e-06   0.0   -7.135364679279432e-05
4.942465396976468e-05   -5.796972138748932e-06   -3.7355195967203765e-07
4.942465396976468e-05   -5.796972138748932e-06   -3.7355195967203765e-07
4.942465396976468e-05   -5.796972138748932e-06   -3.7355195967203765e-07
4.942465396976468e-05   -5.796972138748932e-06   -3.7355195967203765e-07
4.950345281438052e-05   0.0   -7.523251895698248e-05
4.950345281438052e-05   0.0   -7.523251895698248e-05
4.950345281438052e-05   0.0   -7.523251895698248e-05
4.950345281438052e-05   0.0   -7.523251895698248e-05
5.630654315925159e-06   -4.3720192609628925e-06   5.120234303541851e-07
5.630654315925159e-06   -4.3720192609628925e-06   5.120234303541851e-07
5.630654315925159e-06   -4.3720192609628925e-06   5.120234303541851e-07
5.630654315925159e-06   -4.3720192609628925e-06   5.120234303541851e-07
2.7126569957161122e-05   -3.232393470156812e-06   -3.599827811285605e-05
2.7126569957161122e-05   -3.232393470156812e-06   -3.599827811285605e-05
2.7126569957161122e-05   -3.232393470156812e-06   -3.599827811285605e-05
2.7126569957161122e-05   -3.232393470156812e-06   -3.599827811285605e-05
5.630654315925159e-06   0.0   -7.260930740040474e-05
5.630654315925159e-06   0.0   -7.260930740040474e-05
5.630654315925159e-06   0.0   -7.260930740040474e-05
5.630654315925159e-06   0.0   -7.260930740040474e-05
4.950345281438052e-05   -4.3720192609628925e-06   -2.1111881262235503e-06
4.950345281438052e-05   -4.3720192609628925e-06   -2.1111881262235503e-06
4.950345281438052e-05   -4.3720192609628925e-06   -2.1111881262235503e-06
4.950345281438052e-05   -4.3720192609628925e-06   -2.1111881262235503e-06
4.9283606127483046e-05   0.0   -7.415816189459138e-05
4.9283606127483046e-05   0.0   -7.415816189459138e-05
4.9283606127483046e-05   0.0   -7.415816189459138e-05
4.9283606127483046e-05   0.0   -7.415816189459138e-05
6.325092892861577e-06   -2.753706266270611e-06   -9.084160771265749e-07
6.325092892861577e-06   -2.753706266270611e-06   -9.084160771265749e-07
6.325092892861577e-06   -2.753706266270611e-06   -9.084160771265749e-07
6.325092892861577e-06   -2.753706266270611e-06   -9.084160771265749e-07
2.74571302217041e-05   -1.2907120784888619e-06   -3.700627480453313e-05
2.74571302217041e-05   -1.2907120784888619e-06   -3.700627480453313e-05
2.74571302217041e-05   -1.2907120784888619e-06   -3.700627480453313e-05
2.74571302217041e-05   -1.2907120784888619e-06   -3.700627480453313e-05
6.325092892861572e-06   0.0   -7.250593813482895e-05
6.325092892861572e-06   0.0   -7.250593813482895e-05
6.325092892861572e-06   0.0   -7.250593813482895e-05
6.325092892861572e-06   0.0   -7.250593813482895e-05
4.9283606127483046e-05   -2.753706266270611e-06   -2.560639836888932e-06
4.9283606127483046e-05   -2.753706266270611e-06   -2.560639836888932e-06
4.9283606127483046e-05   -2.753706266270611e-06   -2.560639836888932e-06
4.9283606127483046e-05   -2.753706266270611e-06   -2.560639836888932e-06
5.0230557136315284e-05   0.0   -7.127910561239774e-05
5.0230557136315284e-05   0.0   -7.127910561239774e-05
5.0230557136315284e-05   0.0   -7.127910561239774e-05
5.0230557136315284e-05   0.0   -7.127910561239774e-05
7.261664879809489e-06   -5.78577757300952e-07   6.82861469492463e-07
7.261664879809489e-06   -5.78577757300952e-07   6.82861469492463e-07
7.261664879809489e-06   -5.78577757300952e-07   6.82861469492463e-07
7.261664879809489e-06   -5.78577757300952e-07   6.82861469492463e-07
2.827782501458841e-05   1.022360435359393e-06   -3.530463500406857e-05
2.827782501458841e-05   1.022360435359393e-06   -3.530463500406857e-05
2.827782501458841e-05   1.022360435359393e-06   -3.530463500406857e-05
2.827782501458841e-05   1.022360435359393e-06   -3.530463500406857e-05
4.942465396976468e-05   0.0   -7.483183007604367e-05
4.942465396976468e-05   0.0   -7.483183007604367e-05
4.942465396976468e-05   0.0   -7.483183007604367e-05
4.942465396976468e-05   0.0   -7.483183007604367e-05
0.000111535170177654   -1.4689184772362471e-05   1.987218607368832e-05
0.000111535170177654   -1.4689184772362471e-05   1.987218607368832e-05
0.000111535170177654   -1.4689184772362471e-05   1.987218607368832e-05
0.000111535170177654   -1.4689184772362471e-05   1.987218607368832e-05
0.00010473772147074327   0.0   -8.273429378856003e-05
0.00010473772147074327   0.0   -8.273429378856003e-05
0.00010473772147074327   0.0   -8.273429378856003e-05
0.00010473772147074327   0.0   -8.273429378856003e-05
4.950345281438052e-05   -1.2502958052629264e-05   1.682459547028876e-05
4.950345281438052e-05   -1.2502958052629264e-05   1.682459547028876e-05
4.950345281438052e-05   -1.2502958052629264e-05   1.682459547028876e-05
4.950345281438052e-05   -1.2502958052629264e-05   1.682459547028876e-05
7.708118772025398e-05   -6.585386427096978e-06   -3.268883901481966e-05
7.708118772025398e-05   -6.585386427096978e-06   -3.268883901481966e-05
7.708118772025398e-05   -6.585386427096978e-06   -3.268883901481966e-05
7.708118772025398e-05   -6.585386427096978e-06   -3.268883901481966e-05
4.950345281438048e-05   0.0   -7.523251895698242e-05
4.950345281438048e-05   0.0   -7.523251895698242e-05
4.950345281438048e-05   0.0   -7.523251895698242e-05
4.950345281438048e-05   0.0   -7.523251895698242e-05
0.0001047377214707429   -1.250295805262921e-05   9.322820638711177e-06
0.0001047377214707429   -1.250295805262921e-05   9.322820638711177e-06
0.0001047377214707429   -1.250295805262921e-05   9.322820638711177e-06
0.0001047377214707429   -1.250295805262921e-05   9.322820638711177e-06
0.00010159960908629765   0.0   -8.101411670467732e-05
0.00010159960908629765   0.0   -8.101411670467732e-05
0.00010159960908629765   0.0   -8.101411670467732e-05
0.00010159960908629765   0.0   -8.101411670467732e-05
4.9283606127483046e-05   -1.1426591350143233e-05   1.3035176370099596e-05
4.9283606127483046e-05   -1.1426591350143233e-05   1.3035176370099596e-05
4.9283606127483046e-05   -1.1426591350143233e-05   1.3035176370099596e-05
4.9283606127483046e-05   -1.1426591350143233e-05   1.3035176370099596e-05
7.555153095033904e-05   -4.817998123079025e-06   -3.470985427089889e-05
7.555153095033904e-05   -4.817998123079025e-06   -3.470985427089889e-05
7.555153095033904e-05   -4.817998123079025e-06   -3.470985427089889e-05
7.555153095033904e-05   -4.817998123079025e-06   -3.470985427089889e-05
4.9283606127483046e-05   0.0   -7.415816189459138e-05
4.9283606127483046e-05   0.0   -7.415816189459138e-05
4.9283606127483046e-05   0.0   -7.415816189459138e-05
4.9283606127483046e-05   0.0   -7.415816189459138e-05
0.0001015996090862973   -1.1426591350143205e-05   6.179221560013618e-06
0.0001015996090862973   -1.1426591350143205e-05   6.179221560013618e-06
0.0001015996090862973   -1.1426591350143205e-05   6.179221560013618e-06
0.0001015996090862973   -1.1426591350143205e-05   6.179221560013618e-06
9.693331556675545e-05   0.0   -7.661110353883403e-05
9.693331556675545e-05   0.0   -7.661110353883403e-05
9.693331556675545e-05   0.0   -7.661110353883403e-05
9.693331556675545e-05   0.0   -7.661110353883403e-05
5.0230557136315284e-05   -8.886663210727353e-06   6.558825105002809e-06
5.0230557136315284e-05   -8.886663210727353e-06   6.558825105002809e-06
5.0230557136315284e-05   -8.886663210727353e-06   6.558825105002809e-06
5.0230557136315284e-05   -8.886663210727353e-06   6.558825105002809e-06
7.310846084711934e-05   -2.044118036868985e-06   -3.567654151731893e-05
7.310846084711934e-05   -2.044118036868985e-06   -3.567654151731893e-05
7.310846084711934e-05   -2.044118036868985e-06   -3.567654151731893e-05
7.310846084711934e-05   -2.044118036868985e-06   -3.567654151731893e-05
-0.00010909722178394747   1.3932860892949676e-05   -7.152449729581454e-05
-0.00010909722178394747   1.3932860892949676e-05   -7.152449729581454e-05
-0.00010909722178394747   1.3932860892949676e-05   -7.152449729581454e-05
-0.00010909722178394747   1.3932860892949676e-05   -7.152449729581454e-05
-6.987013748204362e-05   1.2533449570725763e-05   -6.985670252642438e-06
-6.987013748204362e-05   1.2533449570725763e-05   -6.985670252642438e-06
-6.987013748204362e-05   1.2533449570725763e-05   -6.985670252642438e-06
-6.987013748204362e-05   1.2533449570725763e-05   -6.985670252642438e-06
-7.1631939176312e-05   1.6714681082323192e-05   -6.0063644451576967e-05
-7.1631939176312e-05   1.6714681082323192e-05   -6.0063644451576967e-05
-7.1631939176312e-05   1.6714681082323192e-05   -6.0063644451576967e-05
-7.1631939176312e-05   1.6714681082323192e-05   -6.0063644451576967e-05
-0.00011028625163828965   1.5039470044827716e-05   5.365336274216603e-06
-0.00011028625163828965   1.5039470044827716e-05   5.365336274216603e-06
-0.00011028625163828965   1.5039470044827716e-05   5.365336274216603e-06
-0.00011028625163828965   1.5039470044827716e-05   5.365336274216603e-06
-8.664834244504724e-05   1.4551598260382657e-05   -3.3738455977187494e-05
-8.664834244504724e-05   1.4551598260382657e-05   -3.3738455977187494e-05
-8.664834244504724e-05   1.4551598260382657e-05   -3.3738455977187494e-05
-8.664834244504724e-05   1.4551598260382657e-05   -3.3738455977187494e-05
-0.00011028625163828965   1.6714681082323192e-05   -5.905851782907967e-05
-0.00011028625163828965   1.6714681082323192e-05   -5.905851782907967e-05
-0.00011028625163828965   1.6714681082323192e-05   -5.905851782907967e-05
-0.00011028625163828965   1.6714681082323192e-05   -5.905851782907967e-05
-7.163193917631225e-05   1.503947004482777e-05   4.360209651719344e-06
-7.163193917631225e-05   1.503947004482777e-05   4.360209651719344e-06
-7.163193917631225e-05   1.503947004482777e-05   4.360209651719344e-06
-7.163193917631225e-05   1.503947004482777e-05   4.360209651719344e-06
-7.200509476833516e-05   1.790577325971792e-05   -5.399670005356509e-05
-7.200509476833516e-05   1.790577325971792e-05   -5.399670005356509e-05
-7.200509476833516e-05   1.790577325971792e-05   -5.399670005356509e-05
-7.200509476833516e-05   1.790577325971792e-05   -5.399670005356509e-05
-0.00011106934913519099   1.6170369735913736e-05   1.2151632672143474e-05
-0.00011106934913519099   1.6170369735913736e-05   1.2151632672143474e-05
-0.00011106934913519099   1.6170369735913736e-05   1.2151632672143474e-05
-0.00011106934913519099   1.6170369735913736e-05   1.2151632672143474e-05
-8.9201351909375e-05   1.6127516167456274e-05   -2.4269317229808415e-05
-8.9201351909375e-05   1.6127516167456274e-05   -2.4269317229808415e-05
-8.9201351909375e-05   1.6127516167456274e-05   -2.4269317229808415e-05
-8.9201351909375e-05   1.6127516167456274e-05   -2.4269317229808415e-05
-0.00011106934913519085   1.790577325971792e-05   -5.2955457939282574e-05
-0.00011106934913519085   1.790577325971792e-05   -5.2955457939282574e-05
-0.00011106934913519085   1.790577325971792e-05   -5.2955457939282574e-05
-0.00011106934913519085   1.790577325971792e-05   -5.2955457939282574e-05
-7.200509476833527e-05   1.6170369735913736e-05   1.1110390557860975e-05
-7.200509476833527e-05   1.6170369735913736e-05   1.1110390557860975e-05
-7.200509476833527e-05   1.6170369735913736e-05   1.1110390557860975e-05
-7.200509476833527e-05   1.6170369735913736e-05   1.1110390557860975e-05
-7.160055847508294e-05   2.0393697999184526e-05   -3.9885148083826046e-05
-7.160055847508294e-05   2.0393697999184526e-05   -3.9885148083826046e-05
-7.160055847508294e-05   2.0393697999184526e-05   -3.9885148083826046e-05
-7.160055847508294e-05   2.0393697999184526e-05   -3.9885148083826046e-05
-0.00010799953986924464   1.7067740274780065e-05   2.2775395541085885e-05
-0.00010799953986924464   1.7067740274780065e-05   2.2775395541085885e-05
-0.00010799953986924464   1.7067740274780065e-05   2.2775395541085885e-05
-0.00010799953986924464   1.7067740274780065e-05   2.2775395541085885e-05
-8.688742396920654e-05   1.7687410964747105e-05   -1.2783266706291102e-05
-8.688742396920654e-05   1.7687410964747105e-05   -1.2783266706291102e-05
-8.688742396920654e-05   1.7687410964747105e-05   -1.2783266706291102e-05
-8.688742396920654e-05   1.7687410964747105e-05   -1.2783266706291102e-05
-6.987013748204362e-05   5.112234174994962e-06   -7.592020905408464e-05
-6.987013748204362e-05   5.112234174994962e-06   -7.592020905408464e-05
-6.987013748204362e-05   5.112234174994962e-06   -7.592020905408464e-05
-6.987013748204362e-05   5.112234174994962e-06   -7.592020905408464e-05
-3.3098183929777706e-05   5.831885783778932e-06   -1.420182883503768e-05
-3.3098183929777706e-05   5.831885783778932e-06   -1.420182883503768e-05
-3.3098183929777706e-05   5.831885783778932e-06   -1.420182883503768e-05
-3.3098183929777706e-05   5.831885783778932e-06   -1.420182883503768e-05
-3.389305255940712e-05   7.274466856911947e-06   -7.58074410141557e-05
-3.389305255940712e-05   7.274466856911947e-06   -7.58074410141557e-05
-3.389305255940712e-05   7.274466856911947e-06   -7.58074410141557e-05
-3.389305255940712e-05   7.274466856911947e-06   -7.58074410141557e-05
-7.1631939176312e-05   8.136417132643644e-06   -1.3426466818086441e-05
-7.1631939176312e-05   8.136417132643644e-06   -1.3426466818086441e-05
-7.1631939176312e-05   8.136417132643644e-06   -1.3426466818086441e-05
-7.1631939176312e-05   8.136417132643644e-06   -1.3426466818086441e-05
-5.197682751456743e-05   6.551858587677502e-06   -4.523425112734809e-05
-5.197682751456743e-05   6.551858587677502e-06   -4.523425112734809e-05
-5.197682751456743e-05   6.551858587677502e-06   -4.523425112734809e-05
-5.197682751456743e-05   6.551858587677502e-06   -4.523425112734809e-05
-7.163193917631194e-05   7.274466856911947e-06   -7.632461117959457e-05
-7.163193917631194e-05   7.274466856911947e-06   -7.632461117959457e-05
-7.163193917631194e-05   7.274466856911947e-06   -7.632461117959457e-05
-7.163193917631194e-05   7.274466856911947e-06   -7.632461117959457e-05
-3.389305255940718e-05   8.136417132643698e-06   -1.2909296652647442e-05
-3.389305255940718e-05   8.136417132643698e-06   -1.2909296652647442e-05
-3.389305255940718e-05   8.136417132643698e-06   -1.2909296652647442e-05
-3.389305255940718e-05   8.136417132643698e-06   -1.2909296652647442e-05
-3.4146326252282895e-05   8.911541838225936e-06   -7.438810427028164e-05
-3.4146326252282895e-05   8.911541838225936e-06   -7.438810427028164e-05
-3.4146326252282895e-05   8.911541838225936e-06   -7.438810427028164e-05
-3.4146326252282895e-05   8.911541838225936e-06   -7.438810427028164e-05
-7.200509476833516e-05   1.00435100339948e-05   -1.1969337660989196e-05
-7.200509476833516e-05   1.00435100339948e-05   -1.1969337660989196e-05
-7.200509476833516e-05   1.00435100339948e-05   -1.1969337660989196e-05
-7.200509476833516e-05   1.00435100339948e-05   -1.1969337660989196e-05
-5.238769694220797e-05   8.31388296063687e-06   -4.362722446051961e-05
-5.238769694220797e-05   8.31388296063687e-06   -4.362722446051961e-05
-5.238769694220797e-05   8.31388296063687e-06   -4.362722446051961e-05
-5.238769694220797e-05   8.31388296063687e-06   -4.362722446051961e-05
-7.200509476833516e-05   8.911541838225936e-06   -7.506728518774293e-05
-7.200509476833516e-05   8.911541838225936e-06   -7.506728518774293e-05
-7.200509476833516e-05   8.911541838225936e-06   -7.506728518774293e-05
-7.200509476833516e-05   8.911541838225936e-06   -7.506728518774293e-05
-3.414632625228301e-05   1.00435100339948e-05   -1.1290156743527956e-05
-3.414632625228301e-05   1.00435100339948e-05   -1.1290156743527956e-05
-3.414632625228301e-05   1.00435100339948e-05   -1.1290156743527956e-05
-3.414632625228301e-05   1.00435100339948e-05   -1.1290156743527956e-05
-3.4067811995975976e-05   1.0368045874126891e-05   -7.362646507508085e-05
-3.4067811995975976e-05   1.0368045874126891e-05   -7.362646507508085e-05
-3.4067811995975976e-05   1.0368045874126891e-05   -7.362646507508085e-05
-3.4067811995975976e-05   1.0368045874126891e-05   -7.362646507508085e-05
-7.160055847508288e-05   1.2095088931787605e-05   -1.210811344449917e-05
-7.160055847508288e-05   1.2095088931787605e-05   -1.210811344449917e-05
-7.160055847508288e-05   1.2095088931787605e-05   -1.210811344449917e-05
-7.160055847508288e-05   1.2095088931787605e-05   -1.210811344449917e-05
-5.270101085372724e-05   9.908692482204758e-06   -4.22955216103424e-05
-5.270101085372724e-05   9.908692482204758e-06   -4.22955216103424e-05
-5.270101085372724e-05   9.908692482204758e-06   -4.22955216103424e-05
-5.270101085372724e-05   9.908692482204758e-06   -4.22955216103424e-05
-3.309818392977766e-05   -6.532899665072351e-07   -7.948562973306813e-05
-3.309818392977766e-05   -6.532899665072351e-07   -7.948562973306813e-05
-3.309818392977766e-05   -6.532899665072351e-07   -7.948562973306813e-05
-3.309818392977766e-05   -6.532899665072351e-07   -7.948562973306813e-05
3.21061794825661e-06   -1.7268159866292484e-07   -1.8682594915637717e-05
3.21061794825661e-06   -1.7268159866292484e-07   -1.8682594915637717e-05
3.21061794825661e-06   -1.7268159866292484e-07   -1.8682594915637717e-05
3.21061794825661e-06   -1.7268159866292484e-07   -1.8682594915637717e-05
3.0566645665053597e-06   1.2889295643062445e-06   -7.993037206618074e-05
3.0566645665053597e-06   1.2889295643062445e-06   -7.993037206618074e-05
3.0566645665053597e-06   1.2889295643062445e-06   -7.993037206618074e-05
3.0566645665053597e-06   1.2889295643062445e-06   -7.993037206618074e-05
-3.389305255940712e-05   1.950411676865686e-06   -1.8744399457195317e-05
-3.389305255940712e-05   1.950411676865686e-06   -1.8744399457195317e-05
-3.389305255940712e-05   1.950411676865686e-06   -1.8744399457195317e-05
-3.389305255940712e-05   1.950411676865686e-06   -1.8744399457195317e-05
-1.5272774778070153e-05   6.472431225112139e-07   -4.899629462681113e-05
-1.5272774778070153e-05   6.472431225112139e-07   -4.899629462681113e-05
-1.5272774778070153e-05   6.472431225112139e-07   -4.899629462681113e-05
-1.5272774778070153e-05   6.472431225112139e-07   -4.899629462681113e-05
-3.389305255940712e-05   1.288929564306258e-06   -8.032726133371628e-05
-3.389305255940712e-05   1.288929564306258e-06   -8.032726133371628e-05
-3.389305255940712e-05   1.288929564306258e-06   -8.032726133371628e-05
-3.389305255940712e-05   1.288929564306258e-06   -8.032726133371628e-05
3.0566645665053597e-06   1.950411676865686e-06   -1.834751018965969e-05
3.0566645665053597e-06   1.950411676865686e-06   -1.834751018965969e-05
3.0566645665053597e-06   1.950411676865686e-06   -1.834751018965969e-05
3.0566645665053597e-06   1.950411676865686e-06   -1.834751018965969e-05
2.848363998074166e-06   2.99874825755802e-06   -8.009832271450748e-05
2.848363998074166e-06   2.99874825755802e-06   -8.009832271450748e-05
2.848363998074166e-06   2.99874825755802e-06   -8.009832271450748e-05
2.848363998074166e-06   2.99874825755802e-06   -8.009832271450748e-05
-3.4146326252282895e-05   4.024693390715438e-06   -1.9056072710473603e-05
-3.4146326252282895e-05   4.024693390715438e-06   -1.9056072710473603e-05
-3.4146326252282895e-05   4.024693390715438e-06   -1.9056072710473603e-05
-3.4146326252282895e-05   4.024693390715438e-06   -1.9056072710473603e-05
-1.5562698069944878e-05   2.4467149527128873e-06   -4.90819992849019e-05
-1.5562698069944878e-05   2.4467149527128873e-06   -4.90819992849019e-05
-1.5562698069944878e-05   2.4467149527128873e-06   -4.90819992849019e-05
-1.5562698069944878e-05   2.4467149527128873e-06   -4.90819992849019e-05
-3.4146326252282895e-05   2.99874825755802e-06   -8.071388979440199e-05
-3.4146326252282895e-05   2.99874825755802e-06   -8.071388979440199e-05
-3.4146326252282895e-05   2.99874825755802e-06   -8.071388979440199e-05
-3.4146326252282895e-05   2.99874825755802e-06   -8.071388979440199e-05
2.84836399807417e-06   4.024693390715492e-06   -1.8440505630579134e-05
2.84836399807417e-06   4.024693390715492e-06   -1.8440505630579134e-05
2.84836399807417e-06   4.024693390715492e-06   -1.8440505630579134e-05
2.84836399807417e-06   4.024693390715492e-06   -1.8440505630579134e-05
2.434058164973906e-06   4.979548390645266e-06   -7.996009385376578e-05
2.434058164973906e-06   4.979548390645266e-06   -7.996009385376578e-05
2.434058164973906e-06   4.979548390645266e-06   -7.996009385376578e-05
2.434058164973906e-06   4.979548390645266e-06   -7.996009385376578e-05
-3.4067811995975996e-05   6.186056232455092e-06   -1.9847548290601887e-05
-3.4067811995975996e-05   6.186056232455092e-06   -1.9847548290601887e-05
-3.4067811995975996e-05   6.186056232455092e-06   -1.9847548290601887e-05
-3.4067811995975996e-05   6.186056232455092e-06   -1.9847548290601887e-05
-1.57402159031212e-05   4.29531677315038e-06   -4.925909810311038e-05
-1.57402159031212e-05   4.29531677315038e-06   -4.925909810311038e-05
-1.57402159031212e-05   4.29531677315038e-06   -4.925909810311038e-05
-1.57402159031212e-05   4.29531677315038e-06   -4.925909810311038e-05
3.21061794825661e-06   -5.796972138748919e-06   -7.334213737446324e-05
3.21061794825661e-06   -5.796972138748919e-06   -7.334213737446324e-05
3.21061794825661e-06   -5.796972138748919e-06   -7.334213737446324e-05
3.21061794825661e-06   -5.796972138748919e-06   -7.334213737446324e-05
4.0627589835621076e-05   -5.96019825349327e-06   -1.1078453231035742e-05
4.0627589835621076e-05   -5.96019825349327e-06   -1.1078453231035742e-05
4.0627589835621076e-05   -5.96019825349327e-06   -1.1078453231035742e-05
4.0627589835621076e-05   -5.96019825349327e-06   -1.1078453231035742e-05
4.09550994115112e-05   -4.372019260962879e-06   -7.43680313448282e-05
4.09550994115112e-05   -4.372019260962879e-06   -7.43680313448282e-05
4.09550994115112e-05   -4.372019260962879e-06   -7.43680313448282e-05
4.09550994115112e-05   -4.372019260962879e-06   -7.43680313448282e-05
3.0566645665053597e-06   -4.031835348262936e-06   -1.1408083617438336e-05
3.0566645665053597e-06   -4.031835348262936e-06   -1.1408083617438336e-05
3.0566645665053597e-06   -4.031835348262936e-06   -1.1408083617438336e-05
3.0566645665053597e-06   -4.031835348262936e-06   -1.1408083617438336e-05
2.1681774494200142e-05   -4.825284603816312e-06   -4.1973863943597726e-05
2.1681774494200142e-05   -4.825284603816312e-06   -4.1973863943597726e-05
2.1681774494200142e-05   -4.825284603816312e-06   -4.1973863943597726e-05
2.1681774494200142e-05   -4.825284603816312e-06   -4.1973863943597726e-05
3.0566645665053537e-06   -4.372019260962879e-06   -7.457214169244833e-05
3.0566645665053537e-06   -4.372019260962879e-06   -7.457214169244833e-05
3.0566645665053537e-06   -4.372019260962879e-06   -7.457214169244833e-05
3.0566645665053537e-06   -4.372019260962879e-06   -7.457214169244833e-05
4.095509941151126e-05   -4.031835348262882e-06   -1.120397326981833e-05
4.095509941151126e-05   -4.031835348262882e-06   -1.120397326981833e-05
4.095509941151126e-05   -4.031835348262882e-06   -1.120397326981833e-05
4.095509941151126e-05   -4.031835348262882e-06   -1.120397326981833e-05
4.0746854601696585e-05   -2.7537062662705974e-06   -7.57626558372089e-05
4.0746854601696585e-05   -2.7537062662705974e-06   -7.57626558372089e-05
4.0746854601696585e-05   -2.7537062662705974e-06   -7.57626558372089e-05
4.0746854601696585e-05   -2.7537062662705974e-06   -7.57626558372089e-05
2.848363998074166e-06   -2.1424851901128664e-06   -1.2965237476866251e-05
2.848363998074166e-06   -2.1424851901128664e-06   -1.2965237476866251e-05
2.848363998074166e-06   -2.1424851901128664e-06   -1.2965237476866251e-05
2.848363998074166e-06   -2.1424851901128664e-06   -1.2965237476866251e-05
2.1444616952184066e-05   -3.2851172400368315e-06   -4.32734131704283e-05
2.1444616952184066e-05   -3.2851172400368315e-06   -4.32734131704283e-05
2.1444616952184066e-05   -3.2851172400368315e-06   -4.32734131704283e-05
2.1444616952184066e-05   -3.2851172400368315e-06   -4.32734131704283e-05
2.8483639980741626e-06   -2.753706266270611e-06   -7.612938848290352e-05
2.8483639980741626e-06   -2.753706266270611e-06   -7.612938848290352e-05
2.8483639980741626e-06   -2.753706266270611e-06   -7.612938848290352e-05
2.8483639980741626e-06   -2.753706266270611e-06   -7.612938848290352e-05
4.074685460169673e-05   -2.1424851901129206e-06   -1.2598504831171634e-05
4.074685460169673e-05   -2.1424851901129206e-06   -1.2598504831171634e-05
4.074685460169673e-05   -2.1424851901129206e-06   -1.2598504831171634e-05
4.074685460169673e-05   -2.1424851901129206e-06   -1.2598504831171634e-05
3.955092298349536e-05   -5.785777573009385e-07   -7.5896146156621e-05
3.955092298349536e-05   -5.785777573009385e-07   -7.5896146156621e-05
3.955092298349536e-05   -5.785777573009385e-07   -7.5896146156621e-05
3.955092298349536e-05   -5.785777573009385e-07   -7.5896146156621e-05
2.434058164973906e-06   1.9493707188451663e-07   -1.4498813689929938e-05
2.434058164973906e-06   1.9493707188451663e-07   -1.4498813689929938e-05
2.434058164973906e-06   1.9493707188451663e-07   -1.4498813689929938e-05
2.434058164973906e-06   1.9493707188451663e-07   -1.4498813689929938e-05
2.120483300172696e-05   -1.4861887147230263e-06   -4.477476294588708e-05
2.120483300172696e-05   -1.4861887147230263e-06   -4.477476294588708e-05
2.120483300172696e-05   -1.4861887147230263e-06   -4.477476294588708e-05
2.120483300172696e-05   -1.4861887147230263e-06   -4.477476294588708e-05
4.0627589835621076e-05   -1.4689184772362471e-05   -4.4380824146532085e-05
4.0627589835621076e-05   -1.4689184772362471e-05   -4.4380824146532085e-05
4.0627589835621076e-05   -1.4689184772362471e-05   -4.4380824146532085e-05
4.0627589835621076e-05   -1.4689184772362471e-05   -4.4380824146532085e-05
7.756557170714305e-05   -1.1081494925193572e-05   1.9347092880972515e-05
7.756557170714305e-05   -1.1081494925193572e-05   1.9347092880972515e-05
7.756557170714305e-05   -1.1081494925193572e-05   1.9347092880972515e-05
7.756557170714305e-05   -1.1081494925193572e-05   1.9347092880972515e-05
8.050133181254094e-05   -1.2502958052629237e-05   -5.396444222631926e-05
8.050133181254094e-05   -1.2502958052629237e-05   -5.396444222631926e-05
8.050133181254094e-05   -1.2502958052629237e-05   -5.396444222631926e-05
8.050133181254094e-05   -1.2502958052629237e-05   -5.396444222631926e-05
4.095509941151134e-05   -1.0056615515967717e-05   1.0478139586733384e-05
4.095509941151134e-05   -1.0056615515967717e-05   1.0478139586733384e-05
4.095509941151134e-05   -1.0056615515967717e-05   1.0478139586733384e-05
4.095509941151134e-05   -1.0056615515967717e-05   1.0478139586733384e-05
5.712633704831758e-05   -1.2032075990753332e-05   -1.528864685640578e-05
5.712633704831758e-05   -1.2032075990753332e-05   -1.528864685640578e-05
5.712633704831758e-05   -1.2032075990753332e-05   -1.528864685640578e-05
5.712633704831758e-05   -1.2032075990753332e-05   -1.528864685640578e-05
4.095509941151124e-05   -1.2502958052629237e-05   -5.5432247748315956e-05
4.095509941151124e-05   -1.2502958052629237e-05   -5.5432247748315956e-05
4.095509941151124e-05   -1.2502958052629237e-05   -5.5432247748315956e-05
4.095509941151124e-05   -1.2502958052629237e-05   -5.5432247748315956e-05
8.050133181254094e-05   -1.0056615515967717e-05   1.1945945108730286e-05
8.050133181254094e-05   -1.0056615515967717e-05   1.1945945108730286e-05
8.050133181254094e-05   -1.0056615515967717e-05   1.1945945108730286e-05
8.050133181254094e-05   -1.0056615515967717e-05   1.1945945108730286e-05
8.018955808054338e-05   -1.1426591350143205e-05   -5.869243293222452e-05
8.018955808054338e-05   -1.1426591350143205e-05   -5.869243293222452e-05
8.018955808054338e-05   -1.1426591350143205e-05   -5.869243293222452e-05
8.018955808054338e-05   -1.1426591350143205e-05   -5.869243293222452e-05
4.074685460169673e-05   -8.969246853483023e-06   5.570999501190352e-06
4.074685460169673e-05   -8.969246853483023e-06   5.570999501190352e-06
4.074685460169673e-05   -8.969246853483023e-06   5.570999501190352e-06
4.074685460169673e-05   -8.969246853483023e-06   5.570999501190352e-06
5.91131958972532e-05   -1.0628448885826236e-05   -2.4044048105331163e-05
5.91131958972532e-05   -1.0628448885826236e-05   -2.4044048105331163e-05
5.91131958972532e-05   -1.0628448885826236e-05   -2.4044048105331163e-05
5.91131958972532e-05   -1.0628448885826236e-05   -2.4044048105331163e-05
4.0746854601696666e-05   -1.1426591350143205e-05   -6.016683963022057e-05
4.0746854601696666e-05   -1.1426591350143205e-05   -6.016683963022057e-05
4.0746854601696666e-05   -1.1426591350143205e-05   -6.016683963022057e-05
4.0746854601696666e-05   -1.1426591350143205e-05   -6.016683963022057e-05
8.018955808054338e-05   -8.969246853483023e-06   7.04540619918644e-06
8.018955808054338e-05   -8.969246853483023e-06   7.04540619918644e-06
8.018955808054338e-05   -8.969246853483023e-06   7.04540619918644e-06
8.018955808054338e-05   -8.969246853483023e-06   7.04540619918644e-06
7.969248951604437e-05   -8.886663210727353e-06   -6.831840942032099e-05
7.969248951604437e-05   -8.886663210727353e-06   -6.831840942032099e-05
7.969248951604437e-05   -8.886663210727353e-06   -6.831840942032099e-05
7.969248951604437e-05   -8.886663210727353e-06   -6.831840942032099e-05
3.955092298349549e-05   -6.628952466711789e-06   -2.770424979148988e-06
3.955092298349549e-05   -6.628952466711789e-06   -2.770424979148988e-06
3.955092298349549e-05   -6.628952466711789e-06   -2.770424979148988e-06
3.955092298349549e-05   -6.628952466711789e-06   -2.770424979148988e-06
5.741304979468342e-05   -9.153429149443573e-06   -3.102595032148972e-05
5.741304979468342e-05   -9.153429149443573e-06   -3.102595032148972e-05
5.741304979468342e-05   -9.153429149443573e-06   -3.102595032148972e-05
5.741304979468342e-05   -9.153429149443573e-06   -3.102595032148972e-05
-8.695835534423696e-05   1.2533449570725763e-05   -5.998247298663698e-05
-8.695835534423696e-05   1.2533449570725763e-05   -5.998247298663698e-05
-8.695835534423696e-05   1.2533449570725763e-05   -5.998247298663698e-05
-8.695835534423696e-05   1.2533449570725763e-05   -5.998247298663698e-05
-5.6996460358325185e-05   9.581361589025474e-06   -1.1817234132470802e-05
-5.6996460358325185e-05   9.581361589025474e-06   -1.1817234132470802e-05
-5.6996460358325185e-05   9.581361589025474e-06   -1.1817234132470802e-05
-5.6996460358325185e-05   9.581361589025474e-06   -1.1817234132470802e-05
-5.727456039050685e-05   1.5039470044827716e-05   -4.9801246938559695e-05
-5.727456039050685e-05   1.5039470044827716e-05   -4.9801246938559695e-05
-5.727456039050685e-05   1.5039470044827716e-05   -4.9801246938559695e-05
-5.727456039050685e-05   1.5039470044827716e-05   -4.9801246938559695e-05
-8.564819204124282e-05   1.1588242182650763e-05   -4.411241366936592e-07
-8.564819204124282e-05   1.1588242182650763e-05   -4.411241366936592e-07
-8.564819204124282e-05   1.1588242182650763e-05   -4.411241366936592e-07
-8.564819204124282e-05   1.1588242182650763e-05   -4.411241366936592e-07
-6.868660575225249e-05   1.2743447861398097e-05   -2.9403558025592642e-05
-6.868660575225249e-05   1.2743447861398097e-05   -2.9403558025592642e-05
-6.868660575225249e-05   1.2743447861398097e-05   -2.9403558025592642e-05
-6.868660575225249e-05   1.2743447861398097e-05   -2.9403558025592642e-05
-8.564819204124282e-05   1.5039470044827716e-05   -4.773051022125346e-05
-8.564819204124282e-05   1.5039470044827716e-05   -4.773051022125346e-05
-8.564819204124282e-05   1.5039470044827716e-05   -4.773051022125346e-05
-8.564819204124282e-05   1.5039470044827716e-05   -4.773051022125346e-05
-5.727456039050685e-05   1.1588242182650763e-05   -2.511860853999674e-06
-5.727456039050685e-05   1.1588242182650763e-05   -2.511860853999674e-06
-5.727456039050685e-05   1.1588242182650763e-05   -2.511860853999674e-06
-5.727456039050685e-05   1.1588242182650763e-05   -2.511860853999674e-06
-5.721926017091282e-05   1.6170369735913736e-05   -4.2603839654158484e-05
-5.721926017091282e-05   1.6170369735913736e-05   -4.2603839654158484e-05
-5.721926017091282e-05   1.6170369735913736e-05   -4.2603839654158484e-05
-5.721926017091282e-05   1.6170369735913736e-05   -4.2603839654158484e-05
-8.436971053684441e-05   1.2469558473273139e-05   4.867397713311482e-06
-8.436971053684441e-05   1.2469558473273139e-05   4.867397713311482e-06
-8.436971053684441e-05   1.2469558473273139e-05   4.867397713311482e-06
-8.436971053684441e-05   1.2469558473273139e-05   4.867397713311482e-06
-6.928443385970127e-05   1.3906889123015283e-05   -2.113712847177159e-05
-6.928443385970127e-05   1.3906889123015283e-05   -2.113712847177159e-05
-6.928443385970127e-05   1.3906889123015283e-05   -2.113712847177159e-05
-6.928443385970127e-05   1.3906889123015283e-05   -2.113712847177159e-05
-8.436971053684441e-05   1.6170369735913736e-05   -4.038335289657425e-05
-8.436971053684441e-05   1.6170369735913736e-05   -4.038335289657425e-05
-8.436971053684441e-05   1.6170369735913736e-05   -4.038335289657425e-05
-8.436971053684441e-05   1.6170369735913736e-05   -4.038335289657425e-05
-5.72192601709129e-05   1.2469558473273247e-05   2.6469109557276276e-06
-5.72192601709129e-05   1.2469558473273247e-05   2.6469109557276276e-06
-5.72192601709129e-05   1.2469558473273247e-05   2.6469109557276276e-06
-5.72192601709129e-05   1.2469558473273247e-05   2.6469109557276276e-06
-5.727958485360736e-05   1.7067740274780065e-05   -3.2521630174850436e-05
-5.727958485360736e-05   1.7067740274780065e-05   -3.2521630174850436e-05
-5.727958485360736e-05   1.7067740274780065e-05   -3.2521630174850436e-05
-5.727958485360736e-05   1.7067740274780065e-05   -3.2521630174850436e-05
-8.269826528781491e-05   1.3335653644817261e-05   1.2082089193472876e-05
-8.269826528781491e-05   1.3335653644817261e-05   1.2082089193472876e-05
-8.269826528781491e-05   1.3335653644817261e-05   1.2082089193472876e-05
-8.269826528781491e-05   1.3335653644817261e-05   1.2082089193472876e-05
-6.770975434564247e-05   1.4518009080163093e-05   -1.360817563802124e-05
-6.770975434564247e-05   1.4518009080163093e-05   -1.360817563802124e-05
-6.770975434564247e-05   1.4518009080163093e-05   -1.360817563802124e-05
-6.770975434564247e-05   1.4518009080163093e-05   -1.360817563802124e-05
-5.6996460358325185e-05   5.831885783778932e-06   -6.940167532332278e-05
-5.6996460358325185e-05   5.831885783778932e-06   -6.940167532332278e-05
-5.6996460358325185e-05   5.831885783778932e-06   -6.940167532332278e-05
-5.6996460358325185e-05   5.831885783778932e-06   -6.940167532332278e-05
-2.8995364739192302e-05   4.775848544350827e-06   -2.3366804968424768e-05
-2.8995364739192302e-05   4.775848544350827e-06   -2.3366804968424768e-05
-2.8995364739192302e-05   4.775848544350827e-06   -2.3366804968424768e-05
-2.8995364739192302e-05   4.775848544350827e-06   -2.3366804968424768e-05
-2.934971821076841e-05   8.136417132643644e-06   -6.842023284351348e-05
-2.934971821076841e-05   8.136417132643644e-06   -6.842023284351348e-05
-2.934971821076841e-05   8.136417132643644e-06   -6.842023284351348e-05
-2.934971821076841e-05   8.136417132643644e-06   -6.842023284351348e-05
-5.727456039050674e-05   6.749234740730122e-06   -2.1046519775467934e-05
-5.727456039050674e-05   6.749234740730122e-06   -2.1046519775467934e-05
-5.727456039050674e-05   6.749234740730122e-06   -2.1046519775467934e-05
-5.727456039050674e-05   6.749234740730122e-06   -2.1046519775467934e-05
-4.278485524606932e-05   6.723592306726056e-06   -4.5180642889128134e-05
-4.278485524606932e-05   6.723592306726056e-06   -4.5180642889128134e-05
-4.278485524606932e-05   6.723592306726056e-06   -4.5180642889128134e-05
-4.278485524606932e-05   6.723592306726056e-06   -4.5180642889128134e-05
-5.727456039050679e-05   8.136417132643644e-06   -6.758792340836526e-05
-5.727456039050679e-05   8.136417132643644e-06   -6.758792340836526e-05
-5.727456039050679e-05   8.136417132643644e-06   -6.758792340836526e-05
-5.727456039050679e-05   8.136417132643644e-06   -6.758792340836526e-05
-2.9349718210768452e-05   6.749234740730122e-06   -2.1878829210616075e-05
-2.9349718210768452e-05   6.749234740730122e-06   -2.1878829210616075e-05
-2.9349718210768452e-05   6.749234740730122e-06   -2.1878829210616075e-05
-2.9349718210768452e-05   6.749234740730122e-06   -2.1878829210616075e-05
-2.958026232344694e-05   1.00435100339948e-05   -6.660853858530755e-05
-2.958026232344694e-05   1.00435100339948e-05   -6.660853858530755e-05
-2.958026232344694e-05   1.00435100339948e-05   -6.660853858530755e-05
-2.958026232344694e-05   1.00435100339948e-05   -6.660853858530755e-05
-5.721926017091282e-05   8.501892180163358e-06   -1.9618571460565935e-05
-5.721926017091282e-05   8.501892180163358e-06   -1.9618571460565935e-05
-5.721926017091282e-05   8.501892180163358e-06   -1.9618571460565935e-05
-5.721926017091282e-05   8.501892180163358e-06   -1.9618571460565935e-05
-4.286603463531366e-05   8.346737820136589e-06   -4.344752140388096e-05
-4.286603463531366e-05   8.346737820136589e-06   -4.344752140388096e-05
-4.286603463531366e-05   8.346737820136589e-06   -4.344752140388096e-05
-4.286603463531366e-05   8.346737820136589e-06   -4.344752140388096e-05
-5.721926017091282e-05   1.00435100339948e-05   -6.568356787300876e-05
-5.721926017091282e-05   1.00435100339948e-05   -6.568356787300876e-05
-5.721926017091282e-05   1.00435100339948e-05   -6.568356787300876e-05
-5.721926017091282e-05   1.00435100339948e-05   -6.568356787300876e-05
-2.9580262323447047e-05   8.50189218016325e-06   -2.0543542172864583e-05
-2.9580262323447047e-05   8.50189218016325e-06   -2.0543542172864583e-05
-2.9580262323447047e-05   8.50189218016325e-06   -2.0543542172864583e-05
-2.9580262323447047e-05   8.50189218016325e-06   -2.0543542172864583e-05
-2.9877773756833737e-05   1.209508893178766e-05   -6.64471859828736e-05
-2.9877773756833737e-05   1.209508893178766e-05   -6.64471859828736e-05
-2.9877773756833737e-05   1.209508893178766e-05   -6.64471859828736e-05
-2.9877773756833737e-05   1.209508893178766e-05   -6.64471859828736e-05
-5.727958485360728e-05   1.0365719836652985e-05   -1.9739879364503532e-05
-5.727958485360728e-05   1.0365719836652985e-05   -1.9739879364503532e-05
-5.727958485360728e-05   1.0365719836652985e-05   -1.9739879364503532e-05
-5.727958485360728e-05   1.0365719836652985e-05   -1.9739879364503532e-05
-4.3376085453917474e-05   9.953974641460465e-06   -4.266533124687051e-05
-4.3376085453917474e-05   9.953974641460465e-06   -4.266533124687051e-05
-4.3376085453917474e-05   9.953974641460465e-06   -4.266533124687051e-05
-4.3376085453917474e-05   9.953974641460465e-06   -4.266533124687051e-05
-2.899536473919226e-05   -1.7268159866292484e-07   -7.480442876828624e-05
-2.899536473919226e-05   -1.7268159866292484e-07   -7.480442876828624e-05
-2.899536473919226e-05   -1.7268159866292484e-07   -7.480442876828624e-05
-2.899536473919226e-05   -1.7268159866292484e-07   -7.480442876828624e-05
-1.309851328989439e-06   2.5393065077950264e-07   -2.8405939068282807e-05
-1.309851328989439e-06   2.5393065077950264e-07   -2.8405939068282807e-05
-1.309851328989439e-06   2.5393065077950264e-07   -2.8405939068282807e-05
-1.309851328989439e-06   2.5393065077950264e-07   -2.8405939068282807e-05
-1.5944487310366742e-06   1.950411676865686e-06   -7.41080080805e-05
-1.5944487310366742e-06   1.950411676865686e-06   -7.41080080805e-05
-1.5944487310366742e-06   1.950411676865686e-06   -7.41080080805e-05
-1.5944487310366742e-06   1.950411676865686e-06   -7.41080080805e-05
-2.934971821076841e-05   2.195957622801235e-06   -2.7996553181841908e-05
-2.934971821076841e-05   2.195957622801235e-06   -2.7996553181841908e-05
-2.934971821076841e-05   2.195957622801235e-06   -2.7996553181841908e-05
-2.934971821076841e-05   2.195957622801235e-06   -2.7996553181841908e-05
-1.522646420760936e-05   1.2790974802978942e-06   -5.09851937682716e-05
-1.522646420760936e-05   1.2790974802978942e-06   -5.09851937682716e-05
-1.522646420760936e-05   1.2790974802978942e-06   -5.09851937682716e-05
-1.522646420760936e-05   1.2790974802978942e-06   -5.09851937682716e-05
-2.934971821076841e-05   1.950411676865686e-06   -7.425533564806141e-05
-2.934971821076841e-05   1.950411676865686e-06   -7.425533564806141e-05
-2.934971821076841e-05   1.950411676865686e-06   -7.425533564806141e-05
-2.934971821076841e-05   1.950411676865686e-06   -7.425533564806141e-05
-1.5944487310366776e-06   2.1959576228013436e-06   -2.7849225614280415e-05
-1.5944487310366776e-06   2.1959576228013436e-06   -2.7849225614280415e-05
-1.5944487310366776e-06   2.1959576228013436e-06   -2.7849225614280415e-05
-1.5944487310366776e-06   2.1959576228013436e-06   -2.7849225614280415e-05
-1.8008542978678417e-06   4.024693390715438e-06   -7.430998222696756e-05
-1.8008542978678417e-06   4.024693390715438e-06   -7.430998222696756e-05
-1.8008542978678417e-06   4.024693390715438e-06   -7.430998222696756e-05
-1.8008542978678417e-06   4.024693390715438e-06   -7.430998222696756e-05
-2.9580262323446993e-05   4.132147266191545e-06   -2.8075441176288256e-05
-2.9580262323446993e-05   4.132147266191545e-06   -2.8075441176288256e-05
-2.9580262323446993e-05   4.132147266191545e-06   -2.8075441176288256e-05
-2.9580262323446993e-05   4.132147266191545e-06   -2.8075441176288256e-05
-1.5593153481374235e-05   2.9916449043026344e-06   -5.070298782927582e-05
-1.5593153481374235e-05   2.9916449043026344e-06   -5.070298782927582e-05
-1.5593153481374235e-05   2.9916449043026344e-06   -5.070298782927582e-05
-1.5593153481374235e-05   2.9916449043026344e-06   -5.070298782927582e-05
-2.9580262323446993e-05   4.024693390715492e-06   -7.437445455225333e-05
-2.9580262323446993e-05   4.024693390715492e-06   -7.437445455225333e-05
-2.9580262323446993e-05   4.024693390715492e-06   -7.437445455225333e-05
-2.9580262323446993e-05   4.024693390715492e-06   -7.437445455225333e-05
-1.8008542978678442e-06   4.132147266191653e-06   -2.8010968851002326e-05
-1.8008542978678442e-06   4.132147266191653e-06   -2.8010968851002326e-05
-1.8008542978678442e-06   4.132147266191653e-06   -2.8010968851002326e-05
-1.8008542978678442e-06   4.132147266191653e-06   -2.8010968851002326e-05
-2.123914645267912e-06   6.186056232455092e-06   -7.526644006310233e-05
-2.123914645267912e-06   6.186056232455092e-06   -7.526644006310233e-05
-2.123914645267912e-06   6.186056232455092e-06   -7.526644006310233e-05
-2.123914645267912e-06   6.186056232455092e-06   -7.526644006310233e-05
-2.987777375683371e-05   6.113400566572181e-06   -2.8966414810963255e-05
-2.987777375683371e-05   6.113400566572181e-06   -2.8966414810963255e-05
-2.987777375683371e-05   6.113400566572181e-06   -2.8966414810963255e-05
-2.987777375683371e-05   6.113400566572181e-06   -2.8966414810963255e-05
-1.598258038852774e-05   4.724531064128766e-06   -5.1291748723340076e-05
-1.598258038852774e-05   4.724531064128766e-06   -5.1291748723340076e-05
-1.598258038852774e-05   4.724531064128766e-06   -5.1291748723340076e-05
-1.598258038852774e-05   4.724531064128766e-06   -5.1291748723340076e-05
-1.3098513289894433e-06   -5.96019825349327e-06   -6.684638406517223e-05
-1.3098513289894433e-06   -5.96019825349327e-06   -6.684638406517223e-05
-1.3098513289894433e-06   -5.96019825349327e-06   -6.684638406517223e-05
-1.3098513289894433e-06   -5.96019825349327e-06   -6.684638406517223e-05
2.623953440597324e-05   -3.999352865783224e-06   -1.9754233940941842e-05
2.623953440597324e-05   -3.999352865783224e-06   -1.9754233940941842e-05
2.623953440597324e-05   -3.999352865783224e-06   -1.9754233940941842e-05
2.623953440597324e-05   -3.999352865783224e-06   -1.9754233940941842e-05
2.621722922694409e-05   -4.031835348262936e-06   -6.608142721673595e-05
2.621722922694409e-05   -4.031835348262936e-06   -6.608142721673595e-05
2.621722922694409e-05   -4.031835348262936e-06   -6.608142721673595e-05
2.621722922694409e-05   -4.031835348262936e-06   -6.608142721673595e-05
-1.5944487310366776e-06   -2.219911529024814e-06   -2.0815784911644208e-05
-1.5944487310366776e-06   -2.219911529024814e-06   -2.0815784911644208e-05
-1.5944487310366776e-06   -2.219911529024814e-06   -2.0815784911644208e-05
-1.5944487310366776e-06   -2.219911529024814e-06   -2.0815784911644208e-05
1.2293336242114222e-05   -3.913128574783661e-06   -4.294616297277372e-05
1.2293336242114222e-05   -3.913128574783661e-06   -4.294616297277372e-05
1.2293336242114222e-05   -3.913128574783661e-06   -4.294616297277372e-05
1.2293336242114222e-05   -3.913128574783661e-06   -4.294616297277372e-05
-1.5944487310366776e-06   -4.031835348262882e-06   -6.716858150827875e-05
-1.5944487310366776e-06   -4.031835348262882e-06   -6.716858150827875e-05
-1.5944487310366776e-06   -4.031835348262882e-06   -6.716858150827875e-05
-1.5944487310366776e-06   -4.031835348262882e-06   -6.716858150827875e-05
2.621722922694409e-05   -2.219911529024814e-06   -1.972863062010122e-05
2.621722922694409e-05   -2.219911529024814e-06   -1.972863062010122e-05
2.621722922694409e-05   -2.219911529024814e-06   -1.972863062010122e-05
2.621722922694409e-05   -2.219911529024814e-06   -1.972863062010122e-05
2.633804564405084e-05   -2.1424851901128664e-06   -6.783170894955693e-05
2.633804564405084e-05   -2.1424851901128664e-06   -6.783170894955693e-05
2.633804564405084e-05   -2.1424851901128664e-06   -6.783170894955693e-05
2.633804564405084e-05   -2.1424851901128664e-06   -6.783170894955693e-05
-1.8008542978678468e-06   -4.7080998394962315e-07   -2.1936547503390682e-05
-1.8008542978678468e-06   -4.7080998394962315e-07   -2.1936547503390682e-05
-1.8008542978678468e-06   -4.7080998394962315e-07   -2.1936547503390682e-05
-1.8008542978678468e-06   -4.7080998394962315e-07   -2.1936547503390682e-05
1.1914683703898408e-05   -2.370003268561873e-06   -4.365626153556666e-05
1.1914683703898408e-05   -2.370003268561873e-06   -4.365626153556666e-05
1.1914683703898408e-05   -2.370003268561873e-06   -4.365626153556666e-05
1.1914683703898408e-05   -2.370003268561873e-06   -4.365626153556666e-05
-1.8008542978678417e-06   -2.1424851901129206e-06   -6.883471407325464e-05
-1.8008542978678417e-06   -2.1424851901129206e-06   -6.883471407325464e-05
-1.8008542978678417e-06   -2.1424851901129206e-06   -6.883471407325464e-05
-1.8008542978678417e-06   -2.1424851901129206e-06   -6.883471407325464e-05
2.633804564405084e-05   -4.7080998394962315e-07   -2.0933542379692317e-05
2.633804564405084e-05   -4.7080998394962315e-07   -2.0933542379692317e-05
2.633804564405084e-05   -4.7080998394962315e-07   -2.0933542379692317e-05
2.633804564405084e-05   -4.7080998394962315e-07   -2.0933542379692317e-05
2.6133359526435738e-05   1.9493707188451663e-07   -6.981364073871735e-05
2.6133359526435738e-05   1.9493707188451663e-07   -6.981364073871735e-05
2.6133359526435738e-05   1.9493707188451663e-07   -6.981364073871735e-05
2.6133359526435738e-05   1.9493707188451663e-07   -6.981364073871735e-05
-2.1239146452679154e-06   1.5748861198830455e-06   -2.3546153214677237e-05
-2.1239146452679154e-06   1.5748861198830455e-06   -2.3546153214677237e-05
-2.1239146452679154e-06   1.5748861198830455e-06   -2.3546153214677237e-05
-2.1239146452679154e-06   1.5748861198830455e-06   -2.3546153214677237e-05
1.1780629232675564e-05   -7.183702203094082e-07   -4.534443920713384e-05
1.1780629232675564e-05   -7.183702203094082e-07   -4.534443920713384e-05
1.1780629232675564e-05   -7.183702203094082e-07   -4.534443920713384e-05
1.1780629232675564e-05   -7.183702203094082e-07   -4.534443920713384e-05
2.62395344059732e-05   -1.1081494925193572e-05   -3.7408944628839375e-05
2.62395344059732e-05   -1.1081494925193572e-05   -3.7408944628839375e-05
2.62395344059732e-05   -1.1081494925193572e-05   -3.7408944628839375e-05
2.62395344059732e-05   -1.1081494925193572e-05   -3.7408944628839375e-05
5.204998846413772e-05   -7.25772628548942e-06   7.902739985257375e-06
5.204998846413772e-05   -7.25772628548942e-06   7.902739985257375e-06
5.204998846413772e-05   -7.25772628548942e-06   7.902739985257375e-06
5.204998846413772e-05   -7.25772628548942e-06   7.902739985257375e-06
5.379748315347105e-05   -1.0056615515967717e-05   -4.210535554709799e-05
5.379748315347105e-05   -1.0056615515967717e-05   -4.210535554709799e-05
5.379748315347105e-05   -1.0056615515967717e-05   -4.210535554709799e-05
5.379748315347105e-05   -1.0056615515967717e-05   -4.210535554709799e-05
2.6217229226944036e-05   -6.233350827490776e-06   1.5677755173608941e-06
2.6217229226944036e-05   -6.233350827490776e-06   1.5677755173608941e-06
2.6217229226944036e-05   -6.233350827490776e-06   1.5677755173608941e-06
2.6217229226944036e-05   -6.233350827490776e-06   1.5677755173608941e-06
3.78845102687125e-05   -8.55495734410289e-06   -1.648472897561933e-05
3.78845102687125e-05   -8.55495734410289e-06   -1.648472897561933e-05
3.78845102687125e-05   -8.55495734410289e-06   -1.648472897561933e-05
3.78845102687125e-05   -8.55495734410289e-06   -1.648472897561933e-05
2.6217229226944023e-05   -1.0056615515967717e-05   -4.439931436018405e-05
2.6217229226944023e-05   -1.0056615515967717e-05   -4.439931436018405e-05
2.6217229226944023e-05   -1.0056615515967717e-05   -4.439931436018405e-05
2.6217229226944023e-05   -1.0056615515967717e-05   -4.439931436018405e-05
5.379748315347105e-05   -6.233350827490776e-06   3.861734330447221e-06
5.379748315347105e-05   -6.233350827490776e-06   3.861734330447221e-06
5.379748315347105e-05   -6.233350827490776e-06   3.861734330447221e-06
5.379748315347105e-05   -6.233350827490776e-06   3.861734330447221e-06
5.5139261258332e-05   -8.969246853483023e-06   -4.74928295297624e-05
5.5139261258332e-05   -8.969246853483023e-06   -4.74928295297624e-05
5.5139261258332e-05   -8.969246853483023e-06   -4.74928295297624e-05
5.5139261258332e-05   -8.969246853483023e-06   -4.74928295297624e-05
2.6338045644050745e-05   -5.3536217077621365e-06   -1.6601785933929576e-06
2.6338045644050745e-05   -5.3536217077621365e-06   -1.6601785933929576e-06
2.6338045644050745e-05   -5.3536217077621365e-06   -1.6601785933929576e-06
2.6338045644050745e-05   -5.3536217077621365e-06   -1.6601785933929576e-06
3.9167347932772375e-05   -7.893923520858014e-06   -2.1518167986737957e-05
3.9167347932772375e-05   -7.893923520858014e-06   -2.1518167986737957e-05
3.9167347932772375e-05   -7.893923520858014e-06   -2.1518167986737957e-05
3.9167347932772375e-05   -7.893923520858014e-06   -2.1518167986737957e-05
2.63380456440508e-05   -8.969246853483023e-06   -4.966220461719492e-05
2.63380456440508e-05   -8.969246853483023e-06   -4.966220461719492e-05
2.63380456440508e-05   -8.969246853483023e-06   -4.966220461719492e-05
2.63380456440508e-05   -8.969246853483023e-06   -4.966220461719492e-05
5.513926125833192e-05   -5.3536217077621365e-06   5.091964940398888e-07
5.513926125833192e-05   -5.3536217077621365e-06   5.091964940398888e-07
5.513926125833192e-05   -5.3536217077621365e-06   5.091964940398888e-07
5.513926125833192e-05   -5.3536217077621365e-06   5.091964940398888e-07
5.656794323754248e-05   -6.628952466711789e-06   -5.665605328154859e-05
5.656794323754248e-05   -6.628952466711789e-06   -5.665605328154859e-05
5.656794323754248e-05   -6.628952466711789e-06   -5.665605328154859e-05
5.656794323754248e-05   -6.628952466711789e-06   -5.665605328154859e-05
2.6133359526435643e-05   -3.4734397268801646e-06   -7.825054740269731e-06
2.6133359526435643e-05   -3.4734397268801646e-06   -7.825054740269731e-06
2.6133359526435643e-05   -3.4734397268801646e-06   -7.825054740269731e-06
2.6133359526435643e-05   -3.4734397268801646e-06   -7.825054740269731e-06
3.8995803703460624e-05   -6.801777054458503e-06   -2.7265459305430797e-05
3.8995803703460624e-05   -6.801777054458503e-06   -2.7265459305430797e-05
3.8995803703460624e-05   -6.801777054458503e-06   -2.7265459305430797e-05
3.8995803703460624e-05   -6.801777054458503e-06   -2.7265459305430797e-05
-6.25323758900673e-05   9.581361589025474e-06   -4.754661189744643e-05
-6.25323758900673e-05   9.581361589025474e-06   -4.754661189744643e-05
-6.25323758900673e-05   9.581361589025474e-06   -4.754661189744643e-05
-6.25323758900673e-05   9.581361589025474e-06   -4.754661189744643e-05
-4.256182901102106e-05   6.099137573547034e-06   -1.6351701508323117e-05
-4.256182901102106e-05   6.099137573547034e-06   -1.6351701508323117e-05
-4.256182901102106e-05   6.099137573547034e-06   -1.6351701508323117e-05
-4.256182901102106e-05   6.099137573547034e-06   -1.6351701508323117e-05
-4.240722225141462e-05   1.1588242182650763e-05   -4.039201588542046e-05
-4.240722225141462e-05   1.1588242182650763e-05   -4.039201588542046e-05
-4.240722225141462e-05   1.1588242182650763e-05   -4.039201588542046e-05
-4.240722225141462e-05   1.1588242182650763e-05   -4.039201588542046e-05
-6.0665930851023164e-05   7.761225777418472e-06   -7.664625042933426e-06
-6.0665930851023164e-05   7.761225777418472e-06   -7.664625042933426e-06
-6.0665930851023164e-05   7.761225777418472e-06   -7.664625042933426e-06
-6.0665930851023164e-05   7.761225777418472e-06   -7.664625042933426e-06
-4.983407862320934e-05   9.225519541605342e-06   -2.6596288347802003e-05
-4.983407862320934e-05   9.225519541605342e-06   -2.6596288347802003e-05
-4.983407862320934e-05   9.225519541605342e-06   -2.6596288347802003e-05
-4.983407862320934e-05   9.225519541605342e-06   -2.6596288347802003e-05
-6.0665930851023164e-05   1.1588242182650763e-05   -3.8095806042281024e-05
-6.0665930851023164e-05   1.1588242182650763e-05   -3.8095806042281024e-05
-6.0665930851023164e-05   1.1588242182650763e-05   -3.8095806042281024e-05
-6.0665930851023164e-05   1.1588242182650763e-05   -3.8095806042281024e-05
-4.2407222251414676e-05   7.761225777418472e-06   -9.96083488607292e-06
-4.2407222251414676e-05   7.761225777418472e-06   -9.96083488607292e-06
-4.2407222251414676e-05   7.761225777418472e-06   -9.96083488607292e-06
-4.2407222251414676e-05   7.761225777418472e-06   -9.96083488607292e-06
-4.2085832231703664e-05   1.2469558473273139e-05   -3.522139053975201e-05
-4.2085832231703664e-05   1.2469558473273139e-05   -3.522139053975201e-05
-4.2085832231703664e-05   1.2469558473273139e-05   -3.522139053975201e-05
-4.2085832231703664e-05   1.2469558473273139e-05   -3.522139053975201e-05
-5.927003989865626e-05   8.53511202169254e-06   -4.220376557215839e-06
-5.927003989865626e-05   8.53511202169254e-06   -4.220376557215839e-06
-5.927003989865626e-05   8.53511202169254e-06   -4.220376557215839e-06
-5.927003989865626e-05   8.53511202169254e-06   -4.220376557215839e-06
-4.983817993738913e-05   1.0152853235696323e-05   -2.0910787887730062e-05
-4.983817993738913e-05   1.0152853235696323e-05   -2.0910787887730062e-05
-4.983817993738913e-05   1.0152853235696323e-05   -2.0910787887730062e-05
-4.983817993738913e-05   1.0152853235696323e-05   -2.0910787887730062e-05
-5.927003989865626e-05   1.2469558473273139e-05   -3.2860722668803495e-05
-5.927003989865626e-05   1.2469558473273139e-05   -3.2860722668803495e-05
-5.927003989865626e-05   1.2469558473273139e-05   -3.2860722668803495e-05
-5.927003989865626e-05   1.2469558473273139e-05   -3.2860722668803495e-05
-4.2085832231703745e-05   8.53511202169254e-06   -6.581044428164025e-06
-4.2085832231703745e-05   8.53511202169254e-06   -6.581044428164025e-06
-4.2085832231703745e-05   8.53511202169254e-06   -6.581044428164025e-06
-4.2085832231703745e-05   8.53511202169254e-06   -6.581044428164025e-06
-4.195673925386307e-05   1.333565364481737e-05   -2.8061950173701887e-05
-4.195673925386307e-05   1.333565364481737e-05   -2.8061950173701887e-05
-4.195673925386307e-05   1.333565364481737e-05   -2.8061950173701887e-05
-4.195673925386307e-05   1.333565364481737e-05   -2.8061950173701887e-05
-5.744285009317245e-05   9.507456175632386e-06   4.515303999154483e-08
-5.744285009317245e-05   9.507456175632386e-06   4.515303999154483e-08
-5.744285009317245e-05   9.507456175632386e-06   4.515303999154483e-08
-5.744285009317245e-05   9.507456175632386e-06   4.515303999154483e-08
-4.836438119253832e-05   1.0654337627959468e-05   -1.5773757332461784e-05
-4.836438119253832e-05   1.0654337627959468e-05   -1.5773757332461784e-05
-4.836438119253832e-05   1.0654337627959468e-05   -1.5773757332461784e-05
-4.836438119253832e-05   1.0654337627959468e-05   -1.5773757332461784e-05
-4.256182901102098e-05   4.775848544350935e-06   -6.055189479903071e-05
-4.256182901102098e-05   4.775848544350935e-06   -6.055189479903071e-05
-4.256182901102098e-05   4.775848544350935e-06   -6.055189479903071e-05
-4.256182901102098e-05   4.775848544350935e-06   -6.055189479903071e-05
-2.4465431212139066e-05   3.1506347950159726e-06   -3.13663600504951e-05
-2.4465431212139066e-05   3.1506347950159726e-06   -3.13663600504951e-05
-2.4465431212139066e-05   3.1506347950159726e-06   -3.13663600504951e-05
-2.4465431212139066e-05   3.1506347950159726e-06   -3.13663600504951e-05
-2.447715863418557e-05   6.749234740730122e-06   -6.0033222290844504e-05
-2.447715863418557e-05   6.749234740730122e-06   -6.0033222290844504e-05
-2.447715863418557e-05   6.749234740730122e-06   -6.0033222290844504e-05
-2.447715863418557e-05   6.749234740730122e-06   -6.0033222290844504e-05
-4.240722225141462e-05   4.904988934137074e-06   -2.9043235444840192e-05
-4.240722225141462e-05   4.904988934137074e-06   -2.9043235444840192e-05
-4.240722225141462e-05   4.904988934137074e-06   -2.9043235444840192e-05
-4.240722225141462e-05   4.904988934137074e-06   -2.9043235444840192e-05
-3.316938650382307e-05   5.222248402750448e-06   -4.462998403866107e-05
-3.316938650382307e-05   5.222248402750448e-06   -4.462998403866107e-05
-3.316938650382307e-05   5.222248402750448e-06   -4.462998403866107e-05
-3.316938650382307e-05   5.222248402750448e-06   -4.462998403866107e-05
-4.240722225141457e-05   6.749234740730122e-06   -5.8926674806888426e-05
-4.240722225141457e-05   6.749234740730122e-06   -5.8926674806888426e-05
-4.240722225141457e-05   6.749234740730122e-06   -5.8926674806888426e-05
-4.240722225141457e-05   6.749234740730122e-06   -5.8926674806888426e-05
-2.447715863418557e-05   4.904988934137074e-06   -3.0149782928795972e-05
-2.447715863418557e-05   4.904988934137074e-06   -3.0149782928795972e-05
-2.447715863418557e-05   4.904988934137074e-06   -3.0149782928795972e-05
-2.447715863418557e-05   4.904988934137074e-06   -3.0149782928795972e-05
-2.4458803052560988e-05   8.501892180163358e-06   -5.868752206611991e-05
-2.4458803052560988e-05   8.501892180163358e-06   -5.868752206611991e-05
-2.4458803052560988e-05   8.501892180163358e-06   -5.868752206611991e-05
-2.4458803052560988e-05   8.501892180163358e-06   -5.868752206611991e-05
-4.2085832231703664e-05   6.500810330038742e-06   -2.8108490990807306e-05
-4.2085832231703664e-05   6.500810330038742e-06   -2.8108490990807306e-05
-4.2085832231703664e-05   6.500810330038742e-06   -2.8108490990807306e-05
-4.2085832231703664e-05   6.500810330038742e-06   -2.8108490990807306e-05
-3.3014558096460836e-05   6.66248364573495e-06   -4.332428520562926e-05
-3.3014558096460836e-05   6.66248364573495e-06   -4.332428520562926e-05
-3.3014558096460836e-05   6.66248364573495e-06   -4.332428520562926e-05
-3.3014558096460836e-05   6.66248364573495e-06   -4.332428520562926e-05
-4.2085832231703664e-05   8.501892180163358e-06   -5.7486872956045e-05
-4.2085832231703664e-05   8.501892180163358e-06   -5.7486872956045e-05
-4.2085832231703664e-05   8.501892180163358e-06   -5.7486872956045e-05
-4.2085832231703664e-05   8.501892180163358e-06   -5.7486872956045e-05
-2.4458803052561042e-05   6.500810330038742e-06   -2.930914010088189e-05
-2.4458803052561042e-05   6.500810330038742e-06   -2.930914010088189e-05
-2.4458803052561042e-05   6.500810330038742e-06   -2.930914010088189e-05
-2.4458803052561042e-05   6.500810330038742e-06   -2.930914010088189e-05
-2.4477988239709984e-05   1.0365719836652985e-05   -5.892389069766656e-05
-2.4477988239709984e-05   1.0365719836652985e-05   -5.892389069766656e-05
-2.4477988239709984e-05   1.0365719836652985e-05   -5.892389069766656e-05
-2.4477988239709984e-05   1.0365719836652985e-05   -5.892389069766656e-05
-4.1956739253863124e-05   8.23367993004311e-06   -2.8513415063445232e-05
-4.1956739253863124e-05   8.23367993004311e-06   -2.8513415063445232e-05
-4.1956739253863124e-05   8.23367993004311e-06   -2.8513415063445232e-05
-4.1956739253863124e-05   8.23367993004311e-06   -2.8513415063445232e-05
-3.32280721010971e-05   8.086740849807855e-06   -4.297303020324737e-05
-3.32280721010971e-05   8.086740849807855e-06   -4.297303020324737e-05
-3.32280721010971e-05   8.086740849807855e-06   -4.297303020324737e-05
-3.32280721010971e-05   8.086740849807855e-06   -4.297303020324737e-05
-2.446543121213901e-05   2.539306507793942e-07   -6.682212449815518e-05
-2.446543121213901e-05   2.539306507793942e-07   -6.682212449815518e-05
-2.446543121213901e-05   2.539306507793942e-07   -6.682212449815518e-05
-2.446543121213901e-05   2.539306507793942e-07   -6.682212449815518e-05
-6.622908912413343e-06   5.407846057345952e-07   -3.69124749589726e-05
-6.622908912413343e-06   5.407846057345952e-07   -3.69124749589726e-05
-6.622908912413343e-06   5.407846057345952e-07   -3.69124749589726e-05
-6.622908912413343e-06   5.407846057345952e-07   -3.69124749589726e-05
-6.635217936954531e-06   2.195957622801235e-06   -6.608605429564733e-05
-6.635217936954531e-06   2.195957622801235e-06   -6.608605429564733e-05
-6.635217936954531e-06   2.195957622801235e-06   -6.608605429564733e-05
-6.635217936954531e-06   2.195957622801235e-06   -6.608605429564733e-05
-2.4477158634185516e-05   2.3041109001727903e-06   -3.6414378433351815e-05
-2.4477158634185516e-05   2.3041109001727903e-06   -3.6414378433351815e-05
-2.4477158634185516e-05   2.3041109001727903e-06   -3.6414378433351815e-05
-2.4477158634185516e-05   2.3041109001727903e-06   -3.6414378433351815e-05
-1.5447004012277204e-05   1.55133441035371e-06   -5.101297024264098e-05
-1.5447004012277204e-05   1.55133441035371e-06   -5.101297024264098e-05
-1.5447004012277204e-05   1.55133441035371e-06   -5.101297024264098e-05
-1.5447004012277204e-05   1.55133441035371e-06   -5.101297024264098e-05
-2.4477158634185516e-05   2.195957622801235e-06   -6.615094626207023e-05
-2.4477158634185516e-05   2.195957622801235e-06   -6.615094626207023e-05
-2.4477158634185516e-05   2.195957622801235e-06   -6.615094626207023e-05
-2.4477158634185516e-05   2.195957622801235e-06   -6.615094626207023e-05
-6.635217936954531e-06   2.3041109001727903e-06   -3.634948646692894e-05
-6.635217936954531e-06   2.3041109001727903e-06   -3.634948646692894e-05
-6.635217936954531e-06   2.3041109001727903e-06   -3.634948646692894e-05
-6.635217936954531e-06   2.3041109001727903e-06   -3.634948646692894e-05
-6.611538675397696e-06   4.132147266191545e-06   -6.625487001453477e-05
-6.611538675397696e-06   4.132147266191545e-06   -6.625487001453477e-05
-6.611538675397696e-06   4.132147266191545e-06   -6.625487001453477e-05
-6.611538675397696e-06   4.132147266191545e-06   -6.625487001453477e-05
-2.4458803052560988e-05   4.0730656912055675e-06   -3.64739804409378e-05
-2.4458803052560988e-05   4.0730656912055675e-06   -3.64739804409378e-05
-2.4458803052560988e-05   4.0730656912055675e-06   -3.64739804409378e-05
-2.4458803052560988e-05   4.0730656912055675e-06   -3.64739804409378e-05
-1.555014660892401e-05   3.093554745588027e-06   -5.0734034612962255e-05
-1.555014660892401e-05   3.093554745588027e-06   -5.0734034612962255e-05
-1.555014660892401e-05   3.093554745588027e-06   -5.0734034612962255e-05
-1.555014660892401e-05   3.093554745588027e-06   -5.0734034612962255e-05
-2.4458803052560988e-05   4.132147266191545e-06   -6.621942106954323e-05
-2.4458803052560988e-05   4.132147266191545e-06   -6.621942106954323e-05
-2.4458803052560988e-05   4.132147266191545e-06   -6.621942106954323e-05
-2.4458803052560988e-05   4.132147266191545e-06   -6.621942106954323e-05
-6.611538675397707e-06   4.0730656912055675e-06   -3.650942938592921e-05
-6.611538675397707e-06   4.0730656912055675e-06   -3.650942938592921e-05
-6.611538675397707e-06   4.0730656912055675e-06   -3.650942938592921e-05
-6.611538675397707e-06   4.0730656912055675e-06   -3.650942938592921e-05
-6.621817368392688e-06   6.11340056657229e-06   -6.7257075501592e-05
-6.621817368392688e-06   6.11340056657229e-06   -6.7257075501592e-05
-6.621817368392688e-06   6.11340056657229e-06   -6.7257075501592e-05
-6.621817368392688e-06   6.11340056657229e-06   -6.7257075501592e-05
-2.4477988239709957e-05   5.872949208994907e-06   -3.7352519901516496e-05
-2.4477988239709957e-05   5.872949208994907e-06   -3.7352519901516496e-05
-2.4477988239709957e-05   5.872949208994907e-06   -3.7352519901516496e-05
-2.4477988239709957e-05   5.872949208994907e-06   -3.7352519901516496e-05
-1.5683576571653796e-05   4.656024004055272e-06   -5.127971755864634e-05
-1.5683576571653796e-05   4.656024004055272e-06   -5.127971755864634e-05
-1.5683576571653796e-05   4.656024004055272e-06   -5.127971755864634e-05
-1.5683576571653796e-05   4.656024004055272e-06   -5.127971755864634e-05
-6.622908912413331e-06   -3.999352865783116e-06   -5.917481423046701e-05
-6.622908912413331e-06   -3.999352865783116e-06   -5.917481423046701e-05
-6.622908912413331e-06   -3.999352865783116e-06   -5.917481423046701e-05
-6.622908912413331e-06   -3.999352865783116e-06   -5.917481423046701e-05
1.0963625162492273e-05   -1.8465020008050833e-06   -2.8572213586637563e-05
1.0963625162492273e-05   -1.8465020008050833e-06   -2.8572213586637563e-05
1.0963625162492273e-05   -1.8465020008050833e-06   -2.8572213586637563e-05
1.0963625162492273e-05   -1.8465020008050833e-06   -2.8572213586637563e-05
1.1107350224176673e-05   -2.2199115290247057e-06   -5.783237503657998e-05
1.1107350224176673e-05   -2.2199115290247057e-06   -5.783237503657998e-05
1.1107350224176673e-05   -2.2199115290247057e-06   -5.783237503657998e-05
1.1107350224176673e-05   -2.2199115290247057e-06   -5.783237503657998e-05
-6.635217936954531e-06   -1.861806016400895e-07   -2.948166665779225e-05
-6.635217936954531e-06   -1.861806016400895e-07   -2.948166665779225e-05
-6.635217936954531e-06   -1.861806016400895e-07   -2.948166665779225e-05
-6.635217936954531e-06   -1.861806016400895e-07   -2.948166665779225e-05
2.213014060527639e-06   -1.9098034376259163e-06   -4.319454628533769e-05
2.213014060527639e-06   -1.9098034376259163e-06   -4.319454628533769e-05
2.213014060527639e-06   -1.9098034376259163e-06   -4.319454628533769e-05
2.213014060527639e-06   -1.9098034376259163e-06   -4.319454628533769e-05
-6.635217936954531e-06   -2.219911529024814e-06   -5.905261359301096e-05
-6.635217936954531e-06   -2.219911529024814e-06   -5.905261359301096e-05
-6.635217936954531e-06   -2.219911529024814e-06   -5.905261359301096e-05
-6.635217936954531e-06   -2.219911529024814e-06   -5.905261359301096e-05
1.11073502241767e-05   -1.861806016400895e-07   -2.8261428101361455e-05
1.11073502241767e-05   -1.861806016400895e-07   -2.8261428101361455e-05
1.11073502241767e-05   -1.861806016400895e-07   -2.8261428101361455e-05
1.11073502241767e-05   -1.861806016400895e-07   -2.8261428101361455e-05
1.1445173224727432e-05   -4.7080998394951473e-07   -5.905098984230789e-05
1.1445173224727432e-05   -4.7080998394951473e-07   -5.905098984230789e-05
1.1445173224727432e-05   -4.7080998394951473e-07   -5.905098984230789e-05
1.1445173224727432e-05   -4.7080998394951473e-07   -5.905098984230789e-05
-6.611538675397707e-06   1.4116213904085198e-06   -3.0085928833380825e-05
-6.611538675397707e-06   1.4116213904085198e-06   -3.0085928833380825e-05
-6.611538675397707e-06   1.4116213904085198e-06   -3.0085928833380825e-05
-6.611538675397707e-06   1.4116213904085198e-06   -3.0085928833380825e-05
2.1114738832467685e-06   -5.287194069022874e-07   -4.346007861940189e-05
2.1114738832467685e-06   -5.287194069022874e-07   -4.346007861940189e-05
2.1114738832467685e-06   -5.287194069022874e-07   -4.346007861940189e-05
2.1114738832467685e-06   -5.287194069022874e-07   -4.346007861940189e-05
-6.611538675397702e-06   -4.7080998394951473e-07   -6.0180448666922635e-05
-6.611538675397702e-06   -4.7080998394951473e-07   -6.0180448666922635e-05
-6.611538675397702e-06   -4.7080998394951473e-07   -6.0180448666922635e-05
-6.611538675397702e-06   -4.7080998394951473e-07   -6.0180448666922635e-05
1.144517322472746e-05   1.4116213904085198e-06   -2.8956470008766077e-05
1.144517322472746e-05   1.4116213904085198e-06   -2.8956470008766077e-05
1.144517322472746e-05   1.4116213904085198e-06   -2.8956470008766077e-05
1.144517322472746e-05   1.4116213904085198e-06   -2.8956470008766077e-05
1.1610277488294162e-05   1.5748861198830455e-06   -6.079205101006672e-05
1.1610277488294162e-05   1.5748861198830455e-06   -6.079205101006672e-05
1.1610277488294162e-05   1.5748861198830455e-06   -6.079205101006672e-05
1.1610277488294162e-05   1.5748861198830455e-06   -6.079205101006672e-05
-6.621817368392677e-06   3.2435019460652203e-06   -3.140639574463114e-05
-6.621817368392677e-06   3.2435019460652203e-06   -3.140639574463114e-05
-6.621817368392677e-06   3.2435019460652203e-06   -3.140639574463114e-05
-6.621817368392677e-06   3.2435019460652203e-06   -3.140639574463114e-05
2.172933139732338e-06   9.491368562242501e-07   -4.4687694204268086e-05
2.172933139732338e-06   9.491368562242501e-07   -4.4687694204268086e-05
2.172933139732338e-06   9.491368562242501e-07   -4.4687694204268086e-05
2.172933139732338e-06   9.491368562242501e-07   -4.4687694204268086e-05
1.0963625162492218e-05   -7.25772628548942e-06   -3.252039096910352e-05
1.0963625162492218e-05   -7.25772628548942e-06   -3.252039096910352e-05
1.0963625162492218e-05   -7.25772628548942e-06   -3.252039096910352e-05
1.0963625162492218e-05   -7.25772628548942e-06   -3.252039096910352e-05
2.6596544133119843e-05   -3.39625245065903e-06   -4.148641717159054e-06
2.6596544133119843e-05   -3.39625245065903e-06   -4.148641717159054e-06
2.6596544133119843e-05   -3.39625245065903e-06   -4.148641717159054e-06
2.6596544133119843e-05   -3.39625245065903e-06   -4.148641717159054e-06
2.8448516191583248e-05   -6.233350827490884e-06   -3.415939885236517e-05
2.8448516191583248e-05   -6.233350827490884e-06   -3.415939885236517e-05
2.8448516191583248e-05   -6.233350827490884e-06   -3.415939885236517e-05
2.8448516191583248e-05   -6.233350827490884e-06   -3.415939885236517e-05
1.1107350224176686e-05   -2.272400749569808e-06   -7.634025620107017e-06
1.1107350224176686e-05   -2.272400749569808e-06   -7.634025620107017e-06
1.1107350224176686e-05   -2.272400749569808e-06   -7.634025620107017e-06
1.1107350224176686e-05   -2.272400749569808e-06   -7.634025620107017e-06
1.8456972100209337e-05   -4.641660190240582e-06   -1.8461839749092364e-05
1.8456972100209337e-05   -4.641660190240582e-06   -1.8461839749092364e-05
1.8456972100209337e-05   -4.641660190240582e-06   -1.8461839749092364e-05
1.8456972100209337e-05   -4.641660190240582e-06   -1.8461839749092364e-05
1.1107350224176673e-05   -6.233350827490776e-06   -3.653596889911754e-05
1.1107350224176673e-05   -6.233350827490776e-06   -3.653596889911754e-05
1.1107350224176673e-05   -6.233350827490776e-06   -3.653596889911754e-05
1.1107350224176673e-05   -6.233350827490776e-06   -3.653596889911754e-05
2.8448516191583085e-05   -2.272400749569808e-06   -5.257455573354371e-06
2.8448516191583085e-05   -2.272400749569808e-06   -5.257455573354371e-06
2.8448516191583085e-05   -2.272400749569808e-06   -5.257455573354371e-06
2.8448516191583085e-05   -2.272400749569808e-06   -5.257455573354371e-06
2.9873451374498193e-05   -5.353621707762245e-06   -3.746298567727194e-05
2.9873451374498193e-05   -5.353621707762245e-06   -3.746298567727194e-05
2.9873451374498193e-05   -5.353621707762245e-06   -3.746298567727194e-05
2.9873451374498193e-05   -5.353621707762245e-06   -3.746298567727194e-05
1.144517322472746e-05   -1.4958877432014444e-06   -9.063829139723884e-06
1.144517322472746e-05   -1.4958877432014444e-06   -9.063829139723884e-06
1.144517322472746e-05   -1.4958877432014444e-06   -9.063829139723884e-06
1.144517322472746e-05   -1.4958877432014444e-06   -9.063829139723884e-06
1.9589984333348797e-05   -4.0648433994535955e-06   -2.109714092700805e-05
1.9589984333348797e-05   -4.0648433994535955e-06   -2.109714092700805e-05
1.9589984333348797e-05   -4.0648433994535955e-06   -2.109714092700805e-05
1.9589984333348797e-05   -4.0648433994535955e-06   -2.109714092700805e-05
1.1445173224727446e-05   -5.353621707762245e-06   -3.9777626056008313e-05
1.1445173224727446e-05   -5.353621707762245e-06   -3.9777626056008313e-05
1.1445173224727446e-05   -5.353621707762245e-06   -3.9777626056008313e-05
1.1445173224727446e-05   -5.353621707762245e-06   -3.9777626056008313e-05
2.987345137449811e-05   -1.4958877432012276e-06   -6.7491887609871055e-06
2.987345137449811e-05   -1.4958877432012276e-06   -6.7491887609871055e-06
2.987345137449811e-05   -1.4958877432012276e-06   -6.7491887609871055e-06
2.987345137449811e-05   -1.4958877432012276e-06   -6.7491887609871055e-06
3.1766324489527256e-05   -3.4734397268801646e-06   -4.379575603147387e-05
3.1766324489527256e-05   -3.4734397268801646e-06   -4.379575603147387e-05
3.1766324489527256e-05   -3.4734397268801646e-06   -4.379575603147387e-05
3.1766324489527256e-05   -3.4734397268801646e-06   -4.379575603147387e-05
1.1610277488294176e-05   3.18368280943955e-08   -1.2305510295736546e-05
1.1610277488294176e-05   3.18368280943955e-08   -1.2305510295736546e-05
1.1610277488294176e-05   3.18368280943955e-08   -1.2305510295736546e-05
1.1610277488294176e-05   3.18368280943955e-08   -1.2305510295736546e-05
1.996524216820412e-05   -3.2050093387557283e-06   -2.4288343728809977e-05
1.996524216820412e-05   -3.2050093387557283e-06   -2.4288343728809977e-05
1.996524216820412e-05   -3.2050093387557283e-06   -2.4288343728809977e-05
1.996524216820412e-05   -3.2050093387557283e-06   -2.4288343728809977e-05
-3.7888165455583344e-05   6.099137573546817e-06   -3.548384397914818e-05
-3.7888165455583344e-05   6.099137573546817e-06   -3.548384397914818e-05
-3.7888165455583344e-05   6.099137573546817e-06   -3.548384397914818e-05
-3.7888165455583344e-05   6.099137573546817e-06   -3.548384397914818e-05
-2.795684399993189e-05   2.488161980783313e-06   -2.1098226908720648e-05
-2.795684399993189e-05   2.488161980783313e-06   -2.1098226908720648e-05
-2.795684399993189e-05   2.488161980783313e-06   -2.1098226908720648e-05
-2.795684399993189e-05   2.488161980783313e-06   -2.1098226908720648e-05
-2.7544603354558975e-05   7.761225777418472e-06   -3.130304130705922e-05
-2.7544603354558975e-05   7.761225777418472e-06   -3.130304130705922e-05
-2.7544603354558975e-05   7.761225777418472e-06   -3.130304130705922e-05
-2.7544603354558975e-05   7.761225777418472e-06   -3.130304130705922e-05
-3.583177349627165e-05   3.871870305118029e-06   -1.5157477787490579e-05
-3.583177349627165e-05   3.871870305118029e-06   -1.5157477787490579e-05
-3.583177349627165e-05   3.871870305118029e-06   -1.5157477787490579e-05
-3.583177349627165e-05   3.871870305118029e-06   -1.5157477787490579e-05
-3.093658309725851e-05   5.470291380520664e-06   -2.4275181097755858e-05
-3.093658309725851e-05   5.470291380520664e-06   -2.4275181097755858e-05
-3.093658309725851e-05   5.470291380520664e-06   -2.4275181097755858e-05
-3.093658309725851e-05   5.470291380520664e-06   -2.4275181097755858e-05
-3.583177349627165e-05   7.761225777418472e-06   -2.896942802367889e-05
-3.583177349627165e-05   7.761225777418472e-06   -2.896942802367889e-05
-3.583177349627165e-05   7.761225777418472e-06   -2.896942802367889e-05
-3.583177349627165e-05   7.761225777418472e-06   -2.896942802367889e-05
-2.754460335455903e-05   3.871870305118029e-06   -1.7491091070871126e-05
-2.754460335455903e-05   3.871870305118029e-06   -1.7491091070871126e-05
-2.754460335455903e-05   3.871870305118029e-06   -1.7491091070871126e-05
-2.754460335455903e-05   3.871870305118029e-06   -1.7491091070871126e-05
-2.6956562400061326e-05   8.53511202169254e-06   -2.7952362553915417e-05
-2.6956562400061326e-05   8.53511202169254e-06   -2.7952362553915417e-05
-2.6956562400061326e-05   8.53511202169254e-06   -2.7952362553915417e-05
-2.6956562400061326e-05   8.53511202169254e-06   -2.7952362553915417e-05
-3.419052309338715e-05   4.570411407721006e-06   -1.3516941029989267e-05
-3.419052309338715e-05   4.570411407721006e-06   -1.3516941029989267e-05
-3.419052309338715e-05   4.570411407721006e-06   -1.3516941029989267e-05
-3.419052309338715e-05   4.570411407721006e-06   -1.3516941029989267e-05
-3.039371681052018e-05   6.216692519785301e-06   -2.0832720168672885e-05
-3.039371681052018e-05   6.216692519785301e-06   -2.0832720168672885e-05
-3.039371681052018e-05   6.216692519785301e-06   -2.0832720168672885e-05
-3.039371681052018e-05   6.216692519785301e-06   -2.0832720168672885e-05
-3.419052309338704e-05   8.53511202169254e-06   -2.5573542185532453e-05
-3.419052309338704e-05   8.53511202169254e-06   -2.5573542185532453e-05
-3.419052309338704e-05   8.53511202169254e-06   -2.5573542185532453e-05
-3.419052309338704e-05   8.53511202169254e-06   -2.5573542185532453e-05
-2.695656240006138e-05   4.570411407721006e-06   -1.5895761398372393e-05
-2.695656240006138e-05   4.570411407721006e-06   -1.5895761398372393e-05
-2.695656240006138e-05   4.570411407721006e-06   -1.5895761398372393e-05
-2.695656240006138e-05   4.570411407721006e-06   -1.5895761398372393e-05
-2.6555093449879012e-05   9.50745617563217e-06   -2.365264364691407e-05
-2.6555093449879012e-05   9.50745617563217e-06   -2.365264364691407e-05
-2.6555093449879012e-05   9.50745617563217e-06   -2.365264364691407e-05
-2.6555093449879012e-05   9.50745617563217e-06   -2.365264364691407e-05
-3.2100396828007324e-05   5.676648080339859e-06   -1.2111986492857867e-05
-3.2100396828007324e-05   5.676648080339859e-06   -1.2111986492857867e-05
-3.2100396828007324e-05   5.676648080339859e-06   -1.2111986492857867e-05
-3.2100396828007324e-05   5.676648080339859e-06   -1.2111986492857867e-05
-2.8972848301733376e-05   6.7332551866780815e-06   -1.795853163378473e-05
-2.8972848301733376e-05   6.7332551866780815e-06   -1.795853163378473e-05
-2.8972848301733376e-05   6.7332551866780815e-06   -1.795853163378473e-05
-2.8972848301733376e-05   6.7332551866780815e-06   -1.795853163378473e-05
-2.795684399993189e-05   3.1506347950159726e-06   -5.16899596273774e-05
-2.795684399993189e-05   3.1506347950159726e-06   -5.16899596273774e-05
-2.795684399993189e-05   3.1506347950159726e-06   -5.16899596273774e-05
-2.795684399993189e-05   3.1506347950159726e-06   -5.16899596273774e-05
-1.9889804579751496e-05   1.4253781903761451e-06   -3.9280047889860795e-05
-1.9889804579751496e-05   1.4253781903761451e-06   -3.9280047889860795e-05
-1.9889804579751496e-05   1.4253781903761451e-06   -3.9280047889860795e-05
-1.9889804579751496e-05   1.4253781903761451e-06   -3.9280047889860795e-05
-1.96191661258807e-05   4.904988934137074e-06   -5.152141569102751e-05
-1.96191661258807e-05   4.904988934137074e-06   -5.152141569102751e-05
-1.96191661258807e-05   4.904988934137074e-06   -5.152141569102751e-05
-1.96191661258807e-05   4.904988934137074e-06   -5.152141569102751e-05
-2.7544603354559083e-05   3.011699225469221e-06   -3.717637981802906e-05
-2.7544603354559083e-05   3.011699225469221e-06   -3.717637981802906e-05
-2.7544603354559083e-05   3.011699225469221e-06   -3.717637981802906e-05
-2.7544603354559083e-05   3.011699225469221e-06   -3.717637981802906e-05
-2.352106483495252e-05   3.42676451166226e-06   -4.413131652242355e-05
-2.352106483495252e-05   3.42676451166226e-06   -4.413131652242355e-05
-2.352106483495252e-05   3.42676451166226e-06   -4.413131652242355e-05
-2.352106483495252e-05   3.42676451166226e-06   -4.413131652242355e-05
-2.7544603354558975e-05   4.904988934137074e-06   -5.0385441865826385e-05
-2.7544603354558975e-05   4.904988934137074e-06   -5.0385441865826385e-05
-2.7544603354558975e-05   4.904988934137074e-06   -5.0385441865826385e-05
-2.7544603354558975e-05   4.904988934137074e-06   -5.0385441865826385e-05
-1.96191661258807e-05   3.011699225469221e-06   -3.8312353643230024e-05
-1.96191661258807e-05   3.011699225469221e-06   -3.8312353643230024e-05
-1.96191661258807e-05   3.011699225469221e-06   -3.8312353643230024e-05
-1.96191661258807e-05   3.011699225469221e-06   -3.8312353643230024e-05
-1.9320368859873172e-05   6.500810330038742e-06   -5.068854943800086e-05
-1.9320368859873172e-05   6.500810330038742e-06   -5.068854943800086e-05
-1.9320368859873172e-05   6.500810330038742e-06   -5.068854943800086e-05
-1.9320368859873172e-05   6.500810330038742e-06   -5.068854943800086e-05
-2.6956562400061435e-05   4.486243127635155e-06   -3.675281988291143e-05
-2.6956562400061435e-05   4.486243127635155e-06   -3.675281988291143e-05
-2.6956562400061435e-05   4.486243127635155e-06   -3.675281988291143e-05
-2.6956562400061435e-05   4.486243127635155e-06   -3.675281988291143e-05
-2.3165548770732374e-05   4.708817387265914e-06   -4.320472048757127e-05
-2.3165548770732374e-05   4.708817387265914e-06   -4.320472048757127e-05
-2.3165548770732374e-05   4.708817387265914e-06   -4.320472048757127e-05
-2.3165548770732374e-05   4.708817387265914e-06   -4.320472048757127e-05
-2.6956562400061326e-05   6.500810330038742e-06   -4.9479809116558535e-05
-2.6956562400061326e-05   6.500810330038742e-06   -4.9479809116558535e-05
-2.6956562400061326e-05   6.500810330038742e-06   -4.9479809116558535e-05
-2.6956562400061326e-05   6.500810330038742e-06   -4.9479809116558535e-05
-1.9320368859873145e-05   4.486243127635155e-06   -3.796156020435332e-05
-1.9320368859873145e-05   4.486243127635155e-06   -3.796156020435332e-05
-1.9320368859873145e-05   4.486243127635155e-06   -3.796156020435332e-05
-1.9320368859873145e-05   4.486243127635155e-06   -3.796156020435332e-05
-1.905436350472412e-05   8.23367993004311e-06   -5.1179957436057674e-05
-1.905436350472412e-05   8.23367993004311e-06   -5.1179957436057674e-05
-1.905436350472412e-05   8.23367993004311e-06   -5.1179957436057674e-05
-1.905436350472412e-05   8.23367993004311e-06   -5.1179957436057674e-05
-2.6555093449879066e-05   6.124239651346874e-06   -3.741307669358131e-05
-2.6555093449879066e-05   6.124239651346874e-06   -3.741307669358131e-05
-2.6555093449879066e-05   6.124239651346874e-06   -3.741307669358131e-05
-2.6555093449879066e-05   6.124239651346874e-06   -3.741307669358131e-05
-2.3025763900277836e-05   6.006846385694193e-06   -4.322485665019226e-05
-2.3025763900277836e-05   6.006846385694193e-06   -4.322485665019226e-05
-2.3025763900277836e-05   6.006846385694193e-06   -4.322485665019226e-05
-2.3025763900277836e-05   6.006846385694193e-06   -4.322485665019226e-05
-1.988980457975144e-05   5.407846057345952e-07   -5.84433408716119e-05
-1.988980457975144e-05   5.407846057345952e-07   -5.84433408716119e-05
-1.988980457975144e-05   5.407846057345952e-07   -5.84433408716119e-05
-1.988980457975144e-05   5.407846057345952e-07   -5.84433408716119e-05
-1.2030802005647977e-05   8.148465261280814e-07   -4.5180566095870075e-05
-1.2030802005647977e-05   8.148465261280814e-07   -4.5180566095870075e-05
-1.2030802005647977e-05   8.148465261280814e-07   -4.5180566095870075e-05
-1.2030802005647977e-05   8.148465261280814e-07   -4.5180566095870075e-05
-1.1766874258968607e-05   2.3041109001727903e-06   -5.7710478641888915e-05
-1.1766874258968607e-05   2.3041109001727903e-06   -5.7710478641888915e-05
-1.1766874258968607e-05   2.3041109001727903e-06   -5.7710478641888915e-05
-1.1766874258968607e-05   2.3041109001727903e-06   -5.7710478641888915e-05
-1.96191661258807e-05   2.429998489663753e-06   -4.469885808406276e-05
-1.96191661258807e-05   2.429998489663753e-06   -4.469885808406276e-05
-1.96191661258807e-05   2.429998489663753e-06   -4.469885808406276e-05
-1.96191661258807e-05   2.429998489663753e-06   -4.469885808406276e-05
-1.5725309658337833e-05   1.7469724971044993e-06   -5.077880326776664e-05
-1.5725309658337833e-05   1.7469724971044993e-06   -5.077880326776664e-05
-1.5725309658337833e-05   1.7469724971044993e-06   -5.077880326776664e-05
-1.5725309658337833e-05   1.7469724971044993e-06   -5.077880326776664e-05
-1.9619166125880674e-05   2.3041109001727903e-06   -5.778601119558308e-05
-1.9619166125880674e-05   2.3041109001727903e-06   -5.778601119558308e-05
-1.9619166125880674e-05   2.3041109001727903e-06   -5.778601119558308e-05
-1.9619166125880674e-05   2.3041109001727903e-06   -5.778601119558308e-05
-1.1766874258968607e-05   2.429998489663753e-06   -4.462332553036854e-05
-1.1766874258968607e-05   2.429998489663753e-06   -4.462332553036854e-05
-1.1766874258968607e-05   2.429998489663753e-06   -4.462332553036854e-05
-1.1766874258968607e-05   2.429998489663753e-06   -4.462332553036854e-05
-1.1470237855416778e-05   4.0730656912055675e-06   -5.786163426511578e-05
-1.1470237855416778e-05   4.0730656912055675e-06   -5.786163426511578e-05
-1.1470237855416778e-05   4.0730656912055675e-06   -5.786163426511578e-05
-1.1470237855416778e-05   4.0730656912055675e-06   -5.786163426511578e-05
-1.9320368859873145e-05   4.059324879439807e-06   -4.4769838103962185e-05
-1.9320368859873145e-05   4.059324879439807e-06   -4.4769838103962185e-05
-1.9320368859873145e-05   4.059324879439807e-06   -4.4769838103962185e-05
-1.9320368859873145e-05   4.059324879439807e-06   -4.4769838103962185e-05
-1.5547838104814992e-05   3.13428049931834e-06   -5.050236273431967e-05
-1.5547838104814992e-05   3.13428049931834e-06   -5.050236273431967e-05
-1.5547838104814992e-05   3.13428049931834e-06   -5.050236273431967e-05
-1.5547838104814992e-05   3.13428049931834e-06   -5.050236273431967e-05
-1.932036885987309e-05   4.0730656912055675e-06   -5.785338977805615e-05
-1.932036885987309e-05   4.0730656912055675e-06   -5.785338977805615e-05
-1.932036885987309e-05   4.0730656912055675e-06   -5.785338977805615e-05
-1.932036885987309e-05   4.0730656912055675e-06   -5.785338977805615e-05
-1.1470237855416798e-05   4.059324879439807e-06   -4.477808259102168e-05
-1.1470237855416798e-05   4.059324879439807e-06   -4.477808259102168e-05
-1.1470237855416798e-05   4.059324879439807e-06   -4.477808259102168e-05
-1.1470237855416798e-05   4.059324879439807e-06   -4.477808259102168e-05
-1.1203645585539557e-05   5.872949208994907e-06   -5.883568097695541e-05
-1.1203645585539557e-05   5.872949208994907e-06   -5.883568097695541e-05
-1.1203645585539557e-05   5.872949208994907e-06   -5.883568097695541e-05
-1.1203645585539557e-05   5.872949208994907e-06   -5.883568097695541e-05
-1.905436350472415e-05   5.7132114643413355e-06   -4.565530846485508e-05
-1.905436350472415e-05   5.7132114643413355e-06   -4.565530846485508e-05
-1.905436350472415e-05   5.7132114643413355e-06   -4.565530846485508e-05
-1.905436350472415e-05   5.7132114643413355e-06   -4.565530846485508e-05
-1.5400820336806305e-05   4.540023434628513e-06   -5.10406342602242e-05
-1.5400820336806305e-05   4.540023434628513e-06   -5.10406342602242e-05
-1.5400820336806305e-05   4.540023434628513e-06   -5.10406342602242e-05
-1.5400820336806305e-05   4.540023434628513e-06   -5.10406342602242e-05
-1.2030802005647935e-05   -1.8465020008050833e-06   -5.1230352866027504e-05
-1.2030802005647935e-05   -1.8465020008050833e-06   -5.1230352866027504e-05
-1.2030802005647935e-05   -1.8465020008050833e-06   -5.1230352866027504e-05
-1.2030802005647935e-05   -1.8465020008050833e-06   -5.1230352866027504e-05
-4.405374650842111e-06   3.445960788496863e-07   -3.7206648426891956e-05
-4.405374650842111e-06   3.445960788496863e-07   -3.7206648426891956e-05
-4.405374650842111e-06   3.445960788496863e-07   -3.7206648426891956e-05
-4.405374650842111e-06   3.445960788496863e-07   -3.7206648426891956e-05
-4.011752279902298e-06   -1.8618060163987267e-07   -4.958572249873824e-05
-4.011752279902298e-06   -1.8618060163987267e-07   -4.958572249873824e-05
-4.011752279902298e-06   -1.8618060163987267e-07   -4.958572249873824e-05
-4.011752279902298e-06   -1.8618060163987267e-07   -4.958572249873824e-05
-1.1766874258968588e-05   1.9087132883829037e-06   -3.79174555343079e-05
-1.1766874258968588e-05   1.9087132883829037e-06   -3.79174555343079e-05
-1.1766874258968588e-05   1.9087132883829037e-06   -3.79174555343079e-05
-1.1766874258968588e-05   1.9087132883829037e-06   -3.79174555343079e-05
-7.972466695016333e-06   2.18599427743299e-07   -4.322739982451185e-05
-7.972466695016333e-06   2.18599427743299e-07   -4.322739982451185e-05
-7.972466695016333e-06   2.18599427743299e-07   -4.322739982451185e-05
-7.972466695016333e-06   2.18599427743299e-07   -4.322739982451185e-05
-1.1766874258968566e-05   -1.861806016400895e-07   -5.084265883275197e-05
-1.1766874258968566e-05   -1.861806016400895e-07   -5.084265883275197e-05
-1.1766874258968566e-05   -1.861806016400895e-07   -5.084265883275197e-05
-1.1766874258968566e-05   -1.861806016400895e-07   -5.084265883275197e-05
-4.011752279902325e-06   1.9087132883829037e-06   -3.66605192002944e-05
-4.011752279902325e-06   1.9087132883829037e-06   -3.66605192002944e-05
-4.011752279902325e-06   1.9087132883829037e-06   -3.66605192002944e-05
-4.011752279902325e-06   1.9087132883829037e-06   -3.66605192002944e-05
-3.4285070503351043e-06   1.4116213904085198e-06   -5.0255259221548766e-05
-3.4285070503351043e-06   1.4116213904085198e-06   -5.0255259221548766e-05
-3.4285070503351043e-06   1.4116213904085198e-06   -5.0255259221548766e-05
-3.4285070503351043e-06   1.4116213904085198e-06   -5.0255259221548766e-05
-1.1470237855416778e-05   3.3830788754396317e-06   -3.803524903743103e-05
-1.1470237855416778e-05   3.3830788754396317e-06   -3.803524903743103e-05
-1.1470237855416778e-05   3.3830788754396317e-06   -3.803524903743103e-05
-1.1470237855416778e-05   3.3830788754396317e-06   -3.803524903743103e-05
-7.734122545794568e-06   1.4811975457833422e-06   -4.312097908900785e-05
-7.734122545794568e-06   1.4811975457833422e-06   -4.312097908900785e-05
-7.734122545794568e-06   1.4811975457833422e-06   -4.312097908900785e-05
-7.734122545794568e-06   1.4811975457833422e-06   -4.312097908900785e-05
-1.1470237855416748e-05   1.4116213904085198e-06   -5.143813371256717e-05
-1.1470237855416748e-05   1.4116213904085198e-06   -5.143813371256717e-05
-1.1470237855416748e-05   1.4116213904085198e-06   -5.143813371256717e-05
-1.1470237855416748e-05   1.4116213904085198e-06   -5.143813371256717e-05
-3.4285070503351043e-06   3.3830788754396317e-06   -3.685237454641242e-05
-3.4285070503351043e-06   3.3830788754396317e-06   -3.685237454641242e-05
-3.4285070503351043e-06   3.3830788754396317e-06   -3.685237454641242e-05
-3.4285070503351043e-06   3.3830788754396317e-06   -3.685237454641242e-05
-3.0210872565549786e-06   3.243501946065437e-06   -5.1660949531539256e-05
-3.0210872565549786e-06   3.243501946065437e-06   -5.1660949531539256e-05
-3.0210872565549786e-06   3.243501946065437e-06   -5.1660949531539256e-05
-3.0210872565549786e-06   3.243501946065437e-06   -5.1660949531539256e-05
-1.1203645585539557e-05   5.050729402705486e-06   -3.910768879054907e-05
-1.1203645585539557e-05   5.050729402705486e-06   -3.910768879054907e-05
-1.1203645585539557e-05   5.050729402705486e-06   -3.910768879054907e-05
-1.1203645585539557e-05   5.050729402705486e-06   -3.910768879054907e-05
-7.484407344420925e-06   2.8050617869681584e-06   -4.395901862297098e-05
-7.484407344420925e-06   2.8050617869681584e-06   -4.395901862297098e-05
-7.484407344420925e-06   2.8050617869681584e-06   -4.395901862297098e-05
-7.484407344420925e-06   2.8050617869681584e-06   -4.395901862297098e-05
-4.405374650842057e-06   -3.396252450658813e-06   -2.780900644965467e-05
-4.405374650842057e-06   -3.396252450658813e-06   -2.780900644965467e-05
-4.405374650842057e-06   -3.396252450658813e-06   -2.780900644965467e-05
-4.405374650842057e-06   -3.396252450658813e-06   -2.780900644965467e-05
1.2499421414105018e-06   4.737066012913335e-07   -1.606150303139686e-05
1.2499421414105018e-06   4.737066012913335e-07   -1.606150303139686e-05
1.2499421414105018e-06   4.737066012913335e-07   -1.606150303139686e-05
1.2499421414105018e-06   4.737066012913335e-07   -1.606150303139686e-05
3.319294193403796e-06   -2.272400749569808e-06   -2.6569217134307112e-05
3.319294193403796e-06   -2.272400749569808e-06   -2.6569217134307112e-05
3.319294193403796e-06   -2.272400749569808e-06   -2.6569217134307112e-05
3.319294193403796e-06   -2.272400749569808e-06   -2.6569217134307112e-05
-4.011752279902298e-06   1.7094373890580439e-06   -1.6739909228639878e-05
-4.011752279902298e-06   1.7094373890580439e-06   -1.6739909228639878e-05
-4.011752279902298e-06   1.7094373890580439e-06   -1.6739909228639878e-05
-4.011752279902298e-06   1.7094373890580439e-06   -1.6739909228639878e-05
-9.380153071581393e-07   -7.040158416619924e-07   -2.0414732244782236e-05
-9.380153071581393e-07   -7.040158416619924e-07   -2.0414732244782236e-05
-9.380153071581393e-07   -7.040158416619924e-07   -2.0414732244782236e-05
-9.380153071581393e-07   -7.040158416619924e-07   -2.0414732244782236e-05
-4.011752279902298e-06   -2.272400749569808e-06   -2.8958320017483585e-05
-4.011752279902298e-06   -2.272400749569808e-06   -2.8958320017483585e-05
-4.011752279902298e-06   -2.272400749569808e-06   -2.8958320017483585e-05
-4.011752279902298e-06   -2.272400749569808e-06   -2.8958320017483585e-05
3.319294193403796e-06   1.7094373890580439e-06   -1.4350806345463487e-05
3.319294193403796e-06   1.7094373890580439e-06   -1.4350806345463487e-05
3.319294193403796e-06   1.7094373890580439e-06   -1.4350806345463487e-05
3.319294193403796e-06   1.7094373890580439e-06   -1.4350806345463487e-05
4.953071742051622e-06   -1.4958877432014444e-06   -2.8022270469515e-05
4.953071742051622e-06   -1.4958877432014444e-06   -2.8022270469515e-05
4.953071742051622e-06   -1.4958877432014444e-06   -2.8022270469515e-05
4.953071742051622e-06   -1.4958877432014444e-06   -2.8022270469515e-05
-3.4285070503351043e-06   2.4046920617843033e-06   -1.6393320365195137e-05
-3.4285070503351043e-06   2.4046920617843033e-06   -1.6393320365195137e-05
-3.4285070503351043e-06   2.4046920617843033e-06   -1.6393320365195137e-05
-3.4285070503351043e-06   2.4046920617843033e-06   -1.6393320365195137e-05
1.1379935626817939e-07   -1.1282413750523038e-07   -2.0786654656626774e-05
1.1379935626817939e-07   -1.1282413750523038e-07   -2.0786654656626774e-05
1.1379935626817939e-07   -1.1282413750523038e-07   -2.0786654656626774e-05
1.1379935626817939e-07   -1.1282413750523038e-07   -2.0786654656626774e-05
-3.4285070503351043e-06   -1.4958877432014444e-06   -3.0362618352506492e-05
-3.4285070503351043e-06   -1.4958877432014444e-06   -3.0362618352506492e-05
-3.4285070503351043e-06   -1.4958877432014444e-06   -3.0362618352506492e-05
-3.4285070503351043e-06   -1.4958877432014444e-06   -3.0362618352506492e-05
4.953071742051622e-06   2.4046920617843033e-06   -1.405297248220378e-05
4.953071742051622e-06   2.4046920617843033e-06   -1.405297248220378e-05
4.953071742051622e-06   2.4046920617843033e-06   -1.405297248220378e-05
4.953071742051622e-06   2.4046920617843033e-06   -1.405297248220378e-05
7.013489632087691e-06   3.183682809417866e-08   -3.1396962480596574e-05
7.013489632087691e-06   3.183682809417866e-08   -3.1396962480596574e-05
7.013489632087691e-06   3.183682809417866e-08   -3.1396962480596574e-05
7.013489632087691e-06   3.183682809417866e-08   -3.1396962480596574e-05
-3.0210872565549786e-06   3.6389553243567664e-06   -1.6836938763949253e-05
-3.0210872565549786e-06   3.6389553243567664e-06   -1.6836938763949253e-05
-3.0210872565549786e-06   3.6389553243567664e-06   -1.6836938763949253e-05
-3.0210872565549786e-06   3.6389553243567664e-06   -1.6836938763949253e-05
1.0158690276842216e-06   5.633051667933934e-07   -2.1719809143143723e-05
1.0158690276842216e-06   5.633051667933934e-07   -2.1719809143143723e-05
1.0158690276842216e-06   5.633051667933934e-07   -2.1719809143143723e-05
1.0158690276842216e-06   5.633051667933934e-07   -2.1719809143143723e-05
-1.3235010356462383e-05   2.488161980783313e-06   -2.3679142363893326e-05
-1.3235010356462383e-05   2.488161980783313e-06   -2.3679142363893326e-05
-1.3235010356462383e-05   2.488161980783313e-06   -2.3679142363893326e-05
-1.3235010356462383e-05   2.488161980783313e-06   -2.3679142363893326e-05
-1.3378684223413746e-05   -1.1520200140723545e-06   -2.6102708005725514e-05
-1.3378684223413746e-05   -1.1520200140723545e-06   -2.6102708005725514e-05
-1.3378684223413746e-05   -1.1520200140723545e-06   -2.6102708005725514e-05
-1.3378684223413746e-05   -1.1520200140723545e-06   -2.6102708005725514e-05
-1.2706575992588447e-05   3.871870305118029e-06   -2.224743774963925e-05
-1.2706575992588447e-05   3.871870305118029e-06   -2.224743774963925e-05
-1.2706575992588447e-05   3.871870305118029e-06   -2.224743774963925e-05
-1.2706575992588447e-05   3.871870305118029e-06   -2.224743774963925e-05
-1.092892311610927e-05   -3.198137562112138e-08   -2.2867881535327357e-05
-1.092892311610927e-05   -3.198137562112138e-08   -2.2867881535327357e-05
-1.092892311610927e-05   -3.198137562112138e-08   -2.2867881535327357e-05
-1.092892311610927e-05   -3.198137562112138e-08   -2.2867881535327357e-05
-1.2013067523682102e-05   1.712754291374437e-06   -2.210781558957119e-05
-1.2013067523682102e-05   1.712754291374437e-06   -2.210781558957119e-05
-1.2013067523682102e-05   1.712754291374437e-06   -2.210781558957119e-05
-1.2013067523682102e-05   1.712754291374437e-06   -2.210781558957119e-05
-1.0928923116109324e-05   3.871870305118029e-06   -1.9905126741195846e-05
-1.0928923116109324e-05   3.871870305118029e-06   -1.9905126741195846e-05
-1.0928923116109324e-05   3.871870305118029e-06   -1.9905126741195846e-05
-1.0928923116109324e-05   3.871870305118029e-06   -1.9905126741195846e-05
-1.2706575992588501e-05   -3.198137562112138e-08   -2.5210192543771248e-05
-1.2706575992588501e-05   -3.198137562112138e-08   -2.5210192543771248e-05
-1.2706575992588501e-05   -3.198137562112138e-08   -2.5210192543771248e-05
-1.2706575992588501e-05   -3.198137562112138e-08   -2.5210192543771248e-05
-1.185916311481752e-05   4.570411407720789e-06   -2.0646099355295074e-05
-1.185916311481752e-05   4.570411407720789e-06   -2.0646099355295074e-05
-1.185916311481752e-05   4.570411407720789e-06   -2.0646099355295074e-05
-1.185916311481752e-05   4.570411407720789e-06   -2.0646099355295074e-05
-9.020752569114277e-06   6.009429889645979e-07   -2.2995102546880214e-05
-9.020752569114277e-06   6.009429889645979e-07   -2.2995102546880214e-05
-9.020752569114277e-06   6.009429889645979e-07   -2.2995102546880214e-05
-9.020752569114277e-06   6.009429889645979e-07   -2.2995102546880214e-05
-1.0920196702010512e-05   2.2874236406333296e-06   -2.0841250716388256e-05
-1.0920196702010512e-05   2.2874236406333296e-06   -2.0841250716388256e-05
-1.0920196702010512e-05   2.2874236406333296e-06   -2.0841250716388256e-05
-1.0920196702010512e-05   2.2874236406333296e-06   -2.0841250716388256e-05
-9.020752569114223e-06   4.570411407720789e-06   -1.8264418304041294e-05
-9.020752569114223e-06   4.570411407720789e-06   -1.8264418304041294e-05
-9.020752569114223e-06   4.570411407720789e-06   -1.8264418304041294e-05
-9.020752569114223e-06   4.570411407720789e-06   -1.8264418304041294e-05
-1.1859163114817575e-05   6.009429889650315e-07   -2.537678359813356e-05
-1.1859163114817575e-05   6.009429889650315e-07   -2.537678359813356e-05
-1.1859163114817575e-05   6.009429889650315e-07   -2.537678359813356e-05
-1.1859163114817575e-05   6.009429889650315e-07   -2.537678359813356e-05
-1.1197254063295041e-05   5.676648080339859e-06   -1.915578816062821e-05
-1.1197254063295041e-05   5.676648080339859e-06   -1.915578816062821e-05
-1.1197254063295041e-05   5.676648080339859e-06   -1.915578816062821e-05
-1.1197254063295041e-05   5.676648080339859e-06   -1.915578816062821e-05
-6.664776350543073e-06   1.8635002491267962e-06   -2.4422028983153406e-05
-6.664776350543073e-06   1.8635002491267962e-06   -2.4422028983153406e-05
-6.664776350543073e-06   1.8635002491267962e-06   -2.4422028983153406e-05
-6.664776350543073e-06   1.8635002491267962e-06   -2.4422028983153406e-05
-9.553372003903655e-06   2.837301218260946e-06   -2.0191983475699666e-05
-9.553372003903655e-06   2.837301218260946e-06   -2.0191983475699666e-05
-9.553372003903655e-06   2.837301218260946e-06   -2.0191983475699666e-05
-9.553372003903655e-06   2.837301218260946e-06   -2.0191983475699666e-05
-1.3378684223413746e-05   1.4253781903759283e-06   -4.30099185791626e-05
-1.3378684223413746e-05   1.4253781903759283e-06   -4.30099185791626e-05
-1.3378684223413746e-05   1.4253781903759283e-06   -4.30099185791626e-05
-1.3378684223413746e-05   1.4253781903759283e-06   -4.30099185791626e-05
-1.538846472919791e-05   -2.517332439205995e-07   -4.73658196160474e-05
-1.538846472919791e-05   -2.517332439205995e-07   -4.73658196160474e-05
-1.538846472919791e-05   -2.517332439205995e-07   -4.73658196160474e-05
-1.538846472919791e-05   -2.517332439205995e-07   -4.73658196160474e-05
-1.4844667752778902e-05   3.011699225469221e-06   -4.304312361994608e-05
-1.4844667752778902e-05   3.011699225469221e-06   -4.304312361994608e-05
-1.4844667752778902e-05   3.011699225469221e-06   -4.304312361994608e-05
-1.4844667752778902e-05   3.011699225469221e-06   -4.304312361994608e-05
-1.2706575992588501e-05   1.1610373535546684e-06   -4.549621276378105e-05
-1.2706575992588501e-05   1.1610373535546684e-06   -4.549621276378105e-05
-1.2706575992588501e-05   1.1610373535546684e-06   -4.549621276378105e-05
-1.2706575992588501e-05   1.1610373535546684e-06   -4.549621276378105e-05
-1.3915536855893594e-05   1.6460369178170065e-06   -4.3772277730164144e-05
-1.3915536855893594e-05   1.6460369178170065e-06   -4.3772277730164144e-05
-1.3915536855893594e-05   1.6460369178170065e-06   -4.3772277730164144e-05
-1.3915536855893594e-05   1.6460369178170065e-06   -4.3772277730164144e-05
-1.2706575992588447e-05   3.011699225469004e-06   -4.1932726496796916e-05
-1.2706575992588447e-05   3.011699225469004e-06   -4.1932726496796916e-05
-1.2706575992588447e-05   3.011699225469004e-06   -4.1932726496796916e-05
-1.2706575992588447e-05   3.011699225469004e-06   -4.1932726496796916e-05
-1.4844667752778875e-05   1.161037353555102e-06   -4.660660988692995e-05
-1.4844667752778875e-05   1.161037353555102e-06   -4.660660988692995e-05
-1.4844667752778875e-05   1.161037353555102e-06   -4.660660988692995e-05
-1.4844667752778875e-05   1.161037353555102e-06   -4.660660988692995e-05
-1.4279160201996868e-05   4.486243127635372e-06   -4.2682435547685424e-05
-1.4279160201996868e-05   4.486243127635372e-06   -4.2682435547685424e-05
-1.4279160201996868e-05   4.486243127635372e-06   -4.2682435547685424e-05
-1.4279160201996868e-05   4.486243127635372e-06   -4.2682435547685424e-05
-1.1859163114817575e-05   2.5207802812165885e-06   -4.5536486318465904e-05
-1.1859163114817575e-05   2.5207802812165885e-06   -4.5536486318465904e-05
-1.1859163114817575e-05   2.5207802812165885e-06   -4.5536486318465904e-05
-1.1859163114817575e-05   2.5207802812165885e-06   -4.5536486318465904e-05
-1.3370552605053963e-05   2.7844483779261835e-06   -4.317570469276476e-05
-1.3370552605053963e-05   2.7844483779261835e-06   -4.317570469276476e-05
-1.3370552605053963e-05   2.7844483779261835e-06   -4.317570469276476e-05
-1.3370552605053963e-05   2.7844483779261835e-06   -4.317570469276476e-05
-1.185916311481752e-05   4.486243127635155e-06   -4.1503157839833894e-05
-1.185916311481752e-05   4.486243127635155e-06   -4.1503157839833894e-05
-1.185916311481752e-05   4.486243127635155e-06   -4.1503157839833894e-05
-1.185916311481752e-05   4.486243127635155e-06   -4.1503157839833894e-05
-1.4279160201996813e-05   2.5207802812165885e-06   -4.6715764026317164e-05
-1.4279160201996813e-05   2.5207802812165885e-06   -4.6715764026317164e-05
-1.4279160201996813e-05   2.5207802812165885e-06   -4.6715764026317164e-05
-1.4279160201996813e-05   2.5207802812165885e-06   -4.6715764026317164e-05
-1.3746293371415431e-05   6.124239651346874e-06   -4.338913249403594e-05
-1.3746293371415431e-05   6.124239651346874e-06   -4.338913249403594e-05
-1.3746293371415431e-05   6.124239651346874e-06   -4.338913249403594e-05
-1.3746293371415431e-05   6.124239651346874e-06   -4.338913249403594e-05
-1.1197254063295096e-05   4.073008001580572e-06   -4.640679235104315e-05
-1.1197254063295096e-05   4.073008001580572e-06   -4.640679235104315e-05
-1.1197254063295096e-05   4.073008001580572e-06   -4.640679235104315e-05
-1.1197254063295096e-05   4.073008001580572e-06   -4.640679235104315e-05
-1.2890760988518206e-05   3.978131248216473e-06   -4.352735475698623e-05
-1.2890760988518206e-05   3.978131248216473e-06   -4.352735475698623e-05
-1.2890760988518206e-05   3.978131248216473e-06   -4.352735475698623e-05
-1.2890760988518206e-05   3.978131248216473e-06   -4.352735475698623e-05
-1.5388464729197855e-05   8.148465261282982e-07   -5.0081140797986006e-05
-1.5388464729197855e-05   8.148465261282982e-07   -5.0081140797986006e-05
-1.5388464729197855e-05   8.148465261282982e-07   -5.0081140797986006e-05
-1.5388464729197855e-05   8.148465261282982e-07   -5.0081140797986006e-05
-1.7508384339841022e-05   1.1685615000059553e-06   -5.340211116473131e-05
-1.7508384339841022e-05   1.1685615000059553e-06   -5.340211116473131e-05
-1.7508384339841022e-05   1.1685615000059553e-06   -5.340211116473131e-05
-1.7508384339841022e-05   1.1685615000059553e-06   -5.340211116473131e-05
-1.697378566166031e-05   2.429998489663753e-06   -4.931070171600269e-05
-1.697378566166031e-05   2.429998489663753e-06   -4.931070171600269e-05
-1.697378566166031e-05   2.429998489663753e-06   -4.931070171600269e-05
-1.697378566166031e-05   2.429998489663753e-06   -4.931070171600269e-05
-1.4844667752778902e-05   2.628209064290364e-06   -5.297815790891448e-05
-1.4844667752778902e-05   2.628209064290364e-06   -5.297815790891448e-05
-1.4844667752778902e-05   2.628209064290364e-06   -5.297815790891448e-05
-1.4844667752778902e-05   2.628209064290364e-06   -5.297815790891448e-05
-1.608145078800258e-05   1.9875817222521353e-06   -5.0532476444985945e-05
-1.608145078800258e-05   1.9875817222521353e-06   -5.0532476444985945e-05
-1.608145078800258e-05   1.9875817222521353e-06   -5.0532476444985945e-05
-1.608145078800258e-05   1.9875817222521353e-06   -5.0532476444985945e-05
-1.4844667752778848e-05   2.429998489663753e-06   -4.9429628060778654e-05
-1.4844667752778848e-05   2.429998489663753e-06   -4.9429628060778654e-05
-1.4844667752778848e-05   2.429998489663753e-06   -4.9429628060778654e-05
-1.4844667752778848e-05   2.429998489663753e-06   -4.9429628060778654e-05
-1.6973785661660338e-05   2.628209064290364e-06   -5.285923156413846e-05
-1.6973785661660338e-05   2.628209064290364e-06   -5.285923156413846e-05
-1.6973785661660338e-05   2.628209064290364e-06   -5.285923156413846e-05
-1.6973785661660338e-05   2.628209064290364e-06   -5.285923156413846e-05
-1.6411771431710235e-05   4.059324879439807e-06   -4.9454287790431884e-05
-1.6411771431710235e-05   4.059324879439807e-06   -4.9454287790431884e-05
-1.6411771431710235e-05   4.059324879439807e-06   -4.9454287790431884e-05
-1.6411771431710235e-05   4.059324879439807e-06   -4.9454287790431884e-05
-1.4279160201996868e-05   4.120034307543603e-06   -5.304506549681624e-05
-1.4279160201996868e-05   4.120034307543603e-06   -5.304506549681624e-05
-1.4279160201996868e-05   4.120034307543603e-06   -5.304506549681624e-05
-1.4279160201996868e-05   4.120034307543603e-06   -5.304506549681624e-05
-1.5632436137638695e-05   3.2358245359348416e-06   -5.025907974111541e-05
-1.5632436137638695e-05   3.2358245359348416e-06   -5.025907974111541e-05
-1.5632436137638695e-05   3.2358245359348416e-06   -5.025907974111541e-05
-1.5632436137638695e-05   3.2358245359348416e-06   -5.025907974111541e-05
-1.4279160201996813e-05   4.059324879439807e-06   -4.949071344729399e-05
-1.4279160201996813e-05   4.059324879439807e-06   -4.949071344729399e-05
-1.4279160201996813e-05   4.059324879439807e-06   -4.949071344729399e-05
-1.4279160201996813e-05   4.059324879439807e-06   -4.949071344729399e-05
-1.6411771431710235e-05   4.120034307543603e-06   -5.300863983995392e-05
-1.6411771431710235e-05   4.120034307543603e-06   -5.300863983995392e-05
-1.6411771431710235e-05   4.120034307543603e-06   -5.300863983995392e-05
-1.6411771431710235e-05   4.120034307543603e-06   -5.300863983995392e-05
-1.5881647179489225e-05   5.713211464341119e-06   -5.0414149754101625e-05
-1.5881647179489225e-05   5.713211464341119e-06   -5.0414149754101625e-05
-1.5881647179489225e-05   5.713211464341119e-06   -5.0414149754101625e-05
-1.5881647179489225e-05   5.713211464341119e-06   -5.0414149754101625e-05
-1.3746293371415431e-05   5.632462037658773e-06   -5.3924623111548207e-05
-1.3746293371415431e-05   5.632462037658773e-06   -5.3924623111548207e-05
-1.3746293371415431e-05   5.632462037658773e-06   -5.3924623111548207e-05
-1.3746293371415431e-05   5.632462037658773e-06   -5.3924623111548207e-05
-1.5218923347478899e-05   4.5015147404842484e-06   -5.0791671439804346e-05
-1.5218923347478899e-05   4.5015147404842484e-06   -5.0791671439804346e-05
-1.5218923347478899e-05   4.5015147404842484e-06   -5.0791671439804346e-05
-1.5218923347478899e-05   4.5015147404842484e-06   -5.0791671439804346e-05
-1.7508384339840965e-05   3.4459607884946945e-07   -4.3209652992474e-05
-1.7508384339840965e-05   3.4459607884946945e-07   -4.3209652992474e-05
-1.7508384339840965e-05   3.4459607884946945e-07   -4.3209652992474e-05
-1.7508384339840965e-05   3.4459607884946945e-07   -4.3209652992474e-05
-1.9744375054017214e-05   2.5984842646439334e-06   -4.558397127129134e-05
-1.9744375054017214e-05   2.5984842646439334e-06   -4.558397127129134e-05
-1.9744375054017214e-05   2.5984842646439334e-06   -4.558397127129134e-05
-1.9744375054017214e-05   2.5984842646439334e-06   -4.558397127129134e-05
-1.9098033958478742e-05   1.9087132883831206e-06   -4.13124041533815e-05
-1.9098033958478742e-05   1.9087132883831206e-06   -4.13124041533815e-05
-1.9098033958478742e-05   1.9087132883831206e-06   -4.13124041533815e-05
-1.9098033958478742e-05   1.9087132883831206e-06   -4.13124041533815e-05
-1.697378566166031e-05   4.06275923265113e-06   -4.614524554797305e-05
-1.697378566166031e-05   4.06275923265113e-06   -4.614524554797305e-05
-1.697378566166031e-05   4.06275923265113e-06   -4.614524554797305e-05
-1.697378566166031e-05   4.06275923265113e-06   -4.614524554797305e-05
-1.8189551389270893e-05   2.391979383167906e-06   -4.311650142559908e-05
-1.8189551389270893e-05   2.391979383167906e-06   -4.311650142559908e-05
-1.8189551389270893e-05   2.391979383167906e-06   -4.311650142559908e-05
-1.8189551389270893e-05   2.391979383167906e-06   -4.311650142559908e-05
-1.697378566166028e-05   1.9087132883831206e-06   -4.260483171994239e-05
-1.697378566166028e-05   1.9087132883831206e-06   -4.260483171994239e-05
-1.697378566166028e-05   1.9087132883831206e-06   -4.260483171994239e-05
-1.697378566166028e-05   1.9087132883831206e-06   -4.260483171994239e-05
-1.9098033958478742e-05   4.062759232651564e-06   -4.485281798141216e-05
-1.9098033958478742e-05   4.062759232651564e-06   -4.485281798141216e-05
-1.9098033958478742e-05   4.062759232651564e-06   -4.485281798141216e-05
-1.9098033958478742e-05   4.062759232651564e-06   -4.485281798141216e-05
-1.8263934843965217e-05   3.3830788754396317e-06   -4.1492936463354306e-05
-1.8263934843965217e-05   3.3830788754396317e-06   -4.1492936463354306e-05
-1.8263934843965217e-05   3.3830788754396317e-06   -4.1492936463354306e-05
-1.8263934843965217e-05   3.3830788754396317e-06   -4.1492936463354306e-05
-1.6411771431710208e-05   5.413941831250695e-06   -4.579839325726586e-05
-1.6411771431710208e-05   5.413941831250695e-06   -4.579839325726586e-05
-1.6411771431710208e-05   5.413941831250695e-06   -4.579839325726586e-05
-1.6411771431710208e-05   5.413941831250695e-06   -4.579839325726586e-05
-1.761198773094779e-05   3.553385123886881e-06   -4.2681698734118844e-05
-1.761198773094779e-05   3.553385123886881e-06   -4.2681698734118844e-05
-1.761198773094779e-05   3.553385123886881e-06   -4.2681698734118844e-05
-1.761198773094779e-05   3.553385123886881e-06   -4.2681698734118844e-05
-1.6411771431710167e-05   3.3830788754396317e-06   -4.271145423684092e-05
-1.6411771431710167e-05   3.3830788754396317e-06   -4.271145423684092e-05
-1.6411771431710167e-05   3.3830788754396317e-06   -4.271145423684092e-05
-1.6411771431710167e-05   3.3830788754396317e-06   -4.271145423684092e-05
-1.8263934843965244e-05   5.413941831250695e-06   -4.457987548377954e-05
-1.8263934843965244e-05   5.413941831250695e-06   -4.457987548377954e-05
-1.8263934843965244e-05   5.413941831250695e-06   -4.457987548377954e-05
-1.8263934843965244e-05   5.413941831250695e-06   -4.457987548377954e-05
-1.7608375180881423e-05   5.050729402705486e-06   -4.264385809453757e-05
-1.7608375180881423e-05   5.050729402705486e-06   -4.264385809453757e-05
-1.7608375180881423e-05   5.050729402705486e-06   -4.264385809453757e-05
-1.7608375180881423e-05   5.050729402705486e-06   -4.264385809453757e-05
-1.5881647179489225e-05   6.928778300148517e-06   -4.6648567435323356e-05
-1.5881647179489225e-05   6.928778300148517e-06   -4.6648567435323356e-05
-1.5881647179489225e-05   6.928778300148517e-06   -4.6648567435323356e-05
-1.5881647179489225e-05   6.928778300148517e-06   -4.6648567435323356e-05
-1.7178404332779413e-05   4.74082044233542e-06   -4.317453079848476e-05
-1.7178404332779413e-05   4.74082044233542e-06   -4.317453079848476e-05
-1.7178404332779413e-05   4.74082044233542e-06   -4.317453079848476e-05
-1.7178404332779413e-05   4.74082044233542e-06   -4.317453079848476e-05
-1.974437505401716e-05   4.737066012913335e-07   -2.303415011667301e-05
-1.974437505401716e-05   4.737066012913335e-07   -2.303415011667301e-05
-1.974437505401716e-05   4.737066012913335e-07   -2.303415011667301e-05
-1.974437505401716e-05   4.737066012913335e-07   -2.303415011667301e-05
-2.3890645936424943e-05   4.364322075417742e-06   -2.761023230287655e-05
-2.3890645936424943e-05   4.364322075417742e-06   -2.761023230287655e-05
-2.3890645936424943e-05   4.364322075417742e-06   -2.761023230287655e-05
-2.3890645936424943e-05   4.364322075417742e-06   -2.761023230287655e-05
-2.1602535079861998e-05   1.7094373890580439e-06   -1.9002664434300824e-05
-2.1602535079861998e-05   1.7094373890580439e-06   -1.9002664434300824e-05
-2.1602535079861998e-05   1.7094373890580439e-06   -1.9002664434300824e-05
-2.1602535079861998e-05   1.7094373890580439e-06   -1.9002664434300824e-05
-1.9098033958478742e-05   5.6913203014359245e-06   -2.556596271736602e-05
-1.9098033958478742e-05   5.6913203014359245e-06   -2.556596271736602e-05
-1.9098033958478742e-05   5.6913203014359245e-06   -2.556596271736602e-05
-1.9098033958478742e-05   5.6913203014359245e-06   -2.556596271736602e-05
-2.02305653048518e-05   3.220894058017683e-06   -2.2196154727360524e-05
-2.02305653048518e-05   3.220894058017683e-06   -2.2196154727360524e-05
-2.02305653048518e-05   3.220894058017683e-06   -2.2196154727360524e-05
-2.02305653048518e-05   3.220894058017683e-06   -2.2196154727360524e-05
-1.9098033958478688e-05   1.7094373890580439e-06   -2.139179418172727e-05
-1.9098033958478688e-05   1.7094373890580439e-06   -2.139179418172727e-05
-1.9098033958478688e-05   1.7094373890580439e-06   -2.139179418172727e-05
-1.9098033958478688e-05   1.7094373890580439e-06   -2.139179418172727e-05
-2.1602535079861998e-05   5.691320301435491e-06   -2.317683296993952e-05
-2.1602535079861998e-05   5.691320301435491e-06   -2.317683296993952e-05
-2.1602535079861998e-05   5.691320301435491e-06   -2.317683296993952e-05
-2.1602535079861998e-05   5.691320301435491e-06   -2.317683296993952e-05
-1.9741476184967203e-05   2.4046920617843033e-06   -1.869732121739906e-05
-1.9741476184967203e-05   2.4046920617843033e-06   -1.869732121739906e-05
-1.9741476184967203e-05   2.4046920617843033e-06   -1.869732121739906e-05
-1.9741476184967203e-05   2.4046920617843033e-06   -1.869732121739906e-05
-1.8263934843965217e-05   6.2989605030144315e-06   -2.3496451183806834e-05
-1.8263934843965217e-05   6.2989605030144315e-06   -2.3496451183806834e-05
-1.8263934843965217e-05   6.2989605030144315e-06   -2.3496451183806834e-05
-1.8263934843965217e-05   6.2989605030144315e-06   -2.3496451183806834e-05
-1.925134928698914e-05   3.834665015877738e-06   -2.037218315315161e-05
-1.925134928698914e-05   3.834665015877738e-06   -2.037218315315161e-05
-1.925134928698914e-05   3.834665015877738e-06   -2.037218315315161e-05
-1.925134928698914e-05   3.834665015877738e-06   -2.037218315315161e-05
-1.8263934843965176e-05   2.4046920617843033e-06   -2.1033882282137052e-05
-1.8263934843965176e-05   2.4046920617843033e-06   -2.1033882282137052e-05
-1.8263934843965176e-05   2.4046920617843033e-06   -2.1033882282137052e-05
-1.8263934843965176e-05   2.4046920617843033e-06   -2.1033882282137052e-05
-1.9741476184967203e-05   6.298960503014865e-06   -2.1159890119068926e-05
-1.9741476184967203e-05   6.298960503014865e-06   -2.1159890119068926e-05
-1.9741476184967203e-05   6.298960503014865e-06   -2.1159890119068926e-05
-1.9741476184967203e-05   6.298960503014865e-06   -2.1159890119068926e-05
-1.7466564797059434e-05   3.6389553243567664e-06   -1.9295667392599095e-05
-1.7466564797059434e-05   3.6389553243567664e-06   -1.9295667392599095e-05
-1.7466564797059434e-05   3.6389553243567664e-06   -1.9295667392599095e-05
-1.7466564797059434e-05   3.6389553243567664e-06   -1.9295667392599095e-05
-1.7608375180881423e-05   7.241917239894993e-06   -2.1221093902218526e-05
-1.7608375180881423e-05   7.241917239894993e-06   -2.1221093902218526e-05
-1.7608375180881423e-05   7.241917239894993e-06   -2.1221093902218526e-05
-1.7608375180881423e-05   7.241917239894993e-06   -2.1221093902218526e-05
-1.7815373035576426e-05   4.331789476196869e-06   -1.9130020819508133e-05
-1.7815373035576426e-05   4.331789476196869e-06   -1.9130020819508133e-05
-1.7815373035576426e-05   4.331789476196869e-06   -1.9130020819508133e-05
-1.7815373035576426e-05   4.331789476196869e-06   -1.9130020819508133e-05
1.1637786695080604e-05   -1.1520200140719208e-06   -1.2021123698255495e-05
1.1637786695080604e-05   -1.1520200140719208e-06   -1.2021123698255495e-05
1.1637786695080604e-05   -1.1520200140719208e-06   -1.2021123698255495e-05
1.1637786695080604e-05   -1.1520200140719208e-06   -1.2021123698255495e-05
1.1877765455333756e-06   -4.86023674868552e-06   -3.166273732160233e-05
1.1877765455333756e-06   -4.86023674868552e-06   -3.166273732160233e-05
1.1877765455333756e-06   -4.86023674868552e-06   -3.166273732160233e-05
1.1877765455333756e-06   -4.86023674868552e-06   -3.166273732160233e-05
2.109692683329291e-06   -3.198137562112138e-08   -1.3273318479971622e-05
2.109692683329291e-06   -3.198137562112138e-08   -1.3273318479971622e-05
2.109692683329291e-06   -3.198137562112138e-08   -1.3273318479971622e-05
2.109692683329291e-06   -3.198137562112138e-08   -1.3273318479971622e-05
1.4206736798715958e-05   -3.993225135989591e-06   -3.105831241606192e-05
1.4206736798715958e-05   -3.993225135989591e-06   -3.105831241606192e-05
1.4206736798715958e-05   -3.993225135989591e-06   -3.105831241606192e-05
1.4206736798715958e-05   -3.993225135989591e-06   -3.105831241606192e-05
7.014475835284326e-06   -2.026430085386166e-06   -2.025128784070439e-05
7.014475835284326e-06   -2.026430085386166e-06   -2.025128784070439e-05
7.014475835284326e-06   -2.026430085386166e-06   -2.025128784070439e-05
7.014475835284326e-06   -2.026430085386166e-06   -2.025128784070439e-05
1.4206736798716012e-05   -3.198137562112138e-08   -1.0896572223750628e-05
1.4206736798716012e-05   -3.198137562112138e-08   -1.0896572223750628e-05
1.4206736798716012e-05   -3.198137562112138e-08   -1.0896572223750628e-05
1.4206736798716012e-05   -3.198137562112138e-08   -1.0896572223750628e-05
2.109692683329291e-06   -3.993225135989591e-06   -3.343505867228302e-05
2.109692683329291e-06   -3.993225135989591e-06   -3.343505867228302e-05
2.109692683329291e-06   -3.993225135989591e-06   -3.343505867228302e-05
2.109692683329291e-06   -3.993225135989591e-06   -3.343505867228302e-05
3.19611729493089e-06   6.009429889645979e-07   -1.3372535922852096e-05
3.19611729493089e-06   6.009429889645979e-07   -1.3372535922852096e-05
3.19611729493089e-06   6.009429889645979e-07   -1.3372535922852096e-05
3.19611729493089e-06   6.009429889645979e-07   -1.3372535922852096e-05
1.6379368947026373e-05   -3.4159896221798783e-06   -3.293446244299111e-05
1.6379368947026373e-05   -3.4159896221798783e-06   -3.293446244299111e-05
1.6379368947026373e-05   -3.4159896221798783e-06   -3.293446244299111e-05
1.6379368947026373e-05   -3.4159896221798783e-06   -3.293446244299111e-05
8.644894625664274e-06   -1.621787772694127e-06   -2.112019301708009e-05
8.644894625664274e-06   -1.621787772694127e-06   -2.112019301708009e-05
8.644894625664274e-06   -1.621787772694127e-06   -2.112019301708009e-05
8.644894625664274e-06   -1.621787772694127e-06   -2.112019301708009e-05
1.6379368947026427e-05   6.009429889645979e-07   -1.0962376356165194e-05
1.6379368947026427e-05   6.009429889645979e-07   -1.0962376356165194e-05
1.6379368947026427e-05   6.009429889645979e-07   -1.0962376356165194e-05
1.6379368947026427e-05   6.009429889645979e-07   -1.0962376356165194e-05
3.196117294930836e-06   -3.4159896221798783e-06   -3.534462200967801e-05
3.196117294930836e-06   -3.4159896221798783e-06   -3.534462200967801e-05
3.196117294930836e-06   -3.4159896221798783e-06   -3.534462200967801e-05
3.196117294930836e-06   -3.4159896221798783e-06   -3.534462200967801e-05
4.091381277517058e-06   1.8635002491267962e-06   -1.4646302699294553e-05
4.091381277517058e-06   1.8635002491267962e-06   -1.4646302699294553e-05
4.091381277517058e-06   1.8635002491267962e-06   -1.4646302699294553e-05
4.091381277517058e-06   1.8635002491267962e-06   -1.4646302699294553e-05
1.898914239067311e-05   -1.960733227005223e-06   -3.7181364468875716e-05
1.898914239067311e-05   -1.960733227005223e-06   -3.7181364468875716e-05
1.898914239067311e-05   -1.960733227005223e-06   -3.7181364468875716e-05
1.898914239067311e-05   -1.960733227005223e-06   -3.7181364468875716e-05
9.943972841048356e-06   -1.0282662468311457e-06   -2.2665562074272814e-05
9.943972841048356e-06   -1.0282662468311457e-06   -2.2665562074272814e-05
9.943972841048356e-06   -1.0282662468311457e-06   -2.2665562074272814e-05
9.943972841048356e-06   -1.0282662468311457e-06   -2.2665562074272814e-05
1.1877765455333756e-06   -2.517332439205995e-07   -3.4502898488767385e-05
1.1877765455333756e-06   -2.517332439205995e-07   -3.4502898488767385e-05
1.1877765455333756e-06   -2.517332439205995e-07   -3.4502898488767385e-05
1.1877765455333756e-06   -2.517332439205995e-07   -3.4502898488767385e-05
-1.1021962676885638e-05   -1.9256970899819356e-06   -5.585684216710229e-05
-1.1021962676885638e-05   -1.9256970899819356e-06   -5.585684216710229e-05
-1.1021962676885638e-05   -1.9256970899819356e-06   -5.585684216710229e-05
-1.1021962676885638e-05   -1.9256970899819356e-06   -5.585684216710229e-05
-1.021259360732069e-05   1.161037353555102e-06   -3.469867714961947e-05
-1.021259360732069e-05   1.161037353555102e-06   -3.469867714961947e-05
-1.021259360732069e-05   1.161037353555102e-06   -3.469867714961947e-05
-1.021259360732069e-05   1.161037353555102e-06   -3.469867714961947e-05
2.109692683329291e-06   -7.378600625079779e-07   -5.409648251773156e-05
2.109692683329291e-06   -7.378600625079779e-07   -5.409648251773156e-05
2.109692683329291e-06   -7.378600625079779e-07   -5.409648251773156e-05
2.109692683329291e-06   -7.378600625079779e-07   -5.409648251773156e-05
-4.380425025894046e-06   -7.511767644713396e-08   -4.3677265100662446e-05
-4.380425025894046e-06   -7.511767644713396e-08   -4.3677265100662446e-05
-4.380425025894046e-06   -7.511767644713396e-08   -4.3677265100662446e-05
-4.380425025894046e-06   -7.511767644713396e-08   -4.3677265100662446e-05
2.1096926833292368e-06   1.1610373535546684e-06   -3.3559338699981536e-05
2.1096926833292368e-06   1.1610373535546684e-06   -3.3559338699981536e-05
2.1096926833292368e-06   1.1610373535546684e-06   -3.3559338699981536e-05
2.1096926833292368e-06   1.1610373535546684e-06   -3.3559338699981536e-05
-1.021259360732069e-05   -7.378600625079779e-07   -5.5235820967369765e-05
-1.021259360732069e-05   -7.378600625079779e-07   -5.5235820967369765e-05
-1.021259360732069e-05   -7.378600625079779e-07   -5.5235820967369765e-05
-1.021259360732069e-05   -7.378600625079779e-07   -5.5235820967369765e-05
-9.398637191793531e-06   2.5207802812161548e-06   -3.475063864242633e-05
-9.398637191793531e-06   2.5207802812161548e-06   -3.475063864242633e-05
-9.398637191793531e-06   2.5207802812161548e-06   -3.475063864242633e-05
-9.398637191793531e-06   2.5207802812161548e-06   -3.475063864242633e-05
3.19611729493089e-06   4.901136158121967e-07   -5.4523496121058196e-05
3.19611729493089e-06   4.901136158121967e-07   -5.4523496121058196e-05
3.19611729493089e-06   4.901136158121967e-07   -5.4523496121058196e-05
3.19611729493089e-06   4.901136158121967e-07   -5.4523496121058196e-05
-3.6631094254878447e-06   8.999287855020188e-07   -4.3337340688841025e-05
-3.6631094254878447e-06   8.999287855020188e-07   -4.3337340688841025e-05
-3.6631094254878447e-06   8.999287855020188e-07   -4.3337340688841025e-05
-3.6631094254878447e-06   8.999287855020188e-07   -4.3337340688841025e-05
3.19611729493089e-06   2.5207802812165885e-06   -3.353223864318439e-05
3.19611729493089e-06   2.5207802812165885e-06   -3.353223864318439e-05
3.19611729493089e-06   2.5207802812165885e-06   -3.353223864318439e-05
3.19611729493089e-06   2.5207802812165885e-06   -3.353223864318439e-05
-9.398637191793531e-06   4.901136158121967e-07   -5.574189612030079e-05
-9.398637191793531e-06   4.901136158121967e-07   -5.574189612030079e-05
-9.398637191793531e-06   4.901136158121967e-07   -5.574189612030079e-05
-9.398637191793531e-06   4.901136158121967e-07   -5.574189612030079e-05
-8.620680935661002e-06   4.073008001580572e-06   -3.562062887857648e-05
-8.620680935661002e-06   4.073008001580572e-06   -3.562062887857648e-05
-8.620680935661002e-06   4.073008001580572e-06   -3.562062887857648e-05
-8.620680935661002e-06   4.073008001580572e-06   -3.562062887857648e-05
4.0913812775170036e-06   1.943922151379906e-06   -5.552994772375328e-05
4.0913812775170036e-06   1.943922151379906e-06   -5.552994772375328e-05
4.0913812775170036e-06   1.943922151379906e-06   -5.552994772375328e-05
4.0913812775170036e-06   1.943922151379906e-06   -5.552994772375328e-05
-2.864835676237362e-06   1.980329655992992e-06   -4.3958097303598096e-05
-2.864835676237362e-06   1.980329655992992e-06   -4.3958097303598096e-05
-2.864835676237362e-06   1.980329655992992e-06   -4.3958097303598096e-05
-2.864835676237362e-06   1.980329655992992e-06   -4.3958097303598096e-05
-1.1021962676885665e-05   1.1685615000059553e-06   -4.175579732941482e-05
-1.1021962676885665e-05   1.1685615000059553e-06   -4.175579732941482e-05
-1.1021962676885665e-05   1.1685615000059553e-06   -4.175579732941482e-05
-1.1021962676885665e-05   1.1685615000059553e-06   -4.175579732941482e-05
-2.312694538330179e-05   1.4732575205640003e-06   -6.174795089444025e-05
-2.312694538330179e-05   1.4732575205640003e-06   -6.174795089444025e-05
-2.312694538330179e-05   1.4732575205640003e-06   -6.174795089444025e-05
-2.312694538330179e-05   1.4732575205640003e-06   -6.174795089444025e-05
-2.231167304409796e-05   2.628209064290364e-06   -4.1009473150499087e-05
-2.231167304409796e-05   2.628209064290364e-06   -4.1009473150499087e-05
-2.231167304409796e-05   2.628209064290364e-06   -4.1009473150499087e-05
-2.231167304409796e-05   2.628209064290364e-06   -4.1009473150499087e-05
-1.0212593607320718e-05   2.7294624327985767e-06   -6.123535756623284e-05
-1.0212593607320718e-05   2.7294624327985767e-06   -6.123535756623284e-05
-1.0212593607320718e-05   2.7294624327985767e-06   -6.123535756623284e-05
-1.0212593607320718e-05   2.7294624327985767e-06   -6.123535756623284e-05
-1.657174260218447e-05   2.256224158168549e-06   -5.035283294334855e-05
-1.657174260218447e-05   2.256224158168549e-06   -5.035283294334855e-05
-1.657174260218447e-05   2.256224158168549e-06   -5.035283294334855e-05
-1.657174260218447e-05   2.256224158168549e-06   -5.035283294334855e-05
-1.0212593607320718e-05   2.628209064290364e-06   -4.107022517160406e-05
-1.0212593607320718e-05   2.628209064290364e-06   -4.107022517160406e-05
-1.0212593607320718e-05   2.628209064290364e-06   -4.107022517160406e-05
-1.0212593607320718e-05   2.628209064290364e-06   -4.107022517160406e-05
-2.231167304409796e-05   2.7294624327985767e-06   -6.117460554512792e-05
-2.231167304409796e-05   2.7294624327985767e-06   -6.117460554512792e-05
-2.231167304409796e-05   2.7294624327985767e-06   -6.117460554512792e-05
-2.231167304409796e-05   2.7294624327985767e-06   -6.117460554512792e-05
-2.1483516912353847e-05   4.120034307543603e-06   -4.111614785330263e-05
-2.1483516912353847e-05   4.120034307543603e-06   -4.111614785330263e-05
-2.1483516912353847e-05   4.120034307543603e-06   -4.111614785330263e-05
-2.1483516912353847e-05   4.120034307543603e-06   -4.111614785330263e-05
-9.398637191793558e-06   4.05968807358232e-06   -6.122140631385943e-05
-9.398637191793558e-06   4.05968807358232e-06   -6.122140631385943e-05
-9.398637191793558e-06   4.05968807358232e-06   -6.122140631385943e-05
-9.398637191793558e-06   4.05968807358232e-06   -6.122140631385943e-05
-1.5854018465647374e-05   3.3524172450838385e-06   -5.003807502700525e-05
-1.5854018465647374e-05   3.3524172450838385e-06   -5.003807502700525e-05
-1.5854018465647374e-05   3.3524172450838385e-06   -5.003807502700525e-05
-1.5854018465647374e-05   3.3524172450838385e-06   -5.003807502700525e-05
-9.398637191793558e-06   4.120034307543603e-06   -4.107994011292551e-05
-9.398637191793558e-06   4.120034307543603e-06   -4.107994011292551e-05
-9.398637191793558e-06   4.120034307543603e-06   -4.107994011292551e-05
-9.398637191793558e-06   4.120034307543603e-06   -4.107994011292551e-05
-2.1483516912353806e-05   4.05968807358232e-06   -6.12576140542366e-05
-2.1483516912353806e-05   4.05968807358232e-06   -6.12576140542366e-05
-2.1483516912353806e-05   4.05968807358232e-06   -6.12576140542366e-05
-2.1483516912353806e-05   4.05968807358232e-06   -6.12576140542366e-05
-2.069377968341496e-05   5.632462037658773e-06   -4.203947112722925e-05
-2.069377968341496e-05   5.632462037658773e-06   -4.203947112722925e-05
-2.069377968341496e-05   5.632462037658773e-06   -4.203947112722925e-05
-2.069377968341496e-05   5.632462037658773e-06   -4.203947112722925e-05
-8.620680935661029e-06   5.412877907646097e-06   -6.20295518954785e-05
-8.620680935661029e-06   5.412877907646097e-06   -6.20295518954785e-05
-8.620680935661029e-06   5.412877907646097e-06   -6.20295518954785e-05
-8.620680935661029e-06   5.412877907646097e-06   -6.20295518954785e-05
-1.5186099383520324e-05   4.4652249548918915e-06   -5.051859604406097e-05
-1.5186099383520324e-05   4.4652249548918915e-06   -5.051859604406097e-05
-1.5186099383520324e-05   4.4652249548918915e-06   -5.051859604406097e-05
-1.5186099383520324e-05   4.4652249548918915e-06   -5.051859604406097e-05
-2.3126945383301833e-05   2.5984842646434997e-06   -3.510717273511651e-05
-2.3126945383301833e-05   2.5984842646434997e-06   -3.510717273511651e-05
-2.3126945383301833e-05   2.5984842646434997e-06   -3.510717273511651e-05
-2.3126945383301833e-05   2.5984842646434997e-06   -3.510717273511651e-05
-3.5083039286032356e-05   4.770849815304793e-06   -5.373057657593683e-05
-3.5083039286032356e-05   4.770849815304793e-06   -5.373057657593683e-05
-3.5083039286032356e-05   4.770849815304793e-06   -5.373057657593683e-05
-3.5083039286032356e-05   4.770849815304793e-06   -5.373057657593683e-05
-3.415188654944634e-05   4.06275923265113e-06   -3.306613311214912e-05
-3.415188654944634e-05   4.06275923265113e-06   -3.306613311214912e-05
-3.415188654944634e-05   4.06275923265113e-06   -3.306613311214912e-05
-3.415188654944634e-05   4.06275923265113e-06   -3.306613311214912e-05
-2.231167304409796e-05   6.111682602958583e-06   -5.402917630991436e-05
-2.231167304409796e-05   6.111682602958583e-06   -5.402917630991436e-05
-2.231167304409796e-05   6.111682602958583e-06   -5.402917630991436e-05
-2.231167304409796e-05   6.111682602958583e-06   -5.402917630991436e-05
-2.8469886997806186e-05   4.560574299542625e-06   -4.283482140501755e-05
-2.8469886997806186e-05   4.560574299542625e-06   -4.283482140501755e-05
-2.8469886997806186e-05   4.560574299542625e-06   -4.283482140501755e-05
-2.8469886997806186e-05   4.560574299542625e-06   -4.283482140501755e-05
-2.2311673044098e-05   4.062759232651564e-06   -3.42954871343339e-05
-2.2311673044098e-05   4.062759232651564e-06   -3.42954871343339e-05
-2.2311673044098e-05   4.062759232651564e-06   -3.42954871343339e-05
-2.2311673044098e-05   4.062759232651564e-06   -3.42954871343339e-05
-3.415188654944641e-05   6.111682602959016e-06   -5.2799822287730386e-05
-3.415188654944641e-05   6.111682602959016e-06   -5.2799822287730386e-05
-3.415188654944641e-05   6.111682602959016e-06   -5.2799822287730386e-05
-3.415188654944641e-05   6.111682602959016e-06   -5.2799822287730386e-05
-3.303806561474545e-05   5.413941831250695e-06   -3.276242183965347e-05
-3.303806561474545e-05   5.413941831250695e-06   -3.276242183965347e-05
-3.303806561474545e-05   5.413941831250695e-06   -3.276242183965347e-05
-3.303806561474545e-05   5.413941831250695e-06   -3.276242183965347e-05
-2.1483516912353847e-05   7.319740882852886e-06   -5.31634824412672e-05
-2.1483516912353847e-05   7.319740882852886e-06   -5.31634824412672e-05
-2.1483516912353847e-05   7.319740882852886e-06   -5.31634824412672e-05
-2.1483516912353847e-05   7.319740882852886e-06   -5.31634824412672e-05
-2.7531954365275045e-05   5.618918932665407e-06   -4.206226018295335e-05
-2.7531954365275045e-05   5.618918932665407e-06   -4.206226018295335e-05
-2.7531954365275045e-05   5.618918932665407e-06   -4.206226018295335e-05
-2.7531954365275045e-05   5.618918932665407e-06   -4.206226018295335e-05
-2.148351691235383e-05   5.413941831250695e-06   -3.3905901270614436e-05
-2.148351691235383e-05   5.413941831250695e-06   -3.3905901270614436e-05
-2.148351691235383e-05   5.413941831250695e-06   -3.3905901270614436e-05
-2.148351691235383e-05   5.413941831250695e-06   -3.3905901270614436e-05
-3.303806561474545e-05   7.3197408828524525e-06   -5.202000301030626e-05
-3.303806561474545e-05   7.3197408828524525e-06   -5.202000301030626e-05
-3.303806561474545e-05   7.3197408828524525e-06   -5.202000301030626e-05
-3.303806561474545e-05   7.3197408828524525e-06   -5.202000301030626e-05
-3.210984047786061e-05   6.928778300148517e-06   -3.366902316959716e-05
-3.210984047786061e-05   6.928778300148517e-06   -3.366902316959716e-05
-3.210984047786061e-05   6.928778300148517e-06   -3.366902316959716e-05
-3.210984047786061e-05   6.928778300148517e-06   -3.366902316959716e-05
-2.069377968341496e-05   8.672016009145331e-06   -5.374173378573771e-05
-2.069377968341496e-05   8.672016009145331e-06   -5.374173378573771e-05
-2.069377968341496e-05   8.672016009145331e-06   -5.374173378573771e-05
-2.069377968341496e-05   8.672016009145331e-06   -5.374173378573771e-05
-2.6902292016159376e-05   6.662128819469142e-06   -4.218828091735818e-05
-2.6902292016159376e-05   6.662128819469142e-06   -4.218828091735818e-05
-2.6902292016159376e-05   6.662128819469142e-06   -4.218828091735818e-05
-2.6902292016159376e-05   6.662128819469142e-06   -4.218828091735818e-05
-3.5083039286032356e-05   4.364322075417742e-06   -1.816438372078061e-05
-3.5083039286032356e-05   4.364322075417742e-06   -1.816438372078061e-05
-3.5083039286032356e-05   4.364322075417742e-06   -1.816438372078061e-05
-3.5083039286032356e-05   4.364322075417742e-06   -1.816438372078061e-05
-4.8704112287435535e-05   8.201338384236211e-06   -3.8563962271161763e-05
-4.8704112287435535e-05   8.201338384236211e-06   -3.8563962271161763e-05
-4.8704112287435535e-05   8.201338384236211e-06   -3.8563962271161763e-05
-4.8704112287435535e-05   8.201338384236211e-06   -3.8563962271161763e-05
-4.615174354247599e-05   5.691320301435491e-06   -1.1438338779199905e-05
-4.615174354247599e-05   5.691320301435491e-06   -1.1438338779199905e-05
-4.615174354247599e-05   5.691320301435491e-06   -1.1438338779199905e-05
-4.615174354247599e-05   5.691320301435491e-06   -1.1438338779199905e-05
-3.415188654944634e-05   9.592885416274694e-06   -3.377903950315253e-05
-3.415188654944634e-05   9.592885416274694e-06   -3.377903950315253e-05
-3.415188654944634e-05   9.592885416274694e-06   -3.377903950315253e-05
-3.415188654944634e-05   9.592885416274694e-06   -3.377903950315253e-05
-3.9353616771654136e-05   7.122373521410014e-06   -2.3627181995888e-05
-3.9353616771654136e-05   7.122373521410014e-06   -2.3627181995888e-05
-3.9353616771654136e-05   7.122373521410014e-06   -2.3627181995888e-05
-3.9353616771654136e-05   7.122373521410014e-06   -2.3627181995888e-05
-3.415188654944637e-05   5.691320301435491e-06   -1.3779277848103037e-05
-3.415188654944637e-05   5.691320301435491e-06   -1.3779277848103037e-05
-3.415188654944637e-05   5.691320301435491e-06   -1.3779277848103037e-05
-3.415188654944637e-05   5.691320301435491e-06   -1.3779277848103037e-05
-4.6151743542475825e-05   9.592885416274694e-06   -3.143810043424941e-05
-4.6151743542475825e-05   9.592885416274694e-06   -3.143810043424941e-05
-4.6151743542475825e-05   9.592885416274694e-06   -3.143810043424941e-05
-4.6151743542475825e-05   9.592885416274694e-06   -3.143810043424941e-05
-4.404214521647908e-05   6.2989605030144315e-06   -9.403581321383017e-06
-4.404214521647908e-05   6.2989605030144315e-06   -9.403581321383017e-06
-4.404214521647908e-05   6.2989605030144315e-06   -9.403581321383017e-06
-4.404214521647908e-05   6.2989605030144315e-06   -9.403581321383017e-06
-3.30380656147454e-05   1.009132086684508e-05   -3.0019130209237244e-05
-3.30380656147454e-05   1.009132086684508e-05   -3.0019130209237244e-05
-3.30380656147454e-05   1.009132086684508e-05   -3.0019130209237244e-05
-3.30380656147454e-05   1.009132086684508e-05   -3.0019130209237244e-05
-3.841513020803823e-05   7.74742729970062e-06   -1.9651019746795974e-05
-3.841513020803823e-05   7.74742729970062e-06   -1.9651019746795974e-05
-3.841513020803823e-05   7.74742729970062e-06   -1.9651019746795974e-05
-3.841513020803823e-05   7.74742729970062e-06   -1.9651019746795974e-05
-3.303806561474545e-05   6.2989605030144315e-06   -1.1678997539681059e-05
-3.303806561474545e-05   6.2989605030144315e-06   -1.1678997539681059e-05
-3.303806561474545e-05   6.2989605030144315e-06   -1.1678997539681059e-05
-3.303806561474545e-05   6.2989605030144315e-06   -1.1678997539681059e-05
-4.4042145216479e-05   1.009132086684508e-05   -2.774371399093885e-05
-4.4042145216479e-05   1.009132086684508e-05   -2.774371399093885e-05
-4.4042145216479e-05   1.009132086684508e-05   -2.774371399093885e-05
-4.4042145216479e-05   1.009132086684508e-05   -2.774371399093885e-05
-4.154870332361403e-05   7.2419172398945596e-06   -7.27855559967466e-06
-4.154870332361403e-05   7.2419172398945596e-06   -7.27855559967466e-06
-4.154870332361403e-05   7.2419172398945596e-06   -7.27855559967466e-06
-4.154870332361403e-05   7.2419172398945596e-06   -7.27855559967466e-06
-3.210984047786061e-05   1.0724956198699797e-05   -2.5099817051213523e-05
-3.210984047786061e-05   1.0724956198699797e-05   -2.5099817051213523e-05
-3.210984047786061e-05   1.0724956198699797e-05   -2.5099817051213523e-05
-3.210984047786061e-05   1.0724956198699797e-05   -2.5099817051213523e-05
-3.6433831821831774e-05   8.049827578825771e-06   -1.6288087639337672e-05
-3.6433831821831774e-05   8.049827578825771e-06   -1.6288087639337672e-05
-3.6433831821831774e-05   8.049827578825771e-06   -1.6288087639337672e-05
-3.6433831821831774e-05   8.049827578825771e-06   -1.6288087639337672e-05
3.703391687533928e-05   -4.86023674868552e-06   -3.3642259527179655e-07
3.703391687533928e-05   -4.86023674868552e-06   -3.3642259527179655e-07
3.703391687533928e-05   -4.86023674868552e-06   -3.3642259527179655e-07
3.703391687533928e-05   -4.86023674868552e-06   -3.3642259527179655e-07
1.579311897570711e-05   -8.774785539537953e-06   -3.80864817025033e-05
1.579311897570711e-05   -8.774785539537953e-06   -3.80864817025033e-05
1.579311897570711e-05   -8.774785539537953e-06   -3.80864817025033e-05
1.579311897570711e-05   -8.774785539537953e-06   -3.80864817025033e-05
1.6917926312482313e-05   -3.993225135989591e-06   -4.237127648860049e-06
1.6917926312482313e-05   -3.993225135989591e-06   -4.237127648860049e-06
1.6917926312482313e-05   -3.993225135989591e-06   -4.237127648860049e-06
1.6917926312482313e-05   -3.993225135989591e-06   -4.237127648860049e-06
3.9845108001083224e-05   -8.159718819865814e-06   -3.9949200919535844e-05
3.9845108001083224e-05   -8.159718819865814e-06   -3.9949200919535844e-05
3.9845108001083224e-05   -8.159718819865814e-06   -3.9949200919535844e-05
3.9845108001083224e-05   -8.159718819865814e-06   -3.9949200919535844e-05
2.629314075707043e-05   -5.780705051326718e-06   -1.878999710730456e-05
2.629314075707043e-05   -5.780705051326718e-06   -1.878999710730456e-05
2.629314075707043e-05   -5.780705051326718e-06   -1.878999710730456e-05
2.629314075707043e-05   -5.780705051326718e-06   -1.878999710730456e-05
3.984510800108328e-05   -3.993225135989591e-06   -1.737231438534272e-06
3.984510800108328e-05   -3.993225135989591e-06   -1.737231438534272e-06
3.984510800108328e-05   -3.993225135989591e-06   -1.737231438534272e-06
3.984510800108328e-05   -3.993225135989591e-06   -1.737231438534272e-06
1.691792631248226e-05   -8.159718819865814e-06   -4.244909712986119e-05
1.691792631248226e-05   -8.159718819865814e-06   -4.244909712986119e-05
1.691792631248226e-05   -8.159718819865814e-06   -4.244909712986119e-05
1.691792631248226e-05   -8.159718819865814e-06   -4.244909712986119e-05
1.8163659834398514e-05   -3.4159896221794446e-06   -5.945682578343062e-06
1.8163659834398514e-05   -3.4159896221794446e-06   -5.945682578343062e-06
1.8163659834398514e-05   -3.4159896221794446e-06   -5.945682578343062e-06
1.8163659834398514e-05   -3.4159896221794446e-06   -5.945682578343062e-06
4.22079266624152e-05   -7.632254703669218e-06   -4.3489701576143605e-05
4.22079266624152e-05   -7.632254703669218e-06   -4.3489701576143605e-05
4.22079266624152e-05   -7.632254703669218e-06   -4.3489701576143605e-05
4.22079266624152e-05   -7.632254703669218e-06   -4.3489701576143605e-05
2.840474772822731e-05   -5.54599391360943e-06   -2.1736159826532824e-05
2.840474772822731e-05   -5.54599391360943e-06   -2.1736159826532824e-05
2.840474772822731e-05   -5.54599391360943e-06   -2.1736159826532824e-05
2.840474772822731e-05   -5.54599391360943e-06   -2.1736159826532824e-05
4.2207926662415256e-05   -3.4159896221794446e-06   -3.4159235294491976e-06
4.2207926662415256e-05   -3.4159896221794446e-06   -3.4159235294491976e-06
4.2207926662415256e-05   -3.4159896221794446e-06   -3.4159235294491976e-06
4.2207926662415256e-05   -3.4159896221794446e-06   -3.4159235294491976e-06
1.8163659834398514e-05   -7.632254703669218e-06   -4.601946062503747e-05
1.8163659834398514e-05   -7.632254703669218e-06   -4.601946062503747e-05
1.8163659834398514e-05   -7.632254703669218e-06   -4.601946062503747e-05
1.8163659834398514e-05   -7.632254703669218e-06   -4.601946062503747e-05
1.9194378765658696e-05   -1.960733227005223e-06   -9.892702233049982e-06
1.9194378765658696e-05   -1.960733227005223e-06   -9.892702233049982e-06
1.9194378765658696e-05   -1.960733227005223e-06   -9.892702233049982e-06
1.9194378765658696e-05   -1.960733227005223e-06   -9.892702233049982e-06
4.495124419692998e-05   -5.96292607401433e-06   -5.0419495576963153e-05
4.495124419692998e-05   -5.96292607401433e-06   -5.0419495576963153e-05
4.495124419692998e-05   -5.96292607401433e-06   -5.0419495576963153e-05
4.495124419692998e-05   -5.96292607401433e-06   -5.0419495576963153e-05
2.9552495712283305e-05   -4.894963117167694e-06   -2.539569254332791e-05
2.9552495712283305e-05   -4.894963117167694e-06   -2.539569254332791e-05
2.9552495712283305e-05   -4.894963117167694e-06   -2.539569254332791e-05
2.9552495712283305e-05   -4.894963117167694e-06   -2.539569254332791e-05
1.5793118975707164e-05   -1.925697089981502e-06   -2.587487840764735e-05
1.5793118975707164e-05   -1.925697089981502e-06   -2.587487840764735e-05
1.5793118975707164e-05   -1.925697089981502e-06   -2.587487840764735e-05
1.5793118975707164e-05   -1.925697089981502e-06   -2.587487840764735e-05
-6.701977540585333e-06   -4.1151786899919045e-06   -6.468039489480708e-05
-6.701977540585333e-06   -4.1151786899919045e-06   -6.468039489480708e-05
-6.701977540585333e-06   -4.1151786899919045e-06   -6.468039489480708e-05
-6.701977540585333e-06   -4.1151786899919045e-06   -6.468039489480708e-05
-5.654727171071415e-06   -7.378600625079779e-07   -2.641343467319401e-05
-5.654727171071415e-06   -7.378600625079779e-07   -2.641343467319401e-05
-5.654727171071415e-06   -7.378600625079779e-07   -2.641343467319401e-05
-5.654727171071415e-06   -7.378600625079779e-07   -2.641343467319401e-05
1.691792631248226e-05   -3.262665360649359e-06   -6.251964063356473e-05
1.691792631248226e-05   -3.262665360649359e-06   -6.251964063356473e-05
1.691792631248226e-05   -3.262665360649359e-06   -6.251964063356473e-05
1.691792631248226e-05   -3.262665360649359e-06   -6.251964063356473e-05
5.144905873201975e-06   -1.9908809388785934e-06   -4.3661010554493546e-05
5.144905873201975e-06   -1.9908809388785934e-06   -4.3661010554493546e-05
5.144905873201975e-06   -1.9908809388785934e-06   -4.3661010554493546e-05
5.144905873201975e-06   -1.9908809388785934e-06   -4.3661010554493546e-05
1.6917926312482313e-05   -7.378600625079779e-07   -2.4898551494308314e-05
1.6917926312482313e-05   -7.378600625079779e-07   -2.4898551494308314e-05
1.6917926312482313e-05   -7.378600625079779e-07   -2.4898551494308314e-05
1.6917926312482313e-05   -7.378600625079779e-07   -2.4898551494308314e-05
-5.654727171071415e-06   -3.262665360649359e-06   -6.403452381244972e-05
-5.654727171071415e-06   -3.262665360649359e-06   -6.403452381244972e-05
-5.654727171071415e-06   -3.262665360649359e-06   -6.403452381244972e-05
-5.654727171071415e-06   -3.262665360649359e-06   -6.403452381244972e-05
-4.654793671827898e-06   4.901136158121967e-07   -2.6750875705701827e-05
-4.654793671827898e-06   4.901136158121967e-07   -2.6750875705701827e-05
-4.654793671827898e-06   4.901136158121967e-07   -2.6750875705701827e-05
-4.654793671827898e-06   4.901136158121967e-07   -2.6750875705701827e-05
1.8163659834398514e-05   -2.220418077485218e-06   -6.315531253343399e-05
1.8163659834398514e-05   -2.220418077485218e-06   -6.315531253343399e-05
1.8163659834398514e-05   -2.220418077485218e-06   -6.315531253343399e-05
1.8163659834398514e-05   -2.220418077485218e-06   -6.315531253343399e-05
5.97669505103425e-06   -1.2372787625836157e-06   -4.343358815010008e-05
5.97669505103425e-06   -1.2372787625836157e-06   -4.343358815010008e-05
5.97669505103425e-06   -1.2372787625836157e-06   -4.343358815010008e-05
5.97669505103425e-06   -1.2372787625836157e-06   -4.343358815010008e-05
1.8163659834398514e-05   4.901136158121967e-07   -2.512455668972303e-05
1.8163659834398514e-05   4.901136158121967e-07   -2.512455668972303e-05
1.8163659834398514e-05   4.901136158121967e-07   -2.512455668972303e-05
1.8163659834398514e-05   4.901136158121967e-07   -2.512455668972303e-05
-4.654793671827898e-06   -2.220418077485218e-06   -6.478163154941224e-05
-4.654793671827898e-06   -2.220418077485218e-06   -6.478163154941224e-05
-4.654793671827898e-06   -2.220418077485218e-06   -6.478163154941224e-05
-4.654793671827898e-06   -2.220418077485218e-06   -6.478163154941224e-05
-3.715298226184173e-06   1.943922151379472e-06   -2.7658747933208706e-05
-3.715298226184173e-06   1.943922151379472e-06   -2.7658747933208706e-05
-3.715298226184173e-06   1.943922151379472e-06   -2.7658747933208706e-05
-3.715298226184173e-06   1.943922151379472e-06   -2.7658747933208706e-05
1.9194378765658696e-05   -9.094154002206242e-07   -6.412954038865332e-05
1.9194378765658696e-05   -9.094154002206242e-07   -6.412954038865332e-05
1.9194378765658696e-05   -9.094154002206242e-07   -6.412954038865332e-05
1.9194378765658696e-05   -9.094154002206242e-07   -6.412954038865332e-05
7.012973085008086e-06   -3.081200440346876e-07   -4.418797480128131e-05
7.012973085008086e-06   -3.081200440346876e-07   -4.418797480128131e-05
7.012973085008086e-06   -3.081200440346876e-07   -4.418797480128131e-05
7.012973085008086e-06   -3.081200440346876e-07   -4.418797480128131e-05
-6.701977540585333e-06   1.4732575205640003e-06   -3.3262493707325504e-05
-6.701977540585333e-06   1.4732575205640003e-06   -3.3262493707325504e-05
-6.701977540585333e-06   1.4732575205640003e-06   -3.3262493707325504e-05
-6.701977540585333e-06   1.4732575205640003e-06   -3.3262493707325504e-05
-2.8800895136678338e-05   7.373993307791676e-07   -7.053553794801799e-05
-2.8800895136678338e-05   7.373993307791676e-07   -7.053553794801799e-05
-2.8800895136678338e-05   7.373993307791676e-07   -7.053553794801799e-05
-2.8800895136678338e-05   7.373993307791676e-07   -7.053553794801799e-05
-2.7673596004401774e-05   2.7294624327990104e-06   -3.303395695390633e-05
-2.7673596004401774e-05   2.7294624327990104e-06   -3.303395695390633e-05
-2.7673596004401774e-05   2.7294624327990104e-06   -3.303395695390633e-05
-2.7673596004401774e-05   2.7294624327990104e-06   -3.303395695390633e-05
-5.654727171071415e-06   1.6944862963833712e-06   -6.911108599427454e-05
-5.654727171071415e-06   1.6944862963833712e-06   -6.911108599427454e-05
-5.654727171071415e-06   1.6944862963833712e-06   -6.911108599427454e-05
-5.654727171071415e-06   1.6944862963833712e-06   -6.911108599427454e-05
-1.7089759879366754e-05   2.0195103458448167e-06   -5.024771257679253e-05
-1.7089759879366754e-05   2.0195103458448167e-06   -5.024771257679253e-05
-1.7089759879366754e-05   2.0195103458448167e-06   -5.024771257679253e-05
-1.7089759879366754e-05   2.0195103458448167e-06   -5.024771257679253e-05
-5.654727171071415e-06   2.7294624327985767e-06   -3.241297127205725e-05
-5.654727171071415e-06   2.7294624327985767e-06   -3.241297127205725e-05
-5.654727171071415e-06   2.7294624327985767e-06   -3.241297127205725e-05
-5.654727171071415e-06   2.7294624327985767e-06   -3.241297127205725e-05
-2.7673596004401774e-05   1.6944862963833712e-06   -6.973207167612345e-05
-2.7673596004401774e-05   1.6944862963833712e-06   -6.973207167612345e-05
-2.7673596004401774e-05   1.6944862963833712e-06   -6.973207167612345e-05
-2.7673596004401774e-05   1.6944862963833712e-06   -6.973207167612345e-05
-2.6586446193805786e-05   4.05968807358232e-06   -3.2984147979484794e-05
-2.6586446193805786e-05   4.05968807358232e-06   -3.2984147979484794e-05
-2.6586446193805786e-05   4.05968807358232e-06   -3.2984147979484794e-05
-2.6586446193805786e-05   4.05968807358232e-06   -3.2984147979484794e-05
-4.654793671827898e-06   2.8034179398749894e-06   -6.878314010255699e-05
-4.654793671827898e-06   2.8034179398749894e-06   -6.878314010255699e-05
-4.654793671827898e-06   2.8034179398749894e-06   -6.878314010255699e-05
-4.654793671827898e-06   2.8034179398749894e-06   -6.878314010255699e-05
-1.6119450030140194e-05   2.9154372961719653e-06   -4.974259111914793e-05
-1.6119450030140194e-05   2.9154372961719653e-06   -4.974259111914793e-05
-1.6119450030140194e-05   2.9154372961719653e-06   -4.974259111914793e-05
-1.6119450030140194e-05   2.9154372961719653e-06   -4.974259111914793e-05
-4.654793671827898e-06   4.05968807358232e-06   -3.2230385899260526e-05
-4.654793671827898e-06   4.05968807358232e-06   -3.2230385899260526e-05
-4.654793671827898e-06   4.05968807358232e-06   -3.2230385899260526e-05
-4.654793671827898e-06   4.05968807358232e-06   -3.2230385899260526e-05
-2.6586446193805786e-05   2.8034179398749894e-06   -6.953690218278142e-05
-2.6586446193805786e-05   2.8034179398749894e-06   -6.953690218278142e-05
-2.6586446193805786e-05   2.8034179398749894e-06   -6.953690218278142e-05
-2.6586446193805786e-05   2.8034179398749894e-06   -6.953690218278142e-05
-2.55818354212003e-05   5.412877907646531e-06   -3.375888129504437e-05
-2.55818354212003e-05   5.412877907646531e-06   -3.375888129504437e-05
-2.55818354212003e-05   5.412877907646531e-06   -3.375888129504437e-05
-2.55818354212003e-05   5.412877907646531e-06   -3.375888129504437e-05
-3.715298226184173e-06   3.9495767405945716e-06   -6.932512925317383e-05
-3.715298226184173e-06   3.9495767405945716e-06   -6.932512925317383e-05
-3.715298226184173e-06   3.9495767405945716e-06   -6.932512925317383e-05
-3.715298226184173e-06   3.9495767405945716e-06   -6.932512925317383e-05
-1.5252315006026976e-05   3.834760326106631e-06   -5.0027878104743826e-05
-1.5252315006026976e-05   3.834760326106631e-06   -5.0027878104743826e-05
-1.5252315006026976e-05   3.834760326106631e-06   -5.0027878104743826e-05
-1.5252315006026976e-05   3.834760326106631e-06   -5.0027878104743826e-05
-2.8800895136678392e-05   4.770849815304793e-06   -2.6990053633089896e-05
-2.8800895136678392e-05   4.770849815304793e-06   -2.6990053633089896e-05
-2.8800895136678392e-05   4.770849815304793e-06   -2.6990053633089896e-05
-2.8800895136678392e-05   4.770849815304793e-06   -2.6990053633089896e-05
-5.04838536828713e-05   5.76337801141448e-06   -6.253280095907935e-05
-5.04838536828713e-05   5.76337801141448e-06   -6.253280095907935e-05
-5.04838536828713e-05   5.76337801141448e-06   -6.253280095907935e-05
-5.04838536828713e-05   5.76337801141448e-06   -6.253280095907935e-05
-4.912552095057974e-05   6.111682602958583e-06   -2.5367818574119393e-05
-4.912552095057974e-05   6.111682602958583e-06   -2.5367818574119393e-05
-4.912552095057974e-05   6.111682602958583e-06   -2.5367818574119393e-05
-4.912552095057974e-05   6.111682602958583e-06   -2.5367818574119393e-05
-2.767359600440182e-05   6.979531177247859e-06   -6.164173596232318e-05
-2.767359600440182e-05   6.979531177247859e-06   -6.164173596232318e-05
-2.767359600440182e-05   6.979531177247859e-06   -6.164173596232318e-05
-2.767359600440182e-05   6.979531177247859e-06   -6.164173596232318e-05
-3.873573887637017e-05   6.161269960332488e-06   -4.271387444555993e-05
-3.873573887637017e-05   6.161269960332488e-06   -4.271387444555993e-05
-3.873573887637017e-05   6.161269960332488e-06   -4.271387444555993e-05
-3.873573887637017e-05   6.161269960332488e-06   -4.271387444555993e-05
-2.767359600440182e-05   6.111682602959016e-06   -2.5888527718693133e-05
-2.767359600440182e-05   6.111682602959016e-06   -2.5888527718693133e-05
-2.767359600440182e-05   6.111682602959016e-06   -2.5888527718693133e-05
-2.767359600440182e-05   6.111682602959016e-06   -2.5888527718693133e-05
-4.912552095057983e-05   6.979531177247859e-06   -6.112102681774933e-05
-4.912552095057983e-05   6.979531177247859e-06   -6.112102681774933e-05
-4.912552095057983e-05   6.979531177247859e-06   -6.112102681774933e-05
-4.912552095057983e-05   6.979531177247859e-06   -6.112102681774933e-05
-4.762337854662607e-05   7.319740882852886e-06   -2.446566319799369e-05
-4.762337854662607e-05   7.319740882852886e-06   -2.446566319799369e-05
-4.762337854662607e-05   7.319740882852886e-06   -2.446566319799369e-05
-4.762337854662607e-05   7.319740882852886e-06   -2.446566319799369e-05
-2.6586446193805834e-05   8.026996163722645e-06   -5.995157028788271e-05
-2.6586446193805834e-05   8.026996163722645e-06   -5.995157028788271e-05
-2.6586446193805834e-05   8.026996163722645e-06   -5.995157028788271e-05
-2.6586446193805834e-05   8.026996163722645e-06   -5.995157028788271e-05
-3.7362739909888864e-05   7.107689494530167e-06   -4.143949675956199e-05
-3.7362739909888864e-05   7.107689494530167e-06   -4.143949675956199e-05
-3.7362739909888864e-05   7.107689494530167e-06   -4.143949675956199e-05
-3.7362739909888864e-05   7.107689494530167e-06   -4.143949675956199e-05
-2.6586446193805806e-05   7.319740882852886e-06   -2.4890016366515416e-05
-2.6586446193805806e-05   7.319740882852886e-06   -2.4890016366515416e-05
-2.6586446193805806e-05   7.319740882852886e-06   -2.4890016366515416e-05
-2.6586446193805806e-05   7.319740882852886e-06   -2.4890016366515416e-05
-4.762337854662607e-05   8.026996163722645e-06   -5.9527217119360876e-05
-4.762337854662607e-05   8.026996163722645e-06   -5.9527217119360876e-05
-4.762337854662607e-05   8.026996163722645e-06   -5.9527217119360876e-05
-4.762337854662607e-05   8.026996163722645e-06   -5.9527217119360876e-05
-4.63538300364531e-05   8.672016009145331e-06   -2.503069042341841e-05
-4.63538300364531e-05   8.672016009145331e-06   -2.503069042341841e-05
-4.63538300364531e-05   8.672016009145331e-06   -2.503069042341841e-05
-4.63538300364531e-05   8.672016009145331e-06   -2.503069042341841e-05
-2.5581835421200342e-05   9.186386482275006e-06   -5.995930373271774e-05
-2.5581835421200342e-05   9.186386482275006e-06   -5.995930373271774e-05
-2.5581835421200342e-05   9.186386482275006e-06   -5.995930373271774e-05
-2.5581835421200342e-05   9.186386482275006e-06   -5.995930373271774e-05
-3.650650748220866e-05   7.979676084909817e-06   -4.102749072595147e-05
-3.650650748220866e-05   7.979676084909817e-06   -4.102749072595147e-05
-3.650650748220866e-05   7.979676084909817e-06   -4.102749072595147e-05
-3.650650748220866e-05   7.979676084909817e-06   -4.102749072595147e-05
-5.04838536828713e-05   8.201338384236211e-06   -1.3530132195940488e-05
-5.04838536828713e-05   8.201338384236211e-06   -1.3530132195940488e-05
-5.04838536828713e-05   8.201338384236211e-06   -1.3530132195940488e-05
-5.04838536828713e-05   8.201338384236211e-06   -1.3530132195940488e-05
-7.331386510975402e-05   1.1336558710985708e-05   -4.969901904469556e-05
-7.331386510975402e-05   1.1336558710985708e-05   -4.969901904469556e-05
-7.331386510975402e-05   1.1336558710985708e-05   -4.969901904469556e-05
-7.331386510975402e-05   1.1336558710985708e-05   -4.969901904469556e-05
-7.020031946673112e-05   9.592885416274694e-06   -4.3313738621315705e-06
-7.020031946673112e-05   9.592885416274694e-06   -4.3313738621315705e-06
-7.020031946673112e-05   9.592885416274694e-06   -4.3313738621315705e-06
-7.020031946673112e-05   9.592885416274694e-06   -4.3313738621315705e-06
-4.912552095057974e-05   1.2952321961958932e-05   -4.147169998312787e-05
-4.912552095057974e-05   1.2952321961958932e-05   -4.147169998312787e-05
-4.912552095057974e-05   1.2952321961958932e-05   -4.147169998312787e-05
-4.912552095057974e-05   1.2952321961958932e-05   -4.147169998312787e-05
-5.826770392801424e-05   1.0800569826243528e-05   -2.494367707264118e-05
-5.826770392801424e-05   1.0800569826243528e-05   -2.494367707264118e-05
-5.826770392801424e-05   1.0800569826243528e-05   -2.494367707264118e-05
-5.826770392801424e-05   1.0800569826243528e-05   -2.494367707264118e-05
-4.9125520950579795e-05   9.59288541627426e-06   -6.347035789541983e-06
-4.9125520950579795e-05   9.59288541627426e-06   -6.347035789541983e-06
-4.9125520950579795e-05   9.59288541627426e-06   -6.347035789541983e-06
-4.9125520950579795e-05   9.59288541627426e-06   -6.347035789541983e-06
-7.020031946673101e-05   1.2952321961958932e-05   -3.9456038055716994e-05
-7.020031946673101e-05   1.2952321961958932e-05   -3.9456038055716994e-05
-7.020031946673101e-05   1.2952321961958932e-05   -3.9456038055716994e-05
-7.020031946673101e-05   1.2952321961958932e-05   -3.9456038055716994e-05
-6.763808185185455e-05   1.009132086684508e-05   -4.933965642168591e-07
-6.763808185185455e-05   1.009132086684508e-05   -4.933965642168591e-07
-6.763808185185455e-05   1.009132086684508e-05   -4.933965642168591e-07
-6.763808185185455e-05   1.009132086684508e-05   -4.933965642168591e-07
-4.762337854662607e-05   1.337697725469194e-05   -3.582262923897235e-05
-4.762337854662607e-05   1.337697725469194e-05   -3.582262923897235e-05
-4.762337854662607e-05   1.337697725469194e-05   -3.582262923897235e-05
-4.762337854662607e-05   1.337697725469194e-05   -3.582262923897235e-05
-5.720202703064473e-05   1.144298479996246e-05   -1.8697819626103046e-05
-5.720202703064473e-05   1.144298479996246e-05   -1.8697819626103046e-05
-5.720202703064473e-05   1.144298479996246e-05   -1.8697819626103046e-05
-5.720202703064473e-05   1.144298479996246e-05   -1.8697819626103046e-05
-4.762337854662607e-05   1.009132086684508e-05   -2.4647903969249752e-06
-4.762337854662607e-05   1.009132086684508e-05   -2.4647903969249752e-06
-4.762337854662607e-05   1.009132086684508e-05   -2.4647903969249752e-06
-4.762337854662607e-05   1.009132086684508e-05   -2.4647903969249752e-06
-6.763808185185433e-05   1.337697725469194e-05   -3.385123540626425e-05
-6.763808185185433e-05   1.337697725469194e-05   -3.385123540626425e-05
-6.763808185185433e-05   1.337697725469194e-05   -3.385123540626425e-05
-6.763808185185433e-05   1.337697725469194e-05   -3.385123540626425e-05
-6.487545691766827e-05   1.0724956198699797e-05   4.377075518924084e-06
-6.487545691766827e-05   1.0724956198699797e-05   4.377075518924084e-06
-6.487545691766827e-05   1.0724956198699797e-05   4.377075518924084e-06
-6.487545691766827e-05   1.0724956198699797e-05   4.377075518924084e-06
-4.63538300364531e-05   1.3744609254060392e-05   -2.830409444965085e-05
-4.63538300364531e-05   1.3744609254060392e-05   -2.830409444965085e-05
-4.63538300364531e-05   1.3744609254060392e-05   -2.830409444965085e-05
-4.63538300364531e-05   1.3744609254060392e-05   -2.830409444965085e-05
-5.460725670680901e-05   1.1548135058928564e-05   -1.3230498815312223e-05
-5.460725670680901e-05   1.1548135058928564e-05   -1.3230498815312223e-05
-5.460725670680901e-05   1.1548135058928564e-05   -1.3230498815312223e-05
-5.460725670680901e-05   1.1548135058928564e-05   -1.3230498815312223e-05
6.290354600695829e-05   -8.774785539537953e-06   1.2412609976837977e-05
6.290354600695829e-05   -8.774785539537953e-06   1.2412609976837977e-05
6.290354600695829e-05   -8.774785539537953e-06   1.2412609976837977e-05
6.290354600695829e-05   -8.774785539537953e-06   1.2412609976837977e-05
3.0327247497867493e-05   -1.300174045648552e-05   -4.441739382181516e-05
3.0327247497867493e-05   -1.300174045648552e-05   -4.441739382181516e-05
3.0327247497867493e-05   -1.300174045648552e-05   -4.441739382181516e-05
3.0327247497867493e-05   -1.300174045648552e-05   -4.441739382181516e-05
3.1574184646029755e-05   -8.159718819865814e-06   5.955111618380967e-06
3.1574184646029755e-05   -8.159718819865814e-06   5.955111618380967e-06
3.1574184646029755e-05   -8.159718819865814e-06   5.955111618380967e-06
3.1574184646029755e-05   -8.159718819865814e-06   5.955111618380967e-06
6.579317157743956e-05   -1.2697058419963193e-05   -4.83541295072436e-05
6.579317157743956e-05   -1.2697058419963193e-05   -4.83541295072436e-05
6.579317157743956e-05   -1.2697058419963193e-05   -4.83541295072436e-05
6.579317157743956e-05   -1.2697058419963193e-05   -4.83541295072436e-05
4.5712892595169176e-05   -9.609687669180113e-06   -1.673942032059581e-05
4.5712892595169176e-05   -9.609687669180113e-06   -1.673942032059581e-05
4.5712892595169176e-05   -9.609687669180113e-06   -1.673942032059581e-05
4.5712892595169176e-05   -9.609687669180113e-06   -1.673942032059581e-05
6.579317157743973e-05   -8.159718819865814e-06   8.677515378439698e-06
6.579317157743973e-05   -8.159718819865814e-06   8.677515378439698e-06
6.579317157743973e-05   -8.159718819865814e-06   8.677515378439698e-06
6.579317157743973e-05   -8.159718819865814e-06   8.677515378439698e-06
3.15741846460297e-05   -1.2697058419963193e-05   -5.1076533267302004e-05
3.15741846460297e-05   -1.2697058419963193e-05   -5.1076533267302004e-05
3.15741846460297e-05   -1.2697058419963193e-05   -5.1076533267302004e-05
3.15741846460297e-05   -1.2697058419963193e-05   -5.1076533267302004e-05
3.281447496592381e-05   -7.632254703669218e-06   2.7982918817236885e-06
3.281447496592381e-05   -7.632254703669218e-06   2.7982918817236885e-06
3.281447496592381e-05   -7.632254703669218e-06   2.7982918817236885e-06
3.281447496592381e-05   -7.632254703669218e-06   2.7982918817236885e-06
6.801198220753529e-05   -1.2256604550641738e-05   -5.308961027944534e-05
6.801198220753529e-05   -1.2256604550641738e-05   -5.308961027944534e-05
6.801198220753529e-05   -1.2256604550641738e-05   -5.308961027944534e-05
6.801198220753529e-05   -1.2256604550641738e-05   -5.308961027944534e-05
4.814564451246035e-05   -9.578176455637966e-06   -2.1586104311322797e-05
4.814564451246035e-05   -9.578176455637966e-06   -2.1586104311322797e-05
4.814564451246035e-05   -9.578176455637966e-06   -2.1586104311322797e-05
4.814564451246035e-05   -9.578176455637966e-06   -2.1586104311322797e-05
6.801198220753529e-05   -7.632254703669218e-06   5.572901789907417e-06
6.801198220753529e-05   -7.632254703669218e-06   5.572901789907417e-06
6.801198220753529e-05   -7.632254703669218e-06   5.572901789907417e-06
6.801198220753529e-05   -7.632254703669218e-06   5.572901789907417e-06
3.281447496592381e-05   -1.2256604550641738e-05   -5.586422018762885e-05
3.281447496592381e-05   -1.2256604550641738e-05   -5.586422018762885e-05
3.281447496592381e-05   -1.2256604550641738e-05   -5.586422018762885e-05
3.281447496592381e-05   -1.2256604550641738e-05   -5.586422018762885e-05
3.365778437840089e-05   -5.96292607401433e-06   -3.564386545340612e-06
3.365778437840089e-05   -5.96292607401433e-06   -3.564386545340612e-06
3.365778437840089e-05   -5.96292607401433e-06   -3.564386545340612e-06
3.365778437840089e-05   -5.96292607401433e-06   -3.564386545340612e-06
7.035793323256052e-05   -1.0537350013121484e-05   -6.198664693880926e-05
7.035793323256052e-05   -1.0537350013121484e-05   -6.198664693880926e-05
7.035793323256052e-05   -1.0537350013121484e-05   -6.198664693880926e-05
7.035793323256052e-05   -1.0537350013121484e-05   -6.198664693880926e-05
4.8829926989587226e-05   -8.842674269936117e-06   -2.712344197976571e-05
4.8829926989587226e-05   -8.842674269936117e-06   -2.712344197976571e-05
4.8829926989587226e-05   -8.842674269936117e-06   -2.712344197976571e-05
4.8829926989587226e-05   -8.842674269936117e-06   -2.712344197976571e-05
3.0327247497867547e-05   -4.1151786899919045e-06   -1.5403787205628145e-05
3.0327247497867547e-05   -4.1151786899919045e-06   -1.5403787205628145e-05
3.0327247497867547e-05   -4.1151786899919045e-06   -1.5403787205628145e-05
3.0327247497867547e-05   -4.1151786899919045e-06   -1.5403787205628145e-05
-1.8112200426903134e-06   -8.440547657740088e-06   -7.156312115387336e-05
-1.8112200426903134e-06   -8.440547657740088e-06   -7.156312115387336e-05
-1.8112200426903134e-06   -8.440547657740088e-06   -7.156312115387336e-05
-1.8112200426903134e-06   -8.440547657740088e-06   -7.156312115387336e-05
-5.307161172938245e-07   -3.2626653606497927e-06   -1.698095612527985e-05
-5.307161172938245e-07   -3.2626653606497927e-06   -1.698095612527985e-05
-5.307161172938245e-07   -3.2626653606497927e-06   -1.698095612527985e-05
-5.307161172938245e-07   -3.2626653606497927e-06   -1.698095612527985e-05
3.1574184646029755e-05   -8.038539093912882e-06   -6.762359982419487e-05
3.1574184646029755e-05   -8.038539093912882e-06   -6.762359982419487e-05
3.1574184646029755e-05   -8.038539093912882e-06   -6.762359982419487e-05
3.1574184646029755e-05   -8.038539093912882e-06   -6.762359982419487e-05
1.4935197177540373e-05   -5.105816922957272e-06   -4.165158734595255e-05
1.4935197177540373e-05   -5.105816922957272e-06   -4.165158734595255e-05
1.4935197177540373e-05   -5.105816922957272e-06   -4.165158734595255e-05
1.4935197177540373e-05   -5.105816922957272e-06   -4.165158734595255e-05
3.15741846460297e-05   -3.2626653606497927e-06   -1.4115431885322084e-05
3.15741846460297e-05   -3.2626653606497927e-06   -1.4115431885322084e-05
3.15741846460297e-05   -3.2626653606497927e-06   -1.4115431885322084e-05
3.15741846460297e-05   -3.2626653606497927e-06   -1.4115431885322084e-05
-5.307161172938245e-07   -8.038539093912882e-06   -7.048912406415237e-05
-5.307161172938245e-07   -8.038539093912882e-06   -7.048912406415237e-05
-5.307161172938245e-07   -8.038539093912882e-06   -7.048912406415237e-05
-5.307161172938245e-07   -8.038539093912882e-06   -7.048912406415237e-05
5.976358260641841e-07   -2.220418077485218e-06   -1.737844757196405e-05
5.976358260641841e-07   -2.220418077485218e-06   -1.737844757196405e-05
5.976358260641841e-07   -2.220418077485218e-06   -1.737844757196405e-05
5.976358260641841e-07   -2.220418077485218e-06   -1.737844757196405e-05
3.281447496592381e-05   -7.288563986304099e-06   -6.803229192643901e-05
3.281447496592381e-05   -7.288563986304099e-06   -6.803229192643901e-05
3.281447496592381e-05   -7.288563986304099e-06   -6.803229192643901e-05
3.281447496592381e-05   -7.288563986304099e-06   -6.803229192643901e-05
1.580813895541767e-05   -4.689134567298706e-06   -4.124805622699769e-05
1.580813895541767e-05   -4.689134567298706e-06   -4.124805622699769e-05
1.580813895541767e-05   -4.689134567298706e-06   -4.124805622699769e-05
1.580813895541767e-05   -4.689134567298706e-06   -4.124805622699769e-05
3.281447496592381e-05   -2.220418077485218e-06   -1.4337560026672939e-05
3.281447496592381e-05   -2.220418077485218e-06   -1.4337560026672939e-05
3.281447496592381e-05   -2.220418077485218e-06   -1.4337560026672939e-05
3.281447496592381e-05   -2.220418077485218e-06   -1.4337560026672939e-05
5.976358260641841e-07   -7.288563986304099e-06   -7.10731794717305e-05
5.976358260641841e-07   -7.288563986304099e-06   -7.10731794717305e-05
5.976358260641841e-07   -7.288563986304099e-06   -7.10731794717305e-05
5.976358260641841e-07   -7.288563986304099e-06   -7.10731794717305e-05
1.4014932503020078e-06   -9.094154002206242e-07   -1.8060448919477844e-05
1.4014932503020078e-06   -9.094154002206242e-07   -1.8060448919477844e-05
1.4014932503020078e-06   -9.094154002206242e-07   -1.8060448919477844e-05
1.4014932503020078e-06   -9.094154002206242e-07   -1.8060448919477844e-05
3.3657784378400996e-05   -6.221637517975307e-06   -6.863360086232362e-05
3.3657784378400996e-05   -6.221637517975307e-06   -6.863360086232362e-05
3.3657784378400996e-05   -6.221637517975307e-06   -6.863360086232362e-05
3.3657784378400996e-05   -6.221637517975307e-06   -6.863360086232362e-05
1.6851164646205596e-05   -3.953936755338346e-06   -4.198318843291445e-05
1.6851164646205596e-05   -3.953936755338346e-06   -4.198318843291445e-05
1.6851164646205596e-05   -3.953936755338346e-06   -4.198318843291445e-05
1.6851164646205596e-05   -3.953936755338346e-06   -4.198318843291445e-05
-1.8112200426903134e-06   7.373993307796013e-07   -2.3412636725616892e-05
-1.8112200426903134e-06   7.373993307796013e-07   -2.3412636725616892e-05
-1.8112200426903134e-06   7.373993307796013e-07   -2.3412636725616892e-05
-1.8112200426903134e-06   7.373993307796013e-07   -2.3412636725616892e-05
-3.347485644776827e-05   -4.455346890961699e-06   -7.930101180045812e-05
-3.347485644776827e-05   -4.455346890961699e-06   -7.930101180045812e-05
-3.347485644776827e-05   -4.455346890961699e-06   -7.930101180045812e-05
-3.347485644776827e-05   -4.455346890961699e-06   -7.930101180045812e-05
-3.193869149390064e-05   1.694486296383805e-06   -2.5463608957453348e-05
-3.193869149390064e-05   1.694486296383805e-06   -2.5463608957453348e-05
-3.193869149390064e-05   1.694486296383805e-06   -2.5463608957453348e-05
-3.193869149390064e-05   1.694486296383805e-06   -2.5463608957453348e-05
-5.307161172938245e-07   -3.982331454197886e-06   -7.440414393478236e-05
-5.307161172938245e-07   -3.982331454197886e-06   -7.440414393478236e-05
-5.307161172938245e-07   -3.982331454197886e-06   -7.440414393478236e-05
-5.307161172938245e-07   -3.982331454197886e-06   -7.440414393478236e-05
-1.6736904493787326e-05   -8.766764754714745e-07   -4.925722296119582e-05
-1.6736904493787326e-05   -8.766764754714745e-07   -4.925722296119582e-05
-1.6736904493787326e-05   -8.766764754714745e-07   -4.925722296119582e-05
-1.6736904493787326e-05   -8.766764754714745e-07   -4.925722296119582e-05
-5.307161172938245e-07   1.6944862963833712e-06   -2.2057518307104507e-05
-5.307161172938245e-07   1.6944862963833712e-06   -2.2057518307104507e-05
-5.307161172938245e-07   1.6944862963833712e-06   -2.2057518307104507e-05
-5.307161172938245e-07   1.6944862963833712e-06   -2.2057518307104507e-05
-3.193869149390064e-05   -3.982331454197886e-06   -7.781023458513147e-05
-3.193869149390064e-05   -3.982331454197886e-06   -7.781023458513147e-05
-3.193869149390064e-05   -3.982331454197886e-06   -7.781023458513147e-05
-3.193869149390064e-05   -3.982331454197886e-06   -7.781023458513147e-05
-3.0529314500166055e-05   2.8034179398749894e-06   -2.5008265609634088e-05
-3.0529314500166055e-05   2.8034179398749894e-06   -2.5008265609634088e-05
-3.0529314500166055e-05   2.8034179398749894e-06   -2.5008265609634088e-05
-3.0529314500166055e-05   2.8034179398749894e-06   -2.5008265609634088e-05
5.976358260641841e-07   -3.2437645343342744e-06   -7.325820666882591e-05
5.976358260641841e-07   -3.2437645343342744e-06   -7.325820666882591e-05
5.976358260641841e-07   -3.2437645343342744e-06   -7.325820666882591e-05
5.976358260641841e-07   -3.2437645343342744e-06   -7.325820666882591e-05
-1.5485270500755298e-05   -3.342951005748905e-07   -4.8199044451048816e-05
-1.5485270500755298e-05   -3.342951005748905e-07   -4.8199044451048816e-05
-1.5485270500755298e-05   -3.342951005748905e-07   -4.8199044451048816e-05
-1.5485270500755298e-05   -3.342951005748905e-07   -4.8199044451048816e-05
5.976358260641841e-07   2.8034179398749894e-06   -2.1379956125108747e-05
5.976358260641841e-07   2.8034179398749894e-06   -2.1379956125108747e-05
5.976358260641841e-07   2.8034179398749894e-06   -2.1379956125108747e-05
5.976358260641841e-07   2.8034179398749894e-06   -2.1379956125108747e-05
-3.052931450016611e-05   -3.2437645343342744e-06   -7.688651615335158e-05
-3.052931450016611e-05   -3.2437645343342744e-06   -7.688651615335158e-05
-3.052931450016611e-05   -3.2437645343342744e-06   -7.688651615335158e-05
-3.052931450016611e-05   -3.2437645343342744e-06   -7.688651615335158e-05
-2.9578849511809632e-05   3.9495767405945716e-06   -2.5440000157089457e-05
-2.9578849511809632e-05   3.9495767405945716e-06   -2.5440000157089457e-05
-2.9578849511809632e-05   3.9495767405945716e-06   -2.5440000157089457e-05
-2.9578849511809632e-05   3.9495767405945716e-06   -2.5440000157089457e-05
1.401493250302035e-06   -2.5436980994903574e-06   -7.317793985655804e-05
1.401493250302035e-06   -2.5436980994903574e-06   -7.317793985655804e-05
1.401493250302035e-06   -2.5436980994903574e-06   -7.317793985655804e-05
1.401493250302035e-06   -2.5436980994903574e-06   -7.317793985655804e-05
-1.4592049638904734e-05   2.749128581165487e-07   -4.82132016157784e-05
-1.4592049638904734e-05   2.749128581165487e-07   -4.82132016157784e-05
-1.4592049638904734e-05   2.749128581165487e-07   -4.82132016157784e-05
-1.4592049638904734e-05   2.749128581165487e-07   -4.82132016157784e-05
-3.3474856447768226e-05   5.763378011414046e-06   -1.9121064387388415e-05
-3.3474856447768226e-05   5.763378011414046e-06   -1.9121064387388415e-05
-3.3474856447768226e-05   5.763378011414046e-06   -1.9121064387388415e-05
-3.3474856447768226e-05   5.763378011414046e-06   -1.9121064387388415e-05
-6.557690555801761e-05   1.0809966171690909e-06   -7.543390840768455e-05
-6.557690555801761e-05   1.0809966171690909e-06   -7.543390840768455e-05
-6.557690555801761e-05   1.0809966171690909e-06   -7.543390840768455e-05
-6.557690555801761e-05   1.0809966171690909e-06   -7.543390840768455e-05
-6.339024825864858e-05   6.979531177248293e-06   -2.038573204918271e-05
-6.339024825864858e-05   6.979531177248293e-06   -2.038573204918271e-05
-6.339024825864858e-05   6.979531177248293e-06   -2.038573204918271e-05
-6.339024825864858e-05   6.979531177248293e-06   -2.038573204918271e-05
-3.193869149390058e-05   1.9587665013648045e-06   -6.979253451823273e-05
-3.193869149390058e-05   1.9587665013648045e-06   -6.979253451823273e-05
-3.193869149390058e-05   1.9587665013648045e-06   -6.979253451823273e-05
-3.193869149390058e-05   1.9587665013648045e-06   -6.979253451823273e-05
-4.808956638594201e-05   4.364826078206898e-06   -4.4318045444269e-05
-4.808956638594201e-05   4.364826078206898e-06   -4.4318045444269e-05
-4.808956638594201e-05   4.364826078206898e-06   -4.4318045444269e-05
-4.808956638594201e-05   4.364826078206898e-06   -4.4318045444269e-05
-3.193869149390058e-05   6.979531177248293e-06   -1.7373273243652745e-05
-3.193869149390058e-05   6.979531177248293e-06   -1.7373273243652745e-05
-3.193869149390058e-05   6.979531177248293e-06   -1.7373273243652745e-05
-3.193869149390058e-05   6.979531177248293e-06   -1.7373273243652745e-05
-6.339024825864869e-05   1.9587665013648045e-06   -7.280499332376275e-05
-6.339024825864869e-05   1.9587665013648045e-06   -7.280499332376275e-05
-6.339024825864869e-05   1.9587665013648045e-06   -7.280499332376275e-05
-6.339024825864869e-05   1.9587665013648045e-06   -7.280499332376275e-05
-6.127745828200923e-05   8.026996163722645e-06   -1.8578849914322078e-05
-6.127745828200923e-05   8.026996163722645e-06   -1.8578849914322078e-05
-6.127745828200923e-05   8.026996163722645e-06   -1.8578849914322078e-05
-6.127745828200923e-05   8.026996163722645e-06   -1.8578849914322078e-05
-3.052931450016611e-05   2.7671358310784634e-06   -6.666984001780772e-05
-3.052931450016611e-05   2.7671358310784634e-06   -6.666984001780772e-05
-3.052931450016611e-05   2.7671358310784634e-06   -6.666984001780772e-05
-3.052931450016611e-05   2.7671358310784634e-06   -6.666984001780772e-05
-4.611483122565094e-05   5.128495160750153e-06   -4.211079440646879e-05
-4.611483122565094e-05   5.128495160750153e-06   -4.211079440646879e-05
-4.611483122565094e-05   5.128495160750153e-06   -4.211079440646879e-05
-4.611483122565094e-05   5.128495160750153e-06   -4.211079440646879e-05
-3.052931450016603e-05   8.026996163722645e-06   -1.5422933714735482e-05
-3.052931450016603e-05   8.026996163722645e-06   -1.5422933714735482e-05
-3.052931450016603e-05   8.026996163722645e-06   -1.5422933714735482e-05
-3.052931450016603e-05   8.026996163722645e-06   -1.5422933714735482e-05
-6.127745828200934e-05   2.767135831078897e-06   -6.982575621739418e-05
-6.127745828200934e-05   2.767135831078897e-06   -6.982575621739418e-05
-6.127745828200934e-05   2.767135831078897e-06   -6.982575621739418e-05
-6.127745828200934e-05   2.767135831078897e-06   -6.982575621739418e-05
-5.9673248963286486e-05   9.18638648227544e-06   -1.8637047108562878e-05
-5.9673248963286486e-05   9.18638648227544e-06   -1.8637047108562878e-05
-5.9673248963286486e-05   9.18638648227544e-06   -1.8637047108562878e-05
-5.9673248963286486e-05   9.18638648227544e-06   -1.8637047108562878e-05
-2.9578849511809687e-05   3.4516311953410213e-06   -6.535352635553054e-05
-2.9578849511809687e-05   3.4516311953410213e-06   -6.535352635553054e-05
-2.9578849511809687e-05   3.4516311953410213e-06   -6.535352635553054e-05
-2.9578849511809687e-05   3.4516311953410213e-06   -6.535352635553054e-05
-4.5005182230021695e-05   5.661320434518016e-06   -4.096878536868304e-05
-4.5005182230021695e-05   5.661320434518016e-06   -4.096878536868304e-05
-4.5005182230021695e-05   5.661320434518016e-06   -4.096878536868304e-05
-4.5005182230021695e-05   5.661320434518016e-06   -4.096878536868304e-05
-6.557690555801761e-05   1.1336558710985708e-05   -1.0977843505601426e-05
-6.557690555801761e-05   1.1336558710985708e-05   -1.0977843505601426e-05
-6.557690555801761e-05   1.1336558710985708e-05   -1.0977843505601426e-05
-6.557690555801761e-05   1.1336558710985708e-05   -1.0977843505601426e-05
-9.910778533241666e-05   1.0692943175889032e-05   -6.72488124506584e-05
-9.910778533241666e-05   1.0692943175889032e-05   -6.72488124506584e-05
-9.910778533241666e-05   1.0692943175889032e-05   -6.72488124506584e-05
-9.910778533241666e-05   1.0692943175889032e-05   -6.72488124506584e-05
-9.480232744819663e-05   1.2952321961958932e-05   -3.7805127605294517e-07
-9.480232744819663e-05   1.2952321961958932e-05   -3.7805127605294517e-07
-9.480232744819663e-05   1.2952321961958932e-05   -3.7805127605294517e-07
-9.480232744819663e-05   1.2952321961958932e-05   -3.7805127605294517e-07
-6.339024825864848e-05   1.3549578526139174e-05   -5.308987053047475e-05
-6.339024825864848e-05   1.3549578526139174e-05   -5.308987053047475e-05
-6.339024825864848e-05   1.3549578526139174e-05   -5.308987053047475e-05
-6.339024825864848e-05   1.3549578526139174e-05   -5.308987053047475e-05
-7.723762740095445e-05   1.2777630799560864e-05   -2.9547736657351106e-05
-7.723762740095445e-05   1.2777630799560864e-05   -2.9547736657351106e-05
-7.723762740095445e-05   1.2777630799560864e-05   -2.9547736657351106e-05
-7.723762740095445e-05   1.2777630799560864e-05   -2.9547736657351106e-05
-6.339024825864864e-05   1.2952321961958932e-05   -7.364052145607865e-07
-6.339024825864864e-05   1.2952321961958932e-05   -7.364052145607865e-07
-6.339024825864864e-05   1.2952321961958932e-05   -7.364052145607865e-07
-6.339024825864864e-05   1.2952321961958932e-05   -7.364052145607865e-07
-9.480232744819663e-05   1.3549578526139174e-05   -5.273151659196656e-05
-9.480232744819663e-05   1.3549578526139174e-05   -5.273151659196656e-05
-9.480232744819663e-05   1.3549578526139174e-05   -5.273151659196656e-05
-9.480232744819663e-05   1.3549578526139174e-05   -5.273151659196656e-05
-9.123016019998376e-05   1.3376977254692373e-05   5.614142917004326e-06
-9.123016019998376e-05   1.3376977254692373e-05   5.614142917004326e-06
-9.123016019998376e-05   1.3376977254692373e-05   5.614142917004326e-06
-9.123016019998376e-05   1.3376977254692373e-05   5.614142917004326e-06
-6.127745828200923e-05   1.4190985506255457e-05   -4.479543189722466e-05
-6.127745828200923e-05   1.4190985506255457e-05   -4.479543189722466e-05
-6.127745828200923e-05   1.4190985506255457e-05   -4.479543189722466e-05
-6.127745828200923e-05   1.4190985506255457e-05   -4.479543189722466e-05
-7.560038225328222e-05   1.3707267562313406e-05   -2.063366117873698e-05
-7.560038225328222e-05   1.3707267562313406e-05   -2.063366117873698e-05
-7.560038225328222e-05   1.3707267562313406e-05   -2.063366117873698e-05
-7.560038225328222e-05   1.3707267562313406e-05   -2.063366117873698e-05
-6.127745828200934e-05   1.337697725469194e-05   5.125737966066432e-06
-6.127745828200934e-05   1.337697725469194e-05   5.125737966066432e-06
-6.127745828200934e-05   1.337697725469194e-05   5.125737966066432e-06
-6.127745828200934e-05   1.337697725469194e-05   5.125737966066432e-06
-9.12301601999836e-05   1.4190985506255457e-05   -4.430702694628694e-05
-9.12301601999836e-05   1.4190985506255457e-05   -4.430702694628694e-05
-9.12301601999836e-05   1.4190985506255457e-05   -4.430702694628694e-05
-9.12301601999836e-05   1.4190985506255457e-05   -4.430702694628694e-05
-8.749551033780441e-05   1.3744609254060392e-05   1.3640659570162902e-05
-8.749551033780441e-05   1.3744609254060392e-05   1.3640659570162902e-05
-8.749551033780441e-05   1.3744609254060392e-05   1.3640659570162902e-05
-8.749551033780441e-05   1.3744609254060392e-05   1.3640659570162902e-05
-5.9673248963286486e-05   1.5296475386621707e-05   -3.366089573357076e-05
-5.9673248963286486e-05   1.5296475386621707e-05   -3.366089573357076e-05
-5.9673248963286486e-05   1.5296475386621707e-05   -3.366089573357076e-05
-5.9673248963286486e-05   1.5296475386621707e-05   -3.366089573357076e-05
-7.199778507256218e-05   1.4021285598497888e-05   -1.2354888345237673e-05
-7.199778507256218e-05   1.4021285598497888e-05   -1.2354888345237673e-05
-7.199778507256218e-05   1.4021285598497888e-05   -1.2354888345237673e-05
-7.199778507256218e-05   1.4021285598497888e-05   -1.2354888345237673e-05
8.65210646129156e-05   -1.3001740456485087e-05   2.9470322562444176e-05
8.65210646129156e-05   -1.3001740456485087e-05   2.9470322562444176e-05
8.65210646129156e-05   -1.3001740456485087e-05   2.9470322562444176e-05
8.65210646129156e-05   -1.3001740456485087e-05   2.9470322562444176e-05
4.350491095346751e-05   -1.644974632758261e-05   -4.4292070392627954e-05
4.350491095346751e-05   -1.644974632758261e-05   -4.4292070392627954e-05
4.350491095346751e-05   -1.644974632758261e-05   -4.4292070392627954e-05
4.350491095346751e-05   -1.644974632758261e-05   -4.4292070392627954e-05
4.457260699958172e-05   -1.2697058419963193e-05   2.1127776764242462e-05
4.457260699958172e-05   -1.2697058419963193e-05   2.1127776764242462e-05
4.457260699958172e-05   -1.2697058419963193e-05   2.1127776764242462e-05
4.457260699958172e-05   -1.2697058419963193e-05   2.1127776764242462e-05
8.868321648696225e-05   -1.6861205976488863e-05   -4.989141718080947e-05
8.868321648696225e-05   -1.6861205976488863e-05   -4.989141718080947e-05
8.868321648696225e-05   -1.6861205976488863e-05   -4.989141718080947e-05
8.868321648696225e-05   -1.6861205976488863e-05   -4.989141718080947e-05
6.319951886376431e-05   -1.3281196096491012e-05   -9.56659373681153e-06
6.319951886376431e-05   -1.3281196096491012e-05   -9.56659373681153e-06
6.319951886376431e-05   -1.3281196096491012e-05   -9.56659373681153e-06
6.319951886376431e-05   -1.3281196096491012e-05   -9.56659373681153e-06
8.868321648696225e-05   -1.2697058419963193e-05   2.3626265298158124e-05
8.868321648696225e-05   -1.2697058419963193e-05   2.3626265298158124e-05
8.868321648696225e-05   -1.2697058419963193e-05   2.3626265298158124e-05
8.868321648696225e-05   -1.2697058419963193e-05   2.3626265298158124e-05
4.457260699958172e-05   -1.6861205976488863e-05   -5.238990571472513e-05
4.457260699958172e-05   -1.6861205976488863e-05   -5.238990571472513e-05
4.457260699958172e-05   -1.6861205976488863e-05   -5.238990571472513e-05
4.457260699958172e-05   -1.6861205976488863e-05   -5.238990571472513e-05
4.5475184838728234e-05   -1.2256604550641738e-05   1.6664803899349434e-05
4.5475184838728234e-05   -1.2256604550641738e-05   1.6664803899349434e-05
4.5475184838728234e-05   -1.2256604550641738e-05   1.6664803899349434e-05
4.5475184838728234e-05   -1.2256604550641738e-05   1.6664803899349434e-05
9.003117408550772e-05   -1.6709378733577654e-05   -5.492351366885459e-05
9.003117408550772e-05   -1.6709378733577654e-05   -5.492351366885459e-05
9.003117408550772e-05   -1.6709378733577654e-05   -5.492351366885459e-05
9.003117408550772e-05   -1.6709378733577654e-05   -5.492351366885459e-05
6.543176174852307e-05   -1.3701830111192102e-05   -1.5729022280644802e-05
6.543176174852307e-05   -1.3701830111192102e-05   -1.5729022280644802e-05
6.543176174852307e-05   -1.3701830111192102e-05   -1.5729022280644802e-05
6.543176174852307e-05   -1.3701830111192102e-05   -1.5729022280644802e-05
9.003117408550772e-05   -1.2256604550641738e-05   1.93364684091112e-05
9.003117408550772e-05   -1.2256604550641738e-05   1.93364684091112e-05
9.003117408550772e-05   -1.2256604550641738e-05   1.93364684091112e-05
9.003117408550772e-05   -1.2256604550641738e-05   1.93364684091112e-05
4.5475184838728234e-05   -1.6709378733577654e-05   -5.7595178178616304e-05
4.5475184838728234e-05   -1.6709378733577654e-05   -5.7595178178616304e-05
4.5475184838728234e-05   -1.6709378733577654e-05   -5.7595178178616304e-05
4.5475184838728234e-05   -1.6709378733577654e-05   -5.7595178178616304e-05
4.6418868185946964e-05   -1.0537350013121484e-05   7.999636776451734e-06
4.6418868185946964e-05   -1.0537350013121484e-05   7.999636776451734e-06
4.6418868185946964e-05   -1.0537350013121484e-05   7.999636776451734e-06
4.6418868185946964e-05   -1.0537350013121484e-05   7.999636776451734e-06
9.135839153475347e-05   -1.5782510683541237e-05   -6.37524724026408e-05
9.135839153475347e-05   -1.5782510683541237e-05   -6.37524724026408e-05
9.135839153475347e-05   -1.5782510683541237e-05   -6.37524724026408e-05
9.135839153475347e-05   -1.5782510683541237e-05   -6.37524724026408e-05
6.546874402607228e-05   -1.318801167116742e-05   -2.215975929559667e-05
6.546874402607228e-05   -1.318801167116742e-05   -2.215975929559667e-05
6.546874402607228e-05   -1.318801167116742e-05   -2.215975929559667e-05
6.546874402607228e-05   -1.318801167116742e-05   -2.215975929559667e-05
4.350491095346751e-05   -8.440547657740088e-06   2.851013088376415e-06
4.350491095346751e-05   -8.440547657740088e-06   2.851013088376415e-06
4.350491095346751e-05   -8.440547657740088e-06   2.851013088376415e-06
4.350491095346751e-05   -8.440547657740088e-06   2.851013088376415e-06
5.200389631985765e-06   -1.6539442310446826e-05   -6.584919257238424e-05
5.200389631985765e-06   -1.6539442310446826e-05   -6.584919257238424e-05
5.200389631985765e-06   -1.6539442310446826e-05   -6.584919257238424e-05
5.200389631985765e-06   -1.6539442310446826e-05   -6.584919257238424e-05
6.44524093470163e-06   -8.038539093912882e-06   -4.6992175954272894e-07
6.44524093470163e-06   -8.038539093912882e-06   -4.6992175954272894e-07
6.44524093470163e-06   -8.038539093912882e-06   -4.6992175954272894e-07
6.44524093470163e-06   -8.038539093912882e-06   -4.6992175954272894e-07
4.45726069995818e-05   -1.6456259038733802e-05   -5.896489990078388e-05
4.45726069995818e-05   -1.6456259038733802e-05   -5.896489990078388e-05
4.45726069995818e-05   -1.6456259038733802e-05   -5.896489990078388e-05
4.45726069995818e-05   -1.6456259038733802e-05   -5.896489990078388e-05
2.502879081995522e-05   -1.1156197070955488e-05   -2.9571910115406695e-05
2.502879081995522e-05   -1.1156197070955488e-05   -2.9571910115406695e-05
2.502879081995522e-05   -1.1156197070955488e-05   -2.9571910115406695e-05
2.502879081995522e-05   -1.1156197070955488e-05   -2.9571910115406695e-05
4.457260699958167e-05   -8.038539093912882e-06   4.5807102073498664e-06
4.457260699958167e-05   -8.038539093912882e-06   4.5807102073498664e-06
4.457260699958167e-05   -8.038539093912882e-06   4.5807102073498664e-06
4.457260699958167e-05   -8.038539093912882e-06   4.5807102073498664e-06
6.44524093470163e-06   -1.6456259038733802e-05   -6.401553186767637e-05
6.44524093470163e-06   -1.6456259038733802e-05   -6.401553186767637e-05
6.44524093470163e-06   -1.6456259038733802e-05   -6.401553186767637e-05
6.44524093470163e-06   -1.6456259038733802e-05   -6.401553186767637e-05
7.568981783611663e-06   -7.288563986304099e-06   -8.726937670128741e-07
7.568981783611663e-06   -7.288563986304099e-06   -8.726937670128741e-07
7.568981783611663e-06   -7.288563986304099e-06   -8.726937670128741e-07
7.568981783611663e-06   -7.288563986304099e-06   -8.726937670128741e-07
4.5475184838728234e-05   -1.623760719889067e-05   -5.8680272931321777e-05
4.5475184838728234e-05   -1.623760719889067e-05   -5.8680272931321777e-05
4.5475184838728234e-05   -1.623760719889067e-05   -5.8680272931321777e-05
4.5475184838728234e-05   -1.623760719889067e-05   -5.8680272931321777e-05
2.573705392269941e-05   -1.1280997994028794e-05   -2.875735359418976e-05
2.573705392269941e-05   -1.1280997994028794e-05   -2.875735359418976e-05
2.573705392269941e-05   -1.1280997994028794e-05   -2.875735359418976e-05
2.573705392269941e-05   -1.1280997994028794e-05   -2.875735359418976e-05
4.5475184838728234e-05   -7.288563986304099e-06   4.496732160539111e-06
4.5475184838728234e-05   -7.288563986304099e-06   4.496732160539111e-06
4.5475184838728234e-05   -7.288563986304099e-06   4.496732160539111e-06
4.5475184838728234e-05   -7.288563986304099e-06   4.496732160539111e-06
7.568981783611663e-06   -1.623760719889067e-05   -6.40496988588736e-05
7.568981783611663e-06   -1.623760719889067e-05   -6.40496988588736e-05
7.568981783611663e-06   -1.623760719889067e-05   -6.40496988588736e-05
7.568981783611663e-06   -1.623760719889067e-05   -6.40496988588736e-05
9.245751573219306e-06   -6.221637517975307e-06   -1.649273257121192e-06
9.245751573219306e-06   -6.221637517975307e-06   -1.649273257121192e-06
9.245751573219306e-06   -6.221637517975307e-06   -1.649273257121192e-06
9.245751573219306e-06   -6.221637517975307e-06   -1.649273257121192e-06
4.641886818594694e-05   -1.5799321640513203e-05   -5.785785713814488e-05
4.641886818594694e-05   -1.5799321640513203e-05   -5.785785713814488e-05
4.641886818594694e-05   -1.5799321640513203e-05   -5.785785713814488e-05
4.641886818594694e-05   -1.5799321640513203e-05   -5.785785713814488e-05
2.7083922749946817e-05   -1.1108590111226502e-05   -2.844738699571658e-05
2.7083922749946817e-05   -1.1108590111226502e-05   -2.844738699571658e-05
2.7083922749946817e-05   -1.1108590111226502e-05   -2.844738699571658e-05
2.7083922749946817e-05   -1.1108590111226502e-05   -2.844738699571658e-05
5.200389631985765e-06   -4.455346890961699e-06   -6.630566616787868e-06
5.200389631985765e-06   -4.455346890961699e-06   -6.630566616787868e-06
5.200389631985765e-06   -4.455346890961699e-06   -6.630566616787868e-06
5.200389631985765e-06   -4.455346890961699e-06   -6.630566616787868e-06
-3.270967397906723e-05   -1.9991358127841637e-05   -7.913561271067075e-05
-3.270967397906723e-05   -1.9991358127841637e-05   -7.913561271067075e-05
-3.270967397906723e-05   -1.9991358127841637e-05   -7.913561271067075e-05
-3.270967397906723e-05   -1.9991358127841637e-05   -7.913561271067075e-05
-3.077099749332388e-05   -3.982331454197886e-06   -1.4257217168686404e-05
-3.077099749332388e-05   -3.982331454197886e-06   -1.4257217168686404e-05
-3.077099749332388e-05   -3.982331454197886e-06   -1.4257217168686404e-05
-3.077099749332388e-05   -3.982331454197886e-06   -1.4257217168686404e-05
6.44524093470163e-06   -2.0436124018387552e-05   -6.641200567688205e-05
6.44524093470163e-06   -2.0436124018387552e-05   -6.641200567688205e-05
6.44524093470163e-06   -2.0436124018387552e-05   -6.641200567688205e-05
6.44524093470163e-06   -2.0436124018387552e-05   -6.641200567688205e-05
-1.2519422141925359e-05   -1.131294182345026e-05   -4.027814319946621e-05
-1.2519422141925359e-05   -1.131294182345026e-05   -4.027814319946621e-05
-1.2519422141925359e-05   -1.131294182345026e-05   -4.027814319946621e-05
-1.2519422141925359e-05   -1.131294182345026e-05   -4.027814319946621e-05
6.44524093470163e-06   -3.982331454197886e-06   -4.384941630172995e-06
6.44524093470163e-06   -3.982331454197886e-06   -4.384941630172995e-06
6.44524093470163e-06   -3.982331454197886e-06   -4.384941630172995e-06
6.44524093470163e-06   -3.982331454197886e-06   -4.384941630172995e-06
-3.0770997493323934e-05   -2.0436124018387118e-05   -7.628428121539605e-05
-3.0770997493323934e-05   -2.0436124018387118e-05   -7.628428121539605e-05
-3.0770997493323934e-05   -2.0436124018387118e-05   -7.628428121539605e-05
-3.0770997493323934e-05   -2.0436124018387118e-05   -7.628428121539605e-05
-2.910087546603013e-05   -3.2437645343338407e-06   -1.3317693174504878e-05
-2.910087546603013e-05   -3.2437645343338407e-06   -1.3317693174504878e-05
-2.910087546603013e-05   -3.2437645343338407e-06   -1.3317693174504878e-05
-2.910087546603013e-05   -3.2437645343338407e-06   -1.3317693174504878e-05
7.568981783611663e-06   -2.034371821832935e-05   -6.41741497135114e-05
7.568981783611663e-06   -2.034371821832935e-05   -6.41741497135114e-05
7.568981783611663e-06   -2.034371821832935e-05   -6.41741497135114e-05
7.568981783611663e-06   -2.034371821832935e-05   -6.41741497135114e-05
-1.1142559932501382e-05   -1.1571611317773463e-05   -3.8251510993656294e-05
-1.1142559932501382e-05   -1.1571611317773463e-05   -3.8251510993656294e-05
-1.1142559932501382e-05   -1.1571611317773463e-05   -3.8251510993656294e-05
-1.1142559932501382e-05   -1.1571611317773463e-05   -3.8251510993656294e-05
7.568981783611663e-06   -3.2437645343342744e-06   -3.0577209641081786e-06
7.568981783611663e-06   -3.2437645343342744e-06   -3.0577209641081786e-06
7.568981783611663e-06   -3.2437645343342744e-06   -3.0577209641081786e-06
7.568981783611663e-06   -3.2437645343342744e-06   -3.0577209641081786e-06
-2.9100875466030253e-05   -2.0343718218328918e-05   -7.443412192390864e-05
-2.9100875466030253e-05   -2.0343718218328918e-05   -7.443412192390864e-05
-2.9100875466030253e-05   -2.0343718218328918e-05   -7.443412192390864e-05
-2.9100875466030253e-05   -2.0343718218328918e-05   -7.443412192390864e-05
-2.6219601946062955e-05   -2.543698099490791e-06   -1.3260523611743555e-05
-2.6219601946062955e-05   -2.543698099490791e-06   -1.3260523611743555e-05
-2.6219601946062955e-05   -2.543698099490791e-06   -1.3260523611743555e-05
-2.6219601946062955e-05   -2.543698099490791e-06   -1.3260523611743555e-05
9.245751573219306e-06   -1.963410581789192e-05   -6.211520151283985e-05
9.245751573219306e-06   -1.963410581789192e-05   -6.211520151283985e-05
9.245751573219306e-06   -1.963410581789192e-05   -6.211520151283985e-05
9.245751573219306e-06   -1.963410581789192e-05   -6.211520151283985e-05
-9.353449095198377e-06   -1.1317902928906394e-05   -3.6106255465535116e-05
-9.353449095198377e-06   -1.1317902928906394e-05   -3.6106255465535116e-05
-9.353449095198377e-06   -1.1317902928906394e-05   -3.6106255465535116e-05
-9.353449095198377e-06   -1.1317902928906394e-05   -3.6106255465535116e-05
-3.270967397906715e-05   1.0809966171690909e-06   -9.275641129594722e-06
-3.270967397906715e-05   1.0809966171690909e-06   -9.275641129594722e-06
-3.270967397906715e-05   1.0809966171690909e-06   -9.275641129594722e-06
-3.270967397906715e-05   1.0809966171690909e-06   -9.275641129594722e-06
-7.502068415371596e-05   -2.4964278744597432e-05   -9.542115663773603e-05
-7.502068415371596e-05   -2.4964278744597432e-05   -9.542115663773603e-05
-7.502068415371596e-05   -2.4964278744597432e-05   -9.542115663773603e-05
-7.502068415371596e-05   -2.4964278744597432e-05   -9.542115663773603e-05
-7.27083958126029e-05   1.9587665013648045e-06   -2.4130521301125342e-05
-7.27083958126029e-05   1.9587665013648045e-06   -2.4130521301125342e-05
-7.27083958126029e-05   1.9587665013648045e-06   -2.4130521301125342e-05
-7.27083958126029e-05   1.9587665013648045e-06   -2.4130521301125342e-05
-3.077099749332388e-05   -2.7859573830863772e-05   -7.613518096725284e-05
-3.077099749332388e-05   -2.7859573830863772e-05   -7.613518096725284e-05
-3.077099749332388e-05   -2.7859573830863772e-05   -7.613518096725284e-05
-3.077099749332388e-05   -2.7859573830863772e-05   -7.613518096725284e-05
-5.204080275581794e-05   -1.2715385639277838e-05   -4.977201844471411e-05
-5.204080275581794e-05   -1.2715385639277838e-05   -4.977201844471411e-05
-5.204080275581794e-05   -1.2715385639277838e-05   -4.977201844471411e-05
-5.204080275581794e-05   -1.2715385639277838e-05   -4.977201844471411e-05
-3.077099749332388e-05   1.9587665013648045e-06   -6.239517101787936e-06
-3.077099749332388e-05   1.9587665013648045e-06   -6.239517101787936e-06
-3.077099749332388e-05   1.9587665013648045e-06   -6.239517101787936e-06
-3.077099749332388e-05   1.9587665013648045e-06   -6.239517101787936e-06
-7.27083958126029e-05   -2.7859573830863772e-05   -9.402618516659005e-05
-7.27083958126029e-05   -2.7859573830863772e-05   -9.402618516659005e-05
-7.27083958126029e-05   -2.7859573830863772e-05   -9.402618516659005e-05
-7.27083958126029e-05   -2.7859573830863772e-05   -9.402618516659005e-05
-7.049152415573035e-05   2.767135831078897e-06   -2.1572251645321852e-05
-7.049152415573035e-05   2.767135831078897e-06   -2.1572251645321852e-05
-7.049152415573035e-05   2.767135831078897e-06   -2.1572251645321852e-05
-7.049152415573035e-05   2.767135831078897e-06   -2.1572251645321852e-05
-2.91008754660302e-05   -2.8018255179521057e-05   -7.208543152179524e-05
-2.91008754660302e-05   -2.8018255179521057e-05   -7.208543152179524e-05
-2.91008754660302e-05   -2.8018255179521057e-05   -7.208543152179524e-05
-2.91008754660302e-05   -2.8018255179521057e-05   -7.208543152179524e-05
-4.978631067077074e-05   -1.2761411380490893e-05   -4.676381245997938e-05
-4.978631067077074e-05   -1.2761411380490893e-05   -4.676381245997938e-05
-4.978631067077074e-05   -1.2761411380490893e-05   -4.676381245997938e-05
-4.978631067077074e-05   -1.2761411380490893e-05   -4.676381245997938e-05
-2.910087546603017e-05   2.767135831078897e-06   -3.101017038961533e-06
-2.910087546603017e-05   2.767135831078897e-06   -3.101017038961533e-06
-2.910087546603017e-05   2.767135831078897e-06   -3.101017038961533e-06
-2.910087546603017e-05   2.767135831078897e-06   -3.101017038961533e-06
-7.049152415573048e-05   -2.8018255179521057e-05   -9.055666612815534e-05
-7.049152415573048e-05   -2.8018255179521057e-05   -9.055666612815534e-05
-7.049152415573048e-05   -2.8018255179521057e-05   -9.055666612815534e-05
-7.049152415573048e-05   -2.8018255179521057e-05   -9.055666612815534e-05
-6.686014849965298e-05   3.4516311953410213e-06   -1.89645785332003e-05
-6.686014849965298e-05   3.4516311953410213e-06   -1.89645785332003e-05
-6.686014849965298e-05   3.4516311953410213e-06   -1.89645785332003e-05
-6.686014849965298e-05   3.4516311953410213e-06   -1.89645785332003e-05
-2.6219601946063037e-05   -2.5589091015550038e-05   -6.927438946264857e-05
-2.6219601946063037e-05   -2.5589091015550038e-05   -6.927438946264857e-05
-2.6219601946063037e-05   -2.5589091015550038e-05   -6.927438946264857e-05
-2.6219601946063037e-05   -2.5589091015550038e-05   -6.927438946264857e-05
-4.755754031595382e-05   -1.1285172362232327e-05   -4.229351003815358e-05
-4.755754031595382e-05   -1.1285172362232327e-05   -4.229351003815358e-05
-4.755754031595382e-05   -1.1285172362232327e-05   -4.229351003815358e-05
-4.755754031595382e-05   -1.1285172362232327e-05   -4.229351003815358e-05
-7.502068415371596e-05   1.0692943175889032e-05   -1.6331541068570878e-05
-7.502068415371596e-05   1.0692943175889032e-05   -1.6331541068570878e-05
-7.502068415371596e-05   1.0692943175889032e-05   -1.6331541068570878e-05
-7.502068415371596e-05   1.0692943175889032e-05   -1.6331541068570878e-05
-0.00012924587631122774   0.0   -0.00011312262723662419
-0.00012924587631122774   0.0   -0.00011312262723662419
-0.00012924587631122774   0.0   -0.00011312262723662419
-0.00012924587631122774   0.0   -0.00011312262723662419
-0.0001258599524510389   1.3549578526139174e-05   -1.2545145623520711e-05
-0.0001258599524510389   1.3549578526139174e-05   -1.2545145623520711e-05
-0.0001258599524510389   1.3549578526139174e-05   -1.2545145623520711e-05
-0.0001258599524510389   1.3549578526139174e-05   -1.2545145623520711e-05
-7.270839581260278e-05   0.0   -9.300132623856386e-05
-7.270839581260278e-05   0.0   -9.300132623856386e-05
-7.270839581260278e-05   0.0   -9.300132623856386e-05
-7.270839581260278e-05   0.0   -9.300132623856386e-05
-9.642892890779912e-05   4.1338420702832085e-06   -5.594740965540656e-05
-9.642892890779912e-05   4.1338420702832085e-06   -5.594740965540656e-05
-9.642892890779912e-05   4.1338420702832085e-06   -5.594740965540656e-05
-9.642892890779912e-05   4.1338420702832085e-06   -5.594740965540656e-05
-7.270839581260285e-05   1.3549578526139174e-05   -4.41539850783699e-06
-7.270839581260285e-05   1.3549578526139174e-05   -4.41539850783699e-06
-7.270839581260285e-05   1.3549578526139174e-05   -4.41539850783699e-06
-7.270839581260285e-05   1.3549578526139174e-05   -4.41539850783699e-06
-0.0001258599524510387   0.0   -0.00010113107335424734
-0.0001258599524510387   0.0   -0.00010113107335424734
-0.0001258599524510387   0.0   -0.00010113107335424734
-0.0001258599524510387   0.0   -0.00010113107335424734
-0.0001229972867712159   1.4190985506255024e-05   -5.056518628905257e-06
-0.0001229972867712159   1.4190985506255024e-05   -5.056518628905257e-06
-0.0001229972867712159   1.4190985506255024e-05   -5.056518628905257e-06
-0.0001229972867712159   1.4190985506255024e-05   -5.056518628905257e-06
-7.049152415573048e-05   0.0   -8.4051531684295e-05
-7.049152415573048e-05   0.0   -8.4051531684295e-05
-7.049152415573048e-05   0.0   -8.4051531684295e-05
-7.049152415573048e-05   0.0   -8.4051531684295e-05
-9.541333068008848e-05   6.5595968824715654e-06   -4.645094560651317e-05
-9.541333068008848e-05   6.5595968824715654e-06   -4.645094560651317e-05
-9.541333068008848e-05   6.5595968824715654e-06   -4.645094560651317e-05
-9.541333068008848e-05   6.5595968824715654e-06   -4.645094560651317e-05
-7.049152415573048e-05   1.4190985506255457e-05   3.4580726748477137e-06
-7.049152415573048e-05   1.4190985506255457e-05   3.4580726748477137e-06
-7.049152415573048e-05   1.4190985506255457e-05   3.4580726748477137e-06
-7.049152415573048e-05   1.4190985506255457e-05   3.4580726748477137e-06
-0.00012299728677121568   0.0   -9.256612298804779e-05
-0.00012299728677121568   0.0   -9.256612298804779e-05
-0.00012299728677121568   0.0   -9.256612298804779e-05
-0.00012299728677121568   0.0   -9.256612298804779e-05
-0.00011728737762779942   1.5296475386621707e-05   6.991020028947062e-06
-0.00011728737762779942   1.5296475386621707e-05   6.991020028947062e-06
-0.00011728737762779942   1.5296475386621707e-05   6.991020028947062e-06
-0.00011728737762779942   1.5296475386621707e-05   6.991020028947062e-06
-6.68601484996531e-05   0.0   -6.787647661932403e-05
-6.68601484996531e-05   0.0   -6.787647661932403e-05
-6.68601484996531e-05   0.0   -6.787647661932403e-05
-6.68601484996531e-05   0.0   -6.787647661932403e-05
-9.043553138269196e-05   8.093632382985202e-06   -3.344035124405021e-05
-9.043553138269196e-05   8.093632382985202e-06   -3.344035124405021e-05
-9.043553138269196e-05   8.093632382985202e-06   -3.344035124405021e-05
-9.043553138269196e-05   8.093632382985202e-06   -3.344035124405021e-05
9.572282351626683e-05   -1.644974632758261e-05   5.716246872069586e-05
9.572282351626683e-05   -1.644974632758261e-05   5.716246872069586e-05
9.572282351626683e-05   -1.644974632758261e-05   5.716246872069586e-05
9.572282351626683e-05   -1.644974632758261e-05   5.716246872069586e-05
4.9680109496488806e-05   -1.2663705813474938e-05   -1.7303763670469072e-05
4.9680109496488806e-05   -1.2663705813474938e-05   -1.7303763670469072e-05
4.9680109496488806e-05   -1.2663705813474938e-05   -1.7303763670469072e-05
4.9680109496488806e-05   -1.2663705813474938e-05   -1.7303763670469072e-05
4.84270472873628e-05   -1.6861205976488863e-05   5.049920684670759e-05
4.84270472873628e-05   -1.6861205976488863e-05   5.049920684670759e-05
4.84270472873628e-05   -1.6861205976488863e-05   5.049920684670759e-05
4.84270472873628e-05   -1.6861205976488863e-05   5.049920684670759e-05
9.469455947091188e-05   -1.392554588824273e-05   -2.837470951215577e-05
9.469455947091188e-05   -1.392554588824273e-05   -2.837470951215577e-05
9.469455947091188e-05   -1.392554588824273e-05   -2.837470951215577e-05
9.469455947091188e-05   -1.392554588824273e-05   -2.837470951215577e-05
6.918039054536425e-05   -1.416779200133023e-05   1.4294253031609915e-05
6.918039054536425e-05   -1.416779200133023e-05   1.4294253031609915e-05
6.918039054536425e-05   -1.416779200133023e-05   1.4294253031609915e-05
6.918039054536425e-05   -1.416779200133023e-05   1.4294253031609915e-05
9.469455947091188e-05   -1.6861205976488863e-05   4.8737810793759474e-05
9.469455947091188e-05   -1.6861205976488863e-05   4.8737810793759474e-05
9.469455947091188e-05   -1.6861205976488863e-05   4.8737810793759474e-05
9.469455947091188e-05   -1.6861205976488863e-05   4.8737810793759474e-05
4.84270472873628e-05   -1.392554588824273e-05   -2.6613313459207576e-05
4.84270472873628e-05   -1.392554588824273e-05   -2.6613313459207576e-05
4.84270472873628e-05   -1.392554588824273e-05   -2.6613313459207576e-05
4.84270472873628e-05   -1.392554588824273e-05   -2.6613313459207576e-05
4.729379711215513e-05   -1.6709378733577654e-05   4.5346915353235845e-05
4.729379711215513e-05   -1.6709378733577654e-05   4.5346915353235845e-05
4.729379711215513e-05   -1.6709378733577654e-05   4.5346915353235845e-05
4.729379711215513e-05   -1.6709378733577654e-05   4.5346915353235845e-05
9.350649606243232e-05   -1.4042546712496155e-05   -3.327434877654239e-05
9.350649606243232e-05   -1.4042546712496155e-05   -3.327434877654239e-05
9.350649606243232e-05   -1.4042546712496155e-05   -3.327434877654239e-05
9.350649606243232e-05   -1.4042546712496155e-05   -3.327434877654239e-05
6.912404949751185e-05   -1.4416236349854353e-05   7.587275947407049e-06
6.912404949751185e-05   -1.4416236349854353e-05   7.587275947407049e-06
6.912404949751185e-05   -1.4416236349854353e-05   7.587275947407049e-06
6.912404949751185e-05   -1.4416236349854353e-05   7.587275947407049e-06
9.350649606243249e-05   -1.6709378733578088e-05   4.3746816140586425e-05
9.350649606243249e-05   -1.6709378733578088e-05   4.3746816140586425e-05
9.350649606243249e-05   -1.6709378733578088e-05   4.3746816140586425e-05
9.350649606243249e-05   -1.6709378733578088e-05   4.3746816140586425e-05
4.729379711215513e-05   -1.4042546712496155e-05   -3.167424956389297e-05
4.729379711215513e-05   -1.4042546712496155e-05   -3.167424956389297e-05
4.729379711215513e-05   -1.4042546712496155e-05   -3.167424956389297e-05
4.729379711215513e-05   -1.4042546712496155e-05   -3.167424956389297e-05
4.591136349394541e-05   -1.5782510683541237e-05   3.6964634095683086e-05
4.591136349394541e-05   -1.5782510683541237e-05   3.6964634095683086e-05
4.591136349394541e-05   -1.5782510683541237e-05   3.6964634095683086e-05
4.591136349394541e-05   -1.5782510683541237e-05   3.6964634095683086e-05
9.164511643815035e-05   -1.3752565289047898e-05   -4.047625471468772e-05
9.164511643815035e-05   -1.3752565289047898e-05   -4.047625471468772e-05
9.164511643815035e-05   -1.3752565289047898e-05   -4.047625471468772e-05
9.164511643815035e-05   -1.3752565289047898e-05   -4.047625471468772e-05
6.676088561752035e-05   -1.3708751521898828e-05   9.711750594067507e-07
6.676088561752035e-05   -1.3708751521898828e-05   9.711750594067507e-07
6.676088561752035e-05   -1.3708751521898828e-05   9.711750594067507e-07
6.676088561752035e-05   -1.3708751521898828e-05   9.711750594067507e-07
4.9680109496488806e-05   -1.6539442310446826e-05   4.273630764102857e-05
4.9680109496488806e-05   -1.6539442310446826e-05   4.273630764102857e-05
4.9680109496488806e-05   -1.6539442310446826e-05   4.273630764102857e-05
4.9680109496488806e-05   -1.6539442310446826e-05   4.273630764102857e-05
1.0626754732397608e-05   -7.844135294554546e-06   -1.7135432756254596e-05
1.0626754732397608e-05   -7.844135294554546e-06   -1.7135432756254596e-05
1.0626754732397608e-05   -7.844135294554546e-06   -1.7135432756254596e-05
1.0626754732397608e-05   -7.844135294554546e-06   -1.7135432756254596e-05
8.643541800806278e-06   -1.6456259038733802e-05   4.880550452876628e-05
8.643541800806278e-06   -1.6456259038733802e-05   4.880550452876628e-05
8.643541800806278e-06   -1.6456259038733802e-05   4.880550452876628e-05
8.643541800806278e-06   -1.6456259038733802e-05   4.880550452876628e-05
4.84270472873628e-05   -8.320772591870283e-06   -2.238162981694537e-05
4.84270472873628e-05   -8.320772591870283e-06   -2.238162981694537e-05
4.84270472873628e-05   -8.320772591870283e-06   -2.238162981694537e-05
4.84270472873628e-05   -8.320772591870283e-06   -2.238162981694537e-05
2.930411815281902e-05   -1.1835443557507534e-05   1.159872132000929e-05
2.930411815281902e-05   -1.1835443557507534e-05   1.159872132000929e-05
2.930411815281902e-05   -1.1835443557507534e-05   1.159872132000929e-05
2.930411815281902e-05   -1.1835443557507534e-05   1.159872132000929e-05
4.842704728736286e-05   -1.6456259038733802e-05   4.3924212660648946e-05
4.842704728736286e-05   -1.6456259038733802e-05   4.3924212660648946e-05
4.842704728736286e-05   -1.6456259038733802e-05   4.3924212660648946e-05
4.842704728736286e-05   -1.6456259038733802e-05   4.3924212660648946e-05
8.643541800806278e-06   -8.320772591870283e-06   -1.750033794882793e-05
8.643541800806278e-06   -8.320772591870283e-06   -1.750033794882793e-05
8.643541800806278e-06   -8.320772591870283e-06   -1.750033794882793e-05
8.643541800806278e-06   -8.320772591870283e-06   -1.750033794882793e-05
7.229779726479219e-06   -1.623760719889067e-05   4.8884056166673216e-05
7.229779726479219e-06   -1.623760719889067e-05   4.8884056166673216e-05
7.229779726479219e-06   -1.623760719889067e-05   4.8884056166673216e-05
7.229779726479219e-06   -1.623760719889067e-05   4.8884056166673216e-05
4.729379711215513e-05   -8.533881255318957e-06   -2.2511541708929275e-05
4.729379711215513e-05   -8.533881255318957e-06   -2.2511541708929275e-05
4.729379711215513e-05   -8.533881255318957e-06   -2.2511541708929275e-05
4.729379711215513e-05   -8.533881255318957e-06   -2.2511541708929275e-05
2.7605254542905434e-05   -1.159384418597054e-05   1.2138673664878518e-05
2.7605254542905434e-05   -1.159384418597054e-05   1.2138673664878518e-05
2.7605254542905434e-05   -1.159384418597054e-05   1.2138673664878518e-05
2.7605254542905434e-05   -1.159384418597054e-05   1.2138673664878518e-05
4.729379711215521e-05   -1.623760719889067e-05   4.42618206005301e-05
4.729379711215521e-05   -1.623760719889067e-05   4.42618206005301e-05
4.729379711215521e-05   -1.623760719889067e-05   4.42618206005301e-05
4.729379711215521e-05   -1.623760719889067e-05   4.42618206005301e-05
7.229779726479219e-06   -8.533881255318957e-06   -1.7889306142786568e-05
7.229779726479219e-06   -8.533881255318957e-06   -1.7889306142786568e-05
7.229779726479219e-06   -8.533881255318957e-06   -1.7889306142786568e-05
7.229779726479219e-06   -8.533881255318957e-06   -1.7889306142786568e-05
5.65690424527237e-06   -1.5799321640513203e-05   5.0479823255692325e-05
5.65690424527237e-06   -1.5799321640513203e-05   5.0479823255692325e-05
5.65690424527237e-06   -1.5799321640513203e-05   5.0479823255692325e-05
5.65690424527237e-06   -1.5799321640513203e-05   5.0479823255692325e-05
4.591136349394538e-05   -8.343525818411881e-06   -2.1084419652023408e-05
4.591136349394538e-05   -8.343525818411881e-06   -2.1084419652023408e-05
4.591136349394538e-05   -8.343525818411881e-06   -2.1084419652023408e-05
4.591136349394538e-05   -8.343525818411881e-06   -2.1084419652023408e-05
2.6565348443881266e-05   -1.108678933253249e-05   1.2804896873222277e-05
2.6565348443881266e-05   -1.108678933253249e-05   1.2804896873222277e-05
2.6565348443881266e-05   -1.108678933253249e-05   1.2804896873222277e-05
2.6565348443881266e-05   -1.108678933253249e-05   1.2804896873222277e-05
1.0626754732397608e-05   -1.9991358127841637e-05   4.3988678454404866e-05
1.0626754732397608e-05   -1.9991358127841637e-05   4.3988678454404866e-05
1.0626754732397608e-05   -1.9991358127841637e-05   4.3988678454404866e-05
1.0626754732397608e-05   -1.9991358127841637e-05   4.3988678454404866e-05
-2.68857233052939e-05   -3.3198985320958413e-06   -8.529242517633321e-06
-2.68857233052939e-05   -3.3198985320958413e-06   -8.529242517633321e-06
-2.68857233052939e-05   -3.3198985320958413e-06   -8.529242517633321e-06
-2.68857233052939e-05   -3.3198985320958413e-06   -8.529242517633321e-06
-2.9971209301891006e-05   -2.0436124018387118e-05   5.656691775139276e-05
-2.9971209301891006e-05   -2.0436124018387118e-05   5.656691775139276e-05
-2.9971209301891006e-05   -2.0436124018387118e-05   5.656691775139276e-05
-2.9971209301891006e-05   -2.0436124018387118e-05   5.656691775139276e-05
8.643541800806305e-06   -3.5063122986677374e-06   -1.7948887784934487e-05
8.643541800806305e-06   -3.5063122986677374e-06   -1.7948887784934487e-05
8.643541800806305e-06   -3.5063122986677374e-06   -1.7948887784934487e-05
8.643541800806305e-06   -3.5063122986677374e-06   -1.7948887784934487e-05
-9.05943290448927e-06   -1.1434081604117831e-05   1.6312731640494705e-05
-9.05943290448927e-06   -1.1434081604117831e-05   1.6312731640494705e-05
-9.05943290448927e-06   -1.1434081604117831e-05   1.6312731640494705e-05
-9.05943290448927e-06   -1.1434081604117831e-05   1.6312731640494705e-05
8.643541800806278e-06   -2.0436124018387552e-05   4.640903071956065e-05
8.643541800806278e-06   -2.0436124018387552e-05   4.640903071956065e-05
8.643541800806278e-06   -2.0436124018387552e-05   4.640903071956065e-05
8.643541800806278e-06   -2.0436124018387552e-05   4.640903071956065e-05
-2.997120930189095e-05   -3.506312298668171e-06   -7.791000753102273e-06
-2.997120930189095e-05   -3.506312298668171e-06   -7.791000753102273e-06
-2.997120930189095e-05   -3.506312298668171e-06   -7.791000753102273e-06
-2.997120930189095e-05   -3.506312298668171e-06   -7.791000753102273e-06
-3.1856273394019095e-05   -2.0343718218328918e-05   5.872524396631756e-05
-3.1856273394019095e-05   -2.0343718218328918e-05   5.872524396631756e-05
-3.1856273394019095e-05   -2.0343718218328918e-05   5.872524396631756e-05
-3.1856273394019095e-05   -2.0343718218328918e-05   5.872524396631756e-05
7.229779726479219e-06   -3.7343204611919e-06   -1.638381655546167e-05
7.229779726479219e-06   -3.7343204611919e-06   -1.638381655546167e-05
7.229779726479219e-06   -3.7343204611919e-06   -1.638381655546167e-05
7.229779726479219e-06   -3.7343204611919e-06   -1.638381655546167e-05
-1.1147917874251655e-05   -1.1399876530379573e-05   1.884501308726898e-05
-1.1147917874251655e-05   -1.1399876530379573e-05   1.884501308726898e-05
-1.1147917874251655e-05   -1.1399876530379573e-05   1.884501308726898e-05
-1.1147917874251655e-05   -1.1399876530379573e-05   1.884501308726898e-05
7.229779726479219e-06   -2.0343718218328918e-05   4.87596053120353e-05
7.229779726479219e-06   -2.0343718218328918e-05   4.87596053120353e-05
7.229779726479219e-06   -2.0343718218328918e-05   4.87596053120353e-05
7.229779726479219e-06   -2.0343718218328918e-05   4.87596053120353e-05
-3.185627339401904e-05   -3.7343204611919e-06   -6.418177901179687e-06
-3.185627339401904e-05   -3.7343204611919e-06   -6.418177901179687e-06
-3.185627339401904e-05   -3.7343204611919e-06   -6.418177901179687e-06
-3.185627339401904e-05   -3.7343204611919e-06   -6.418177901179687e-06
-3.4074328803380206e-05   -1.963410581789192e-05   6.152116931682893e-05
-3.4074328803380206e-05   -1.963410581789192e-05   6.152116931682893e-05
-3.4074328803380206e-05   -1.963410581789192e-05   6.152116931682893e-05
-3.4074328803380206e-05   -1.963410581789192e-05   6.152116931682893e-05
5.65690424527237e-06   -3.7139725473762063e-06   -1.4249632393234437e-05
5.65690424527237e-06   -3.7139725473762063e-06   -1.4249632393234437e-05
5.65690424527237e-06   -3.7139725473762063e-06   -1.4249632393234437e-05
5.65690424527237e-06   -3.7139725473762063e-06   -1.4249632393234437e-05
-1.2848161687243397e-05   -1.0949033267468756e-05   2.0933180593013957e-05
-1.2848161687243397e-05   -1.0949033267468756e-05   2.0933180593013957e-05
-1.2848161687243397e-05   -1.0949033267468756e-05   2.0933180593013957e-05
-1.2848161687243397e-05   -1.0949033267468756e-05   2.0933180593013957e-05
-2.6885723305293926e-05   -2.4964278744597432e-05   5.3333175501847456e-05
-2.6885723305293926e-05   -2.4964278744597432e-05   5.3333175501847456e-05
-2.6885723305293926e-05   -2.4964278744597432e-05   5.3333175501847456e-05
-2.6885723305293926e-05   -2.4964278744597432e-05   5.3333175501847456e-05
-6.96263269629612e-05   3.5089148510743934e-06   -8.172477701942973e-07
-6.96263269629612e-05   3.5089148510743934e-06   -8.172477701942973e-07
-6.96263269629612e-05   3.5089148510743934e-06   -8.172477701942973e-07
-6.96263269629612e-05   3.5089148510743934e-06   -8.172477701942973e-07
-7.333112910524819e-05   -2.7859573830863772e-05   7.5408073944583e-05
-7.333112910524819e-05   -2.7859573830863772e-05   7.5408073944583e-05
-7.333112910524819e-05   -2.7859573830863772e-05   7.5408073944583e-05
-7.333112910524819e-05   -2.7859573830863772e-05   7.5408073944583e-05
-2.997120930189095e-05   3.293852744215217e-06   -1.5550515006059254e-05
-2.997120930189095e-05   3.293852744215217e-06   -1.5550515006059254e-05
-2.997120930189095e-05   3.293852744215217e-06   -1.5550515006059254e-05
-2.997120930189095e-05   3.293852744215217e-06   -1.5550515006059254e-05
-4.925338813756915e-05   -1.0391283329067892e-05   2.4797531364040347e-05
-4.925338813756915e-05   -1.0391283329067892e-05   2.4797531364040347e-05
-4.925338813756915e-05   -1.0391283329067892e-05   2.4797531364040347e-05
-4.925338813756915e-05   -1.0391283329067892e-05   2.4797531364040347e-05
-2.9971209301891006e-05   -2.7859573830863772e-05   5.6716017999536164e-05
-2.9971209301891006e-05   -2.7859573830863772e-05   5.6716017999536164e-05
-2.9971209301891006e-05   -2.7859573830863772e-05   5.6716017999536164e-05
-2.9971209301891006e-05   -2.7859573830863772e-05   5.6716017999536164e-05
-7.333112910524819e-05   3.293852744215217e-06   3.141540938987955e-06
-7.333112910524819e-05   3.293852744215217e-06   3.141540938987955e-06
-7.333112910524819e-05   3.293852744215217e-06   3.141540938987955e-06
-7.333112910524819e-05   3.293852744215217e-06   3.141540938987955e-06
-7.558983981557762e-05   -2.8018255179521057e-05   7.962565441859207e-05
-7.558983981557762e-05   -2.8018255179521057e-05   7.962565441859207e-05
-7.558983981557762e-05   -2.8018255179521057e-05   7.962565441859207e-05
-7.558983981557762e-05   -2.8018255179521057e-05   7.962565441859207e-05
-3.185627339401904e-05   2.901278237414477e-06   -1.1815343000833446e-05
-3.185627339401904e-05   2.901278237414477e-06   -1.1815343000833446e-05
-3.185627339401904e-05   2.901278237414477e-06   -1.1815343000833446e-05
-3.185627339401904e-05   2.901278237414477e-06   -1.1815343000833446e-05
-5.166219959018847e-05   -1.195400906860546e-05   3.010770637639469e-05
-5.166219959018847e-05   -1.195400906860546e-05   3.010770637639469e-05
-5.166219959018847e-05   -1.195400906860546e-05   3.010770637639469e-05
-5.166219959018847e-05   -1.195400906860546e-05   3.010770637639469e-05
-3.1856273394019013e-05   -2.8018255179521057e-05   6.107393436843053e-05
-3.1856273394019013e-05   -2.8018255179521057e-05   6.107393436843053e-05
-3.1856273394019013e-05   -2.8018255179521057e-05   6.107393436843053e-05
-3.1856273394019013e-05   -2.8018255179521057e-05   6.107393436843053e-05
-7.558983981557748e-05   2.901278237414477e-06   6.7363770493281995e-06
-7.558983981557748e-05   2.901278237414477e-06   6.7363770493281995e-06
-7.558983981557748e-05   2.901278237414477e-06   6.7363770493281995e-06
-7.558983981557748e-05   2.901278237414477e-06   6.7363770493281995e-06
-7.802281406015015e-05   -2.5589091015550038e-05   8.144405958521086e-05
-7.802281406015015e-05   -2.5589091015550038e-05   8.144405958521086e-05
-7.802281406015015e-05   -2.5589091015550038e-05   8.144405958521086e-05
-7.802281406015015e-05   -2.5589091015550038e-05   8.144405958521086e-05
-3.407432880338007e-05   2.4572982963645858e-06   -8.631249429888303e-06
-3.407432880338007e-05   2.4572982963645858e-06   -8.631249429888303e-06
-3.407432880338007e-05   2.4572982963645858e-06   -8.631249429888303e-06
-3.407432880338007e-05   2.4572982963645858e-06   -8.631249429888303e-06
-5.414152099214164e-05   -1.2045298569505081e-05   3.351562900423687e-05
-5.414152099214164e-05   -1.2045298569505081e-05   3.351562900423687e-05
-5.414152099214164e-05   -1.2045298569505081e-05   3.351562900423687e-05
-5.414152099214164e-05   -1.2045298569505081e-05   3.351562900423687e-05
-6.962632696296092e-05   0.0   5.913138696589555e-05
-6.962632696296092e-05   0.0   5.913138696589555e-05
-6.962632696296092e-05   0.0   5.913138696589555e-05
-6.962632696296092e-05   0.0   5.913138696589555e-05
-0.00012269829284449098   1.6080030360110173e-05   -1.9673871287255234e-05
-0.00012269829284449098   1.6080030360110173e-05   -1.9673871287255234e-05
-0.00012269829284449098   1.6080030360110173e-05   -1.9673871287255234e-05
-0.00012269829284449098   1.6080030360110173e-05   -1.9673871287255234e-05
-0.00012781324146948712   0.0   8.574081358665546e-05
-0.00012781324146948712   0.0   8.574081358665546e-05
-0.00012781324146948712   0.0   8.574081358665546e-05
-0.00012781324146948712   0.0   8.574081358665546e-05
-7.333112910524806e-05   1.551313452341106e-05   -1.4370587734456521e-05
-7.333112910524806e-05   1.551313452341106e-05   -1.4370587734456521e-05
-7.333112910524806e-05   1.551313452341106e-05   -1.4370587734456521e-05
-7.333112910524806e-05   1.551313452341106e-05   -1.4370587734456521e-05
-9.417157706210791e-05   9.540613422532544e-06   2.3947004854170308e-05
-9.417157706210791e-05   9.540613422532544e-06   2.3947004854170308e-05
-9.417157706210791e-05   9.540613422532544e-06   2.3947004854170308e-05
-9.417157706210791e-05   9.540613422532544e-06   2.3947004854170308e-05
-7.3331129105248e-05   0.0   7.6432932872609e-05
-7.3331129105248e-05   0.0   7.6432932872609e-05
-7.3331129105248e-05   0.0   7.6432932872609e-05
-7.3331129105248e-05   0.0   7.6432932872609e-05
-0.0001278132414694873   1.551313452341106e-05   -5.062707020410005e-06
-0.0001278132414694873   1.551313452341106e-05   -5.062707020410005e-06
-0.0001278132414694873   1.551313452341106e-05   -5.062707020410005e-06
-0.0001278132414694873   1.551313452341106e-05   -5.062707020410005e-06
-0.00013038998629265965   0.0   9.519848439152679e-05
-0.00013038998629265965   0.0   9.519848439152679e-05
-0.00013038998629265965   0.0   9.519848439152679e-05
-0.00013038998629265965   0.0   9.519848439152679e-05
-7.558983981557748e-05   1.5112825881790758e-05   -5.202788599351126e-06
-7.558983981557748e-05   1.5112825881790758e-05   -5.202788599351126e-06
-7.558983981557748e-05   1.5112825881790758e-05   -5.202788599351126e-06
-7.558983981557748e-05   1.5112825881790758e-05   -5.202788599351126e-06
-9.909815007565777e-05   7.964605089942622e-06   3.826666097589263e-05
-9.909815007565777e-05   7.964605089942622e-06   3.826666097589263e-05
-9.909815007565777e-05   7.964605089942622e-06   3.826666097589263e-05
-9.909815007565777e-05   7.964605089942622e-06   3.826666097589263e-05
-7.558983981557748e-05   0.0   8.613078886245281e-05
-7.558983981557748e-05   0.0   8.613078886245281e-05
-7.558983981557748e-05   0.0   8.613078886245281e-05
-7.558983981557748e-05   0.0   8.613078886245281e-05
-0.00013038998629266008   1.5112825881790758e-05   3.864906929723286e-06
-0.00013038998629266008   1.5112825881790758e-05   3.864906929723286e-06
-0.00013038998629266008   1.5112825881790758e-05   3.864906929723286e-06
-0.00013038998629266008   1.5112825881790758e-05   3.864906929723286e-06
-0.00013326200579436449   0.0   0.00010781151397949154
-0.00013326200579436449   0.0   0.00010781151397949154
-0.00013326200579436449   0.0   0.00010781151397949154
-0.00013326200579436449   0.0   0.00010781151397949154
-7.802281406015015e-05   1.2575180374036366e-05   8.201086198045282e-06
-7.802281406015015e-05   1.2575180374036366e-05   8.201086198045282e-06
-7.802281406015015e-05   1.2575180374036366e-05   8.201086198045282e-06
-7.802281406015015e-05   1.2575180374036366e-05   8.201086198045282e-06
-9.993273655222861e-05   5.586198006581316e-06   4.891101310531621e-05
-9.993273655222861e-05   5.586198006581316e-06   4.891101310531621e-05
-9.993273655222861e-05   5.586198006581316e-06   4.891101310531621e-05
-9.993273655222861e-05   5.586198006581316e-06   4.891101310531621e-05
8.414042011758638e-05   -1.2663705813474938e-05   5.978249497624226e-05
8.414042011758638e-05   -1.2663705813474938e-05   5.978249497624226e-05
8.414042011758638e-05   -1.2663705813474938e-05   5.978249497624226e-05
8.414042011758638e-05   -1.2663705813474938e-05   5.978249497624226e-05
4.2565804030468015e-05   -9.541044749456374e-06   -7.634935197210757e-06
4.2565804030468015e-05   -9.541044749456374e-06   -7.634935197210757e-06
4.2565804030468015e-05   -9.541044749456374e-06   -7.634935197210757e-06
4.2565804030468015e-05   -9.541044749456374e-06   -7.634935197210757e-06
4.143941113279879e-05   -1.392554588824273e-05   5.2192785932567674e-05
4.143941113279879e-05   -1.392554588824273e-05   5.2192785932567674e-05
4.143941113279879e-05   -1.392554588824273e-05   5.2192785932567674e-05
4.143941113279879e-05   -1.392554588824273e-05   5.2192785932567674e-05
8.212805047267733e-05   -1.0816335868656102e-05   -1.748713897898196e-05
8.212805047267733e-05   -1.0816335868656102e-05   -1.748713897898196e-05
8.212805047267733e-05   -1.0816335868656102e-05   -1.748713897898196e-05
8.212805047267733e-05   -1.0816335868656102e-05   -1.748713897898196e-05
5.978297168685654e-05   -1.1266761336320603e-05   2.0024914277985023e-05
5.978297168685654e-05   -1.1266761336320603e-05   2.0024914277985023e-05
5.978297168685654e-05   -1.1266761336320603e-05   2.0024914277985023e-05
5.978297168685654e-05   -1.1266761336320603e-05   2.0024914277985023e-05
8.212805047267717e-05   -1.392554588824273e-05   5.032725992081574e-05
8.212805047267717e-05   -1.392554588824273e-05   5.032725992081574e-05
8.212805047267717e-05   -1.392554588824273e-05   5.032725992081574e-05
8.212805047267717e-05   -1.392554588824273e-05   5.032725992081574e-05
4.143941113279889e-05   -1.0816335868656102e-05   -1.5621612967230093e-05
4.143941113279889e-05   -1.0816335868656102e-05   -1.5621612967230093e-05
4.143941113279889e-05   -1.0816335868656102e-05   -1.5621612967230093e-05
4.143941113279889e-05   -1.0816335868656102e-05   -1.5621612967230093e-05
3.9987925256850014e-05   -1.4042546712495722e-05   4.6854472318620666e-05
3.9987925256850014e-05   -1.4042546712495722e-05   4.6854472318620666e-05
3.9987925256850014e-05   -1.4042546712495722e-05   4.6854472318620666e-05
3.9987925256850014e-05   -1.4042546712495722e-05   4.6854472318620666e-05
8.009343881299738e-05   -1.1006548360947832e-05   -2.1809649285887297e-05
8.009343881299738e-05   -1.1006548360947832e-05   -2.1809649285887297e-05
8.009343881299738e-05   -1.1006548360947832e-05   -2.1809649285887297e-05
8.009343881299738e-05   -1.1006548360947832e-05   -2.1809649285887297e-05
5.921526568737785e-05   -1.175936325390533e-05   1.3438994859252815e-05
5.921526568737785e-05   -1.175936325390533e-05   1.3438994859252815e-05
5.921526568737785e-05   -1.175936325390533e-05   1.3438994859252815e-05
5.921526568737785e-05   -1.175936325390533e-05   1.3438994859252815e-05
8.009343881299738e-05   -1.4042546712496155e-05   4.503287330769176e-05
8.009343881299738e-05   -1.4042546712496155e-05   4.503287330769176e-05
8.009343881299738e-05   -1.4042546712496155e-05   4.503287330769176e-05
8.009343881299738e-05   -1.4042546712496155e-05   4.503287330769176e-05
3.9987925256850014e-05   -1.1006548360947832e-05   -1.998805027495854e-05
3.9987925256850014e-05   -1.1006548360947832e-05   -1.998805027495854e-05
3.9987925256850014e-05   -1.1006548360947832e-05   -1.998805027495854e-05
3.9987925256850014e-05   -1.1006548360947832e-05   -1.998805027495854e-05
3.846529303658689e-05   -1.3752565289047464e-05   3.893836753978124e-05
3.846529303658689e-05   -1.3752565289047464e-05   3.893836753978124e-05
3.846529303658689e-05   -1.3752565289047464e-05   3.893836753978124e-05
3.846529303658689e-05   -1.3752565289047464e-05   3.893836753978124e-05
7.754673477037229e-05   -1.0939831205401557e-05   -2.7885009133381722e-05
7.754673477037229e-05   -1.0939831205401557e-05   -2.7885009133381722e-05
7.754673477037229e-05   -1.0939831205401557e-05   -2.7885009133381722e-05
7.754673477037229e-05   -1.0939831205401557e-05   -2.7885009133381722e-05
5.6570794767159855e-05   -1.1452502036161244e-05   7.38249337042926e-06
5.6570794767159855e-05   -1.1452502036161244e-05   7.38249337042926e-06
5.6570794767159855e-05   -1.1452502036161244e-05   7.38249337042926e-06
5.6570794767159855e-05   -1.1452502036161244e-05   7.38249337042926e-06
4.256580403046807e-05   -7.844135294554546e-06   5.660723831933277e-05
4.256580403046807e-05   -7.844135294554546e-06   5.660723831933277e-05
4.256580403046807e-05   -7.844135294554546e-06   5.660723831933277e-05
4.256580403046807e-05   -7.844135294554546e-06   5.660723831933277e-05
4.693434580128615e-06   -3.3699562004291944e-06   -3.828869974757806e-06
4.693434580128615e-06   -3.3699562004291944e-06   -3.828869974757806e-06
4.693434580128615e-06   -3.3699562004291944e-06   -3.828869974757806e-06
4.693434580128615e-06   -3.3699562004291944e-06   -3.828869974757806e-06
3.5748055786740296e-06   -8.320772591870716e-06   5.8983403295287656e-05
3.5748055786740296e-06   -8.320772591870716e-06   5.8983403295287656e-05
3.5748055786740296e-06   -8.320772591870716e-06   5.8983403295287656e-05
3.5748055786740296e-06   -8.320772591870716e-06   5.8983403295287656e-05
4.143941113279889e-05   -4.055883057774677e-06   -6.683206348711749e-06
4.143941113279889e-05   -4.055883057774677e-06   -6.683206348711749e-06
4.143941113279889e-05   -4.055883057774677e-06   -6.683206348711749e-06
4.143941113279889e-05   -4.055883057774677e-06   -6.683206348711749e-06
2.2847521947509796e-05   -5.48347519363588e-06   2.5159830908286804e-05
2.2847521947509796e-05   -5.48347519363588e-06   2.5159830908286804e-05
2.2847521947509796e-05   -5.48347519363588e-06   2.5159830908286804e-05
2.2847521947509796e-05   -5.48347519363588e-06   2.5159830908286804e-05
4.143941113279885e-05   -8.320772591870716e-06   5.642446957482977e-05
4.143941113279885e-05   -8.320772591870716e-06   5.642446957482977e-05
4.143941113279885e-05   -8.320772591870716e-06   5.642446957482977e-05
4.143941113279885e-05   -8.320772591870716e-06   5.642446957482977e-05
3.5748055786740296e-06   -4.055883057774677e-06   -4.124272628253838e-06
3.5748055786740296e-06   -4.055883057774677e-06   -4.124272628253838e-06
3.5748055786740296e-06   -4.055883057774677e-06   -4.124272628253838e-06
3.5748055786740296e-06   -4.055883057774677e-06   -4.124272628253838e-06
2.146503436976937e-06   -8.533881255318957e-06   5.843359496874407e-05
2.146503436976937e-06   -8.533881255318957e-06   5.843359496874407e-05
2.146503436976937e-06   -8.533881255318957e-06   5.843359496874407e-05
2.146503436976937e-06   -8.533881255318957e-06   5.843359496874407e-05
3.9987925256850014e-05   -4.506523263385787e-06   -7.051856192871156e-06
3.9987925256850014e-05   -4.506523263385787e-06   -7.051856192871156e-06
3.9987925256850014e-05   -4.506523263385787e-06   -7.051856192871156e-06
3.9987925256850014e-05   -4.506523263385787e-06   -7.051856192871156e-06
2.1429542371312644e-05   -5.743569890956802e-06   2.462100992623508e-05
2.1429542371312644e-05   -5.743569890956802e-06   2.462100992623508e-05
2.1429542371312644e-05   -5.743569890956802e-06   2.462100992623508e-05
2.1429542371312644e-05   -5.743569890956802e-06   2.462100992623508e-05
3.9987925256849946e-05   -8.533881255318957e-06   5.601718017358439e-05
3.9987925256849946e-05   -8.533881255318957e-06   5.601718017358439e-05
3.9987925256849946e-05   -8.533881255318957e-06   5.601718017358439e-05
3.9987925256849946e-05   -8.533881255318957e-06   5.601718017358439e-05
2.146503436976937e-06   -4.506523263385787e-06   -4.635441397711146e-06
2.146503436976937e-06   -4.506523263385787e-06   -4.635441397711146e-06
2.146503436976937e-06   -4.506523263385787e-06   -4.635441397711146e-06
2.146503436976937e-06   -4.506523263385787e-06   -4.635441397711146e-06
5.686385189233346e-07   -8.343525818412315e-06   5.929785853272997e-05
5.686385189233346e-07   -8.343525818412315e-06   5.929785853272997e-05
5.686385189233346e-07   -8.343525818412315e-06   5.929785853272997e-05
5.686385189233346e-07   -8.343525818412315e-06   5.929785853272997e-05
3.846529303658686e-05   -4.700820540111828e-06   -6.0488554970232185e-06
3.846529303658686e-05   -4.700820540111828e-06   -6.0488554970232185e-06
3.846529303658686e-05   -4.700820540111828e-06   -6.0488554970232185e-06
3.846529303658686e-05   -4.700820540111828e-06   -6.0488554970232185e-06
2.0273058721555613e-05   -5.690296108879205e-06   2.486522036929028e-05
2.0273058721555613e-05   -5.690296108879205e-06   2.486522036929028e-05
2.0273058721555613e-05   -5.690296108879205e-06   2.486522036929028e-05
2.0273058721555613e-05   -5.690296108879205e-06   2.486522036929028e-05
4.693434580128642e-06   -3.3198985320958413e-06   5.7895060256981995e-05
4.693434580128642e-06   -3.3198985320958413e-06   5.7895060256981995e-05
4.693434580128642e-06   -3.3198985320958413e-06   5.7895060256981995e-05
4.693434580128642e-06   -3.3198985320958413e-06   5.7895060256981995e-05
-3.199403474311155e-05   2.987577847477635e-06   5.337638793257229e-07
-3.199403474311155e-05   2.987577847477635e-06   5.337638793257229e-07
-3.199403474311155e-05   2.987577847477635e-06   5.337638793257229e-07
-3.199403474311155e-05   2.987577847477635e-06   5.337638793257229e-07
-3.3254286627048245e-05   -3.506312298668171e-06   6.211555865954762e-05
-3.3254286627048245e-05   -3.506312298668171e-06   6.211555865954762e-05
-3.3254286627048245e-05   -3.506312298668171e-06   6.211555865954762e-05
-3.3254286627048245e-05   -3.506312298668171e-06   6.211555865954762e-05
3.5748055786740296e-06   2.461529701944243e-06   -2.8469668836896282e-06
3.5748055786740296e-06   2.461529701944243e-06   -2.8469668836896282e-06
3.5748055786740296e-06   2.461529701944243e-06   -2.8469668836896282e-06
3.5748055786740296e-06   2.461529701944243e-06   -2.8469668836896282e-06
-1.4218768175705248e-05   -6.729521256172363e-08   2.8326284322312506e-05
-1.4218768175705248e-05   -6.729521256172363e-08   2.8326284322312506e-05
-1.4218768175705248e-05   -6.729521256172363e-08   2.8326284322312506e-05
-1.4218768175705248e-05   -6.729521256172363e-08   2.8326284322312506e-05
3.5748055786740296e-06   -3.506312298668171e-06   5.8534853459180775e-05
3.5748055786740296e-06   -3.506312298668171e-06   5.8534853459180775e-05
3.5748055786740296e-06   -3.506312298668171e-06   5.8534853459180775e-05
3.5748055786740296e-06   -3.506312298668171e-06   5.8534853459180775e-05
-3.3254286627048245e-05   2.461529701944243e-06   7.337383166772671e-07
-3.3254286627048245e-05   2.461529701944243e-06   7.337383166772671e-07
-3.3254286627048245e-05   2.461529701944243e-06   7.337383166772671e-07
-3.3254286627048245e-05   2.461529701944243e-06   7.337383166772671e-07
-3.494458609265666e-05   -3.7343204611919e-06   6.336277514837601e-05
-3.494458609265666e-05   -3.7343204611919e-06   6.336277514837601e-05
-3.494458609265666e-05   -3.7343204611919e-06   6.336277514837601e-05
-3.494458609265666e-05   -3.7343204611919e-06   6.336277514837601e-05
2.146503436976937e-06   1.9718305259851417e-06   -1.8793979933201988e-06
2.146503436976937e-06   1.9718305259851417e-06   -1.8793979933201988e-06
2.146503436976937e-06   1.9718305259851417e-06   -1.8793979933201988e-06
2.146503436976937e-06   1.9718305259851417e-06   -1.8793979933201988e-06
-1.5462093343537078e-05   -2.1592862075193314e-07   2.878091879557847e-05
-1.5462093343537078e-05   -2.1592862075193314e-07   2.878091879557847e-05
-1.5462093343537078e-05   -2.1592862075193314e-07   2.878091879557847e-05
-1.5462093343537078e-05   -2.1592862075193314e-07   2.878091879557847e-05
2.146503436976937e-06   -3.7343204611919e-06   5.993908455606892e-05
2.146503436976937e-06   -3.7343204611919e-06   5.993908455606892e-05
2.146503436976937e-06   -3.7343204611919e-06   5.993908455606892e-05
2.146503436976937e-06   -3.7343204611919e-06   5.993908455606892e-05
-3.494458609265661e-05   1.9718305259851417e-06   1.5442925989862973e-06
-3.494458609265661e-05   1.9718305259851417e-06   1.5442925989862973e-06
-3.494458609265661e-05   1.9718305259851417e-06   1.5442925989862973e-06
-3.494458609265661e-05   1.9718305259851417e-06   1.5442925989862973e-06
-3.674549705274223e-05   -3.7139725473762063e-06   6.485885714097852e-05
-3.674549705274223e-05   -3.7139725473762063e-06   6.485885714097852e-05
-3.674549705274223e-05   -3.7139725473762063e-06   6.485885714097852e-05
-3.674549705274223e-05   -3.7139725473762063e-06   6.485885714097852e-05
5.686385189233346e-07   1.6188421904914964e-06   -5.310576545178368e-07
5.686385189233346e-07   1.6188421904914964e-06   -5.310576545178368e-07
5.686385189233346e-07   1.6188421904914964e-06   -5.310576545178368e-07
5.686385189233346e-07   1.6188421904914964e-06   -5.310576545178368e-07
-1.7047973920752667e-05   -3.230107033305729e-07   2.9995074814569524e-05
-1.7047973920752667e-05   -3.230107033305729e-07   2.9995074814569524e-05
-1.7047973920752667e-05   -3.230107033305729e-07   2.9995074814569524e-05
-1.7047973920752667e-05   -3.230107033305729e-07   2.9995074814569524e-05
-3.1994034743111415e-05   3.508914851074827e-06   5.230762467476127e-05
-3.1994034743111415e-05   3.508914851074827e-06   5.230762467476127e-05
-3.1994034743111415e-05   3.508914851074827e-06   5.230762467476127e-05
-3.1994034743111415e-05   3.508914851074827e-06   5.230762467476127e-05
-6.792716957107299e-05   9.742269564303688e-06   -3.840920543904305e-06
-6.792716957107299e-05   9.742269564303688e-06   -3.840920543904305e-06
-6.792716957107299e-05   9.742269564303688e-06   -3.840920543904305e-06
-6.792716957107299e-05   9.742269564303688e-06   -3.840920543904305e-06
-6.976419828922192e-05   3.293852744215217e-06   5.7908320963222324e-05
-6.976419828922192e-05   3.293852744215217e-06   5.7908320963222324e-05
-6.976419828922192e-05   3.293852744215217e-06   5.7908320963222324e-05
-6.976419828922192e-05   3.293852744215217e-06   5.7908320963222324e-05
-3.3254286627048136e-05   9.21431367193349e-06   -6.493808363697805e-06
-3.3254286627048136e-05   9.21431367193349e-06   -6.493808363697805e-06
-3.3254286627048136e-05   9.21431367193349e-06   -6.493808363697805e-06
-3.3254286627048136e-05   9.21431367193349e-06   -6.493808363697805e-06
-5.0333736521309715e-05   6.553686274537486e-06   2.356831789850837e-05
-5.0333736521309715e-05   6.553686274537486e-06   2.356831789850837e-05
-5.0333736521309715e-05   6.553686274537486e-06   2.356831789850837e-05
-5.0333736521309715e-05   6.553686274537486e-06   2.356831789850837e-05
-3.325428662704819e-05   3.293852744215217e-06   5.43560444065908e-05
-3.325428662704819e-05   3.293852744215217e-06   5.43560444065908e-05
-3.325428662704819e-05   3.293852744215217e-06   5.43560444065908e-05
-3.325428662704819e-05   3.293852744215217e-06   5.43560444065908e-05
-6.976419828922181e-05   9.21431367193349e-06   -2.9415318070671447e-06
-6.976419828922181e-05   9.21431367193349e-06   -2.9415318070671447e-06
-6.976419828922181e-05   9.21431367193349e-06   -2.9415318070671447e-06
-6.976419828922181e-05   9.21431367193349e-06   -2.9415318070671447e-06
-7.201495104134723e-05   2.901278237414477e-06   6.146078661733957e-05
-7.201495104134723e-05   2.901278237414477e-06   6.146078661733957e-05
-7.201495104134723e-05   2.901278237414477e-06   6.146078661733957e-05
-7.201495104134723e-05   2.901278237414477e-06   6.146078661733957e-05
-3.494458609265661e-05   8.726572518444244e-06   -3.8183315324291645e-06
-3.494458609265661e-05   8.726572518444244e-06   -3.8183315324291645e-06
-3.494458609265661e-05   8.726572518444244e-06   -3.8183315324291645e-06
-3.494458609265661e-05   8.726572518444244e-06   -3.8183315324291645e-06
-5.170311717475265e-05   6.43067939020206e-06   2.549008948134299e-05
-5.170311717475265e-05   6.43067939020206e-06   2.549008948134299e-05
-5.170311717475265e-05   6.43067939020206e-06   2.549008948134299e-05
-5.170311717475265e-05   6.43067939020206e-06   2.549008948134299e-05
-3.494458609265658e-05   2.901278237414477e-06   5.796561004872171e-05
-3.494458609265658e-05   2.901278237414477e-06   5.796561004872171e-05
-3.494458609265658e-05   2.901278237414477e-06   5.796561004872171e-05
-3.494458609265658e-05   2.901278237414477e-06   5.796561004872171e-05
-7.201495104134723e-05   8.726572518444244e-06   -3.23154963811521e-07
-7.201495104134723e-05   8.726572518444244e-06   -3.23154963811521e-07
-7.201495104134723e-05   8.726572518444244e-06   -3.23154963811521e-07
-7.201495104134723e-05   8.726572518444244e-06   -3.23154963811521e-07
-7.439703649375694e-05   2.4572982963645858e-06   6.429368839438532e-05
-7.439703649375694e-05   2.4572982963645858e-06   6.429368839438532e-05
-7.439703649375694e-05   2.4572982963645858e-06   6.429368839438532e-05
-7.439703649375694e-05   2.4572982963645858e-06   6.429368839438532e-05
-3.674549705274209e-05   8.071512050314596e-06   -1.8274055930094088e-06
-3.674549705274209e-05   8.071512050314596e-06   -1.8274055930094088e-06
-3.674549705274209e-05   8.071512050314596e-06   -1.8274055930094088e-06
-3.674549705274209e-05   8.071512050314596e-06   -1.8274055930094088e-06
-5.3980247975869597e-05   6.0344554512299295e-06   2.81194132383228e-05
-5.3980247975869597e-05   6.0344554512299295e-06   2.81194132383228e-05
-5.3980247975869597e-05   6.0344554512299295e-06   2.81194132383228e-05
-5.3980247975869597e-05   6.0344554512299295e-06   2.81194132383228e-05
-6.792716957107299e-05   1.608003036010974e-05   2.7542995769571808e-05
-6.792716957107299e-05   1.608003036010974e-05   2.7542995769571808e-05
-6.792716957107299e-05   1.608003036010974e-05   2.7542995769571808e-05
-6.792716957107299e-05   1.608003036010974e-05   2.7542995769571808e-05
-0.00010233009586671022   1.5844063361476757e-05   -2.9936794922337095e-05
-0.00010233009586671022   1.5844063361476757e-05   -2.9936794922337095e-05
-0.00010233009586671022   1.5844063361476757e-05   -2.9936794922337095e-05
-0.00010233009586671022   1.5844063361476757e-05   -2.9936794922337095e-05
-0.0001056268762697091   1.5513134523410625e-05   4.0775481862972106e-05
-0.0001056268762697091   1.5513134523410625e-05   4.0775481862972106e-05
-0.0001056268762697091   1.5513134523410625e-05   4.0775481862972106e-05
-0.0001056268762697091   1.5513134523410625e-05   4.0775481862972106e-05
-6.976419828922181e-05   1.6145283812068426e-05   -1.9374937677701497e-05
-6.976419828922181e-05   1.6145283812068426e-05   -1.9374937677701497e-05
-6.976419828922181e-05   1.6145283812068426e-05   -1.9374937677701497e-05
-6.976419828922181e-05   1.6145283812068426e-05   -1.9374937677701497e-05
-8.293388900762953e-05   1.6148282206367333e-05   2.572747816398759e-06
-8.293388900762953e-05   1.6148282206367333e-05   2.572747816398759e-06
-8.293388900762953e-05   1.6148282206367333e-05   2.572747816398759e-06
-8.293388900762953e-05   1.6148282206367333e-05   2.572747816398759e-06
-6.97641982892217e-05   1.5513134523410625e-05   4.0396192289777685e-05
-6.97641982892217e-05   1.5513134523410625e-05   4.0396192289777685e-05
-6.97641982892217e-05   1.5513134523410625e-05   4.0396192289777685e-05
-6.97641982892217e-05   1.5513134523410625e-05   4.0396192289777685e-05
-0.0001056268762697091   1.6145283812068426e-05   -1.899564810450686e-05
-0.0001056268762697091   1.6145283812068426e-05   -1.899564810450686e-05
-0.0001056268762697091   1.6145283812068426e-05   -1.899564810450686e-05
-0.0001056268762697091   1.6145283812068426e-05   -1.899564810450686e-05
-0.00010885992732830781   1.5112825881790758e-05   5.007077115192285e-05
-0.00010885992732830781   1.5112825881790758e-05   5.007077115192285e-05
-0.00010885992732830781   1.5112825881790758e-05   5.007077115192285e-05
-0.00010885992732830781   1.5112825881790758e-05   5.007077115192285e-05
-7.201495104134707e-05   1.6028076187228797e-05   -1.1886672842941642e-05
-7.201495104134707e-05   1.6028076187228797e-05   -1.1886672842941642e-05
-7.201495104134707e-05   1.6028076187228797e-05   -1.1886672842941642e-05
-7.201495104134707e-05   1.6028076187228797e-05   -1.1886672842941642e-05
-8.670867224189022e-05   1.6143488790847788e-05   1.253361492912651e-05
-8.670867224189022e-05   1.6143488790847788e-05   1.253361492912651e-05
-8.670867224189022e-05   1.6143488790847788e-05   1.253361492912651e-05
-8.670867224189022e-05   1.6143488790847788e-05   1.253361492912651e-05
-7.201495104134707e-05   1.5112825881790758e-05   4.9521620968660026e-05
-7.201495104134707e-05   1.5112825881790758e-05   4.9521620968660026e-05
-7.201495104134707e-05   1.5112825881790758e-05   4.9521620968660026e-05
-7.201495104134707e-05   1.5112825881790758e-05   4.9521620968660026e-05
-0.00010885992732830781   1.6028076187228363e-05   -1.1337522659678493e-05
-0.00010885992732830781   1.6028076187228363e-05   -1.1337522659678493e-05
-0.00010885992732830781   1.6028076187228363e-05   -1.1337522659678493e-05
-0.00010885992732830781   1.6028076187228363e-05   -1.1337522659678493e-05
-0.00011267237781987954   1.2575180374036366e-05   6.560441370627446e-05
-0.00011267237781987954   1.2575180374036366e-05   6.560441370627446e-05
-0.00011267237781987954   1.2575180374036366e-05   6.560441370627446e-05
-0.00011267237781987954   1.2575180374036366e-05   6.560441370627446e-05
-7.439703649375669e-05   1.4752219159210999e-05   5.059548916316772e-07
-7.439703649375669e-05   1.4752219159210999e-05   5.059548916316772e-07
-7.439703649375669e-05   1.4752219159210999e-05   5.059548916316772e-07
-7.439703649375669e-05   1.4752219159210999e-05   5.059548916316772e-07
-8.807000080643706e-05   1.5375042564326393e-05   2.2920534703030663e-05
-8.807000080643706e-05   1.5375042564326393e-05   2.2920534703030663e-05
-8.807000080643706e-05   1.5375042564326393e-05   2.2920534703030663e-05
-8.807000080643706e-05   1.5375042564326393e-05   2.2920534703030663e-05
6.818134915891711e-05   -9.541044749456374e-06   5.266045297725071e-05
6.818134915891711e-05   -9.541044749456374e-06   5.266045297725071e-05
6.818134915891711e-05   -9.541044749456374e-06   5.266045297725071e-05
6.818134915891711e-05   -9.541044749456374e-06   5.266045297725071e-05
3.3765202641242395e-05   -6.987455165020657e-06   -3.1676374682126484e-06
3.3765202641242395e-05   -6.987455165020657e-06   -3.1676374682126484e-06
3.3765202641242395e-05   -6.987455165020657e-06   -3.1676374682126484e-06
3.3765202641242395e-05   -6.987455165020657e-06   -3.1676374682126484e-06
3.246786083276701e-05   -1.0816335868656102e-05   4.580059877033033e-05
3.246786083276701e-05   -1.0816335868656102e-05   4.580059877033033e-05
3.246786083276701e-05   -1.0816335868656102e-05   4.580059877033033e-05
3.246786083276701e-05   -1.0816335868656102e-05   4.580059877033033e-05
6.579495651006056e-05   -8.109821974571808e-06   -1.1368469028275552e-05
6.579495651006056e-05   -8.109821974571808e-06   -1.1368469028275552e-05
6.579495651006056e-05   -8.109821974571808e-06   -1.1368469028275552e-05
6.579495651006056e-05   -8.109821974571808e-06   -1.1368469028275552e-05
4.776064943112589e-05   -8.773136690611201e-06   1.9086698266239073e-05
4.776064943112589e-05   -8.773136690611201e-06   1.9086698266239073e-05
4.776064943112589e-05   -8.773136690611201e-06   1.9086698266239073e-05
4.776064943112589e-05   -8.773136690611201e-06   1.9086698266239073e-05
6.579495651006043e-05   -1.0816335868656102e-05   4.4176690433880145e-05
6.579495651006043e-05   -1.0816335868656102e-05   4.4176690433880145e-05
6.579495651006043e-05   -1.0816335868656102e-05   4.4176690433880145e-05
6.579495651006043e-05   -1.0816335868656102e-05   4.4176690433880145e-05
3.2467860832767115e-05   -8.109821974571808e-06   -9.744560691825116e-06
3.2467860832767115e-05   -8.109821974571808e-06   -9.744560691825116e-06
3.2467860832767115e-05   -8.109821974571808e-06   -9.744560691825116e-06
3.2467860832767115e-05   -8.109821974571808e-06   -9.744560691825116e-06
3.102653703595596e-05   -1.1006548360947832e-05   4.105041457913615e-05
3.102653703595596e-05   -1.1006548360947832e-05   4.105041457913615e-05
3.102653703595596e-05   -1.1006548360947832e-05   4.105041457913615e-05
3.102653703595596e-05   -1.1006548360947832e-05   4.105041457913615e-05
6.3634567473105e-05   -8.335757976675288e-06   -1.4898777046675856e-05
6.3634567473105e-05   -8.335757976675288e-06   -1.4898777046675856e-05
6.3634567473105e-05   -8.335757976675288e-06   -1.4898777046675856e-05
6.3634567473105e-05   -8.335757976675288e-06   -1.4898777046675856e-05
4.685958748748803e-05   -9.20789620064387e-06   1.3582805863733417e-05
4.685958748748803e-05   -9.20789620064387e-06   1.3582805863733417e-05
4.685958748748803e-05   -9.20789620064387e-06   1.3582805863733417e-05
4.685958748748803e-05   -9.20789620064387e-06   1.3582805863733417e-05
6.363456747310478e-05   -1.1006548360947398e-05   3.944794034857241e-05
6.363456747310478e-05   -1.1006548360947398e-05   3.944794034857241e-05
6.363456747310478e-05   -1.1006548360947398e-05   3.944794034857241e-05
6.363456747310478e-05   -1.1006548360947398e-05   3.944794034857241e-05
3.102653703595601e-05   -8.335757976675288e-06   -1.3296302816112127e-05
3.102653703595601e-05   -8.335757976675288e-06   -1.3296302816112127e-05
3.102653703595601e-05   -8.335757976675288e-06   -1.3296302816112127e-05
3.102653703595601e-05   -8.335757976675288e-06   -1.3296302816112127e-05
2.964052426388718e-05   -1.0939831205401557e-05   3.4430100527186626e-05
2.964052426388718e-05   -1.0939831205401557e-05   3.4430100527186626e-05
2.964052426388718e-05   -1.0939831205401557e-05   3.4430100527186626e-05
2.964052426388718e-05   -1.0939831205401557e-05   3.4430100527186626e-05
6.118827959606142e-05   -8.429415933470727e-06   -1.9655740856261844e-05
6.118827959606142e-05   -8.429415933470727e-06   -1.9655740856261844e-05
6.118827959606142e-05   -8.429415933470727e-06   -1.9655740856261844e-05
6.118827959606142e-05   -8.429415933470727e-06   -1.9655740856261844e-05
4.4441010622044704e-05   -9.053236171962815e-06   8.630666243528815e-06
4.4441010622044704e-05   -9.053236171962815e-06   8.630666243528815e-06
4.4441010622044704e-05   -9.053236171962815e-06   8.630666243528815e-06
4.4441010622044704e-05   -9.053236171962815e-06   8.630666243528815e-06
3.3765202641242395e-05   -3.3699562004291944e-06   5.531416449388953e-05
3.3765202641242395e-05   -3.3699562004291944e-06   5.531416449388953e-05
3.3765202641242395e-05   -3.3699562004291944e-06   5.531416449388953e-05
3.3765202641242395e-05   -3.3699562004291944e-06   5.531416449388953e-05
1.4609000819872987e-06   -1.3355629506894146e-06   2.694296178308358e-06
1.4609000819872987e-06   -1.3355629506894146e-06   2.694296178308358e-06
1.4609000819872987e-06   -1.3355629506894146e-06   2.694296178308358e-06
1.4609000819872987e-06   -1.3355629506894146e-06   2.694296178308358e-06
2.1577539748116482e-07   -4.055883057774677e-06   5.589333200052863e-05
2.1577539748116482e-07   -4.055883057774677e-06   5.589333200052863e-05
2.1577539748116482e-07   -4.055883057774677e-06   5.589333200052863e-05
2.1577539748116482e-07   -4.055883057774677e-06   5.589333200052863e-05
3.2467860832767115e-05   -2.132005371641675e-06   9.855296633722081e-07
3.2467860832767115e-05   -2.132005371641675e-06   9.855296633722081e-07
3.2467860832767115e-05   -2.132005371641675e-06   9.855296633722081e-07
3.2467860832767115e-05   -2.132005371641675e-06   9.855296633722081e-07
1.6771588110407832e-05   -2.6222219598084733e-06   2.744011415353772e-05
1.6771588110407832e-05   -2.6222219598084733e-06   2.744011415353772e-05
1.6771588110407832e-05   -2.6222219598084733e-06   2.744011415353772e-05
1.6771588110407832e-05   -2.6222219598084733e-06   2.744011415353772e-05
3.246786083276709e-05   -4.055883057774677e-06   5.47390053888487e-05
3.246786083276709e-05   -4.055883057774677e-06   5.47390053888487e-05
3.246786083276709e-05   -4.055883057774677e-06   5.47390053888487e-05
3.246786083276709e-05   -4.055883057774677e-06   5.47390053888487e-05
2.1577539748116482e-07   -2.132005371641675e-06   2.139856275052126e-06
2.1577539748116482e-07   -2.132005371641675e-06   2.139856275052126e-06
2.1577539748116482e-07   -2.132005371641675e-06   2.139856275052126e-06
2.1577539748116482e-07   -2.132005371641675e-06   2.139856275052126e-06
-1.0784313053690566e-06   -4.506523263385787e-06   5.505589693591837e-05
-1.0784313053690566e-06   -4.506523263385787e-06   5.505589693591837e-05
-1.0784313053690566e-06   -4.506523263385787e-06   5.505589693591837e-05
-1.0784313053690566e-06   -4.506523263385787e-06   5.505589693591837e-05
3.102653703595601e-05   -2.7243761388942925e-06   4.783280923482296e-07
3.102653703595601e-05   -2.7243761388942925e-06   4.783280923482296e-07
3.102653703595601e-05   -2.7243761388942925e-06   4.783280923482296e-07
3.102653703595601e-05   -2.7243761388942925e-06   4.783280923482296e-07
1.5342891717249618e-05   -3.0398406312185343e-06   2.6807015652254262e-05
1.5342891717249618e-05   -3.0398406312185343e-06   2.6807015652254262e-05
1.5342891717249618e-05   -3.0398406312185343e-06   2.6807015652254262e-05
1.5342891717249618e-05   -3.0398406312185343e-06   2.6807015652254262e-05
3.102653703595596e-05   -4.506523263385787e-06   5.3986608661223644e-05
3.102653703595596e-05   -4.506523263385787e-06   5.3986608661223644e-05
3.102653703595596e-05   -4.506523263385787e-06   5.3986608661223644e-05
3.102653703595596e-05   -4.506523263385787e-06   5.3986608661223644e-05
-1.0784313053690566e-06   -2.724376138894726e-06   1.5476163670430886e-06
-1.0784313053690566e-06   -2.724376138894726e-06   1.5476163670430886e-06
-1.0784313053690566e-06   -2.724376138894726e-06   1.5476163670430886e-06
-1.0784313053690566e-06   -2.724376138894726e-06   1.5476163670430886e-06
-2.4257830650569075e-06   -4.700820540111828e-06   5.5483574172740004e-05
-2.4257830650569075e-06   -4.700820540111828e-06   5.5483574172740004e-05
-2.4257830650569075e-06   -4.700820540111828e-06   5.5483574172740004e-05
-2.4257830650569075e-06   -4.700820540111828e-06   5.5483574172740004e-05
2.964052426388726e-05   -3.1925531078077704e-06   1.1347681651171474e-06
2.964052426388726e-05   -3.1925531078077704e-06   1.1347681651171474e-06
2.964052426388726e-05   -3.1925531078077704e-06   1.1347681651171474e-06
2.964052426388726e-05   -3.1925531078077704e-06   1.1347681651171474e-06
1.4267537470223164e-05   -3.2649797665216043e-06   2.6799868816453364e-05
1.4267537470223164e-05   -3.2649797665216043e-06   2.6799868816453364e-05
1.4267537470223164e-05   -3.2649797665216043e-06   2.6799868816453364e-05
1.4267537470223164e-05   -3.2649797665216043e-06   2.6799868816453364e-05
1.4609000819872716e-06   2.9875778474780686e-06   5.7112948470072885e-05
1.4609000819872716e-06   2.9875778474780686e-06   5.7112948470072885e-05
1.4609000819872716e-06   2.9875778474780686e-06   5.7112948470072885e-05
1.4609000819872716e-06   2.9875778474780686e-06   5.7112948470072885e-05
-2.9897873554715084e-05   4.342447513124709e-06   5.6612475416240385e-06
-2.9897873554715084e-05   4.342447513124709e-06   5.6612475416240385e-06
-2.9897873554715084e-05   4.342447513124709e-06   5.6612475416240385e-06
-2.9897873554715084e-05   4.342447513124709e-06   5.6612475416240385e-06
-3.119866873969594e-05   2.461529701944243e-06   5.790103726099156e-05
-3.119866873969594e-05   2.461529701944243e-06   5.790103726099156e-05
-3.119866873969594e-05   2.461529701944243e-06   5.790103726099156e-05
-3.119866873969594e-05   2.461529701944243e-06   5.790103726099156e-05
2.1577539748116482e-07   3.6788622284423048e-06   4.81323084979777e-06
2.1577539748116482e-07   3.6788622284423048e-06   4.81323084979777e-06
2.1577539748116482e-07   3.6788622284423048e-06   4.81323084979777e-06
2.1577539748116482e-07   3.6788622284423048e-06   4.81323084979777e-06
-1.4878037922340834e-05   3.4067210823835424e-06   3.013287107046965e-05
-1.4878037922340834e-05   3.4067210823835424e-06   3.013287107046965e-05
-1.4878037922340834e-05   3.4067210823835424e-06   3.013287107046965e-05
-1.4878037922340834e-05   3.4067210823835424e-06   3.013287107046965e-05
2.1577539748116482e-07   2.461529701944243e-06   5.71706377450929e-05
2.1577539748116482e-07   2.461529701944243e-06   5.71706377450929e-05
2.1577539748116482e-07   2.461529701944243e-06   5.71706377450929e-05
2.1577539748116482e-07   2.461529701944243e-06   5.71706377450929e-05
-3.119866873969594e-05   3.6788622284427384e-06   5.543630365696705e-06
-3.119866873969594e-05   3.6788622284427384e-06   5.543630365696705e-06
-3.119866873969594e-05   3.6788622284427384e-06   5.543630365696705e-06
-3.119866873969594e-05   3.6788622284427384e-06   5.543630365696705e-06
-3.257249598496219e-05   1.9718305259851417e-06   5.8449531949242815e-05
-3.257249598496219e-05   1.9718305259851417e-06   5.8449531949242815e-05
-3.257249598496219e-05   1.9718305259851417e-06   5.8449531949242815e-05
-3.257249598496219e-05   1.9718305259851417e-06   5.8449531949242815e-05
-1.0784313053690837e-06   3.034483207541537e-06   5.321832540987402e-06
-1.0784313053690837e-06   3.034483207541537e-06   5.321832540987402e-06
-1.0784313053690837e-06   3.034483207541537e-06   5.321832540987402e-06
-1.0784313053690837e-06   3.034483207541537e-06   5.321832540987402e-06
-1.6086562042241966e-05   3.02743014103787e-06   3.0339615609010866e-05
-1.6086562042241966e-05   3.02743014103787e-06   3.0339615609010866e-05
-1.6086562042241966e-05   3.02743014103787e-06   3.0339615609010866e-05
-1.6086562042241966e-05   3.02743014103787e-06   3.0339615609010866e-05
-1.0784313053690566e-06   1.9718305259851417e-06   5.781194034030915e-05
-1.0784313053690566e-06   1.9718305259851417e-06   5.781194034030915e-05
-1.0784313053690566e-06   1.9718305259851417e-06   5.781194034030915e-05
-1.0784313053690566e-06   1.9718305259851417e-06   5.781194034030915e-05
-3.257249598496225e-05   3.034483207541537e-06   5.959424149920957e-06
-3.257249598496225e-05   3.034483207541537e-06   5.959424149920957e-06
-3.257249598496225e-05   3.034483207541537e-06   5.959424149920957e-06
-3.257249598496225e-05   3.034483207541537e-06   5.959424149920957e-06
-3.399029644783163e-05   1.6188421904914964e-06   5.9320956992481647e-05
-3.399029644783163e-05   1.6188421904914964e-06   5.9320956992481647e-05
-3.399029644783163e-05   1.6188421904914964e-06   5.9320956992481647e-05
-3.399029644783163e-05   1.6188421904914964e-06   5.9320956992481647e-05
-2.4257830650569075e-06   2.4608557641862122e-06   6.208226543640569e-06
-2.4257830650569075e-06   2.4608557641862122e-06   6.208226543640569e-06
-2.4257830650569075e-06   2.4608557641862122e-06   6.208226543640569e-06
-2.4257830650569075e-06   2.4608557641862122e-06   6.208226543640569e-06
-1.7394364010486402e-05   2.663961718067133e-06   3.103399788036197e-05
-1.7394364010486402e-05   2.663961718067133e-06   3.103399788036197e-05
-1.7394364010486402e-05   2.663961718067133e-06   3.103399788036197e-05
-1.7394364010486402e-05   2.663961718067133e-06   3.103399788036197e-05
-2.9897873554715192e-05   9.742269564304122e-06   4.981117301829422e-05
-2.9897873554715192e-05   9.742269564304122e-06   4.981117301829422e-05
-2.9897873554715192e-05   9.742269564304122e-06   4.981117301829422e-05
-2.9897873554715192e-05   9.742269564304122e-06   4.981117301829422e-05
-6.026033538057967e-05   9.865372813233804e-06   -7.190680754551489e-07
-6.026033538057967e-05   9.865372813233804e-06   -7.190680754551489e-07
-6.026033538057967e-05   9.865372813233804e-06   -7.190680754551489e-07
-6.026033538057967e-05   9.865372813233804e-06   -7.190680754551489e-07
-6.177058126121299e-05   9.21431367193349e-06   5.068346315795702e-05
-6.177058126121299e-05   9.21431367193349e-06   5.068346315795702e-05
-6.177058126121299e-05   9.21431367193349e-06   5.068346315795702e-05
-6.177058126121299e-05   9.21431367193349e-06   5.068346315795702e-05
-3.119866873969599e-05   9.230934634167631e-06   -2.7969695524563375e-07
-3.119866873969599e-05   9.230934634167631e-06   -2.7969695524563375e-07
-3.119866873969599e-05   9.230934634167631e-06   -2.7969695524563375e-07
-3.119866873969599e-05   9.230934634167631e-06   -2.7969695524563375e-07
-4.5577235830213065e-05   9.491334574084943e-06   2.3528341564999465e-05
-4.5577235830213065e-05   9.491334574084943e-06   2.3528341564999465e-05
-4.5577235830213065e-05   9.491334574084943e-06   2.3528341564999465e-05
-4.5577235830213065e-05   9.491334574084943e-06   2.3528341564999465e-05
-3.119866873969599e-05   9.21431367193349e-06   5.0673490580616055e-05
-3.119866873969599e-05   9.21431367193349e-06   5.0673490580616055e-05
-3.119866873969599e-05   9.21431367193349e-06   5.0673490580616055e-05
-3.119866873969599e-05   9.21431367193349e-06   5.0673490580616055e-05
-6.177058126121288e-05   9.230934634167631e-06   -2.6972437790488864e-07
-6.177058126121288e-05   9.230934634167631e-06   -2.6972437790488864e-07
-6.177058126121288e-05   9.230934634167631e-06   -2.6972437790488864e-07
-6.177058126121288e-05   9.230934634167631e-06   -2.6972437790488864e-07
-6.344482625078135e-05   8.726572518444244e-06   5.303899126675492e-05
-6.344482625078135e-05   8.726572518444244e-06   5.303899126675492e-05
-6.344482625078135e-05   8.726572518444244e-06   5.303899126675492e-05
-6.344482625078135e-05   8.726572518444244e-06   5.303899126675492e-05
-3.257249598496225e-05   8.646711599989178e-06   1.6330240414624679e-06
-3.257249598496225e-05   8.646711599989178e-06   1.6330240414624679e-06
-3.257249598496225e-05   8.646711599989178e-06   1.6330240414624679e-06
-3.257249598496225e-05   8.646711599989178e-06   1.6330240414624679e-06
-4.667047247905203e-05   9.132596399785697e-06   2.4838120651734163e-05
-4.667047247905203e-05   9.132596399785697e-06   2.4838120651734163e-05
-4.667047247905203e-05   9.132596399785697e-06   2.4838120651734163e-05
-4.667047247905203e-05   9.132596399785697e-06   2.4838120651734163e-05
-3.257249598496225e-05   8.726572518444678e-06   5.308690781782779e-05
-3.257249598496225e-05   8.726572518444678e-06   5.308690781782779e-05
-3.257249598496225e-05   8.726572518444678e-06   5.308690781782779e-05
-3.257249598496225e-05   8.726572518444678e-06   5.308690781782779e-05
-6.344482625078129e-05   8.646711599989178e-06   1.5851074903895472e-06
-6.344482625078129e-05   8.646711599989178e-06   1.5851074903895472e-06
-6.344482625078129e-05   8.646711599989178e-06   1.5851074903895472e-06
-6.344482625078129e-05   8.646711599989178e-06   1.5851074903895472e-06
-6.504070271990927e-05   8.07151205031503e-06   5.4742314724466525e-05
-6.504070271990927e-05   8.07151205031503e-06   5.4742314724466525e-05
-6.504070271990927e-05   8.07151205031503e-06   5.4742314724466525e-05
-6.504070271990927e-05   8.07151205031503e-06   5.4742314724466525e-05
-3.399029644783174e-05   7.933836238975967e-06   3.074243091140741e-06
-3.399029644783174e-05   7.933836238975967e-06   3.074243091140741e-06
-3.399029644783174e-05   7.933836238975967e-06   3.074243091140741e-06
-3.399029644783174e-05   7.933836238975967e-06   3.074243091140741e-06
-4.84066232812606e-05   8.667503397760939e-06   2.666125418492027e-05
-4.84066232812606e-05   8.667503397760939e-06   2.666125418492027e-05
-4.84066232812606e-05   8.667503397760939e-06   2.666125418492027e-05
-4.84066232812606e-05   8.667503397760939e-06   2.666125418492027e-05
-6.026033538057956e-05   1.5844063361476757e-05   2.393074078839907e-05
-6.026033538057956e-05   1.5844063361476757e-05   2.393074078839907e-05
-6.026033538057956e-05   1.5844063361476757e-05   2.393074078839907e-05
-6.026033538057956e-05   1.5844063361476757e-05   2.393074078839907e-05
-8.909544045653076e-05   1.4196112495413332e-05   -2.5116538191157813e-05
-8.909544045653076e-05   1.4196112495413332e-05   -2.5116538191157813e-05
-8.909544045653076e-05   1.4196112495413332e-05   -2.5116538191157813e-05
-8.909544045653076e-05   1.4196112495413332e-05   -2.5116538191157813e-05
-9.147355330080308e-05   1.6145283812068426e-05   3.3169404928110133e-05
-9.147355330080308e-05   1.6145283812068426e-05   3.3169404928110133e-05
-9.147355330080308e-05   1.6145283812068426e-05   3.3169404928110133e-05
-9.147355330080308e-05   1.6145283812068426e-05   3.3169404928110133e-05
-6.177058126121299e-05   1.4344196546715003e-05   -1.5254896111994748e-05
-6.177058126121299e-05   1.4344196546715003e-05   -1.5254896111994748e-05
-6.177058126121299e-05   1.4344196546715003e-05   -1.5254896111994748e-05
-6.177058126121299e-05   1.4344196546715003e-05   -1.5254896111994748e-05
-7.27536862703548e-05   1.5045621285597176e-05   2.6294240599123797e-06
-7.27536862703548e-05   1.5045621285597176e-05   2.6294240599123797e-06
-7.27536862703548e-05   1.5045621285597176e-05   2.6294240599123797e-06
-7.27536862703548e-05   1.5045621285597176e-05   2.6294240599123797e-06
-6.177058126121288e-05   1.6145283812068426e-05   3.425005728732223e-05
-6.177058126121288e-05   1.6145283812068426e-05   3.425005728732223e-05
-6.177058126121288e-05   1.6145283812068426e-05   3.425005728732223e-05
-6.177058126121288e-05   1.6145283812068426e-05   3.425005728732223e-05
-9.14735533008034e-05   1.4344196546715003e-05   -1.6335548471206954e-05
-9.14735533008034e-05   1.4344196546715003e-05   -1.6335548471206954e-05
-9.14735533008034e-05   1.4344196546715003e-05   -1.6335548471206954e-05
-9.14735533008034e-05   1.4344196546715003e-05   -1.6335548471206954e-05
-9.379627553802696e-05   1.6028076187228363e-05   4.037000189378208e-05
-9.379627553802696e-05   1.6028076187228363e-05   4.037000189378208e-05
-9.379627553802696e-05   1.6028076187228363e-05   4.037000189378208e-05
-9.379627553802696e-05   1.6028076187228363e-05   4.037000189378208e-05
-6.344482625078135e-05   1.4185623697491549e-05   -9.110275424451908e-06
-6.344482625078135e-05   1.4185623697491549e-05   -9.110275424451908e-06
-6.344482625078135e-05   1.4185623697491549e-05   -9.110275424451908e-06
-6.344482625078135e-05   1.4185623697491549e-05   -9.110275424451908e-06
-7.567118698598196e-05   1.531929657825953e-05   1.0586788739089161e-05
-7.567118698598196e-05   1.531929657825953e-05   1.0586788739089161e-05
-7.567118698598196e-05   1.531929657825953e-05   1.0586788739089161e-05
-7.567118698598196e-05   1.531929657825953e-05   1.0586788739089161e-05
-6.344482625078135e-05   1.6028076187228363e-05   4.147547338762469e-05
-6.344482625078135e-05   1.6028076187228363e-05   4.147547338762469e-05
-6.344482625078135e-05   1.6028076187228363e-05   4.147547338762469e-05
-6.344482625078135e-05   1.6028076187228363e-05   4.147547338762469e-05
-9.379627553802728e-05   1.4185623697491549e-05   -1.0215746918294409e-05
-9.379627553802728e-05   1.4185623697491549e-05   -1.0215746918294409e-05
-9.379627553802728e-05   1.4185623697491549e-05   -1.0215746918294409e-05
-9.379627553802728e-05   1.4185623697491549e-05   -1.0215746918294409e-05
-9.65095568096677e-05   1.4752219159210999e-05   5.270983098245273e-05
-9.65095568096677e-05   1.4752219159210999e-05   5.270983098245273e-05
-9.65095568096677e-05   1.4752219159210999e-05   5.270983098245273e-05
-9.65095568096677e-05   1.4752219159210999e-05   5.270983098245273e-05
-6.504070271990927e-05   1.309002586873673e-05   1.259056807139487e-06
-6.504070271990927e-05   1.309002586873673e-05   1.259056807139487e-06
-6.504070271990927e-05   1.309002586873673e-05   1.259056807139487e-06
-6.504070271990927e-05   1.309002586873673e-05   1.259056807139487e-06
-7.641871042562924e-05   1.4867442600591599e-05   1.9155952944228168e-05
-7.641871042562924e-05   1.4867442600591599e-05   1.9155952944228168e-05
-7.641871042562924e-05   1.4867442600591599e-05   1.9155952944228168e-05
-7.641871042562924e-05   1.4867442600591599e-05   1.9155952944228168e-05
5.170040802257624e-05   -6.987455165020657e-06   4.392502062490261e-05
5.170040802257624e-05   -6.987455165020657e-06   4.392502062490261e-05
5.170040802257624e-05   -6.987455165020657e-06   4.392502062490261e-05
5.170040802257624e-05   -6.987455165020657e-06   4.392502062490261e-05
2.4344592712869232e-05   -4.610560420567535e-06   -2.418680446036447e-07
2.4344592712869232e-05   -4.610560420567535e-06   -2.418680446036447e-07
2.4344592712869232e-05   -4.610560420567535e-06   -2.418680446036447e-07
2.4344592712869232e-05   -4.610560420567535e-06   -2.418680446036447e-07
2.3186401386655878e-05   -8.109821974571808e-06   3.860152809710476e-05
2.3186401386655878e-05   -8.109821974571808e-06   3.860152809710476e-05
2.3186401386655878e-05   -8.109821974571808e-06   3.860152809710476e-05
2.3186401386655878e-05   -8.109821974571808e-06   3.860152809710476e-05
4.9459978478752336e-05   -5.598690310740749e-06   -6.694446054687951e-06
4.9459978478752336e-05   -5.598690310740749e-06   -6.694446054687951e-06
4.9459978478752336e-05   -5.598690310740749e-06   -6.694446054687951e-06
4.9459978478752336e-05   -5.598690310740749e-06   -6.694446054687951e-06
3.5423974560090576e-05   -6.375354163723826e-06   1.7164892121538305e-05
3.5423974560090576e-05   -6.375354163723826e-06   1.7164892121538305e-05
3.5423974560090576e-05   -6.375354163723826e-06   1.7164892121538305e-05
3.5423974560090576e-05   -6.375354163723826e-06   1.7164892121538305e-05
4.9459978478752336e-05   -8.109821974571808e-06   3.709484909880634e-05
4.9459978478752336e-05   -8.109821974571808e-06   3.709484909880634e-05
4.9459978478752336e-05   -8.109821974571808e-06   3.709484909880634e-05
4.9459978478752336e-05   -8.109821974571808e-06   3.709484909880634e-05
2.3186401386655912e-05   -5.598690310740749e-06   -5.187767056389139e-06
2.3186401386655912e-05   -5.598690310740749e-06   -5.187767056389139e-06
2.3186401386655912e-05   -5.598690310740749e-06   -5.187767056389139e-06
2.3186401386655912e-05   -5.598690310740749e-06   -5.187767056389139e-06
2.1908471710904943e-05   -8.335757976674855e-06   3.485886702510191e-05
2.1908471710904943e-05   -8.335757976674855e-06   3.485886702510191e-05
2.1908471710904943e-05   -8.335757976674855e-06   3.485886702510191e-05
2.1908471710904943e-05   -8.335757976674855e-06   3.485886702510191e-05
4.749702633571586e-05   -5.86307611723973e-06   -9.272333131910256e-06
4.749702633571586e-05   -5.86307611723973e-06   -9.272333131910256e-06
4.749702633571586e-05   -5.86307611723973e-06   -9.272333131910256e-06
4.749702633571586e-05   -5.86307611723973e-06   -9.272333131910256e-06
3.4492598429380656e-05   -6.776034299686359e-06   1.2949488288117114e-05
3.4492598429380656e-05   -6.776034299686359e-06   1.2949488288117114e-05
3.4492598429380656e-05   -6.776034299686359e-06   1.2949488288117114e-05
3.4492598429380656e-05   -6.776034299686359e-06   1.2949488288117114e-05
4.749702633571577e-05   -8.335757976674855e-06   3.3375257909441184e-05
4.749702633571577e-05   -8.335757976674855e-06   3.3375257909441184e-05
4.749702633571577e-05   -8.335757976674855e-06   3.3375257909441184e-05
4.749702633571577e-05   -8.335757976674855e-06   3.3375257909441184e-05
2.1908471710904977e-05   -5.86307611723973e-06   -7.78872401624919e-06
2.1908471710904977e-05   -5.86307611723973e-06   -7.78872401624919e-06
2.1908471710904977e-05   -5.86307611723973e-06   -7.78872401624919e-06
2.1908471710904977e-05   -5.86307611723973e-06   -7.78872401624919e-06
2.0728718877922327e-05   -8.429415933470727e-06   2.9793832530257804e-05
2.0728718877922327e-05   -8.429415933470727e-06   2.9793832530257804e-05
2.0728718877922327e-05   -8.429415933470727e-06   2.9793832530257804e-05
2.0728718877922327e-05   -8.429415933470727e-06   2.9793832530257804e-05
4.530462948392306e-05   -6.112052422506831e-06   -1.2556436586321653e-05
4.530462948392306e-05   -6.112052422506831e-06   -1.2556436586321653e-05
4.530462948392306e-05   -6.112052422506831e-06   -1.2556436586321653e-05
4.530462948392306e-05   -6.112052422506831e-06   -1.2556436586321653e-05
3.2446474912855116e-05   -6.73822562115723e-06   9.249524951316106e-06
3.2446474912855116e-05   -6.73822562115723e-06   9.249524951316106e-06
3.2446474912855116e-05   -6.73822562115723e-06   9.249524951316106e-06
3.2446474912855116e-05   -6.73822562115723e-06   9.249524951316106e-06
2.4344592712869144e-05   -1.3355629506889809e-06   4.99924551682514e-05
2.4344592712869144e-05   -1.3355629506889809e-06   4.99924551682514e-05
2.4344592712869144e-05   -1.3355629506889809e-06   4.99924551682514e-05
2.4344592712869144e-05   -1.3355629506889809e-06   4.99924551682514e-05
-1.5512229978885189e-06   -1.9768232856643558e-08   7.622239147688295e-06
-1.5512229978885189e-06   -1.9768232856643558e-08   7.622239147688295e-06
-1.5512229978885189e-06   -1.9768232856643558e-08   7.622239147688295e-06
-1.5512229978885189e-06   -1.9768232856643558e-08   7.622239147688295e-06
-2.6398430507304353e-06   -2.132005371641675e-06   5.008282682248755e-05
-2.6398430507304353e-06   -2.132005371641675e-06   5.008282682248755e-05
-2.6398430507304353e-06   -2.132005371641675e-06   5.008282682248755e-05
-2.6398430507304353e-06   -2.132005371641675e-06   5.008282682248755e-05
2.3186401386655912e-05   -8.799914213322539e-07   6.28787772332523e-06
2.3186401386655912e-05   -8.799914213322539e-07   6.28787772332523e-06
2.3186401386655912e-05   -8.799914213322539e-07   6.28787772332523e-06
2.3186401386655912e-05   -8.799914213322539e-07   6.28787772332523e-06
1.0659582484100037e-05   -1.1229401521649883e-06   2.731167846608412e-05
1.0659582484100037e-05   -1.1229401521649883e-06   2.731167846608412e-05
1.0659582484100037e-05   -1.1229401521649883e-06   2.731167846608412e-05
1.0659582484100037e-05   -1.1229401521649883e-06   2.731167846608412e-05
2.318640138665585e-05   -2.132005371641675e-06   4.933161845230229e-05
2.318640138665585e-05   -2.132005371641675e-06   4.933161845230229e-05
2.318640138665585e-05   -2.132005371641675e-06   4.933161845230229e-05
2.318640138665585e-05   -2.132005371641675e-06   4.933161845230229e-05
-2.6398430507304353e-06   -8.799914213322539e-07   7.039086093510493e-06
-2.6398430507304353e-06   -8.799914213322539e-07   7.039086093510493e-06
-2.6398430507304353e-06   -8.799914213322539e-07   7.039086093510493e-06
-2.6398430507304353e-06   -8.799914213322539e-07   7.039086093510493e-06
-3.7515259558247084e-06   -2.724376138894726e-06   4.933286107977261e-05
-3.7515259558247084e-06   -2.724376138894726e-06   4.933286107977261e-05
-3.7515259558247084e-06   -2.724376138894726e-06   4.933286107977261e-05
-3.7515259558247084e-06   -2.724376138894726e-06   4.933286107977261e-05
2.1908471710904977e-05   -1.5587708952109758e-06   5.866835155680128e-06
2.1908471710904977e-05   -1.5587708952109758e-06   5.866835155680128e-06
2.1908471710904977e-05   -1.5587708952109758e-06   5.866835155680128e-06
2.1908471710904977e-05   -1.5587708952109758e-06   5.866835155680128e-06
9.43917321594664e-06   -1.654198289404666e-06   2.6706255750462107e-05
9.43917321594664e-06   -1.654198289404666e-06   2.6706255750462107e-05
9.43917321594664e-06   -1.654198289404666e-06   2.6706255750462107e-05
9.43917321594664e-06   -1.654198289404666e-06   2.6706255750462107e-05
2.1908471710904943e-05   -2.724376138894726e-06   4.863349793356284e-05
2.1908471710904943e-05   -2.724376138894726e-06   4.863349793356284e-05
2.1908471710904943e-05   -2.724376138894726e-06   4.863349793356284e-05
2.1908471710904943e-05   -2.724376138894726e-06   4.863349793356284e-05
-3.7515259558247084e-06   -1.5587708952109758e-06   6.566198301890267e-06
-3.7515259558247084e-06   -1.5587708952109758e-06   6.566198301890267e-06
-3.7515259558247084e-06   -1.5587708952109758e-06   6.566198301890267e-06
-3.7515259558247084e-06   -1.5587708952109758e-06   6.566198301890267e-06
-4.869179427587219e-06   -3.1925531078077704e-06   4.9680645878293636e-05
-4.869179427587219e-06   -3.1925531078077704e-06   4.9680645878293636e-05
-4.869179427587219e-06   -3.1925531078077704e-06   4.9680645878293636e-05
-4.869179427587219e-06   -3.1925531078077704e-06   4.9680645878293636e-05
2.072871887792234e-05   -2.188297291448593e-06   6.41492854596242e-06
2.072871887792234e-05   -2.188297291448593e-06   6.41492854596242e-06
2.072871887792234e-05   -2.188297291448593e-06   6.41492854596242e-06
2.072871887792234e-05   -2.188297291448593e-06   6.41492854596242e-06
8.506137132622965e-06   -2.048316310974095e-06   2.670190953317752e-05
8.506137132622965e-06   -2.048316310974095e-06   2.670190953317752e-05
8.506137132622965e-06   -2.048316310974095e-06   2.670190953317752e-05
8.506137132622965e-06   -2.048316310974095e-06   2.670190953317752e-05
-1.5512229978885189e-06   4.342447513124709e-06   5.29359615628782e-05
-1.5512229978885189e-06   4.342447513124709e-06   5.29359615628782e-05
-1.5512229978885189e-06   4.342447513124709e-06   5.29359615628782e-05
-1.5512229978885189e-06   4.342447513124709e-06   5.29359615628782e-05
-2.690383248257918e-05   4.468091050778122e-06   1.0756998544319283e-05
-2.690383248257918e-05   4.468091050778122e-06   1.0756998544319283e-05
-2.690383248257918e-05   4.468091050778122e-06   1.0756998544319283e-05
-2.690383248257918e-05   4.468091050778122e-06   1.0756998544319283e-05
-2.799807145492821e-05   3.6788622284427384e-06   5.277574227755162e-05
-2.799807145492821e-05   3.6788622284427384e-06   5.277574227755162e-05
-2.799807145492821e-05   3.6788622284427384e-06   5.277574227755162e-05
-2.799807145492821e-05   3.6788622284427384e-06   5.277574227755162e-05
-2.6398430507304353e-06   3.7114303623065475e-06   1.0492487390237131e-05
-2.6398430507304353e-06   3.7114303623065475e-06   1.0492487390237131e-05
-2.6398430507304353e-06   3.7114303623065475e-06   1.0492487390237131e-05
-2.6398430507304353e-06   3.7114303623065475e-06   1.0492487390237131e-05
-1.4811636070132225e-05   3.97988558780045e-06   3.061773595394382e-05
-1.4811636070132225e-05   3.97988558780045e-06   3.061773595394382e-05
-1.4811636070132225e-05   3.97988558780045e-06   3.061773595394382e-05
-1.4811636070132225e-05   3.97988558780045e-06   3.061773595394382e-05
-2.6398430507304353e-06   3.6788622284423048e-06   5.275620139723368e-05
-2.6398430507304353e-06   3.6788622284423048e-06   5.275620139723368e-05
-2.6398430507304353e-06   3.6788622284423048e-06   5.275620139723368e-05
-2.6398430507304353e-06   3.6788622284423048e-06   5.275620139723368e-05
-2.799807145492821e-05   3.7114303623065475e-06   1.051202827055545e-05
-2.799807145492821e-05   3.7114303623065475e-06   1.051202827055545e-05
-2.799807145492821e-05   3.7114303623065475e-06   1.051202827055545e-05
-2.799807145492821e-05   3.7114303623065475e-06   1.051202827055545e-05
-2.91197669117843e-05   3.034483207541537e-06   5.306643227034934e-05
-2.91197669117843e-05   3.034483207541537e-06   5.306643227034934e-05
-2.91197669117843e-05   3.034483207541537e-06   5.306643227034934e-05
-2.91197669117843e-05   3.034483207541537e-06   5.306643227034934e-05
-3.7515259558247084e-06   2.9667415685956725e-06   1.0826675660451112e-05
-3.7515259558247084e-06   2.9667415685956725e-06   1.0826675660451112e-05
-3.7515259558247084e-06   2.9667415685956725e-06   1.0826675660451112e-05
-3.7515259558247084e-06   2.9667415685956725e-06   1.0826675660451112e-05
-1.5827817000966835e-05   3.4707873892278127e-06   3.0651399909976365e-05
-1.5827817000966835e-05   3.4707873892278127e-06   3.0651399909976365e-05
-1.5827817000966835e-05   3.4707873892278127e-06   3.0651399909976365e-05
-1.5827817000966835e-05   3.4707873892278127e-06   3.0651399909976365e-05
-3.7515259558247084e-06   3.034483207541537e-06   5.310707725371725e-05
-3.7515259558247084e-06   3.034483207541537e-06   5.310707725371725e-05
-3.7515259558247084e-06   3.034483207541537e-06   5.310707725371725e-05
-3.7515259558247084e-06   3.034483207541537e-06   5.310707725371725e-05
-2.91197669117843e-05   2.9667415685956725e-06   1.0786030677083312e-05
-2.91197669117843e-05   2.9667415685956725e-06   1.0786030677083312e-05
-2.91197669117843e-05   2.9667415685956725e-06   1.0786030677083312e-05
-2.91197669117843e-05   2.9667415685956725e-06   1.0786030677083312e-05
-3.024113594720095e-05   2.4608557641857785e-06   5.3728649839059365e-05
-3.024113594720095e-05   2.4608557641857785e-06   5.3728649839059365e-05
-3.024113594720095e-05   2.4608557641857785e-06   5.3728649839059365e-05
-3.024113594720095e-05   2.4608557641857785e-06   5.3728649839059365e-05
-4.869179427587219e-06   2.2600325002269245e-06   1.156254959807832e-05
-4.869179427587219e-06   2.2600325002269245e-06   1.156254959807832e-05
-4.869179427587219e-06   2.2600325002269245e-06   1.156254959807832e-05
-4.869179427587219e-06   2.2600325002269245e-06   1.156254959807832e-05
-1.6891555436989694e-05   2.9746035444195087e-06   3.117110032056813e-05
-1.6891555436989694e-05   2.9746035444195087e-06   3.117110032056813e-05
-1.6891555436989694e-05   2.9746035444195087e-06   3.117110032056813e-05
-1.6891555436989694e-05   2.9746035444195087e-06   3.117110032056813e-05
-2.690383248257918e-05   9.86537281323337e-06   4.6557170119032815e-05
-2.690383248257918e-05   9.86537281323337e-06   4.6557170119032815e-05
-2.690383248257918e-05   9.86537281323337e-06   4.6557170119032815e-05
-2.690383248257918e-05   9.86537281323337e-06   4.6557170119032815e-05
-5.168962236239816e-05   8.785759847663391e-06   4.599752539992657e-06
-5.168962236239816e-05   8.785759847663391e-06   4.599752539992657e-06
-5.168962236239816e-05   8.785759847663391e-06   4.599752539992657e-06
-5.168962236239816e-05   8.785759847663391e-06   4.599752539992657e-06
-5.2866841297108847e-05   9.230934634167631e-06   4.625009847348356e-05
-5.2866841297108847e-05   9.230934634167631e-06   4.625009847348356e-05
-5.2866841297108847e-05   9.230934634167631e-06   4.625009847348356e-05
-5.2866841297108847e-05   9.230934634167631e-06   4.625009847348356e-05
-2.7998071454928236e-05   8.0604071622907e-06   5.5044652196421405e-06
-2.7998071454928236e-05   8.0604071622907e-06   5.5044652196421405e-06
-2.7998071454928236e-05   8.0604071622907e-06   5.5044652196421405e-06
-2.7998071454928236e-05   8.0604071622907e-06   5.5044652196421405e-06
-3.9733070659919275e-05   8.869298935951838e-06   2.4577462163763604e-05
-3.9733070659919275e-05   8.869298935951838e-06   2.4577462163763604e-05
-3.9733070659919275e-05   8.869298935951838e-06   2.4577462163763604e-05
-3.9733070659919275e-05   8.869298935951838e-06   2.4577462163763604e-05
-2.799807145492821e-05   9.230934634167631e-06   4.6952414956609716e-05
-2.799807145492821e-05   9.230934634167631e-06   4.6952414956609716e-05
-2.799807145492821e-05   9.230934634167631e-06   4.6952414956609716e-05
-2.799807145492821e-05   9.230934634167631e-06   4.6952414956609716e-05
-5.2866841297108847e-05   8.0604071622907e-06   4.80214873651609e-06
-5.2866841297108847e-05   8.0604071622907e-06   4.80214873651609e-06
-5.2866841297108847e-05   8.0604071622907e-06   4.80214873651609e-06
-5.2866841297108847e-05   8.0604071622907e-06   4.80214873651609e-06
-5.416311271069877e-05   8.646711599989178e-06   4.798313676470604e-05
-5.416311271069877e-05   8.646711599989178e-06   4.798313676470604e-05
-5.416311271069877e-05   8.646711599989178e-06   4.798313676470604e-05
-5.416311271069877e-05   8.646711599989178e-06   4.798313676470604e-05
-2.9119766911784326e-05   7.385219271347984e-06   7.0011224970333735e-06
-2.9119766911784326e-05   7.385219271347984e-06   7.0011224970333735e-06
-2.9119766911784326e-05   7.385219271347984e-06   7.0011224970333735e-06
-2.9119766911784326e-05   7.385219271347984e-06   7.0011224970333735e-06
-4.0579525938777845e-05   8.405907557061578e-06   2.548830790392902e-05
-4.0579525938777845e-05   8.405907557061578e-06   2.548830790392902e-05
-4.0579525938777845e-05   8.405907557061578e-06   2.548830790392902e-05
-4.0579525938777845e-05   8.405907557061578e-06   2.548830790392902e-05
-2.91197669117843e-05   8.646711599989178e-06   4.8740032161891014e-05
-2.91197669117843e-05   8.646711599989178e-06   4.8740032161891014e-05
-2.91197669117843e-05   8.646711599989178e-06   4.8740032161891014e-05
-2.91197669117843e-05   8.646711599989178e-06   4.8740032161891014e-05
-5.416311271069877e-05   7.385219271347984e-06   6.24422709984856e-06
-5.416311271069877e-05   7.385219271347984e-06   6.24422709984856e-06
-5.416311271069877e-05   7.385219271347984e-06   6.24422709984856e-06
-5.416311271069877e-05   7.385219271347984e-06   6.24422709984856e-06
-5.534876515855217e-05   7.933836238975967e-06   4.928889566666256e-05
-5.534876515855217e-05   7.933836238975967e-06   4.928889566666256e-05
-5.534876515855217e-05   7.933836238975967e-06   4.928889566666256e-05
-5.534876515855217e-05   7.933836238975967e-06   4.928889566666256e-05
-3.0241135947200976e-05   6.599565279509327e-06   8.24340955675782e-06
-3.0241135947200976e-05   6.599565279509327e-06   8.24340955675782e-06
-3.0241135947200976e-05   6.599565279509327e-06   8.24340955675782e-06
-3.0241135947200976e-05   6.599565279509327e-06   8.24340955675782e-06
-4.192332796712221e-05   7.883943317777819e-06   2.6943102767000777e-05
-4.192332796712221e-05   7.883943317777819e-06   2.6943102767000777e-05
-4.192332796712221e-05   7.883943317777819e-06   2.6943102767000777e-05
-4.192332796712221e-05   7.883943317777819e-06   2.6943102767000777e-05
-5.168962236239816e-05   1.4196112495413332e-05   2.250070274362648e-05
-5.168962236239816e-05   1.4196112495413332e-05   2.250070274362648e-05
-5.168962236239816e-05   1.4196112495413332e-05   2.250070274362648e-05
-5.168962236239816e-05   1.4196112495413332e-05   2.250070274362648e-05
-7.521031969334339e-05   1.2099408545048276e-05   -1.7958481844834316e-05
-7.521031969334339e-05   1.2099408545048276e-05   -1.7958481844834316e-05
-7.521031969334339e-05   1.2099408545048276e-05   -1.7958481844834316e-05
-7.521031969334339e-05   1.2099408545048276e-05   -1.7958481844834316e-05
-7.732519457540033e-05   1.4344196546715003e-05   2.9880195522819213e-05
-7.732519457540033e-05   1.4344196546715003e-05   2.9880195522819213e-05
-7.732519457540033e-05   1.4344196546715003e-05   2.9880195522819213e-05
-7.732519457540033e-05   1.4344196546715003e-05   2.9880195522819213e-05
-5.2866841297108847e-05   1.2036311185758142e-05   -9.498995391092721e-06
-5.2866841297108847e-05   1.2036311185758142e-05   -9.498995391092721e-06
-5.2866841297108847e-05   1.2036311185758142e-05   -9.498995391092721e-06
-5.2866841297108847e-05   1.2036311185758142e-05   -9.498995391092721e-06
-6.182808388038229e-05   1.297716353562163e-05   4.871897504445154e-06
-6.182808388038229e-05   1.297716353562163e-05   4.871897504445154e-06
-6.182808388038229e-05   1.297716353562163e-05   4.871897504445154e-06
-6.182808388038229e-05   1.297716353562163e-05   4.871897504445154e-06
-5.286684129710879e-05   1.4344196546715003e-05   3.126492673939359e-05
-5.286684129710879e-05   1.4344196546715003e-05   3.126492673939359e-05
-5.286684129710879e-05   1.4344196546715003e-05   3.126492673939359e-05
-5.286684129710879e-05   1.4344196546715003e-05   3.126492673939359e-05
-7.732519457540044e-05   1.2036311185758142e-05   -1.0883726607666664e-05
-7.732519457540044e-05   1.2036311185758142e-05   -1.0883726607666664e-05
-7.732519457540044e-05   1.2036311185758142e-05   -1.0883726607666664e-05
-7.732519457540044e-05   1.2036311185758142e-05   -1.0883726607666664e-05
-7.92194999244701e-05   1.4185623697491115e-05   3.585048164486465e-05
-7.92194999244701e-05   1.4185623697491115e-05   3.585048164486465e-05
-7.92194999244701e-05   1.4185623697491115e-05   3.585048164486465e-05
-7.92194999244701e-05   1.4185623697491115e-05   3.585048164486465e-05
-5.416311271069877e-05   1.1790170022491983e-05   -4.472891506421468e-06
-5.416311271069877e-05   1.1790170022491983e-05   -4.472891506421468e-06
-5.416311271069877e-05   1.1790170022491983e-05   -4.472891506421468e-06
-5.416311271069877e-05   1.1790170022491983e-05   -4.472891506421468e-06
-6.425516782097913e-05   1.3119531460524698e-05   1.1549583481228415e-05
-6.425516782097913e-05   1.3119531460524698e-05   1.1549583481228415e-05
-6.425516782097913e-05   1.3119531460524698e-05   1.1549583481228415e-05
-6.425516782097913e-05   1.3119531460524698e-05   1.1549583481228415e-05
-5.416311271069877e-05   1.4185623697491549e-05   3.728775384986469e-05
-5.416311271069877e-05   1.4185623697491549e-05   3.728775384986469e-05
-5.416311271069877e-05   1.4185623697491549e-05   3.728775384986469e-05
-5.416311271069877e-05   1.4185623697491549e-05   3.728775384986469e-05
-7.92194999244702e-05   1.179017002249155e-05   -5.9101637114209685e-06
-7.92194999244702e-05   1.179017002249155e-05   -5.9101637114209685e-06
-7.92194999244702e-05   1.179017002249155e-05   -5.9101637114209685e-06
-7.92194999244702e-05   1.179017002249155e-05   -5.9101637114209685e-06
-8.139686760255882e-05   1.309002586873673e-05   4.612618301814324e-05
-8.139686760255882e-05   1.309002586873673e-05   4.612618301814324e-05
-8.139686760255882e-05   1.309002586873673e-05   4.612618301814324e-05
-8.139686760255882e-05   1.309002586873673e-05   4.612618301814324e-05
-5.534876515855217e-05   1.0706472783199826e-05   4.1428107961201865e-06
-5.534876515855217e-05   1.0706472783199826e-05   4.1428107961201865e-06
-5.534876515855217e-05   1.0706472783199826e-05   4.1428107961201865e-06
-5.534876515855217e-05   1.0706472783199826e-05   4.1428107961201865e-06
-6.478021145328992e-05   1.267046380296153e-05   1.8683493342160876e-05
-6.478021145328992e-05   1.267046380296153e-05   1.8683493342160876e-05
-6.478021145328992e-05   1.267046380296153e-05   1.8683493342160876e-05
-6.478021145328992e-05   1.267046380296153e-05   1.8683493342160876e-05
3.556362421356686e-05   -4.610560420567535e-06   3.5719663669237e-05
3.556362421356686e-05   -4.610560420567535e-06   3.5719663669237e-05
3.556362421356686e-05   -4.610560420567535e-06   3.5719663669237e-05
3.556362421356686e-05   -4.610560420567535e-06   3.5719663669237e-05
1.4753191303129986e-05   -2.2583069519501765e-06   2.446960899679185e-06
1.4753191303129986e-05   -2.2583069519501765e-06   2.446960899679185e-06
1.4753191303129986e-05   -2.2583069519501765e-06   2.446960899679185e-06
1.4753191303129986e-05   -2.2583069519501765e-06   2.446960899679185e-06
1.3822407446441397e-05   -5.598690310740749e-06   3.212171511711589e-05
1.3822407446441397e-05   -5.598690310740749e-06   3.212171511711589e-05
1.3822407446441397e-05   -5.598690310740749e-06   3.212171511711589e-05
1.3822407446441397e-05   -5.598690310740749e-06   3.212171511711589e-05
3.358330204364573e-05   -3.1411881674004057e-06   -2.2876104975620498e-06
3.358330204364573e-05   -3.1411881674004057e-06   -2.2876104975620498e-06
3.358330204364573e-05   -3.1411881674004057e-06   -2.2876104975620498e-06
3.358330204364573e-05   -3.1411881674004057e-06   -2.2876104975620498e-06
2.321470479428395e-05   -3.996496282086641e-06   1.5506569786853337e-05
2.321470479428395e-05   -3.996496282086641e-06   1.5506569786853337e-05
2.321470479428395e-05   -3.996496282086641e-06   1.5506569786853337e-05
2.321470479428395e-05   -3.996496282086641e-06   1.5506569786853337e-05
3.35833020436458e-05   -5.598690310740315e-06   3.0647213831111854e-05
3.35833020436458e-05   -5.598690310740315e-06   3.0647213831111854e-05
3.35833020436458e-05   -5.598690310740315e-06   3.0647213831111854e-05
3.35833020436458e-05   -5.598690310740315e-06   3.0647213831111854e-05
1.382240744644135e-05   -3.1411881674004057e-06   -8.131092115580985e-07
1.382240744644135e-05   -3.1411881674004057e-06   -8.131092115580985e-07
1.382240744644135e-05   -3.1411881674004057e-06   -8.131092115580985e-07
1.382240744644135e-05   -3.1411881674004057e-06   -8.131092115580985e-07
1.2777494595772876e-05   -5.86307611723973e-06   2.9448938197595845e-05
1.2777494595772876e-05   -5.86307611723973e-06   2.9448938197595845e-05
1.2777494595772876e-05   -5.86307611723973e-06   2.9448938197595845e-05
1.2777494595772876e-05   -5.86307611723973e-06   2.9448938197595845e-05
3.18838366023417e-05   -3.445653831881789e-06   -3.845418517900038e-06
3.18838366023417e-05   -3.445653831881789e-06   -3.845418517900038e-06
3.18838366023417e-05   -3.445653831881789e-06   -3.845418517900038e-06
3.18838366023417e-05   -3.445653831881789e-06   -3.845418517900038e-06
2.233128288790417e-05   -4.370792264681879e-06   1.2630587399176736e-05
2.233128288790417e-05   -4.370792264681879e-06   1.2630587399176736e-05
2.233128288790417e-05   -4.370792264681879e-06   1.2630587399176736e-05
2.233128288790417e-05   -4.370792264681879e-06   1.2630587399176736e-05
3.188383660234176e-05   -5.86307611723973e-06   2.799848482638108e-05
3.188383660234176e-05   -5.86307611723973e-06   2.799848482638108e-05
3.188383660234176e-05   -5.86307611723973e-06   2.799848482638108e-05
3.188383660234176e-05   -5.86307611723973e-06   2.799848482638108e-05
1.2777494595772856e-05   -3.445653831881789e-06   -2.3949651466851924e-06
1.2777494595772856e-05   -3.445653831881789e-06   -2.3949651466851924e-06
1.2777494595772856e-05   -3.445653831881789e-06   -2.3949651466851924e-06
1.2777494595772856e-05   -3.445653831881789e-06   -2.3949651466851924e-06
1.1841046944848959e-05   -6.112052422506831e-06   2.5982260636551536e-05
1.1841046944848959e-05   -6.112052422506831e-06   2.5982260636551536e-05
1.1841046944848959e-05   -6.112052422506831e-06   2.5982260636551536e-05
1.1841046944848959e-05   -6.112052422506831e-06   2.5982260636551536e-05
2.995714373391679e-05   -3.8498518825100594e-06   -5.568554335892847e-06
2.995714373391679e-05   -3.8498518825100594e-06   -5.568554335892847e-06
2.995714373391679e-05   -3.8498518825100594e-06   -5.568554335892847e-06
2.995714373391679e-05   -3.8498518825100594e-06   -5.568554335892847e-06
2.0702366089036506e-05   -4.445318637623288e-06   1.0213355125309027e-05
2.0702366089036506e-05   -4.445318637623288e-06   1.0213355125309027e-05
2.0702366089036506e-05   -4.445318637623288e-06   1.0213355125309027e-05
2.0702366089036506e-05   -4.445318637623288e-06   1.0213355125309027e-05
1.4753191303130034e-05   -1.9768232856643558e-08   4.4205646112000126e-05
1.4753191303130034e-05   -1.9768232856643558e-08   4.4205646112000126e-05
1.4753191303130034e-05   -1.9768232856643558e-08   4.4205646112000126e-05
1.4753191303130034e-05   -1.9768232856643558e-08   4.4205646112000126e-05
-4.779644160889644e-06   1.1729517384916413e-06   1.2366552321442905e-05
-4.779644160889644e-06   1.1729517384916413e-06   1.2366552321442905e-05
-4.779644160889644e-06   1.1729517384916413e-06   1.2366552321442905e-05
-4.779644160889644e-06   1.1729517384916413e-06   1.2366552321442905e-05
-5.634689327537726e-06   -8.799914213322539e-07   4.429228112928134e-05
-5.634689327537726e-06   -8.799914213322539e-07   4.429228112928134e-05
-5.634689327537726e-06   -8.799914213322539e-07   4.429228112928134e-05
-5.634689327537726e-06   -8.799914213322539e-07   4.429228112928134e-05
1.382240744644135e-05   2.782106327528164e-07   1.1168865273531664e-05
1.382240744644135e-05   2.782106327528164e-07   1.1168865273531664e-05
1.382240744644135e-05   2.782106327528164e-07   1.1168865273531664e-05
1.382240744644135e-05   2.782106327528164e-07   1.1168865273531664e-05
4.401244277512501e-06   6.122354920647458e-08   2.7000996138541532e-05
4.401244277512501e-06   6.122354920647458e-08   2.7000996138541532e-05
4.401244277512501e-06   6.122354920647458e-08   2.7000996138541532e-05
4.401244277512501e-06   6.122354920647458e-08   2.7000996138541532e-05
1.382240744644139e-05   -8.799914213326876e-07   4.3597359896830256e-05
1.382240744644139e-05   -8.799914213326876e-07   4.3597359896830256e-05
1.382240744644139e-05   -8.799914213326876e-07   4.3597359896830256e-05
1.382240744644139e-05   -8.799914213326876e-07   4.3597359896830256e-05
-5.634689327537753e-06   2.782106327528164e-07   1.1863786505982932e-05
-5.634689327537753e-06   2.782106327528164e-07   1.1863786505982932e-05
-5.634689327537753e-06   2.782106327528164e-07   1.1863786505982932e-05
-5.634689327537753e-06   2.782106327528164e-07   1.1863786505982932e-05
-6.508798500317475e-06   -1.5587708952109758e-06   4.376698599262868e-05
-6.508798500317475e-06   -1.5587708952109758e-06   4.376698599262868e-05
-6.508798500317475e-06   -1.5587708952109758e-06   4.376698599262868e-05
-6.508798500317475e-06   -1.5587708952109758e-06   4.376698599262868e-05
1.2777494595772856e-05   -4.5462319003776105e-07   1.0960675542708141e-05
1.2777494595772856e-05   -4.5462319003776105e-07   1.0960675542708141e-05
1.2777494595772856e-05   -4.5462319003776105e-07   1.0960675542708141e-05
1.2777494595772856e-05   -4.5462319003776105e-07   1.0960675542708141e-05
3.461663358921348e-06   -5.359674280476859e-07   2.653586748026769e-05
3.461663358921348e-06   -5.359674280476859e-07   2.653586748026769e-05
3.461663358921348e-06   -5.359674280476859e-07   2.653586748026769e-05
3.461663358921348e-06   -5.359674280476859e-07   2.653586748026769e-05
1.2777494595772903e-05   -1.5587708952109758e-06   4.310449736952531e-05
1.2777494595772903e-05   -1.5587708952109758e-06   4.310449736952531e-05
1.2777494595772903e-05   -1.5587708952109758e-06   4.310449736952531e-05
1.2777494595772903e-05   -1.5587708952109758e-06   4.310449736952531e-05
-6.508798500317502e-06   -4.5462319003819474e-07   1.1623164165811906e-05
-6.508798500317502e-06   -4.5462319003819474e-07   1.1623164165811906e-05
-6.508798500317502e-06   -4.5462319003819474e-07   1.1623164165811906e-05
-6.508798500317502e-06   -4.5462319003819474e-07   1.1623164165811906e-05
-7.375478286974916e-06   -2.188297291448593e-06   4.4169577327280536e-05
-7.375478286974916e-06   -2.188297291448593e-06   4.4169577327280536e-05
-7.375478286974916e-06   -2.188297291448593e-06   4.4169577327280536e-05
-7.375478286974916e-06   -2.188297291448593e-06   4.4169577327280536e-05
1.1841046944848911e-05   -1.1776811830771679e-06   1.1535665609217622e-05
1.1841046944848911e-05   -1.1776811830771679e-06   1.1535665609217622e-05
1.1841046944848911e-05   -1.1776811830771679e-06   1.1535665609217622e-05
1.1841046944848911e-05   -1.1776811830771679e-06   1.1535665609217622e-05
2.7185488259731255e-06   -1.0346915495723988e-06   2.6654035360575097e-05
2.7185488259731255e-06   -1.0346915495723988e-06   2.6654035360575097e-05
2.7185488259731255e-06   -1.0346915495723988e-06   2.6654035360575097e-05
2.7185488259731255e-06   -1.0346915495723988e-06   2.6654035360575097e-05
-4.779644160889617e-06   4.468091050778122e-06   4.798065136884773e-05
-4.779644160889617e-06   4.468091050778122e-06   4.798065136884773e-05
-4.779644160889617e-06   4.468091050778122e-06   4.798065136884773e-05
-4.779644160889617e-06   4.468091050778122e-06   4.798065136884773e-05
-2.3992460446847557e-05   4.394613407612477e-06   1.5915204306352244e-05
-2.3992460446847557e-05   4.394613407612477e-06   1.5915204306352244e-05
-2.3992460446847557e-05   4.394613407612477e-06   1.5915204306352244e-05
-2.3992460446847557e-05   4.394613407612477e-06   1.5915204306352244e-05
-2.4835786279640913e-05   3.7114303623065475e-06   4.766729821264505e-05
-2.4835786279640913e-05   3.7114303623065475e-06   4.766729821264505e-05
-2.4835786279640913e-05   3.7114303623065475e-06   4.766729821264505e-05
-2.4835786279640913e-05   3.7114303623065475e-06   4.766729821264505e-05
-5.634689327537753e-06   3.5807900067024064e-06   1.5743854172502614e-05
-5.634689327537753e-06   3.5807900067024064e-06   1.5743854172502614e-05
-5.634689327537753e-06   3.5807900067024064e-06   1.5743854172502614e-05
-5.634689327537753e-06   3.5807900067024064e-06   1.5743854172502614e-05
-1.4847513523742628e-05   3.9391839193676954e-06   3.0883524818579324e-05
-1.4847513523742628e-05   3.9391839193676954e-06   3.0883524818579324e-05
-1.4847513523742628e-05   3.9391839193676954e-06   3.0883524818579324e-05
-1.4847513523742628e-05   3.9391839193676954e-06   3.0883524818579324e-05
-5.634689327537726e-06   3.7114303623065475e-06   4.7745682426007926e-05
-5.634689327537726e-06   3.7114303623065475e-06   4.7745682426007926e-05
-5.634689327537726e-06   3.7114303623065475e-06   4.7745682426007926e-05
-5.634689327537726e-06   3.7114303623065475e-06   4.7745682426007926e-05
-2.4835786279640913e-05   3.5807900067024064e-06   1.5665469959140173e-05
-2.4835786279640913e-05   3.5807900067024064e-06   1.5665469959140173e-05
-2.4835786279640913e-05   3.5807900067024064e-06   1.5665469959140173e-05
-2.4835786279640913e-05   3.5807900067024064e-06   1.5665469959140173e-05
-2.5699496882693857e-05   2.9667415685956725e-06   4.7913184831253506e-05
-2.5699496882693857e-05   2.9667415685956725e-06   4.7913184831253506e-05
-2.5699496882693857e-05   2.9667415685956725e-06   4.7913184831253506e-05
-2.5699496882693857e-05   2.9667415685956725e-06   4.7913184831253506e-05
-6.508798500317448e-06   2.7762773687016983e-06   1.604296604722905e-05
-6.508798500317448e-06   2.7762773687016983e-06   1.604296604722905e-05
-6.508798500317448e-06   2.7762773687016983e-06   1.604296604722905e-05
-6.508798500317448e-06   2.7762773687016983e-06   1.604296604722905e-05
-1.562011140070614e-05   3.3481665686857336e-06   3.0885354027887437e-05
-1.562011140070614e-05   3.3481665686857336e-06   3.0885354027887437e-05
-1.562011140070614e-05   3.3481665686857336e-06   3.0885354027887437e-05
-1.562011140070614e-05   3.3481665686857336e-06   3.0885354027887437e-05
-6.508798500317475e-06   2.9667415685956725e-06   4.8027463351189414e-05
-6.508798500317475e-06   2.9667415685956725e-06   4.8027463351189414e-05
-6.508798500317475e-06   2.9667415685956725e-06   4.8027463351189414e-05
-6.508798500317475e-06   2.9667415685956725e-06   4.8027463351189414e-05
-2.5699496882693857e-05   2.776277368702132e-06   1.5928687527293033e-05
-2.5699496882693857e-05   2.776277368702132e-06   1.5928687527293033e-05
-2.5699496882693857e-05   2.776277368702132e-06   1.5928687527293033e-05
-2.5699496882693857e-05   2.776277368702132e-06   1.5928687527293033e-05
-2.6553254660121727e-05   2.2600325002269245e-06   4.855960661991369e-05
-2.6553254660121727e-05   2.2600325002269245e-06   4.855960661991369e-05
-2.6553254660121727e-05   2.2600325002269245e-06   4.855960661991369e-05
-2.6553254660121727e-05   2.2600325002269245e-06   4.855960661991369e-05
-7.3754782869748885e-06   2.0016353841148526e-06   1.6751684267669723e-05
-7.3754782869748885e-06   2.0016353841148526e-06   1.6751684267669723e-05
-7.3754782869748885e-06   2.0016353841148526e-06   1.6751684267669723e-05
-7.3754782869748885e-06   2.0016353841148526e-06   1.6751684267669723e-05
-1.642810884752347e-05   2.770957167525824e-06   3.137780879853755e-05
-1.642810884752347e-05   2.770957167525824e-06   3.137780879853755e-05
-1.642810884752347e-05   2.770957167525824e-06   3.137780879853755e-05
-1.642810884752347e-05   2.770957167525824e-06   3.137780879853755e-05
-2.3992460446847557e-05   8.785759847663391e-06   4.2427086557964185e-05
-2.3992460446847557e-05   8.785759847663391e-06   4.2427086557964185e-05
-2.3992460446847557e-05   8.785759847663391e-06   4.2427086557964185e-05
-2.3992460446847557e-05   8.785759847663391e-06   4.2427086557964185e-05
-4.287704557244472e-05   7.5281645209698995e-06   1.0198220819286033e-05
-4.287704557244472e-05   7.5281645209698995e-06   1.0198220819286033e-05
-4.287704557244472e-05   7.5281645209698995e-06   1.0198220819286033e-05
-4.287704557244472e-05   7.5281645209698995e-06   1.0198220819286033e-05
-4.378136085321461e-05   8.0604071622907e-06   4.186304271814765e-05
-4.378136085321461e-05   8.0604071622907e-06   4.186304271814765e-05
-4.378136085321461e-05   8.0604071622907e-06   4.186304271814765e-05
-4.378136085321461e-05   8.0604071622907e-06   4.186304271814765e-05
-2.483578627964075e-05   6.732586422983269e-06   1.1083777539109001e-05
-2.483578627964075e-05   6.732586422983269e-06   1.1083777539109001e-05
-2.483578627964075e-05   6.732586422983269e-06   1.1083777539109001e-05
-2.483578627964075e-05   6.732586422983269e-06   1.1083777539109001e-05
-3.377613440128715e-05   7.645335169731513e-06   2.5436708493805174e-05
-3.377613440128715e-05   7.645335169731513e-06   2.5436708493805174e-05
-3.377613440128715e-05   7.645335169731513e-06   2.5436708493805174e-05
-3.377613440128715e-05   7.645335169731513e-06   2.5436708493805174e-05
-2.4835786279640913e-05   8.0604071622907e-06   4.265973516173207e-05
-2.4835786279640913e-05   8.0604071622907e-06   4.265973516173207e-05
-2.4835786279640913e-05   8.0604071622907e-06   4.265973516173207e-05
-2.4835786279640913e-05   8.0604071622907e-06   4.265973516173207e-05
-4.378136085321456e-05   6.732586422983702e-06   1.028708509552491e-05
-4.378136085321456e-05   6.732586422983702e-06   1.028708509552491e-05
-4.378136085321456e-05   6.732586422983702e-06   1.028708509552491e-05
-4.378136085321456e-05   6.732586422983702e-06   1.028708509552491e-05
-4.479938348526778e-05   7.385219271347984e-06   4.3295372440602066e-05
-4.479938348526778e-05   7.385219271347984e-06   4.3295372440602066e-05
-4.479938348526778e-05   7.385219271347984e-06   4.3295372440602066e-05
-4.479938348526778e-05   7.385219271347984e-06   4.3295372440602066e-05
-2.569949688269375e-05   5.997045587011803e-06   1.2295132313580451e-05
-2.569949688269375e-05   5.997045587011803e-06   1.2295132313580451e-05
-2.569949688269375e-05   5.997045587011803e-06   1.2295132313580451e-05
-2.569949688269375e-05   5.997045587011803e-06   1.2295132313580451e-05
-3.440380671678559e-05   7.10312715568838e-06   2.613866642919545e-05
-3.440380671678559e-05   7.10312715568838e-06   2.613866642919545e-05
-3.440380671678559e-05   7.10312715568838e-06   2.613866642919545e-05
-3.440380671678559e-05   7.10312715568838e-06   2.613866642919545e-05
-2.5699496882693803e-05   7.385219271347984e-06   4.412827665120308e-05
-2.5699496882693803e-05   7.385219271347984e-06   4.412827665120308e-05
-2.5699496882693803e-05   7.385219271347984e-06   4.412827665120308e-05
-2.5699496882693803e-05   7.385219271347984e-06   4.412827665120308e-05
-4.479938348526773e-05   5.997045587012237e-06   1.1462228102978732e-05
-4.479938348526773e-05   5.997045587012237e-06   1.1462228102978732e-05
-4.479938348526773e-05   5.997045587012237e-06   1.1462228102978732e-05
-4.479938348526773e-05   5.997045587012237e-06   1.1462228102978732e-05
-4.570494686951767e-05   6.599565279509327e-06   4.450646331068814e-05
-4.570494686951767e-05   6.599565279509327e-06   4.450646331068814e-05
-4.570494686951767e-05   6.599565279509327e-06   4.450646331068814e-05
-4.570494686951767e-05   6.599565279509327e-06   4.450646331068814e-05
-2.655325466012162e-05   5.1754032357087705e-06   1.3441473521308422e-05
-2.655325466012162e-05   5.1754032357087705e-06   1.3441473521308422e-05
-2.655325466012162e-05   5.1754032357087705e-06   1.3441473521308422e-05
-2.655325466012162e-05   5.1754032357087705e-06   1.3441473521308422e-05
-3.5423425514278086e-05   6.533113486589456e-06   2.741046546104152e-05
-3.5423425514278086e-05   6.533113486589456e-06   2.741046546104152e-05
-3.5423425514278086e-05   6.533113486589456e-06   2.741046546104152e-05
-3.5423425514278086e-05   6.533113486589456e-06   2.741046546104152e-05
-4.287704557244472e-05   1.209940854504871e-05   2.0372317347339868e-05
-4.287704557244472e-05   1.209940854504871e-05   2.0372317347339868e-05
-4.287704557244472e-05   1.209940854504871e-05   2.0372317347339868e-05
-4.287704557244472e-05   1.209940854504871e-05   2.0372317347339868e-05
-6.05678618618218e-05   9.865779215790377e-06   -1.0452554065843432e-05
-6.05678618618218e-05   9.865779215790377e-06   -1.0452554065843432e-05
-6.05678618618218e-05   9.865779215790377e-06   -1.0452554065843432e-05
-6.05678618618218e-05   9.865779215790377e-06   -1.0452554065843432e-05
-6.245746865764603e-05   1.2036311185758142e-05   2.610549540964756e-05
-6.245746865764603e-05   1.2036311185758142e-05   2.610549540964756e-05
-6.245746865764603e-05   1.2036311185758142e-05   2.610549540964756e-05
-6.245746865764603e-05   1.2036311185758142e-05   2.610549540964756e-05
-4.378136085321445e-05   9.608972550939014e-06   -3.5649477501801564e-06
-4.378136085321445e-05   9.608972550939014e-06   -3.5649477501801564e-06
-4.378136085321445e-05   9.608972550939014e-06   -3.5649477501801564e-06
-4.378136085321445e-05   9.608972550939014e-06   -3.5649477501801564e-06
-5.045676050020165e-05   1.0705239876094425e-05   6.9029579330392435e-06
-5.045676050020165e-05   1.0705239876094425e-05   6.9029579330392435e-06
-5.045676050020165e-05   1.0705239876094425e-05   6.9029579330392435e-06
-5.045676050020165e-05   1.0705239876094425e-05   6.9029579330392435e-06
-4.378136085321456e-05   1.2036311185758142e-05   2.756189859053895e-05
-4.378136085321456e-05   1.2036311185758142e-05   2.756189859053895e-05
-4.378136085321456e-05   1.2036311185758142e-05   2.756189859053895e-05
-4.378136085321456e-05   1.2036311185758142e-05   2.756189859053895e-05
-6.245746865764614e-05   9.608972550939014e-06   -5.021350931071764e-06
-6.245746865764614e-05   9.608972550939014e-06   -5.021350931071764e-06
-6.245746865764614e-05   9.608972550939014e-06   -5.021350931071764e-06
-6.245746865764614e-05   9.608972550939014e-06   -5.021350931071764e-06
-6.410691082747342e-05   1.1790170022491983e-05   3.1082524869956944e-05
-6.410691082747342e-05   1.1790170022491983e-05   3.1082524869956944e-05
-6.410691082747342e-05   1.1790170022491983e-05   3.1082524869956944e-05
-6.410691082747342e-05   1.1790170022491983e-05   3.1082524869956944e-05
-4.479938348526767e-05   9.297288415200701e-06   3.9904159732215196e-07
-4.479938348526767e-05   9.297288415200701e-06   3.9904159732215196e-07
-4.479938348526767e-05   9.297288415200701e-06   3.9904159732215196e-07
-4.479938348526767e-05   9.297288415200701e-06   3.9904159732215196e-07
-5.24551500182736e-05   1.0711024109001741e-05   1.2310411069386832e-05
-5.24551500182736e-05   1.0711024109001741e-05   1.2310411069386832e-05
-5.24551500182736e-05   1.0711024109001741e-05   1.2310411069386832e-05
-5.24551500182736e-05   1.0711024109001741e-05   1.2310411069386832e-05
-4.479938348526778e-05   1.1790170022491983e-05   3.257825383433171e-05
-4.479938348526778e-05   1.1790170022491983e-05   3.257825383433171e-05
-4.479938348526778e-05   1.1790170022491983e-05   3.257825383433171e-05
-4.479938348526778e-05   1.1790170022491983e-05   3.257825383433171e-05
-6.410691082747342e-05   9.297288415200701e-06   -1.0966873670524005e-06
-6.410691082747342e-05   9.297288415200701e-06   -1.0966873670524005e-06
-6.410691082747342e-05   9.297288415200701e-06   -1.0966873670524005e-06
-6.410691082747342e-05   9.297288415200701e-06   -1.0966873670524005e-06
-6.602095240015198e-05   1.0706472783199826e-05   3.973439284964521e-05
-6.602095240015198e-05   1.0706472783199826e-05   3.973439284964521e-05
-6.602095240015198e-05   1.0706472783199826e-05   3.973439284964521e-05
-6.602095240015198e-05   1.0706472783199826e-05   3.973439284964521e-05
-4.570494686951751e-05   8.253082323058259e-06   7.346417908006358e-06
-4.570494686951751e-05   8.253082323058259e-06   7.346417908006358e-06
-4.570494686951751e-05   8.253082323058259e-06   7.346417908006358e-06
-4.570494686951751e-05   8.253082323058259e-06   7.346417908006358e-06
-5.2906246854488725e-05   1.0256434226103579e-05   1.814657340779729e-05
-5.2906246854488725e-05   1.0256434226103579e-05   1.814657340779729e-05
-5.2906246854488725e-05   1.0256434226103579e-05   1.814657340779729e-05
-5.2906246854488725e-05   1.0256434226103579e-05   1.814657340779729e-05
1.9686253474122375e-05   -2.2583069519501765e-06   2.8068699082715778e-05
1.9686253474122375e-05   -2.2583069519501765e-06   2.8068699082715778e-05
1.9686253474122375e-05   -2.2583069519501765e-06   2.8068699082715778e-05
1.9686253474122375e-05   -2.2583069519501765e-06   2.8068699082715778e-05
5.12278623790881e-06   6.685239476106677e-08   5.191349297053397e-06
5.12278623790881e-06   6.685239476106677e-08   5.191349297053397e-06
5.12278623790881e-06   6.685239476106677e-08   5.191349297053397e-06
5.12278623790881e-06   6.685239476106677e-08   5.191349297053397e-06
4.427603681927374e-06   -3.141188167399972e-06   2.6178733985510573e-05
4.427603681927374e-06   -3.141188167399972e-06   2.6178733985510573e-05
4.427603681927374e-06   -3.141188167399972e-06   2.6178733985510573e-05
4.427603681927374e-06   -3.141188167399972e-06   2.6178733985510573e-05
1.796863411824263e-05   -7.23654188965802e-07   2.159829537924684e-06
1.796863411824263e-05   -7.23654188965802e-07   2.159829537924684e-06
1.796863411824263e-05   -7.23654188965802e-07   2.159829537924684e-06
1.796863411824263e-05   -7.23654188965802e-07   2.159829537924684e-06
1.1103386698920933e-05   -1.6259910320557888e-06   1.4143310675982515e-05
1.1103386698920933e-05   -1.6259910320557888e-06   1.4143310675982515e-05
1.1103386698920933e-05   -1.6259910320557888e-06   1.4143310675982515e-05
1.1103386698920933e-05   -1.6259910320557888e-06   1.4143310675982515e-05
1.7968634118242658e-05   -3.1411881674004057e-06   2.4728213598450028e-05
1.7968634118242658e-05   -3.1411881674004057e-06   2.4728213598450028e-05
1.7968634118242658e-05   -3.1411881674004057e-06   2.4728213598450028e-05
1.7968634118242658e-05   -3.1411881674004057e-06   2.4728213598450028e-05
4.427603681927367e-06   -7.23654188965802e-07   3.610349924985717e-06
4.427603681927367e-06   -7.23654188965802e-07   3.610349924985717e-06
4.427603681927367e-06   -7.23654188965802e-07   3.610349924985717e-06
4.427603681927367e-06   -7.23654188965802e-07   3.610349924985717e-06
3.6179355729463132e-06   -3.445653831881789e-06   2.45756860112517e-05
3.6179355729463132e-06   -3.445653831881789e-06   2.45756860112517e-05
3.6179355729463132e-06   -3.445653831881789e-06   2.45756860112517e-05
3.6179355729463132e-06   -3.445653831881789e-06   2.45756860112517e-05
1.6514937052908017e-05   -1.0652628061455158e-06   1.652448929207221e-06
1.6514937052908017e-05   -1.0652628061455158e-06   1.652448929207221e-06
1.6514937052908017e-05   -1.0652628061455158e-06   1.652448929207221e-06
1.6514937052908017e-05   -1.0652628061455158e-06   1.652448929207221e-06
1.0271445709107087e-05   -1.9709741653967973e-06   1.260169465109287e-05
1.0271445709107087e-05   -1.9709741653967973e-06   1.260169465109287e-05
1.0271445709107087e-05   -1.9709741653967973e-06   1.260169465109287e-05
1.0271445709107087e-05   -1.9709741653967973e-06   1.260169465109287e-05
1.6514937052908044e-05   -3.445653831881789e-06   2.314745139580989e-05
1.6514937052908044e-05   -3.445653831881789e-06   2.314745139580989e-05
1.6514937052908044e-05   -3.445653831881789e-06   2.314745139580989e-05
1.6514937052908044e-05   -3.445653831881789e-06   2.314745139580989e-05
3.6179355729463065e-06   -1.0652628061455158e-06   3.0806835446489742e-06
3.6179355729463065e-06   -1.0652628061455158e-06   3.0806835446489742e-06
3.6179355729463065e-06   -1.0652628061455158e-06   3.0806835446489742e-06
3.6179355729463065e-06   -1.0652628061455158e-06   3.0806835446489742e-06
2.91669400863963e-06   -3.8498518825100594e-06   2.272781387175661e-05
2.91669400863963e-06   -3.8498518825100594e-06   2.272781387175661e-05
2.91669400863963e-06   -3.8498518825100594e-06   2.272781387175661e-05
2.91669400863963e-06   -3.8498518825100594e-06   2.272781387175661e-05
1.4813508488328207e-05   -1.6357513886794059e-06   1.5713294426443502e-06
1.4813508488328207e-05   -1.6357513886794059e-06   1.5713294426443502e-06
1.4813508488328207e-05   -1.6357513886794059e-06   1.5713294426443502e-06
1.4813508488328207e-05   -1.6357513886794059e-06   1.5713294426443502e-06
9.050862454965483e-06   -2.1503589166605233e-06   1.1484504015038053e-05
9.050862454965483e-06   -2.1503589166605233e-06   1.1484504015038053e-05
9.050862454965483e-06   -2.1503589166605233e-06   1.1484504015038053e-05
9.050862454965483e-06   -2.1503589166605233e-06   1.1484504015038053e-05
5.12278623790882e-06   1.172951738492075e-06   3.86677541296971e-05
5.12278623790882e-06   1.172951738492075e-06   3.86677541296971e-05
5.12278623790882e-06   1.172951738492075e-06   3.86677541296971e-05
5.12278623790882e-06   1.172951738492075e-06   3.86677541296971e-05
-8.149357883950088e-06   2.2241973027113844e-06   1.7178261265130912e-05
-8.149357883950088e-06   2.2241973027113844e-06   1.7178261265130912e-05
-8.149357883950088e-06   2.2241973027113844e-06   1.7178261265130912e-05
-8.149357883950088e-06   2.2241973027113844e-06   1.7178261265130912e-05
-8.759774297754062e-06   2.782106327528164e-07   3.8791716214559274e-05
-8.759774297754062e-06   2.782106327528164e-07   3.8791716214559274e-05
-8.759774297754062e-06   2.782106327528164e-07   3.8791716214559274e-05
-8.759774297754062e-06   2.782106327528164e-07   3.8791716214559274e-05
4.427603681927367e-06   1.3298902060174082e-06   1.618174517113173e-05
4.427603681927367e-06   1.3298902060174082e-06   1.618174517113173e-05
4.427603681927367e-06   1.3298902060174082e-06   1.618174517113173e-05
4.427603681927367e-06   1.3298902060174082e-06   1.618174517113173e-05
-1.9386313951859966e-06   1.162597826519056e-06   2.6892512394020943e-05
-1.9386313951859966e-06   1.162597826519056e-06   2.6892512394020943e-05
-1.9386313951859966e-06   1.162597826519056e-06   2.6892512394020943e-05
-1.9386313951859966e-06   1.162597826519056e-06   2.6892512394020943e-05
4.427603681927367e-06   2.782106327528164e-07   3.81607084706003e-05
4.427603681927367e-06   2.782106327528164e-07   3.81607084706003e-05
4.427603681927367e-06   2.782106327528164e-07   3.81607084706003e-05
4.427603681927367e-06   2.782106327528164e-07   3.81607084706003e-05
-8.759774297754062e-06   1.3298902060171914e-06   1.681275291509068e-05
-8.759774297754062e-06   1.3298902060171914e-06   1.681275291509068e-05
-8.759774297754062e-06   1.3298902060171914e-06   1.681275291509068e-05
-8.759774297754062e-06   1.3298902060171914e-06   1.681275291509068e-05
-9.38789603782171e-06   -4.5462319003819474e-07   3.8546825358988816e-05
-9.38789603782171e-06   -4.5462319003819474e-07   3.8546825358988816e-05
-9.38789603782171e-06   -4.5462319003819474e-07   3.8546825358988816e-05
-9.38789603782171e-06   -4.5462319003819474e-07   3.8546825358988816e-05
3.6179355729463065e-06   5.712079072014292e-07   1.6254940682698515e-05
3.6179355729463065e-06   5.712079072014292e-07   1.6254940682698515e-05
3.6179355729463065e-06   5.712079072014292e-07   1.6254940682698515e-05
3.6179355729463065e-06   5.712079072014292e-07   1.6254940682698515e-05
-2.5898854531434086e-06   5.38389115004121e-07   2.662100033483367e-05
-2.5898854531434086e-06   5.38389115004121e-07   2.662100033483367e-05
-2.5898854531434086e-06   5.38389115004121e-07   2.662100033483367e-05
-2.5898854531434086e-06   5.38389115004121e-07   2.662100033483367e-05
3.6179355729463132e-06   -4.5462319003819474e-07   3.7931326700645e-05
3.6179355729463132e-06   -4.5462319003819474e-07   3.7931326700645e-05
3.6179355729463132e-06   -4.5462319003819474e-07   3.7931326700645e-05
3.6179355729463132e-06   -4.5462319003819474e-07   3.7931326700645e-05
-9.387896037821737e-06   5.712079072014292e-07   1.687043934104249e-05
-9.387896037821737e-06   5.712079072014292e-07   1.687043934104249e-05
-9.387896037821737e-06   5.712079072014292e-07   1.687043934104249e-05
-9.387896037821737e-06   5.712079072014292e-07   1.687043934104249e-05
-1.000651015185705e-05   -1.1776811830771679e-06   3.905830154337037e-05
-1.000651015185705e-05   -1.1776811830771679e-06   3.905830154337037e-05
-1.000651015185705e-05   -1.1776811830771679e-06   3.905830154337037e-05
-1.000651015185705e-05   -1.1776811830771679e-06   3.905830154337037e-05
2.91669400863963e-06   -2.0503443224164676e-07   1.693603989204174e-05
2.91669400863963e-06   -2.0503443224164676e-07   1.693603989204174e-05
2.91669400863963e-06   -2.0503443224164676e-07   1.693603989204174e-05
2.91669400863963e-06   -2.0503443224164676e-07   1.693603989204174e-05
-3.1418626857479983e-06   -2.2630383472981713e-08   2.6924191953426842e-05
-3.1418626857479983e-06   -2.2630383472981713e-08   2.6924191953426842e-05
-3.1418626857479983e-06   -2.2630383472981713e-08   2.6924191953426842e-05
-3.1418626857479983e-06   -2.2630383472981713e-08   2.6924191953426842e-05
-8.149357883950088e-06   4.394613407612477e-06   4.2891240039037454e-05
-8.149357883950088e-06   4.394613407612477e-06   4.2891240039037454e-05
-8.149357883950088e-06   4.394613407612477e-06   4.2891240039037454e-05
-8.149357883950088e-06   4.394613407612477e-06   4.2891240039037454e-05
-2.1199599770631284e-05   4.140265782248773e-06   2.09882283193504e-05
-2.1199599770631284e-05   4.140265782248773e-06   2.09882283193504e-05
-2.1199599770631284e-05   4.140265782248773e-06   2.09882283193504e-05
-2.1199599770631284e-05   4.140265782248773e-06   2.09882283193504e-05
-2.178503184863161e-05   3.5807900067024064e-06   4.251231135158273e-05
-2.178503184863161e-05   3.5807900067024064e-06   4.251231135158273e-05
-2.178503184863161e-05   3.5807900067024064e-06   4.251231135158273e-05
-2.178503184863161e-05   3.5807900067024064e-06   4.251231135158273e-05
-8.759774297754035e-06   3.3150024575422446e-06   2.0963021296283512e-05
-8.759774297754035e-06   3.3150024575422446e-06   2.0963021296283512e-05
-8.759774297754035e-06   3.3150024575422446e-06   2.0963021296283512e-05
-8.759774297754035e-06   3.3150024575422446e-06   2.0963021296283512e-05
-1.5001133502840836e-05   3.7662017913640995e-06   3.1094567037802845e-05
-1.5001133502840836e-05   3.7662017913640995e-06   3.1094567037802845e-05
-1.5001133502840836e-05   3.7662017913640995e-06   3.1094567037802845e-05
-1.5001133502840836e-05   3.7662017913640995e-06   3.1094567037802845e-05
-8.759774297754062e-06   3.58079000670284e-06   4.267178388107917e-05
-8.759774297754062e-06   3.58079000670284e-06   4.267178388107917e-05
-8.759774297754062e-06   3.58079000670284e-06   4.267178388107917e-05
-8.759774297754062e-06   3.58079000670284e-06   4.267178388107917e-05
-2.178503184863161e-05   3.3150024575424614e-06   2.080354876678734e-05
-2.178503184863161e-05   3.3150024575424614e-06   2.080354876678734e-05
-2.178503184863161e-05   3.3150024575424614e-06   2.080354876678734e-05
-2.178503184863161e-05   3.3150024575424614e-06   2.080354876678734e-05
-2.238975782101611e-05   2.7762773687016983e-06   4.279722595469009e-05
-2.238975782101611e-05   2.7762773687016983e-06   4.279722595469009e-05
-2.238975782101611e-05   2.7762773687016983e-06   4.279722595469009e-05
-2.238975782101611e-05   2.7762773687016983e-06   4.279722595469009e-05
-9.38789603782171e-06   2.4939418925076784e-06   2.129685760174924e-05
-9.38789603782171e-06   2.4939418925076784e-06   2.129685760174924e-05
-9.38789603782171e-06   2.4939418925076784e-06   2.129685760174924e-05
-9.38789603782171e-06   2.4939418925076784e-06   2.129685760174924e-05
-1.552258507011206e-05   3.138121556619123e-06   3.113483152376601e-05
-1.552258507011206e-05   3.138121556619123e-06   3.113483152376601e-05
-1.552258507011206e-05   3.138121556619123e-06   3.113483152376601e-05
-1.552258507011206e-05   3.138121556619123e-06   3.113483152376601e-05
-9.387896037821737e-06   2.7762773687016983e-06   4.29666272404065e-05
-9.387896037821737e-06   2.7762773687016983e-06   4.29666272404065e-05
-9.387896037821737e-06   2.7762773687016983e-06   4.29666272404065e-05
-9.387896037821737e-06   2.7762773687016983e-06   4.29666272404065e-05
-2.2389757821016055e-05   2.4939418925076784e-06   2.1127456316032828e-05
-2.2389757821016055e-05   2.4939418925076784e-06   2.1127456316032828e-05
-2.2389757821016055e-05   2.4939418925076784e-06   2.1127456316032828e-05
-2.2389757821016055e-05   2.4939418925076784e-06   2.1127456316032828e-05
-2.2985106638487318e-05   2.0016353841148526e-06   4.349149806569209e-05
-2.2985106638487318e-05   2.0016353841148526e-06   4.349149806569209e-05
-2.2985106638487318e-05   2.0016353841148526e-06   4.349149806569209e-05
-2.2985106638487318e-05   2.0016353841148526e-06   4.349149806569209e-05
-1.0006510151857023e-05   1.7075479322688821e-06   2.203695639241629e-05
-1.0006510151857023e-05   1.7075479322688821e-06   2.203695639241629e-05
-1.0006510151857023e-05   1.7075479322688821e-06   2.203695639241629e-05
-1.0006510151857023e-05   1.7075479322688821e-06   2.203695639241629e-05
-1.6077122600843637e-05   2.5225189049498525e-06   3.166566122378542e-05
-1.6077122600843637e-05   2.5225189049498525e-06   3.166566122378542e-05
-1.6077122600843637e-05   2.5225189049498525e-06   3.166566122378542e-05
-1.6077122600843637e-05   2.5225189049498525e-06   3.166566122378542e-05
-2.1199599770631284e-05   7.5281645209698995e-06   3.777620517276918e-05
-2.1199599770631284e-05   7.5281645209698995e-06   3.777620517276918e-05
-2.1199599770631284e-05   7.5281645209698995e-06   3.777620517276918e-05
-2.1199599770631284e-05   7.5281645209698995e-06   3.777620517276918e-05
-3.400814609003447e-05   6.144607668129819e-06   1.5598493862059668e-05
-3.400814609003447e-05   6.144607668129819e-06   1.5598493862059668e-05
-3.400814609003447e-05   6.144607668129819e-06   1.5598493862059668e-05
-3.400814609003447e-05   6.144607668129819e-06   1.5598493862059668e-05
-3.4645966477228954e-05   6.732586422983269e-06   3.7078251435800416e-05
-3.4645966477228954e-05   6.732586422983269e-06   3.7078251435800416e-05
-3.4645966477228954e-05   6.732586422983269e-06   3.7078251435800416e-05
-3.4645966477228954e-05   6.732586422983269e-06   3.7078251435800416e-05
-2.1785031848631556e-05   5.311973930064015e-06   1.6495727883889823e-05
-2.1785031848631556e-05   5.311973930064015e-06   1.6495727883889823e-05
-2.1785031848631556e-05   5.311973930064015e-06   1.6495727883889823e-05
-2.1785031848631556e-05   5.311973930064015e-06   1.6495727883889823e-05
-2.784250159917445e-05   6.325743122405792e-06   2.598324928605809e-05
-2.784250159917445e-05   6.325743122405792e-06   2.598324928605809e-05
-2.784250159917445e-05   6.325743122405792e-06   2.598324928605809e-05
-2.784250159917445e-05   6.325743122405792e-06   2.598324928605809e-05
-2.178503184863161e-05   6.732586422983269e-06   3.793061893155188e-05
-2.178503184863161e-05   6.732586422983269e-06   3.793061893155188e-05
-2.178503184863161e-05   6.732586422983269e-06   3.793061893155188e-05
-2.178503184863161e-05   6.732586422983269e-06   3.793061893155188e-05
-3.4645966477228846e-05   5.311973930063798e-06   1.564336038813825e-05
-3.4645966477228846e-05   5.311973930063798e-06   1.564336038813825e-05
-3.4645966477228846e-05   5.311973930063798e-06   1.564336038813825e-05
-3.4645966477228846e-05   5.311973930063798e-06   1.564336038813825e-05
-3.540167271781858e-05   5.997045587012237e-06   3.829875617037998e-05
-3.540167271781858e-05   5.997045587012237e-06   3.829875617037998e-05
-3.540167271781858e-05   5.997045587012237e-06   3.829875617037998e-05
-3.540167271781858e-05   5.997045587012237e-06   3.829875617037998e-05
-2.2389757821016055e-05   4.555521302683366e-06   1.7477145912973228e-05
-2.2389757821016055e-05   4.555521302683366e-06   1.7477145912973228e-05
-2.2389757821016055e-05   4.555521302683366e-06   1.7477145912973228e-05
-2.2389757821016055e-05   4.555521302683366e-06   1.7477145912973228e-05
-2.8256730132056454e-05   5.736535506331228e-06   2.6546824575852165e-05
-2.8256730132056454e-05   5.736535506331228e-06   2.6546824575852165e-05
-2.8256730132056454e-05   5.736535506331228e-06   2.6546824575852165e-05
-2.8256730132056454e-05   5.736535506331228e-06   2.6546824575852165e-05
-2.238975782101611e-05   5.997045587012237e-06   3.916367074097691e-05
-2.238975782101611e-05   5.997045587012237e-06   3.916367074097691e-05
-2.238975782101611e-05   5.997045587012237e-06   3.916367074097691e-05
-2.238975782101611e-05   5.997045587012237e-06   3.916367074097691e-05
-3.540167271781842e-05   4.555521302683366e-06   1.6612231342376296e-05
-3.540167271781842e-05   4.555521302683366e-06   1.6612231342376296e-05
-3.540167271781842e-05   4.555521302683366e-06   1.6612231342376296e-05
-3.540167271781842e-05   4.555521302683366e-06   1.6612231342376296e-05
-3.605060052965702e-05   5.175403235708337e-06   3.9479710924590064e-05
-3.605060052965702e-05   5.175403235708337e-06   3.9479710924590064e-05
-3.605060052965702e-05   5.175403235708337e-06   3.9479710924590064e-05
-3.605060052965702e-05   5.175403235708337e-06   3.9479710924590064e-05
-2.2985106638487263e-05   3.747712128362047e-06   1.856050243704871e-05
-2.2985106638487263e-05   3.747712128362047e-06   1.856050243704871e-05
-2.2985106638487263e-05   3.747712128362047e-06   1.856050243704871e-05
-2.2985106638487263e-05   3.747712128362047e-06   1.856050243704871e-05
-2.8967285616919922e-05   5.147109124325946e-06   2.7691162536859232e-05
-2.8967285616919922e-05   5.147109124325946e-06   2.7691162536859232e-05
-2.8967285616919922e-05   5.147109124325946e-06   2.7691162536859232e-05
-2.8967285616919922e-05   5.147109124325946e-06   2.7691162536859232e-05
-3.400814609003458e-05   9.865779215790377e-06   1.7635473773490278e-05
-3.400814609003458e-05   9.865779215790377e-06   1.7635473773490278e-05
-3.400814609003458e-05   9.865779215790377e-06   1.7635473773490278e-05
-3.400814609003458e-05   9.865779215790377e-06   1.7635473773490278e-05
-4.5541759351867155e-05   7.550680853633937e-06   -2.9762740135243475e-06
-4.5541759351867155e-05   7.550680853633937e-06   -2.9762740135243475e-06
-4.5541759351867155e-05   7.550680853633937e-06   -2.9762740135243475e-06
-4.5541759351867155e-05   7.550680853633937e-06   -2.9762740135243475e-06
-4.717609366492836e-05   9.608972550939014e-06   2.1734590060580074e-05
-4.717609366492836e-05   9.608972550939014e-06   2.1734590060580074e-05
-4.717609366492836e-05   9.608972550939014e-06   2.1734590060580074e-05
-4.717609366492836e-05   9.608972550939014e-06   2.1734590060580074e-05
-3.4645966477228846e-05   7.122925001747538e-06   2.342673277262947e-06
-3.4645966477228846e-05   7.122925001747538e-06   2.342673277262947e-06
-3.4645966477228846e-05   7.122925001747538e-06   2.342673277262947e-06
-3.4645966477228846e-05   7.122925001747538e-06   2.342673277262947e-06
-3.887426902016486e-05   8.381498185617339e-06   8.634700271835946e-06
-3.887426902016486e-05   8.381498185617339e-06   8.634700271835946e-06
-3.887426902016486e-05   8.381498185617339e-06   8.634700271835946e-06
-3.887426902016486e-05   8.381498185617339e-06   8.634700271835946e-06
-3.4645966477228846e-05   9.608972550939447e-06   2.3226218590095132e-05
-3.4645966477228846e-05   9.608972550939447e-06   2.3226218590095132e-05
-3.4645966477228846e-05   9.608972550939447e-06   2.3226218590095132e-05
-3.4645966477228846e-05   9.608972550939447e-06   2.3226218590095132e-05
-4.717609366492836e-05   7.122925001747538e-06   8.510447477481052e-07
-4.717609366492836e-05   7.122925001747538e-06   8.510447477481052e-07
-4.717609366492836e-05   7.122925001747538e-06   8.510447477481052e-07
-4.717609366492836e-05   7.122925001747538e-06   8.510447477481052e-07
-4.8584010630646924e-05   9.297288415200701e-06   2.571719743232892e-05
-4.8584010630646924e-05   9.297288415200701e-06   2.571719743232892e-05
-4.8584010630646924e-05   9.297288415200701e-06   2.571719743232892e-05
-4.8584010630646924e-05   9.297288415200701e-06   2.571719743232892e-05
-3.540167271781842e-05   6.766668027877003e-06   5.2650064766761404e-06
-3.540167271781842e-05   6.766668027877003e-06   5.2650064766761404e-06
-3.540167271781842e-05   6.766668027877003e-06   5.2650064766761404e-06
-3.540167271781842e-05   6.766668027877003e-06   5.2650064766761404e-06
-4.0441712500754605e-05   8.269846037200785e-06   1.2763165975976072e-05
-4.0441712500754605e-05   8.269846037200785e-06   1.2763165975976072e-05
-4.0441712500754605e-05   8.269846037200785e-06   1.2763165975976072e-05
-4.0441712500754605e-05   8.269846037200785e-06   1.2763165975976072e-05
-3.540167271781847e-05   9.297288415200701e-06   2.7235569664723616e-05
-3.540167271781847e-05   9.297288415200701e-06   2.7235569664723616e-05
-3.540167271781847e-05   9.297288415200701e-06   2.7235569664723616e-05
-3.540167271781847e-05   9.297288415200701e-06   2.7235569664723616e-05
-4.8584010630646924e-05   6.766668027877003e-06   3.7466342442816613e-06
-4.8584010630646924e-05   6.766668027877003e-06   3.7466342442816613e-06
-4.8584010630646924e-05   6.766668027877003e-06   3.7466342442816613e-06
-4.8584010630646924e-05   6.766668027877003e-06   3.7466342442816613e-06
-5.026992587204985e-05   8.253082323058259e-06   3.276703061214038e-05
-5.026992587204985e-05   8.253082323058259e-06   3.276703061214038e-05
-5.026992587204985e-05   8.253082323058259e-06   3.276703061214038e-05
-5.026992587204985e-05   8.253082323058259e-06   3.276703061214038e-05
-3.605060052965691e-05   5.799545780679023e-06   1.0540276966913777e-05
-3.605060052965691e-05   5.799545780679023e-06   1.0540276966913777e-05
-3.605060052965691e-05   5.799545780679023e-06   1.0540276966913777e-05
-3.605060052965691e-05   5.799545780679023e-06   1.0540276966913777e-05
-4.083611730092742e-05   7.830063953070173e-06   1.7297827348930353e-05
-4.083611730092742e-05   7.830063953070173e-06   1.7297827348930353e-05
-4.083611730092742e-05   7.830063953070173e-06   1.7297827348930353e-05
-4.083611730092742e-05   7.830063953070173e-06   1.7297827348930353e-05
3.8363506832484536e-06   6.685239476128362e-08   2.0908993072684236e-05
3.8363506832484536e-06   6.685239476128362e-08   2.0908993072684236e-05
3.8363506832484536e-06   6.685239476128362e-08   2.0908993072684236e-05
3.8363506832484536e-06   6.685239476128362e-08   2.0908993072684236e-05
-4.464642151943968e-06   2.296513280979724e-06   8.411801545761023e-06
-4.464642151943968e-06   2.296513280979724e-06   8.411801545761023e-06
-4.464642151943968e-06   2.296513280979724e-06   8.411801545761023e-06
-4.464642151943968e-06   2.296513280979724e-06   8.411801545761023e-06
-4.955325619280097e-06   -7.236541889655852e-07   2.0637345973507004e-05
-4.955325619280097e-06   -7.236541889655852e-07   2.0637345973507004e-05
-4.955325619280097e-06   -7.236541889655852e-07   2.0637345973507004e-05
-4.955325619280097e-06   -7.236541889655852e-07   2.0637345973507004e-05
2.341640325242343e-06   1.5591845686272442e-06   7.1060328114137925e-06
2.341640325242343e-06   1.5591845686272442e-06   7.1060328114137925e-06
2.341640325242343e-06   1.5591845686272442e-06   7.1060328114137925e-06
2.341640325242343e-06   1.5591845686272442e-06   7.1060328114137925e-06
-1.0018109471706275e-06   6.739028512359104e-07   1.3209620629203508e-05
-1.0018109471706275e-06   6.739028512359104e-07   1.3209620629203508e-05
-1.0018109471706275e-06   6.739028512359104e-07   1.3209620629203508e-05
-1.0018109471706275e-06   6.739028512359104e-07   1.3209620629203508e-05
2.341640325242343e-06   -7.236541889655852e-07   1.926764271895109e-05
2.341640325242343e-06   -7.236541889655852e-07   1.926764271895109e-05
2.341640325242343e-06   -7.236541889655852e-07   1.926764271895109e-05
2.341640325242343e-06   -7.236541889655852e-07   1.926764271895109e-05
-4.955325619280097e-06   1.5591845686272442e-06   8.475736065969436e-06
-4.955325619280097e-06   1.5591845686272442e-06   8.475736065969436e-06
-4.955325619280097e-06   1.5591845686272442e-06   8.475736065969436e-06
-4.955325619280097e-06   1.5591845686272442e-06   8.475736065969436e-06
-5.561196980404179e-06   -1.065262806145299e-06   2.010647886086295e-05
-5.561196980404179e-06   -1.065262806145299e-06   2.010647886086295e-05
-5.561196980404179e-06   -1.065262806145299e-06   2.010647886086295e-05
-5.561196980404179e-06   -1.065262806145299e-06   2.010647886086295e-05
1.0453442069455942e-06   1.152200393295848e-06   7.765098962281774e-06
1.0453442069455942e-06   1.152200393295848e-06   7.765098962281774e-06
1.0453442069455942e-06   1.152200393295848e-06   7.765098962281774e-06
1.0453442069455942e-06   1.152200393295848e-06   7.765098962281774e-06
-1.8096029858915332e-06   3.5964011601153506e-07   1.2998880450047708e-05
-1.8096029858915332e-06   3.5964011601153506e-07   1.2998880450047708e-05
-1.8096029858915332e-06   3.5964011601153506e-07   1.2998880450047708e-05
-1.8096029858915332e-06   3.5964011601153506e-07   1.2998880450047708e-05
1.0453442069455942e-06   -1.0652628061455158e-06   1.8776000941197937e-05
1.0453442069455942e-06   -1.0652628061455158e-06   1.8776000941197937e-05
1.0453442069455942e-06   -1.0652628061455158e-06   1.8776000941197937e-05
1.0453442069455942e-06   -1.0652628061455158e-06   1.8776000941197937e-05
-5.561196980404166e-06   1.152200393295848e-06   9.095576881946706e-06
-5.561196980404166e-06   1.152200393295848e-06   9.095576881946706e-06
-5.561196980404166e-06   1.152200393295848e-06   9.095576881946706e-06
-5.561196980404166e-06   1.152200393295848e-06   9.095576881946706e-06
-6.067087145248748e-06   -1.635751388679189e-06   1.9931006753003697e-05
-6.067087145248748e-06   -1.635751388679189e-06   1.9931006753003697e-05
-6.067087145248748e-06   -1.635751388679189e-06   1.9931006753003697e-05
-6.067087145248748e-06   -1.635751388679189e-06   1.9931006753003697e-05
-5.803678344697632e-07   2.8792776579351746e-07   9.632267075688718e-06
-5.803678344697632e-07   2.8792776579351746e-07   9.632267075688718e-06
-5.803678344697632e-07   2.8792776579351746e-07   9.632267075688718e-06
-5.803678344697632e-07   2.8792776579351746e-07   9.632267075688718e-06
-2.6757310448233643e-06   6.994101151404711e-08   1.3255331145512115e-05
-2.6757310448233643e-06   6.994101151404711e-08   1.3255331145512115e-05
-2.6757310448233643e-06   6.994101151404711e-08   1.3255331145512115e-05
-2.6757310448233643e-06   6.994101151404711e-08   1.3255331145512115e-05
-4.464642151943968e-06   2.2241973027113844e-06   3.360295423396071e-05
-4.464642151943968e-06   2.2241973027113844e-06   3.360295423396071e-05
-4.464642151943968e-06   2.2241973027113844e-06   3.360295423396071e-05
-4.464642151943968e-06   2.2241973027113844e-06   3.360295423396071e-05
-1.141487905099425e-05   2.661985200079226e-06   2.2281898807297658e-05
-1.141487905099425e-05   2.661985200079226e-06   2.2281898807297658e-05
-1.141487905099425e-05   2.661985200079226e-06   2.2281898807297658e-05
-1.141487905099425e-05   2.661985200079226e-06   2.2281898807297658e-05
-1.1784342621768746e-05   1.3298902060174082e-06   3.351359400161698e-05
-1.1784342621768746e-05   1.3298902060174082e-06   3.351359400161698e-05
-1.1784342621768746e-05   1.3298902060174082e-06   3.351359400161698e-05
-1.1784342621768746e-05   1.3298902060174082e-06   3.351359400161698e-05
-4.955325619280097e-06   1.8379781759570932e-06   2.1827046215505435e-05
-4.955325619280097e-06   1.8379781759570932e-06   2.1827046215505435e-05
-4.955325619280097e-06   1.8379781759570932e-06   2.1827046215505435e-05
-4.955325619280097e-06   1.8379781759570932e-06   2.1827046215505435e-05
-8.202246681030983e-06   1.91856104456308e-06   2.7190231597260103e-05
-8.202246681030983e-06   1.91856104456308e-06   2.7190231597260103e-05
-8.202246681030983e-06   1.91856104456308e-06   2.7190231597260103e-05
-8.202246681030983e-06   1.91856104456308e-06   2.7190231597260103e-05
-4.955325619280104e-06   1.3298902060174082e-06   3.3208741219652995e-05
-4.955325619280104e-06   1.3298902060174082e-06   3.3208741219652995e-05
-4.955325619280104e-06   1.3298902060174082e-06   3.3208741219652995e-05
-4.955325619280104e-06   1.3298902060174082e-06   3.3208741219652995e-05
-1.1784342621768719e-05   1.8379781759570932e-06   2.213189899746956e-05
-1.1784342621768719e-05   1.8379781759570932e-06   2.213189899746956e-05
-1.1784342621768719e-05   1.8379781759570932e-06   2.213189899746956e-05
-1.1784342621768719e-05   1.8379781759570932e-06   2.213189899746956e-05
-1.2165339060524221e-05   5.712079072012124e-07   3.358380586222917e-05
-1.2165339060524221e-05   5.712079072012124e-07   3.358380586222917e-05
-1.2165339060524221e-05   5.712079072012124e-07   3.358380586222917e-05
-1.2165339060524221e-05   5.712079072012124e-07   3.358380586222917e-05
-5.561196980404166e-06   1.0763243460624062e-06   2.227383253204578e-05
-5.561196980404166e-06   1.0763243460624062e-06   2.227383253204578e-05
-5.561196980404166e-06   1.0763243460624062e-06   2.227383253204578e-05
-5.561196980404166e-06   1.0763243460624062e-06   2.227383253204578e-05
-8.579298430641676e-06   1.3157865108104697e-06   2.7160324316926617e-05
-8.579298430641676e-06   1.3157865108104697e-06   2.7160324316926617e-05
-8.579298430641676e-06   1.3157865108104697e-06   2.7160324316926617e-05
-8.579298430641676e-06   1.3157865108104697e-06   2.7160324316926617e-05
-5.561196980404179e-06   5.712079072012124e-07   3.328073599891232e-05
-5.561196980404179e-06   5.712079072012124e-07   3.328073599891232e-05
-5.561196980404179e-06   5.712079072012124e-07   3.328073599891232e-05
-5.561196980404179e-06   5.712079072012124e-07   3.328073599891232e-05
-1.2165339060524221e-05   1.0763243460624062e-06   2.257690239536249e-05
-1.2165339060524221e-05   1.0763243460624062e-06   2.257690239536249e-05
-1.2165339060524221e-05   1.0763243460624062e-06   2.257690239536249e-05
-1.2165339060524221e-05   1.0763243460624062e-06   2.257690239536249e-05
-1.2538853160056146e-05   -2.0503443224164676e-07   3.4240325234967915e-05
-1.2538853160056146e-05   -2.0503443224164676e-07   3.4240325234967915e-05
-1.2538853160056146e-05   -2.0503443224164676e-07   3.4240325234967915e-05
-1.2538853160056146e-05   -2.0503443224164676e-07   3.4240325234967915e-05
-6.067087145248748e-06   2.500794492002901e-07   2.318098021475724e-05
-6.067087145248748e-06   2.500794492002901e-07   2.318098021475724e-05
-6.067087145248748e-06   2.500794492002901e-07   2.318098021475724e-05
-6.067087145248748e-06   2.500794492002901e-07   2.318098021475724e-05
-8.956286741387118e-06   7.22360187406252e-07   2.771294443206415e-05
-8.956286741387118e-06   7.22360187406252e-07   2.771294443206415e-05
-8.956286741387118e-06   7.22360187406252e-07   2.771294443206415e-05
-8.956286741387118e-06   7.22360187406252e-07   2.771294443206415e-05
-1.1414879050994223e-05   4.140265782248773e-06   3.7828202601819386e-05
-1.1414879050994223e-05   4.140265782248773e-06   3.7828202601819386e-05
-1.1414879050994223e-05   4.140265782248773e-06   3.7828202601819386e-05
-1.1414879050994223e-05   4.140265782248773e-06   3.7828202601819386e-05
-1.8346988643618825e-05   3.1855126648521435e-06   2.570183474367364e-05
-1.8346988643618825e-05   3.1855126648521435e-06   2.570183474367364e-05
-1.8346988643618825e-05   3.1855126648521435e-06   2.570183474367364e-05
-1.8346988643618825e-05   3.1855126648521435e-06   2.570183474367364e-05
-1.8659294658823734e-05   3.3150024575422446e-06   3.712752075485989e-05
-1.8659294658823734e-05   3.3150024575422446e-06   3.712752075485989e-05
-1.8659294658823734e-05   3.3150024575422446e-06   3.712752075485989e-05
-1.8659294658823734e-05   3.3150024575422446e-06   3.712752075485989e-05
-1.1784342621768719e-05   2.4210997442920996e-06   2.6205608987718446e-05
-1.1784342621768719e-05   2.4210997442920996e-06   2.6205608987718446e-05
-1.1784342621768719e-05   2.4210997442920996e-06   2.6205608987718446e-05
-1.1784342621768719e-05   2.4210997442920996e-06   2.6205608987718446e-05
-1.5058533323557155e-05   3.203306104785199e-06   3.119326967440314e-05
-1.5058533323557155e-05   3.203306104785199e-06   3.119326967440314e-05
-1.5058533323557155e-05   3.203306104785199e-06   3.119326967440314e-05
-1.5058533323557155e-05   3.203306104785199e-06   3.119326967440314e-05
-1.1784342621768719e-05   3.3150024575422446e-06   3.766386238281019e-05
-1.1784342621768719e-05   3.3150024575422446e-06   3.766386238281019e-05
-1.1784342621768719e-05   3.3150024575422446e-06   3.766386238281019e-05
-1.1784342621768719e-05   3.3150024575422446e-06   3.766386238281019e-05
-1.8659294658823734e-05   2.4210997442920996e-06   2.5669267359768196e-05
-1.8659294658823734e-05   2.4210997442920996e-06   2.5669267359768196e-05
-1.8659294658823734e-05   2.4210997442920996e-06   2.5669267359768196e-05
-1.8659294658823734e-05   2.4210997442920996e-06   2.5669267359768196e-05
-1.899410189700623e-05   2.4939418925076784e-06   3.750032280544903e-05
-1.899410189700623e-05   2.4939418925076784e-06   3.750032280544903e-05
-1.899410189700623e-05   2.4939418925076784e-06   3.750032280544903e-05
-1.899410189700623e-05   2.4939418925076784e-06   3.750032280544903e-05
-1.2165339060524221e-05   1.6441063633622095e-06   2.6628952728799447e-05
-1.2165339060524221e-05   1.6441063633622095e-06   2.6628952728799447e-05
-1.2165339060524221e-05   1.6441063633622095e-06   2.6628952728799447e-05
-1.2165339060524221e-05   1.6441063633622095e-06   2.6628952728799447e-05
-1.5325343386272873e-05   2.5907478796837607e-06   3.1327641695254543e-05
-1.5325343386272873e-05   2.5907478796837607e-06   3.1327641695254543e-05
-1.5325343386272873e-05   2.5907478796837607e-06   3.1327641695254543e-05
-1.5325343386272873e-05   2.5907478796837607e-06   3.1327641695254543e-05
-1.2165339060524221e-05   2.4939418925076784e-06   3.801022412293592e-05
-1.2165339060524221e-05   2.4939418925076784e-06   3.801022412293592e-05
-1.2165339060524221e-05   2.4939418925076784e-06   3.801022412293592e-05
-1.2165339060524221e-05   2.4939418925076784e-06   3.801022412293592e-05
-1.899410189700623e-05   1.6441063633622095e-06   2.6119051411312285e-05
-1.899410189700623e-05   1.6441063633622095e-06   2.6119051411312285e-05
-1.899410189700623e-05   1.6441063633622095e-06   2.6119051411312285e-05
-1.899410189700623e-05   1.6441063633622095e-06   2.6119051411312285e-05
-1.9321986755513982e-05   1.7075479322688821e-06   3.827739337382372e-05
-1.9321986755513982e-05   1.7075479322688821e-06   3.827739337382372e-05
-1.9321986755513982e-05   1.7075479322688821e-06   3.827739337382372e-05
-1.9321986755513982e-05   1.7075479322688821e-06   3.827739337382372e-05
-1.2538853160056146e-05   9.07114080573191e-07   2.7452431025744956e-05
-1.2538853160056146e-05   9.07114080573191e-07   2.7452431025744956e-05
-1.2538853160056146e-05   9.07114080573191e-07   2.7452431025744956e-05
-1.2538853160056146e-05   9.07114080573191e-07   2.7452431025744956e-05
-1.562265152242616e-05   1.9872432170367407e-06   3.194401748115016e-05
-1.562265152242616e-05   1.9872432170367407e-06   3.194401748115016e-05
-1.562265152242616e-05   1.9872432170367407e-06   3.194401748115016e-05
-1.562265152242616e-05   1.9872432170367407e-06   3.194401748115016e-05
-1.834698864361888e-05   6.144607668129819e-06   3.2695750385794854e-05
-1.834698864361888e-05   6.144607668129819e-06   3.2695750385794854e-05
-1.834698864361888e-05   6.144607668129819e-06   3.2695750385794854e-05
-1.834698864361888e-05   6.144607668129819e-06   3.2695750385794854e-05
-2.516228836836219e-05   4.302137243369095e-06   2.0231435256365892e-05
-2.516228836836219e-05   4.302137243369095e-06   2.0231435256365892e-05
-2.516228836836219e-05   4.302137243369095e-06   2.0231435256365892e-05
-2.516228836836219e-05   4.302137243369095e-06   2.0231435256365892e-05
-2.5505310539745063e-05   5.311973930063798e-06   3.173120276247902e-05
-2.5505310539745063e-05   5.311973930063798e-06   3.173120276247902e-05
-2.5505310539745063e-05   5.311973930063798e-06   3.173120276247902e-05
-2.5505310539745063e-05   5.311973930063798e-06   3.173120276247902e-05
-1.8659294658823734e-05   3.4978120809247334e-06   2.1409673403760283e-05
-1.8659294658823734e-05   3.4978120809247334e-06   2.1409673403760283e-05
-1.8659294658823734e-05   3.4978120809247334e-06   2.1409673403760283e-05
-1.8659294658823734e-05   3.4978120809247334e-06   2.1409673403760283e-05
-2.1872062221523327e-05   4.774258418115173e-06   2.59984182059453e-05
-2.1872062221523327e-05   4.774258418115173e-06   2.59984182059453e-05
-2.1872062221523327e-05   4.774258418115173e-06   2.59984182059453e-05
-2.1872062221523327e-05   4.774258418115173e-06   2.59984182059453e-05
-1.8659294658823734e-05   5.311973930063798e-06   3.281969987196259e-05
-1.8659294658823734e-05   5.311973930063798e-06   3.281969987196259e-05
-1.8659294658823734e-05   5.311973930063798e-06   3.281969987196259e-05
-1.8659294658823734e-05   5.311973930063798e-06   3.281969987196259e-05
-2.550531053974501e-05   3.4978120809249502e-06   2.0321176294276714e-05
-2.550531053974501e-05   3.4978120809249502e-06   2.0321176294276714e-05
-2.550531053974501e-05   3.4978120809249502e-06   2.0321176294276714e-05
-2.550531053974501e-05   3.4978120809249502e-06   2.0321176294276714e-05
-2.5980134966481125e-05   4.555521302683583e-06   3.278630930272789e-05
-2.5980134966481125e-05   4.555521302683583e-06   3.278630930272789e-05
-2.5980134966481125e-05   4.555521302683583e-06   3.278630930272789e-05
-2.5980134966481125e-05   4.555521302683583e-06   3.278630930272789e-05
-1.899410189700623e-05   2.782682803247104e-06   2.22066239532648e-05
-1.899410189700623e-05   2.782682803247104e-06   2.22066239532648e-05
-1.899410189700623e-05   2.782682803247104e-06   2.22066239532648e-05
-1.899410189700623e-05   2.782682803247104e-06   2.22066239532648e-05
-2.2058582795586433e-05   4.180555427939214e-06   2.64753685427499e-05
-2.2058582795586433e-05   4.180555427939214e-06   2.64753685427499e-05
-2.2058582795586433e-05   4.180555427939214e-06   2.64753685427499e-05
-2.2058582795586433e-05   4.180555427939214e-06   2.64753685427499e-05
-1.899410189700623e-05   4.555521302683583e-06   3.385001240238921e-05
-1.899410189700623e-05   4.555521302683583e-06   3.385001240238921e-05
-1.899410189700623e-05   4.555521302683583e-06   3.385001240238921e-05
-1.899410189700623e-05   4.555521302683583e-06   3.385001240238921e-05
-2.5980134966481017e-05   2.782682803247104e-06   2.1142920853602933e-05
-2.5980134966481017e-05   2.782682803247104e-06   2.1142920853602933e-05
-2.5980134966481017e-05   2.782682803247104e-06   2.1142920853602933e-05
-2.5980134966481017e-05   2.782682803247104e-06   2.1142920853602933e-05
-2.6360970651257407e-05   3.747712128362047e-06   3.3961543679949255e-05
-2.6360970651257407e-05   3.747712128362047e-06   3.3961543679949255e-05
-2.6360970651257407e-05   3.747712128362047e-06   3.3961543679949255e-05
-2.6360970651257407e-05   3.747712128362047e-06   3.3961543679949255e-05
-1.9321986755513928e-05   2.0546317790045773e-06   2.3245752063325107e-05
-1.9321986755513928e-05   2.0546317790045773e-06   2.3245752063325107e-05
-1.9321986755513928e-05   2.0546317790045773e-06   2.3245752063325107e-05
-1.9321986755513928e-05   2.0546317790045773e-06   2.3245752063325107e-05
-2.2451432212898818e-05   3.6164926100648413e-06   2.7524377993664163e-05
-2.2451432212898818e-05   3.6164926100648413e-06   2.7524377993664163e-05
-2.2451432212898818e-05   3.6164926100648413e-06   2.7524377993664163e-05
-2.2451432212898818e-05   3.6164926100648413e-06   2.7524377993664163e-05
-2.516228836836219e-05   7.550680853633937e-06   1.4404559272647704e-05
-2.516228836836219e-05   7.550680853633937e-06   1.4404559272647704e-05
-2.516228836836219e-05   7.550680853633937e-06   1.4404559272647704e-05
-2.516228836836219e-05   7.550680853633937e-06   1.4404559272647704e-05
-3.0491927382186998e-05   5.075270102505034e-06   4.036581132262551e-06
-3.0491927382186998e-05   5.075270102505034e-06   4.036581132262551e-06
-3.0491927382186998e-05   5.075270102505034e-06   4.036581132262551e-06
-3.0491927382186998e-05   5.075270102505034e-06   4.036581132262551e-06
-3.179620417828762e-05   7.122925001747538e-06   1.68807216703714e-05
-3.179620417828762e-05   7.122925001747538e-06   1.68807216703714e-05
-3.179620417828762e-05   7.122925001747538e-06   1.68807216703714e-05
-3.179620417828762e-05   7.122925001747538e-06   1.68807216703714e-05
-2.5505310539745063e-05   4.539935033027369e-06   7.945692920699314e-06
-2.5505310539745063e-05   4.539935033027369e-06   7.945692920699314e-06
-2.5505310539745063e-05   4.539935033027369e-06   7.945692920699314e-06
-2.5505310539745063e-05   4.539935033027369e-06   7.945692920699314e-06
-2.725965237894182e-05   6.012510774729488e-06   9.986050541005865e-06
-2.725965237894182e-05   6.012510774729488e-06   9.986050541005865e-06
-2.725965237894182e-05   6.012510774729488e-06   9.986050541005865e-06
-2.725965237894182e-05   6.012510774729488e-06   9.986050541005865e-06
-2.5505310539745063e-05   7.122925001747538e-06   1.84305156516035e-05
-2.5505310539745063e-05   7.122925001747538e-06   1.84305156516035e-05
-2.5505310539745063e-05   7.122925001747538e-06   1.84305156516035e-05
-2.5505310539745063e-05   7.122925001747538e-06   1.84305156516035e-05
-3.1796204178287726e-05   4.539935033027369e-06   6.3958989394673205e-06
-3.1796204178287726e-05   4.539935033027369e-06   6.3958989394673205e-06
-3.1796204178287726e-05   4.539935033027369e-06   6.3958989394673205e-06
-3.1796204178287726e-05   4.539935033027369e-06   6.3958989394673205e-06
-3.291657421025348e-05   6.766668027877003e-06   1.988271245568986e-05
-3.291657421025348e-05   6.766668027877003e-06   1.988271245568986e-05
-3.291657421025348e-05   6.766668027877003e-06   1.988271245568986e-05
-3.291657421025348e-05   6.766668027877003e-06   1.988271245568986e-05
-2.598013496648107e-05   4.172714725647359e-06   9.878352364073523e-06
-2.598013496648107e-05   4.172714725647359e-06   9.878352364073523e-06
-2.598013496648107e-05   4.172714725647359e-06   9.878352364073523e-06
-2.598013496648107e-05   4.172714725647359e-06   9.878352364073523e-06
-2.8363771684380458e-05   5.8017085998323965e-06   1.2873683902728879e-05
-2.8363771684380458e-05   5.8017085998323965e-06   1.2873683902728879e-05
-2.8363771684380458e-05   5.8017085998323965e-06   1.2873683902728879e-05
-2.8363771684380458e-05   5.8017085998323965e-06   1.2873683902728879e-05
-2.598013496648107e-05   6.766668027876786e-06   2.14390844370273e-05
-2.598013496648107e-05   6.766668027876786e-06   2.14390844370273e-05
-2.598013496648107e-05   6.766668027876786e-06   2.14390844370273e-05
-2.598013496648107e-05   6.766668027876786e-06   2.14390844370273e-05
-3.291657421025348e-05   4.172714725647359e-06   8.321980382735867e-06
-3.291657421025348e-05   4.172714725647359e-06   8.321980382735867e-06
-3.291657421025348e-05   4.172714725647359e-06   8.321980382735867e-06
-3.291657421025348e-05   4.172714725647359e-06   8.321980382735867e-06
-3.434449094175194e-05   5.799545780679023e-06   2.5317168349215822e-05
-3.434449094175194e-05   5.799545780679023e-06   2.5317168349215822e-05
-3.434449094175194e-05   5.799545780679023e-06   2.5317168349215822e-05
-3.434449094175194e-05   5.799545780679023e-06   2.5317168349215822e-05
-2.6360970651257353e-05   3.3316049056688214e-06   1.3492065723398118e-05
-2.6360970651257353e-05   3.3316049056688214e-06   1.3492065723398118e-05
-2.6360970651257353e-05   3.3316049056688214e-06   1.3492065723398118e-05
-2.6360970651257353e-05   3.3316049056688214e-06   1.3492065723398118e-05
-2.8681124674891903e-05   5.400431611033178e-06   1.6117693072903276e-05
-2.8681124674891903e-05   5.400431611033178e-06   1.6117693072903276e-05
-2.8681124674891903e-05   5.400431611033178e-06   1.6117693072903276e-05
-2.8681124674891903e-05   5.400431611033178e-06   1.6117693072903276e-05
-1.268148188495293e-05   2.296513280979724e-06   1.4881041418572465e-05
-1.268148188495293e-05   2.296513280979724e-06   1.4881041418572465e-05
-1.268148188495293e-05   2.296513280979724e-06   1.4881041418572465e-05
-1.268148188495293e-05   2.296513280979724e-06   1.4881041418572465e-05
-1.3781593263346383e-05   4.321814382741637e-06   1.42627031156406e-05
-1.3781593263346383e-05   4.321814382741637e-06   1.42627031156406e-05
-1.3781593263346383e-05   4.321814382741637e-06   1.42627031156406e-05
-1.3781593263346383e-05   4.321814382741637e-06   1.42627031156406e-05
-1.4131668501432905e-05   1.5591845686272442e-06   1.6009267901021993e-05
-1.4131668501432905e-05   1.5591845686272442e-06   1.6009267901021993e-05
-1.4131668501432905e-05   1.5591845686272442e-06   1.6009267901021993e-05
-1.4131668501432905e-05   1.5591845686272442e-06   1.6009267901021993e-05
-1.416332369346192e-05   3.379640762096888e-06   1.496975283832194e-05
-1.416332369346192e-05   3.379640762096888e-06   1.496975283832194e-05
-1.416332369346192e-05   3.379640762096888e-06   1.496975283832194e-05
-1.416332369346192e-05   3.379640762096888e-06   1.496975283832194e-05
-1.3346885227012733e-05   2.702232198566407e-06   1.401546719902489e-05
-1.3346885227012733e-05   2.702232198566407e-06   1.401546719902489e-05
-1.3346885227012733e-05   2.702232198566407e-06   1.401546719902489e-05
-1.3346885227012733e-05   2.702232198566407e-06   1.401546719902489e-05
-1.4163323693461934e-05   1.5591845686270273e-06   1.4916994184940011e-05
-1.4163323693461934e-05   1.5591845686270273e-06   1.4916994184940011e-05
-1.4163323693461934e-05   1.5591845686270273e-06   1.4916994184940011e-05
-1.4163323693461934e-05   1.5591845686270273e-06   1.4916994184940011e-05
-1.4131668501432905e-05   3.379640762096888e-06   1.6062026554403814e-05
-1.4131668501432905e-05   3.379640762096888e-06   1.6062026554403814e-05
-1.4131668501432905e-05   3.379640762096888e-06   1.6062026554403814e-05
-1.4131668501432905e-05   3.379640762096888e-06   1.6062026554403814e-05
-1.458619903523036e-05   1.152200393296065e-06   1.6529365638785136e-05
-1.458619903523036e-05   1.152200393296065e-06   1.6529365638785136e-05
-1.458619903523036e-05   1.152200393296065e-06   1.6529365638785136e-05
-1.458619903523036e-05   1.152200393296065e-06   1.6529365638785136e-05
-1.5603544990701107e-05   2.727077221088359e-06   1.7280016134560726e-05
-1.5603544990701107e-05   2.727077221088359e-06   1.7280016134560726e-05
-1.5603544990701107e-05   2.727077221088359e-06   1.7280016134560726e-05
-1.5603544990701107e-05   2.727077221088359e-06   1.7280016134560726e-05
-1.4229373644070442e-05   2.295480580620903e-06   1.5248688541122949e-05
-1.4229373644070442e-05   2.295480580620903e-06   1.5248688541122949e-05
-1.4229373644070442e-05   2.295480580620903e-06   1.5248688541122949e-05
-1.4229373644070442e-05   2.295480580620903e-06   1.5248688541122949e-05
-1.5603544990701134e-05   1.152200393296065e-06   1.5584439542109217e-05
-1.5603544990701134e-05   1.152200393296065e-06   1.5584439542109217e-05
-1.5603544990701134e-05   1.152200393296065e-06   1.5584439542109217e-05
-1.5603544990701134e-05   1.152200393296065e-06   1.5584439542109217e-05
-1.458619903523036e-05   2.727077221088359e-06   1.822494223123613e-05
-1.458619903523036e-05   2.727077221088359e-06   1.822494223123613e-05
-1.458619903523036e-05   2.727077221088359e-06   1.822494223123613e-05
-1.458619903523036e-05   2.727077221088359e-06   1.822494223123613e-05
-1.4873909196529917e-05   2.8792776579351746e-07   1.8190862473285783e-05
-1.4873909196529917e-05   2.8792776579351746e-07   1.8190862473285783e-05
-1.4873909196529917e-05   2.8792776579351746e-07   1.8190862473285783e-05
-1.4873909196529917e-05   2.8792776579351746e-07   1.8190862473285783e-05
-1.7136347669759742e-05   1.1213511860932047e-06   2.1461539209822154e-05
-1.7136347669759742e-05   1.1213511860932047e-06   2.1461539209822154e-05
-1.7136347669759742e-05   1.1213511860932047e-06   2.1461539209822154e-05
-1.7136347669759742e-05   1.1213511860932047e-06   2.1461539209822154e-05
-1.4843675731001905e-05   1.7947182927083565e-06   1.7236399047922794e-05
-1.4843675731001905e-05   1.7947182927083565e-06   1.7236399047922794e-05
-1.4843675731001905e-05   1.7947182927083565e-06   1.7236399047922794e-05
-1.4843675731001905e-05   1.7947182927083565e-06   1.7236399047922794e-05
-1.3781593263346356e-05   2.661985200079226e-06   2.9703646602745478e-05
-1.3781593263346356e-05   2.661985200079226e-06   2.9703646602745478e-05
-1.3781593263346356e-05   2.661985200079226e-06   2.9703646602745478e-05
-1.3781593263346356e-05   2.661985200079226e-06   2.9703646602745478e-05
-1.3916466354411977e-05   1.1178549587773003e-06   2.855237997285504e-05
-1.3916466354411977e-05   1.1178549587773003e-06   2.855237997285504e-05
-1.3916466354411977e-05   1.1178549587773003e-06   2.855237997285504e-05
-1.3916466354411977e-05   1.1178549587773003e-06   2.855237997285504e-05
-1.4022335828881314e-05   1.83797817595731e-06   2.858066748873166e-05
-1.4022335828881314e-05   1.83797817595731e-06   2.858066748873166e-05
-1.4022335828881314e-05   1.83797817595731e-06   2.858066748873166e-05
-1.4022335828881314e-05   1.83797817595731e-06   2.858066748873166e-05
-1.4131668501432905e-05   5.381272395798891e-07   2.9542799171477228e-05
-1.4131668501432905e-05   5.381272395798891e-07   2.9542799171477228e-05
-1.4131668501432905e-05   5.381272395798891e-07   2.9542799171477228e-05
-1.4131668501432905e-05   5.381272395798891e-07   2.9542799171477228e-05
-1.3919108892007668e-05   1.3617889427115781e-06   2.8694336133889528e-05
-1.3919108892007668e-05   1.3617889427115781e-06   2.8694336133889528e-05
-1.3919108892007668e-05   1.3617889427115781e-06   2.8694336133889528e-05
-1.3919108892007668e-05   1.3617889427115781e-06   2.8694336133889528e-05
-1.4131668501432891e-05   1.83797817595731e-06   2.9360578050557375e-05
-1.4131668501432891e-05   1.83797817595731e-06   2.9360578050557375e-05
-1.4131668501432891e-05   1.83797817595731e-06   2.9360578050557375e-05
-1.4131668501432891e-05   1.83797817595731e-06   2.9360578050557375e-05
-1.4022335828881287e-05   5.381272395798891e-07   2.8762888609650862e-05
-1.4022335828881287e-05   5.381272395798891e-07   2.8762888609650862e-05
-1.4022335828881287e-05   5.381272395798891e-07   2.8762888609650862e-05
-1.4022335828881287e-05   5.381272395798891e-07   2.8762888609650862e-05
-1.4153969695424311e-05   1.0763243460624062e-06   2.8980192692063867e-05
-1.4153969695424311e-05   1.0763243460624062e-06   2.8980192692063867e-05
-1.4153969695424311e-05   1.0763243460624062e-06   2.8980192692063867e-05
-1.4153969695424311e-05   1.0763243460624062e-06   2.8980192692063867e-05
-1.458619903523036e-05   -1.360566486383356e-07   3.0428003521894067e-05
-1.458619903523036e-05   -1.360566486383356e-07   3.0428003521894067e-05
-1.458619903523036e-05   -1.360566486383356e-07   3.0428003521894067e-05
-1.458619903523036e-05   -1.360566486383356e-07   3.0428003521894067e-05
-1.4049347727983828e-05   8.805207665839136e-07   2.8923304894016102e-05
-1.4049347727983828e-05   8.805207665839136e-07   2.8923304894016102e-05
-1.4049347727983828e-05   8.805207665839136e-07   2.8923304894016102e-05
-1.4049347727983828e-05   8.805207665839136e-07   2.8923304894016102e-05
-1.458619903523036e-05   1.0763243460624062e-06   2.9707621288883857e-05
-1.458619903523036e-05   1.0763243460624062e-06   2.9707621288883857e-05
-1.458619903523036e-05   1.0763243460624062e-06   2.9707621288883857e-05
-1.458619903523036e-05   1.0763243460624062e-06   2.9707621288883857e-05
-1.4153969695424257e-05   -1.360566486383356e-07   2.9700574925073603e-05
-1.4153969695424257e-05   -1.360566486383356e-07   2.9700574925073603e-05
-1.4153969695424257e-05   -1.360566486383356e-07   2.9700574925073603e-05
-1.4153969695424257e-05   -1.360566486383356e-07   2.9700574925073603e-05
-1.4248399013615812e-05   2.5007944920007324e-07   2.9821406642164465e-05
-1.4248399013615812e-05   2.5007944920007324e-07   2.9821406642164465e-05
-1.4248399013615812e-05   2.5007944920007324e-07   2.9821406642164465e-05
-1.4248399013615812e-05   2.5007944920007324e-07   2.9821406642164465e-05
-1.4873909196529904e-05   -1.0231896799770815e-06   3.162788509119405e-05
-1.4873909196529904e-05   -1.0231896799770815e-06   3.162788509119405e-05
-1.4873909196529904e-05   -1.0231896799770815e-06   3.162788509119405e-05
-1.4873909196529904e-05   -1.0231896799770815e-06   3.162788509119405e-05
-1.425737266292372e-05   3.137831323103517e-07   2.9798140514477402e-05
-1.425737266292372e-05   3.137831323103517e-07   2.9798140514477402e-05
-1.425737266292372e-05   3.137831323103517e-07   2.9798140514477402e-05
-1.425737266292372e-05   3.137831323103517e-07   2.9798140514477402e-05
-1.3916466354412004e-05   3.1855126648519267e-06   3.276995626477861e-05
-1.3916466354412004e-05   3.1855126648519267e-06   3.276995626477861e-05
-1.3916466354412004e-05   3.1855126648519267e-06   3.276995626477861e-05
-1.3916466354412004e-05   3.1855126648519267e-06   3.276995626477861e-05
-1.4944063805174222e-05   3.0986951860543285e-07   2.933190795909355e-05
-1.4944063805174222e-05   3.0986951860543285e-07   2.933190795909355e-05
-1.4944063805174222e-05   3.0986951860543285e-07   2.933190795909355e-05
-1.4944063805174222e-05   3.0986951860543285e-07   2.933190795909355e-05
-1.497723348594987e-05   2.4210997442920996e-06   3.1093095872003745e-05
-1.497723348594987e-05   2.4210997442920996e-06   3.1093095872003745e-05
-1.497723348594987e-05   2.4210997442920996e-06   3.1093095872003745e-05
-1.497723348594987e-05   2.4210997442920996e-06   3.1093095872003745e-05
-1.4022335828881287e-05   -1.8103626733617043e-07   3.1062881383866114e-05
-1.4022335828881287e-05   -1.8103626733617043e-07   3.1062881383866114e-05
-1.4022335828881287e-05   -1.8103626733617043e-07   3.1062881383866114e-05
-1.4022335828881287e-05   -1.8103626733617043e-07   3.1062881383866114e-05
-1.443971761104432e-05   1.3861105741020969e-06   3.081822958260808e-05
-1.443971761104432e-05   1.3861105741020969e-06   3.081822958260808e-05
-1.443971761104432e-05   1.3861105741020969e-06   3.081822958260808e-05
-1.443971761104432e-05   1.3861105741020969e-06   3.081822958260808e-05
-1.4022335828881314e-05   2.421099744291883e-06   3.265437747898049e-05
-1.4022335828881314e-05   2.421099744291883e-06   3.265437747898049e-05
-1.4022335828881314e-05   2.421099744291883e-06   3.265437747898049e-05
-1.4022335828881314e-05   2.421099744291883e-06   3.265437747898049e-05
-1.497723348594987e-05   -1.8103626733617043e-07   2.950159977688926e-05
-1.497723348594987e-05   -1.8103626733617043e-07   2.950159977688926e-05
-1.497723348594987e-05   -1.8103626733617043e-07   2.950159977688926e-05
-1.497723348594987e-05   -1.8103626733617043e-07   2.950159977688926e-05
-1.5040299140325268e-05   1.6441063633624263e-06   3.1584396162796444e-05
-1.5040299140325268e-05   1.6441063633624263e-06   3.1584396162796444e-05
-1.5040299140325268e-05   1.6441063633624263e-06   3.1584396162796444e-05
-1.5040299140325268e-05   1.6441063633624263e-06   3.1584396162796444e-05
-1.4153969695424284e-05   -7.689717411452903e-07   3.155502728399874e-05
-1.4153969695424284e-05   -7.689717411452903e-07   3.155502728399874e-05
-1.4153969695424284e-05   -7.689717411452903e-07   3.155502728399874e-05
-1.4153969695424284e-05   -7.689717411452903e-07   3.155502728399874e-05
-1.4444344011202174e-05   8.993589753361706e-07   3.103798604707226e-05
-1.4444344011202174e-05   8.993589753361706e-07   3.103798604707226e-05
-1.4444344011202174e-05   8.993589753361706e-07   3.103798604707226e-05
-1.4444344011202174e-05   8.993589753361706e-07   3.103798604707226e-05
-1.4153969695424311e-05   1.6441063633624263e-06   3.3032243025500336e-05
-1.4153969695424311e-05   1.6441063633624263e-06   3.3032243025500336e-05
-1.4153969695424311e-05   1.6441063633624263e-06   3.3032243025500336e-05
-1.4153969695424311e-05   1.6441063633624263e-06   3.3032243025500336e-05
-1.5040299140325214e-05   -7.689717411453988e-07   3.01071804212942e-05
-1.5040299140325214e-05   -7.689717411453988e-07   3.01071804212942e-05
-1.5040299140325214e-05   -7.689717411453988e-07   3.01071804212942e-05
-1.5040299140325214e-05   -7.689717411453988e-07   3.01071804212942e-05
-1.5079270093367142e-05   9.07114080573191e-07   3.245945648460238e-05
-1.5079270093367142e-05   9.07114080573191e-07   3.245945648460238e-05
-1.5079270093367142e-05   9.07114080573191e-07   3.245945648460238e-05
-1.5079270093367142e-05   9.07114080573191e-07   3.245945648460238e-05
-1.4248399013615785e-05   -1.3601069855679205e-06   3.2435003991367875e-05
-1.4248399013615785e-05   -1.3601069855679205e-06   3.2435003991367875e-05
-1.4248399013615785e-05   -1.3601069855679205e-06   3.2435003991367875e-05
-1.4248399013615785e-05   -1.3601069855679205e-06   3.2435003991367875e-05
-1.4472793888290684e-05   3.9877142092624787e-07   3.175366840526173e-05
-1.4472793888290684e-05   3.9877142092624787e-07   3.175366840526173e-05
-1.4472793888290684e-05   3.9877142092624787e-07   3.175366840526173e-05
-1.4472793888290684e-05   3.9877142092624787e-07   3.175366840526173e-05
-1.4944063805174222e-05   4.302137243369095e-06   2.6679653144579376e-05
-1.4944063805174222e-05   4.302137243369095e-06   2.6679653144579376e-05
-1.4944063805174222e-05   4.302137243369095e-06   2.6679653144579376e-05
-1.4944063805174222e-05   4.302137243369095e-06   2.6679653144579376e-05
-1.644756311844429e-05   1.4106618344361882e-06   2.2438935710436384e-05
-1.644756311844429e-05   1.4106618344361882e-06   2.2438935710436384e-05
-1.644756311844429e-05   1.4106618344361882e-06   2.2438935710436384e-05
-1.644756311844429e-05   1.4106618344361882e-06   2.2438935710436384e-05
-1.6470983977023704e-05   3.4978120809249502e-06   2.519340524146968e-05
-1.6470983977023704e-05   3.4978120809249502e-06   2.519340524146968e-05
-1.6470983977023704e-05   3.4978120809249502e-06   2.519340524146968e-05
-1.6470983977023704e-05   3.4978120809249502e-06   2.519340524146968e-05
-1.497723348594987e-05   7.643176233819091e-07   2.4343917764206233e-05
-1.497723348594987e-05   7.643176233819091e-07   2.4343917764206233e-05
-1.497723348594987e-05   7.643176233819091e-07   2.4343917764206233e-05
-1.497723348594987e-05   7.643176233819091e-07   2.4343917764206233e-05
-1.56687945990293e-05   2.5538533760291037e-06   2.442279816775028e-05
-1.56687945990293e-05   2.5538533760291037e-06   2.442279816775028e-05
-1.56687945990293e-05   2.5538533760291037e-06   2.442279816775028e-05
-1.56687945990293e-05   2.5538533760291037e-06   2.442279816775028e-05
-1.497723348594987e-05   3.4978120809249502e-06   2.6833501915995506e-05
-1.497723348594987e-05   3.4978120809249502e-06   2.6833501915995506e-05
-1.497723348594987e-05   3.4978120809249502e-06   2.6833501915995506e-05
-1.497723348594987e-05   3.4978120809249502e-06   2.6833501915995506e-05
-1.6470983977023704e-05   7.643176233819091e-07   2.27038210896803e-05
-1.6470983977023704e-05   7.643176233819091e-07   2.27038210896803e-05
-1.6470983977023704e-05   7.643176233819091e-07   2.27038210896803e-05
-1.6470983977023704e-05   7.643176233819091e-07   2.27038210896803e-05
-1.664667193821437e-05   2.7826828032468873e-06   2.612902163604122e-05
-1.664667193821437e-05   2.7826828032468873e-06   2.612902163604122e-05
-1.664667193821437e-05   2.7826828032468873e-06   2.612902163604122e-05
-1.664667193821437e-05   2.7826828032468873e-06   2.612902163604122e-05
-1.5040299140325268e-05   2.111043554010178e-07   2.4994680708266743e-05
-1.5040299140325268e-05   2.111043554010178e-07   2.4994680708266743e-05
-1.5040299140325268e-05   2.111043554010178e-07   2.4994680708266743e-05
-1.5040299140325268e-05   2.111043554010178e-07   2.4994680708266743e-05
-1.562082928929288e-05   2.0222821454859725e-06   2.4875524282494095e-05
-1.562082928929288e-05   2.0222821454859725e-06   2.4875524282494095e-05
-1.562082928929288e-05   2.0222821454859725e-06   2.4875524282494095e-05
-1.562082928929288e-05   2.0222821454859725e-06   2.4875524282494095e-05
-1.5040299140325268e-05   2.782682803247104e-06   2.767196870474809e-05
-1.5040299140325268e-05   2.782682803247104e-06   2.767196870474809e-05
-1.5040299140325268e-05   2.782682803247104e-06   2.767196870474809e-05
-1.5040299140325268e-05   2.782682803247104e-06   2.767196870474809e-05
-1.664667193821437e-05   2.111043554010178e-07   2.3451733639559113e-05
-1.664667193821437e-05   2.111043554010178e-07   2.3451733639559113e-05
-1.664667193821437e-05   2.111043554010178e-07   2.3451733639559113e-05
-1.664667193821437e-05   2.111043554010178e-07   2.3451733639559113e-05
-1.675042772098385e-05   2.0546317790045773e-06   2.7292410677952957e-05
-1.675042772098385e-05   2.0546317790045773e-06   2.7292410677952957e-05
-1.675042772098385e-05   2.0546317790045773e-06   2.7292410677952957e-05
-1.675042772098385e-05   2.0546317790045773e-06   2.7292410677952957e-05
-1.5079270093367142e-05   -3.464134797405991e-07   2.5947775120505013e-05
-1.5079270093367142e-05   -3.464134797405991e-07   2.5947775120505013e-05
-1.5079270093367142e-05   -3.464134797405991e-07   2.5947775120505013e-05
-1.5079270093367142e-05   -3.464134797405991e-07   2.5947775120505013e-05
-1.5695734782555823e-05   1.5478349129657669e-06   2.5838667233528552e-05
-1.5695734782555823e-05   1.5478349129657669e-06   2.5838667233528552e-05
-1.5695734782555823e-05   1.5478349129657669e-06   2.5838667233528552e-05
-1.5695734782555823e-05   1.5478349129657669e-06   2.5838667233528552e-05
-1.6447563118444236e-05   5.075270102504817e-06   1.0235160225793719e-05
-1.6447563118444236e-05   5.075270102504817e-06   1.0235160225793719e-05
-1.6447563118444236e-05   5.075270102504817e-06   1.0235160225793719e-05
-1.6447563118444236e-05   5.075270102504817e-06   1.0235160225793719e-05
-1.6193667207194833e-05   2.3190958698546737e-06   9.004615538285988e-06
-1.6193667207194833e-05   2.3190958698546737e-06   9.004615538285988e-06
-1.6193667207194833e-05   2.3190958698546737e-06   9.004615538285988e-06
-1.6193667207194833e-05   2.3190958698546737e-06   9.004615538285988e-06
-1.7026130611651332e-05   4.539935033027369e-06   1.1211419044364866e-05
-1.7026130611651332e-05   4.539935033027369e-06   1.1211419044364866e-05
-1.7026130611651332e-05   4.539935033027369e-06   1.1211419044364866e-05
-1.7026130611651332e-05   4.539935033027369e-06   1.1211419044364866e-05
-1.647098397702365e-05   1.8624303271480916e-06   1.1892677476846216e-05
-1.647098397702365e-05   1.8624303271480916e-06   1.1892677476846216e-05
-1.647098397702365e-05   1.8624303271480916e-06   1.1892677476846216e-05
-1.647098397702365e-05   1.8624303271480916e-06   1.1892677476846216e-05
-1.599788028302363e-05   3.568466633175043e-06   1.0080549536563375e-05
-1.599788028302363e-05   3.568466633175043e-06   1.0080549536563375e-05
-1.599788028302363e-05   3.568466633175043e-06   1.0080549536563375e-05
-1.599788028302363e-05   3.568466633175043e-06   1.0080549536563375e-05
-1.6470983977023596e-05   4.539935033027369e-06   1.2817921867891847e-05
-1.6470983977023596e-05   4.539935033027369e-06   1.2817921867891847e-05
-1.6470983977023596e-05   4.539935033027369e-06   1.2817921867891847e-05
-1.6470983977023596e-05   4.539935033027369e-06   1.2817921867891847e-05
-1.7026130611651332e-05   1.8624303271480916e-06   1.0286174653318584e-05
-1.7026130611651332e-05   1.8624303271480916e-06   1.0286174653318584e-05
-1.7026130611651332e-05   1.8624303271480916e-06   1.0286174653318584e-05
-1.7026130611651332e-05   1.8624303271480916e-06   1.0286174653318584e-05
-1.7757489858215704e-05   4.172714725647359e-06   1.3299007541878183e-05
-1.7757489858215704e-05   4.172714725647359e-06   1.3299007541878183e-05
-1.7757489858215704e-05   4.172714725647359e-06   1.3299007541878183e-05
-1.7757489858215704e-05   4.172714725647359e-06   1.3299007541878183e-05
-1.664667193821437e-05   1.563638717924469e-06   1.3013089946509204e-05
-1.664667193821437e-05   1.563638717924469e-06   1.3013089946509204e-05
-1.664667193821437e-05   1.563638717924469e-06   1.3013089946509204e-05
-1.664667193821437e-05   1.563638717924469e-06   1.3013089946509204e-05
-1.6589839029615736e-05   3.300568807647385e-06   1.187621037834351e-05
-1.6589839029615736e-05   3.300568807647385e-06   1.187621037834351e-05
-1.6589839029615736e-05   3.300568807647385e-06   1.187621037834351e-05
-1.6589839029615736e-05   3.300568807647385e-06   1.187621037834351e-05
-1.6646671938214314e-05   4.172714725647359e-06   1.486445314651105e-05
-1.6646671938214314e-05   4.172714725647359e-06   1.486445314651105e-05
-1.6646671938214314e-05   4.172714725647359e-06   1.486445314651105e-05
-1.6646671938214314e-05   4.172714725647359e-06   1.486445314651105e-05
-1.7757489858215812e-05   1.563638717924469e-06   1.1447644341875253e-05
-1.7757489858215812e-05   1.563638717924469e-06   1.1447644341875253e-05
-1.7757489858215812e-05   1.563638717924469e-06   1.1447644341875253e-05
-1.7757489858215812e-05   1.563638717924469e-06   1.1447644341875253e-05
-1.8847971721843728e-05   3.3316049056688214e-06   1.7134535161854314e-05
-1.8847971721843728e-05   3.3316049056688214e-06   1.7134535161854314e-05
-1.8847971721843728e-05   3.3316049056688214e-06   1.7134535161854314e-05
-1.8847971721843728e-05   3.3316049056688214e-06   1.7134535161854314e-05
-1.6750427720983794e-05   9.648759293592098e-07   1.5058665879539852e-05
-1.6750427720983794e-05   9.648759293592098e-07   1.5058665879539852e-05
-1.6750427720983794e-05   9.648759293592098e-07   1.5058665879539852e-05
-1.6750427720983794e-05   9.648759293592098e-07   1.5058665879539852e-05
-1.6789674074165536e-05   2.9837621732661454e-06   1.3912744721830466e-05
-1.6789674074165536e-05   2.9837621732661454e-06   1.3912744721830466e-05
-1.6789674074165536e-05   2.9837621732661454e-06   1.3912744721830466e-05
-1.6789674074165536e-05   2.9837621732661454e-06   1.3912744721830466e-05
-3.2646251153455725e-05   4.321814382741637e-06   1.2415059827765242e-05
-3.2646251153455725e-05   4.321814382741637e-06   1.2415059827765242e-05
-3.2646251153455725e-05   4.321814382741637e-06   1.2415059827765242e-05
-3.2646251153455725e-05   4.321814382741637e-06   1.2415059827765242e-05
-2.199559045101866e-05   5.989796916998781e-06   3.116695051904797e-05
-2.199559045101866e-05   5.989796916998781e-06   3.116695051904797e-05
-2.199559045101866e-05   5.989796916998781e-06   3.116695051904797e-05
-2.199559045101866e-05   5.989796916998781e-06   3.116695051904797e-05
-2.1981948228990084e-05   3.379640762096888e-06   1.4145137542176129e-05
-2.1981948228990084e-05   3.379640762096888e-06   1.4145137542176129e-05
-2.1981948228990084e-05   3.379640762096888e-06   1.4145137542176129e-05
-2.1981948228990084e-05   3.379640762096888e-06   1.4145137542176129e-05
-3.593487686732887e-05   2.4493135095166496e-06   3.795821495762264e-05
-3.593487686732887e-05   2.4493135095166496e-06   3.795821495762264e-05
-3.593487686732887e-05   2.4493135095166496e-06   3.795821495762264e-05
-3.593487686732887e-05   2.4493135095166496e-06   3.795821495762264e-05
-2.6688526439831536e-05   3.5547555250081296e-06   2.1884365702498682e-05
-2.6688526439831536e-05   3.5547555250081296e-06   2.1884365702498682e-05
-2.6688526439831536e-05   3.5547555250081296e-06   2.1884365702498682e-05
-2.6688526439831536e-05   3.5547555250081296e-06   2.1884365702498682e-05
-3.593487686732892e-05   3.379640762096888e-06   1.4703333893724326e-05
-3.593487686732892e-05   3.379640762096888e-06   1.4703333893724326e-05
-3.593487686732892e-05   3.379640762096888e-06   1.4703333893724326e-05
-3.593487686732892e-05   3.379640762096888e-06   1.4703333893724326e-05
-2.1981948228990084e-05   2.4493135095166496e-06   3.7400018606074405e-05
-2.1981948228990084e-05   2.4493135095166496e-06   3.7400018606074405e-05
-2.1981948228990084e-05   2.4493135095166496e-06   3.7400018606074405e-05
-2.1981948228990084e-05   2.4493135095166496e-06   3.7400018606074405e-05
-2.2273866585213678e-05   2.727077221088359e-06   1.5841790957040803e-05
-2.2273866585213678e-05   2.727077221088359e-06   1.5841790957040803e-05
-2.2273866585213678e-05   2.727077221088359e-06   1.5841790957040803e-05
-2.2273866585213678e-05   2.727077221088359e-06   1.5841790957040803e-05
-3.605414537358027e-05   1.7656735328058434e-06   3.938576448395458e-05
-3.605414537358027e-05   1.7656735328058434e-06   3.938576448395458e-05
-3.605414537358027e-05   1.7656735328058434e-06   3.938576448395458e-05
-3.605414537358027e-05   1.7656735328058434e-06   3.938576448395458e-05
-2.8466138624274716e-05   2.2292034832539775e-06   2.6460968598176092e-05
-2.8466138624274716e-05   2.2292034832539775e-06   2.6460968598176092e-05
-2.8466138624274716e-05   2.2292034832539775e-06   2.6460968598176092e-05
-2.8466138624274716e-05   2.2292034832539775e-06   2.6460968598176092e-05
-3.6054145373580325e-05   2.727077221088359e-06   1.641863317001027e-05
-3.6054145373580325e-05   2.727077221088359e-06   1.641863317001027e-05
-3.6054145373580325e-05   2.727077221088359e-06   1.641863317001027e-05
-3.6054145373580325e-05   2.727077221088359e-06   1.641863317001027e-05
-2.227386658521365e-05   1.7656735328058434e-06   3.8808922270985044e-05
-2.227386658521365e-05   1.7656735328058434e-06   3.8808922270985044e-05
-2.227386658521365e-05   1.7656735328058434e-06   3.8808922270985044e-05
-2.227386658521365e-05   1.7656735328058434e-06   3.8808922270985044e-05
-2.2028272134586953e-05   1.1213511860932047e-06   1.8810941533182655e-05
-2.2028272134586953e-05   1.1213511860932047e-06   1.8810941533182655e-05
-2.2028272134586953e-05   1.1213511860932047e-06   1.8810941533182655e-05
-2.2028272134586953e-05   1.1213511860932047e-06   1.8810941533182655e-05
-3.643192328683487e-05   -1.1368060341701244e-06   4.417192111908703e-05
-3.643192328683487e-05   -1.1368060341701244e-06   4.417192111908703e-05
-3.643192328683487e-05   -1.1368060341701244e-06   4.417192111908703e-05
-3.643192328683487e-05   -1.1368060341701244e-06   4.417192111908703e-05
-2.8023611132590493e-05   1.0911444465312812e-06   2.8821297240258984e-05
-2.8023611132590493e-05   1.0911444465312812e-06   2.8821297240258984e-05
-2.8023611132590493e-05   1.0911444465312812e-06   2.8821297240258984e-05
-2.8023611132590493e-05   1.0911444465312812e-06   2.8821297240258984e-05
-2.19955904510187e-05   1.1178549587773003e-06   2.8632004350315036e-05
-2.19955904510187e-05   1.1178549587773003e-06   2.8632004350315036e-05
-2.19955904510187e-05   1.1178549587773003e-06   2.8632004350315036e-05
-2.19955904510187e-05   1.1178549587773003e-06   2.8632004350315036e-05
-1.3474945707660403e-05   -6.690439499401613e-06   3.814810224767154e-05
-1.3474945707660403e-05   -6.690439499401613e-06   3.814810224767154e-05
-1.3474945707660403e-05   -6.690439499401613e-06   3.814810224767154e-05
-1.3474945707660403e-05   -6.690439499401613e-06   3.814810224767154e-05
-1.3497242287682955e-05   5.381272395798891e-07   2.4019649041551313e-05
-1.3497242287682955e-05   5.381272395798891e-07   2.4019649041551313e-05
-1.3497242287682955e-05   5.381272395798891e-07   2.4019649041551313e-05
-1.3497242287682955e-05   5.381272395798891e-07   2.4019649041551313e-05
-2.1981948228990084e-05   -5.47230795658408e-06   4.1767086728095214e-05
-2.1981948228990084e-05   -5.47230795658408e-06   4.1767086728095214e-05
-2.1981948228990084e-05   -5.47230795658408e-06   4.1767086728095214e-05
-2.1981948228990084e-05   -5.47230795658408e-06   4.1767086728095214e-05
-1.7641457833436018e-05   -3.3071898134430944e-06   3.323386518295398e-05
-1.7641457833436018e-05   -3.3071898134430944e-06   3.323386518295398e-05
-1.7641457833436018e-05   -3.3071898134430944e-06   3.323386518295398e-05
-1.7641457833436018e-05   -3.3071898134430944e-06   3.323386518295398e-05
-2.198194822899011e-05   5.381272395798891e-07   2.7625910159249597e-05
-2.198194822899011e-05   5.381272395798891e-07   2.7625910159249597e-05
-2.198194822899011e-05   5.381272395798891e-07   2.7625910159249597e-05
-2.198194822899011e-05   5.381272395798891e-07   2.7625910159249597e-05
-1.3497242287682928e-05   -5.47230795658408e-06   3.8160825610396916e-05
-1.3497242287682928e-05   -5.47230795658408e-06   3.8160825610396916e-05
-1.3497242287682928e-05   -5.47230795658408e-06   3.8160825610396916e-05
-1.3497242287682928e-05   -5.47230795658408e-06   3.8160825610396916e-05
-1.3543161079363717e-05   -1.360566486383356e-07   2.4767436674649973e-05
-1.3543161079363717e-05   -1.360566486383356e-07   2.4767436674649973e-05
-1.3543161079363717e-05   -1.360566486383356e-07   2.4767436674649973e-05
-1.3543161079363717e-05   -1.360566486383356e-07   2.4767436674649973e-05
-2.227386658521365e-05   -5.5984159370530795e-06   4.259602809078187e-05
-2.227386658521365e-05   -5.5984159370530795e-06   4.259602809078187e-05
-2.227386658521365e-05   -5.5984159370530795e-06   4.259602809078187e-05
-2.227386658521365e-05   -5.5984159370530795e-06   4.259602809078187e-05
-1.7507634950104915e-05   -2.889136230785176e-06   3.3026740875172916e-05
-1.7507634950104915e-05   -2.889136230785176e-06   3.3026740875172916e-05
-1.7507634950104915e-05   -2.889136230785176e-06   3.3026740875172916e-05
-1.7507634950104915e-05   -2.889136230785176e-06   3.3026740875172916e-05
-2.2273866585213678e-05   -1.360566486383356e-07   2.804485224769881e-05
-2.2273866585213678e-05   -1.360566486383356e-07   2.804485224769881e-05
-2.2273866585213678e-05   -1.360566486383356e-07   2.804485224769881e-05
-2.2273866585213678e-05   -1.360566486383356e-07   2.804485224769881e-05
-1.3543161079363717e-05   -5.5984159370530795e-06   3.931861251773298e-05
-1.3543161079363717e-05   -5.5984159370530795e-06   3.931861251773298e-05
-1.3543161079363717e-05   -5.5984159370530795e-06   3.931861251773298e-05
-1.3543161079363717e-05   -5.5984159370530795e-06   3.931861251773298e-05
-1.3402447674807711e-05   -1.0231896799770815e-06   2.569823282427494e-05
-1.3402447674807711e-05   -1.0231896799770815e-06   2.569823282427494e-05
-1.3402447674807711e-05   -1.0231896799770815e-06   2.569823282427494e-05
-1.3402447674807711e-05   -1.0231896799770815e-06   2.569823282427494e-05
-2.2028272134586892e-05   -5.654857243476898e-06   4.285360746200659e-05
-2.2028272134586892e-05   -5.654857243476898e-06   4.285360746200659e-05
-2.2028272134586892e-05   -5.654857243476898e-06   4.285360746200659e-05
-2.2028272134586892e-05   -5.654857243476898e-06   4.285360746200659e-05
-1.758159034695729e-05   -3.2478248589759952e-06   3.3998251718590045e-05
-1.758159034695729e-05   -3.2478248589759952e-06   3.3998251718590045e-05
-1.758159034695729e-05   -3.2478248589759952e-06   3.3998251718590045e-05
-1.758159034695729e-05   -3.2478248589759952e-06   3.3998251718590045e-05
-1.3474945707660403e-05   3.0986951860543285e-07   2.645194154939426e-05
-1.3474945707660403e-05   3.0986951860543285e-07   2.645194154939426e-05
-1.3474945707660403e-05   3.0986951860543285e-07   2.645194154939426e-05
-1.3474945707660403e-05   3.0986951860543285e-07   2.645194154939426e-05
-9.891684684523315e-06   -5.225882392797751e-06   2.9102592107780863e-05
-9.891684684523315e-06   -5.225882392797751e-06   2.9102592107780863e-05
-9.891684684523315e-06   -5.225882392797751e-06   2.9102592107780863e-05
-9.891684684523315e-06   -5.225882392797751e-06   2.9102592107780863e-05
-9.797918017645816e-06   -1.8103626733617043e-07   2.3348824403408353e-05
-9.797918017645816e-06   -1.8103626733617043e-07   2.3348824403408353e-05
-9.797918017645816e-06   -1.8103626733617043e-07   2.3348824403408353e-05
-9.797918017645816e-06   -1.8103626733617043e-07   2.3348824403408353e-05
-1.3497242287682928e-05   -5.132398621266669e-06   3.248518226582885e-05
-1.3497242287682928e-05   -5.132398621266669e-06   3.248518226582885e-05
-1.3497242287682928e-05   -5.132398621266669e-06   3.248518226582885e-05
-1.3497242287682928e-05   -5.132398621266669e-06   3.248518226582885e-05
-1.1592949656669675e-05   -2.6422982348627694e-06   2.7817300982297918e-05
-1.1592949656669675e-05   -2.6422982348627694e-06   2.7817300982297918e-05
-1.1592949656669675e-05   -2.6422982348627694e-06   2.7817300982297918e-05
-1.1592949656669675e-05   -2.6422982348627694e-06   2.7817300982297918e-05
-1.3497242287682928e-05   -1.8103626733617043e-07   2.6319641815766674e-05
-1.3497242287682928e-05   -1.8103626733617043e-07   2.6319641815766674e-05
-1.3497242287682928e-05   -1.8103626733617043e-07   2.6319641815766674e-05
-1.3497242287682928e-05   -1.8103626733617043e-07   2.6319641815766674e-05
-9.797918017645816e-06   -5.132398621266669e-06   2.9514364853470477e-05
-9.797918017645816e-06   -5.132398621266669e-06   2.9514364853470477e-05
-9.797918017645816e-06   -5.132398621266669e-06   2.9514364853470477e-05
-9.797918017645816e-06   -5.132398621266669e-06   2.9514364853470477e-05
-9.715671579178483e-06   -7.689717411452903e-07   2.3909111292190867e-05
-9.715671579178483e-06   -7.689717411452903e-07   2.3909111292190867e-05
-9.715671579178483e-06   -7.689717411452903e-07   2.3909111292190867e-05
-9.715671579178483e-06   -7.689717411452903e-07   2.3909111292190867e-05
-1.3543161079363717e-05   -5.290267976785915e-06   3.3001038200550367e-05
-1.3543161079363717e-05   -5.290267976785915e-06   3.3001038200550367e-05
-1.3543161079363717e-05   -5.290267976785915e-06   3.3001038200550367e-05
-1.3543161079363717e-05   -5.290267976785915e-06   3.3001038200550367e-05
-1.1485199353945816e-05   -2.8206060502350113e-06   2.80893048355893e-05
-1.1485199353945816e-05   -2.8206060502350113e-06   2.80893048355893e-05
-1.1485199353945816e-05   -2.8206060502350113e-06   2.80893048355893e-05
-1.1485199353945816e-05   -2.8206060502350113e-06   2.80893048355893e-05
-1.3543161079363717e-05   -7.689717411453988e-07   2.6621889033575166e-05
-1.3543161079363717e-05   -7.689717411453988e-07   2.6621889033575166e-05
-1.3543161079363717e-05   -7.689717411453988e-07   2.6621889033575166e-05
-1.3543161079363717e-05   -7.689717411453988e-07   2.6621889033575166e-05
-9.715671579178483e-06   -5.290267976785915e-06   3.0288260459166068e-05
-9.715671579178483e-06   -5.290267976785915e-06   3.0288260459166068e-05
-9.715671579178483e-06   -5.290267976785915e-06   3.0288260459166068e-05
-9.715671579178483e-06   -5.290267976785915e-06   3.0288260459166068e-05
-9.517608234641808e-06   -1.3601069855679205e-06   2.4775896584405994e-05
-9.517608234641808e-06   -1.3601069855679205e-06   2.4775896584405994e-05
-9.517608234641808e-06   -1.3601069855679205e-06   2.4775896584405994e-05
-9.517608234641808e-06   -1.3601069855679205e-06   2.4775896584405994e-05
-1.3402447674807711e-05   -5.5158013481496114e-06   3.3744045602231295e-05
-1.3402447674807711e-05   -5.5158013481496114e-06   3.3744045602231295e-05
-1.3402447674807711e-05   -5.5158013481496114e-06   3.3744045602231295e-05
-1.3402447674807711e-05   -5.5158013481496114e-06   3.3744045602231295e-05
-1.135882946832292e-05   -3.0794085951082843e-06   2.8876179606265352e-05
-1.135882946832292e-05   -3.0794085951082843e-06   2.8876179606265352e-05
-1.135882946832292e-05   -3.0794085951082843e-06   2.8876179606265352e-05
-1.135882946832292e-05   -3.0794085951082843e-06   2.8876179606265352e-05
-9.891684684523315e-06   1.4106618344361882e-06   1.7972403399254644e-05
-9.891684684523315e-06   1.4106618344361882e-06   1.7972403399254644e-05
-9.891684684523315e-06   1.4106618344361882e-06   1.7972403399254644e-05
-9.891684684523315e-06   1.4106618344361882e-06   1.7972403399254644e-05
-8.221538818668599e-06   -2.1421594691560953e-06   1.8624287060190522e-05
-8.221538818668599e-06   -2.1421594691560953e-06   1.8624287060190522e-05
-8.221538818668599e-06   -2.1421594691560953e-06   1.8624287060190522e-05
-8.221538818668599e-06   -2.1421594691560953e-06   1.8624287060190522e-05
-8.038748236185176e-06   7.643176233819091e-07   1.6226756877006426e-05
-8.038748236185176e-06   7.643176233819091e-07   1.6226756877006426e-05
-8.038748236185176e-06   7.643176233819091e-07   1.6226756877006426e-05
-8.038748236185176e-06   7.643176233819091e-07   1.6226756877006426e-05
-9.797918017645816e-06   -2.5096582328160578e-06   2.1123092026493042e-05
-9.797918017645816e-06   -2.5096582328160578e-06   2.1123092026493042e-05
-9.797918017645816e-06   -2.5096582328160578e-06   2.1123092026493042e-05
-9.797918017645816e-06   -2.5096582328160578e-06   2.1123092026493042e-05
-8.921612757186494e-06   -4.883371039857707e-07   1.844979058176306e-05
-8.921612757186494e-06   -4.883371039857707e-07   1.844979058176306e-05
-8.921612757186494e-06   -4.883371039857707e-07   1.844979058176306e-05
-8.921612757186494e-06   -4.883371039857707e-07   1.844979058176306e-05
-9.797918017645816e-06   7.643176233819091e-07   1.819114239072527e-05
-9.797918017645816e-06   7.643176233819091e-07   1.819114239072527e-05
-9.797918017645816e-06   7.643176233819091e-07   1.819114239072527e-05
-9.797918017645816e-06   7.643176233819091e-07   1.819114239072527e-05
-8.038748236185176e-06   -2.5096582328160578e-06   1.9158706512774197e-05
-8.038748236185176e-06   -2.5096582328160578e-06   1.9158706512774197e-05
-8.038748236185176e-06   -2.5096582328160578e-06   1.9158706512774197e-05
-8.038748236185176e-06   -2.5096582328160578e-06   1.9158706512774197e-05
-7.952821996987168e-06   2.111043554010178e-07   1.6995662872046433e-05
-7.952821996987168e-06   2.111043554010178e-07   1.6995662872046433e-05
-7.952821996987168e-06   2.111043554010178e-07   1.6995662872046433e-05
-7.952821996987168e-06   2.111043554010178e-07   1.6995662872046433e-05
-9.715671579178429e-06   -2.7904768231273337e-06   2.1734694216148575e-05
-9.715671579178429e-06   -2.7904768231273337e-06   2.1734694216148575e-05
-9.715671579178429e-06   -2.7904768231273337e-06   2.1734694216148575e-05
-9.715671579178429e-06   -2.7904768231273337e-06   2.1734694216148575e-05
-8.740557737934912e-06   -8.830004689017439e-07   1.896501866820643e-05
-8.740557737934912e-06   -8.830004689017439e-07   1.896501866820643e-05
-8.740557737934912e-06   -8.830004689017439e-07   1.896501866820643e-05
-8.740557737934912e-06   -8.830004689017439e-07   1.896501866820643e-05
-9.715671579178429e-06   2.111043554010178e-07   1.8796611579163032e-05
-9.715671579178429e-06   2.111043554010178e-07   1.8796611579163032e-05
-9.715671579178429e-06   2.111043554010178e-07   1.8796611579163032e-05
-9.715671579178429e-06   2.111043554010178e-07   1.8796611579163032e-05
-7.952821996987168e-06   -2.7904768231273337e-06   1.9933745509031434e-05
-7.952821996987168e-06   -2.7904768231273337e-06   1.9933745509031434e-05
-7.952821996987168e-06   -2.7904768231273337e-06   1.9933745509031434e-05
-7.952821996987168e-06   -2.7904768231273337e-06   1.9933745509031434e-05
-7.814823329588619e-06   -3.464134797405991e-07   1.796127418357855e-05
-7.814823329588619e-06   -3.464134797405991e-07   1.796127418357855e-05
-7.814823329588619e-06   -3.464134797405991e-07   1.796127418357855e-05
-7.814823329588619e-06   -3.464134797405991e-07   1.796127418357855e-05
-9.517608234641808e-06   -3.1592904291565557e-06   2.2486975194982765e-05
-9.517608234641808e-06   -3.1592904291565557e-06   2.2486975194982765e-05
-9.517608234641808e-06   -3.1592904291565557e-06   2.2486975194982765e-05
-9.517608234641808e-06   -3.1592904291565557e-06   2.2486975194982765e-05
-8.598011221148618e-06   -1.2283141508092439e-06   1.9795727738819804e-05
-8.598011221148618e-06   -1.2283141508092439e-06   1.9795727738819804e-05
-8.598011221148618e-06   -1.2283141508092439e-06   1.9795727738819804e-05
-8.598011221148618e-06   -1.2283141508092439e-06   1.9795727738819804e-05
-8.221538818668599e-06   2.3190958698546737e-06   4.060094984539397e-06
-8.221538818668599e-06   2.3190958698546737e-06   4.060094984539397e-06
-8.221538818668599e-06   2.3190958698546737e-06   4.060094984539397e-06
-8.221538818668599e-06   2.3190958698546737e-06   4.060094984539397e-06
-4.715205096842041e-06   -2.433124866342562e-07   8.366539507023685e-06
-4.715205096842041e-06   -2.433124866342562e-07   8.366539507023685e-06
-4.715205096842041e-06   -2.433124866342562e-07   8.366539507023685e-06
-4.715205096842041e-06   -2.433124866342562e-07   8.366539507023685e-06
-4.97815619125621e-06   1.8624303271480916e-06   4.095516950404759e-06
-4.97815619125621e-06   1.8624303271480916e-06   4.095516950404759e-06
-4.97815619125621e-06   1.8624303271480916e-06   4.095516950404759e-06
-4.97815619125621e-06   1.8624303271480916e-06   4.095516950404759e-06
-8.038748236185176e-06   -3.377301957977548e-07   1.0516600005720908e-05
-8.038748236185176e-06   -3.377301957977548e-07   1.0516600005720908e-05
-8.038748236185176e-06   -3.377301957977548e-07   1.0516600005720908e-05
-8.038748236185176e-06   -3.377301957977548e-07   1.0516600005720908e-05
-6.265402195876845e-06   1.1912666559297548e-06   6.643625160837564e-06
-6.265402195876845e-06   1.1912666559297548e-06   6.643625160837564e-06
-6.265402195876845e-06   1.1912666559297548e-06   6.643625160837564e-06
-6.265402195876845e-06   1.1912666559297548e-06   6.643625160837564e-06
-8.038748236185176e-06   1.8624303271480916e-06   5.415613264172126e-06
-8.038748236185176e-06   1.8624303271480916e-06   5.415613264172126e-06
-8.038748236185176e-06   1.8624303271480916e-06   5.415613264172126e-06
-8.038748236185176e-06   1.8624303271480916e-06   5.415613264172126e-06
-4.978156191256318e-06   -3.37730195797809e-07   9.196503691953324e-06
-4.978156191256318e-06   -3.37730195797809e-07   9.196503691953324e-06
-4.978156191256318e-06   -3.37730195797809e-07   9.196503691953324e-06
-4.978156191256318e-06   -3.37730195797809e-07   9.196503691953324e-06
-5.193181332948239e-06   1.563638717924469e-06   5.3392072602619425e-06
-5.193181332948239e-06   1.563638717924469e-06   5.3392072602619425e-06
-5.193181332948239e-06   1.563638717924469e-06   5.3392072602619425e-06
-5.193181332948239e-06   1.563638717924469e-06   5.3392072602619425e-06
-7.952821996987168e-06   -4.660478132995083e-07   1.1156420285727783e-05
-7.952821996987168e-06   -4.660478132995083e-07   1.1156420285727783e-05
-7.952821996987168e-06   -4.660478132995083e-07   1.1156420285727783e-05
-7.952821996987168e-06   -4.660478132995083e-07   1.1156420285727783e-05
-6.369402539249593e-06   9.644677267300677e-07   7.659078532146636e-06
-6.369402539249593e-06   9.644677267300677e-07   7.659078532146636e-06
-6.369402539249593e-06   9.644677267300677e-07   7.659078532146636e-06
-6.369402539249593e-06   9.644677267300677e-07   7.659078532146636e-06
-7.952821996987168e-06   1.5636387179245774e-06   6.557019178996524e-06
-7.952821996987168e-06   1.5636387179245774e-06   6.557019178996524e-06
-7.952821996987168e-06   1.5636387179245774e-06   6.557019178996524e-06
-7.952821996987168e-06   1.5636387179245774e-06   6.557019178996524e-06
-5.193181332948239e-06   -4.660478132995083e-07   9.93860836699331e-06
-5.193181332948239e-06   -4.660478132995083e-07   9.93860836699331e-06
-5.193181332948239e-06   -4.660478132995083e-07   9.93860836699331e-06
-5.193181332948239e-06   -4.660478132995083e-07   9.93860836699331e-06
-5.732934900232146e-06   9.648759293592098e-07   7.561830348031982e-06
-5.732934900232146e-06   9.648759293592098e-07   7.561830348031982e-06
-5.732934900232146e-06   9.648759293592098e-07   7.561830348031982e-06
-5.732934900232146e-06   9.648759293592098e-07   7.561830348031982e-06
-7.814823329588619e-06   -6.200603203544014e-07   1.198260614678761e-05
-7.814823329588619e-06   -6.200603203544014e-07   1.198260614678761e-05
-7.814823329588619e-06   -6.200603203544014e-07   1.198260614678761e-05
-7.814823329588619e-06   -6.200603203544014e-07   1.198260614678761e-05
-6.378593733175444e-06   8.119201994098105e-07   8.729701840906861e-06
-6.378593733175444e-06   8.119201994098105e-07   8.729701840906861e-06
-6.378593733175444e-06   8.119201994098105e-07   8.729701840906861e-06
-6.378593733175444e-06   8.119201994098105e-07   8.729701840906861e-06
-7.622240425449547e-05   5.989796916998781e-06   3.235896580788101e-05
-7.622240425449547e-05   5.989796916998781e-06   3.235896580788101e-05
-7.622240425449547e-05   5.989796916998781e-06   3.235896580788101e-05
-7.622240425449547e-05   5.989796916998781e-06   3.235896580788101e-05
-1.7954142484369367e-05   -3.687292303256244e-05   0.00010375510345502116
-1.7954142484369367e-05   -3.687292303256244e-05   0.00010375510345502116
-1.7954142484369367e-05   -3.687292303256244e-05   0.00010375510345502116
-1.7954142484369367e-05   -3.687292303256244e-05   0.00010375510345502116
-2.1049585189883782e-05   2.4493135095166496e-06   1.779349152875392e-05
-2.1049585189883782e-05   2.4493135095166496e-06   1.779349152875392e-05
-2.1049585189883782e-05   2.4493135095166496e-06   1.779349152875392e-05
-2.1049585189883782e-05   2.4493135095166496e-06   1.779349152875392e-05
-6.951679165300035e-05   -2.8603057977215775e-05   0.00011720359185932083
-6.951679165300035e-05   -2.8603057977215775e-05   0.00011720359185932083
-6.951679165300035e-05   -2.8603057977215775e-05   0.00011720359185932083
-6.951679165300035e-05   -2.8603057977215775e-05   0.00011720359185932083
-4.635928750284728e-05   -1.4242526739743515e-05   6.999143286658233e-05
-4.635928750284728e-05   -1.4242526739743515e-05   6.999143286658233e-05
-4.635928750284728e-05   -1.4242526739743515e-05   6.999143286658233e-05
-4.635928750284728e-05   -1.4242526739743515e-05   6.999143286658233e-05
-6.951679165300022e-05   2.4493135095166496e-06   3.642491442079333e-05
-6.951679165300022e-05   2.4493135095166496e-06   3.642491442079333e-05
-6.951679165300022e-05   2.4493135095166496e-06   3.642491442079333e-05
-6.951679165300022e-05   2.4493135095166496e-06   3.642491442079333e-05
-2.104958518988381e-05   -2.8603057977215775e-05   9.857216896728137e-05
-2.104958518988381e-05   -2.8603057977215775e-05   9.857216896728137e-05
-2.104958518988381e-05   -2.8603057977215775e-05   9.857216896728137e-05
-2.104958518988381e-05   -2.8603057977215775e-05   9.857216896728137e-05
-2.1513564833416444e-05   1.7656735328058434e-06   1.95507924186909e-05
-2.1513564833416444e-05   1.7656735328058434e-06   1.95507924186909e-05
-2.1513564833416444e-05   1.7656735328058434e-06   1.95507924186909e-05
-2.1513564833416444e-05   1.7656735328058434e-06   1.95507924186909e-05
-6.558837394788909e-05   -2.4610656216496594e-05   0.00010883460545905999
-6.558837394788909e-05   -2.4610656216496594e-05   0.00010883460545905999
-6.558837394788909e-05   -2.4610656216496594e-05   0.00010883460545905999
-6.558837394788909e-05   -2.4610656216496594e-05   0.00010883460545905999
-4.496327006619782e-05   -1.348735308339774e-05   6.778545044304859e-05
-4.496327006619782e-05   -1.348735308339774e-05   6.778545044304859e-05
-4.496327006619782e-05   -1.348735308339774e-05   6.778545044304859e-05
-4.496327006619782e-05   -1.348735308339774e-05   6.778545044304859e-05
-6.558837394788898e-05   1.7656735328058434e-06   3.537659026827235e-05
-6.558837394788898e-05   1.7656735328058434e-06   3.537659026827235e-05
-6.558837394788898e-05   1.7656735328058434e-06   3.537659026827235e-05
-6.558837394788898e-05   1.7656735328058434e-06   3.537659026827235e-05
-2.151356483341647e-05   -2.4610656216496594e-05   9.30088076094785e-05
-2.151356483341647e-05   -2.4610656216496594e-05   9.30088076094785e-05
-2.151356483341647e-05   -2.4610656216496594e-05   9.30088076094785e-05
-2.151356483341647e-05   -2.4610656216496594e-05   9.30088076094785e-05
-2.3541244147796175e-05   -1.1368060341701786e-06   2.449336104611214e-05
-2.3541244147796175e-05   -1.1368060341701786e-06   2.449336104611214e-05
-2.3541244147796175e-05   -1.1368060341701786e-06   2.449336104611214e-05
-2.3541244147796175e-05   -1.1368060341701786e-06   2.449336104611214e-05
-6.055678871941898e-05   -1.9313597777289084e-05   9.70920103780214e-05
-6.055678871941898e-05   -1.9313597777289084e-05   9.70920103780214e-05
-6.055678871941898e-05   -1.9313597777289084e-05   9.70920103780214e-05
-6.055678871941898e-05   -1.9313597777289084e-05   9.70920103780214e-05
-4.3235525244408766e-05   -1.2447378945354003e-05   6.410350662051004e-05
-4.3235525244408766e-05   -1.2447378945354003e-05   6.410350662051004e-05
-4.3235525244408766e-05   -1.2447378945354003e-05   6.410350662051004e-05
-4.3235525244408766e-05   -1.2447378945354003e-05   6.410350662051004e-05
-1.795414248436934e-05   -6.690439499401613e-06   1.8307462241675125e-05
-1.795414248436934e-05   -6.690439499401613e-06   1.8307462241675125e-05
-1.795414248436934e-05   -6.690439499401613e-06   1.8307462241675125e-05
-1.795414248436934e-05   -6.690439499401613e-06   1.8307462241675125e-05
-6.2644288523200765e-06   -1.1327389614069836e-05   3.5008148226289804e-05
-6.2644288523200765e-06   -1.1327389614069836e-05   3.5008148226289804e-05
-6.2644288523200765e-06   -1.1327389614069836e-05   3.5008148226289804e-05
-6.2644288523200765e-06   -1.1327389614069836e-05   3.5008148226289804e-05
-6.983904119748507e-06   -5.47230795658408e-06   1.640717979998422e-05
-6.983904119748507e-06   -5.47230795658408e-06   1.640717979998422e-05
-6.983904119748507e-06   -5.47230795658408e-06   1.640717979998422e-05
-6.983904119748507e-06   -5.47230795658408e-06   1.640717979998422e-05
-2.104958518988381e-05   -1.5061274374568252e-05   4.560336143433345e-05
-2.104958518988381e-05   -1.5061274374568252e-05   4.560336143433345e-05
-2.104958518988381e-05   -1.5061274374568252e-05   4.560336143433345e-05
-2.104958518988381e-05   -1.5061274374568252e-05   4.560336143433345e-05
-1.2382034167169674e-05   -7.906578915205611e-06   2.686462578752551e-05
-1.2382034167169674e-05   -7.906578915205611e-06   2.686462578752551e-05
-1.2382034167169674e-05   -7.906578915205611e-06   2.686462578752551e-05
-1.2382034167169674e-05   -7.906578915205611e-06   2.686462578752551e-05
-2.104958518988377e-05   -5.47230795658408e-06   2.2160559650774526e-05
-2.104958518988377e-05   -5.47230795658408e-06   2.2160559650774526e-05
-2.104958518988377e-05   -5.47230795658408e-06   2.2160559650774526e-05
-2.104958518988377e-05   -5.47230795658408e-06   2.2160559650774526e-05
-6.983904119748507e-06   -1.5061274374568252e-05   3.984998158354297e-05
-6.983904119748507e-06   -1.5061274374568252e-05   3.984998158354297e-05
-6.983904119748507e-06   -1.5061274374568252e-05   3.984998158354297e-05
-6.983904119748507e-06   -1.5061274374568252e-05   3.984998158354297e-05
-7.599232080116307e-06   -5.5984159370530795e-06   1.8446507002160394e-05
-7.599232080116307e-06   -5.5984159370530795e-06   1.8446507002160394e-05
-7.599232080116307e-06   -5.5984159370530795e-06   1.8446507002160394e-05
-7.599232080116307e-06   -5.5984159370530795e-06   1.8446507002160394e-05
-2.151356483341647e-05   -1.3750734664265382e-05   4.652845282732117e-05
-2.151356483341647e-05   -1.3750734664265382e-05   4.652845282732117e-05
-2.151356483341647e-05   -1.3750734664265382e-05   4.652845282732117e-05
-2.151356483341647e-05   -1.3750734664265382e-05   4.652845282732117e-05
-1.3946489148656643e-05   -9.680182171617501e-06   3.147432852379964e-05
-1.3946489148656643e-05   -9.680182171617501e-06   3.147432852379964e-05
-1.3946489148656643e-05   -9.680182171617501e-06   3.147432852379964e-05
-1.3946489148656643e-05   -9.680182171617501e-06   3.147432852379964e-05
-2.1513564833416444e-05   -5.5984159370530795e-06   2.3337898238487724e-05
-2.1513564833416444e-05   -5.5984159370530795e-06   2.3337898238487724e-05
-2.1513564833416444e-05   -5.5984159370530795e-06   2.3337898238487724e-05
-2.1513564833416444e-05   -5.5984159370530795e-06   2.3337898238487724e-05
-7.599232080116334e-06   -1.3750734664265382e-05   4.1637061590993856e-05
-7.599232080116334e-06   -1.3750734664265382e-05   4.1637061590993856e-05
-7.599232080116334e-06   -1.3750734664265382e-05   4.1637061590993856e-05
-7.599232080116334e-06   -1.3750734664265382e-05   4.1637061590993856e-05
-8.597808681099596e-06   -5.654857243476952e-06   2.016685388607167e-05
-8.597808681099596e-06   -5.654857243476952e-06   2.016685388607167e-05
-8.597808681099596e-06   -5.654857243476952e-06   2.016685388607167e-05
-8.597808681099596e-06   -5.654857243476952e-06   2.016685388607167e-05
-2.3541244147796188e-05   -1.292667030200721e-05   4.943566749901731e-05
-2.3541244147796188e-05   -1.292667030200721e-05   4.943566749901731e-05
-2.3541244147796188e-05   -1.292667030200721e-05   4.943566749901731e-05
-2.3541244147796188e-05   -1.292667030200721e-05   4.943566749901731e-05
-1.4851560497239981e-05   -8.836190939550786e-06   3.249857379728315e-05
-1.4851560497239981e-05   -8.836190939550786e-06   3.249857379728315e-05
-1.4851560497239981e-05   -8.836190939550786e-06   3.249857379728315e-05
-1.4851560497239981e-05   -8.836190939550786e-06   3.249857379728315e-05
-6.2644288523200765e-06   -5.225882392797751e-06   9.801233179825475e-06
-6.2644288523200765e-06   -5.225882392797751e-06   9.801233179825475e-06
-6.2644288523200765e-06   -5.225882392797751e-06   9.801233179825475e-06
-6.2644288523200765e-06   -5.225882392797751e-06   9.801233179825475e-06
-3.4887347729256135e-06   -3.1063396755872795e-06   1.569911560914258e-05
-3.4887347729256135e-06   -3.1063396755872795e-06   1.569911560914258e-05
-3.4887347729256135e-06   -3.1063396755872795e-06   1.569911560914258e-05
-3.4887347729256135e-06   -3.1063396755872795e-06   1.569911560914258e-05
-3.34609759954969e-06   -5.132398621266669e-06   1.1359840222332205e-05
-3.34609759954969e-06   -5.132398621266669e-06   1.1359840222332205e-05
-3.34609759954969e-06   -5.132398621266669e-06   1.1359840222332205e-05
-3.34609759954969e-06   -5.132398621266669e-06   1.1359840222332205e-05
-6.983904119748507e-06   -4.085225676406706e-06   1.679454732241416e-05
-6.983904119748507e-06   -4.085225676406706e-06   1.679454732241416e-05
-6.983904119748507e-06   -4.085225676406706e-06   1.679454732241416e-05
-6.983904119748507e-06   -4.085225676406706e-06   1.679454732241416e-05
-4.703749396501396e-06   -4.162284164480837e-06   1.3040524543179858e-05
-4.703749396501396e-06   -4.162284164480837e-06   1.3040524543179858e-05
-4.703749396501396e-06   -4.162284164480837e-06   1.3040524543179858e-05
-4.703749396501396e-06   -4.162284164480837e-06   1.3040524543179858e-05
-6.98390411974848e-06   -5.132398621266669e-06   1.0731536455416157e-05
-6.98390411974848e-06   -5.132398621266669e-06   1.0731536455416157e-05
-6.98390411974848e-06   -5.132398621266669e-06   1.0731536455416157e-05
-6.98390411974848e-06   -5.132398621266669e-06   1.0731536455416157e-05
-3.34609759954969e-06   -4.085225676406706e-06   1.74228510893301e-05
-3.34609759954969e-06   -4.085225676406706e-06   1.74228510893301e-05
-3.34609759954969e-06   -4.085225676406706e-06   1.74228510893301e-05
-3.34609759954969e-06   -4.085225676406706e-06   1.74228510893301e-05
-3.344798600298806e-06   -5.290267976785915e-06   1.2141341397492542e-05
-3.344798600298806e-06   -5.290267976785915e-06   1.2141341397492542e-05
-3.344798600298806e-06   -5.290267976785915e-06   1.2141341397492542e-05
-3.344798600298806e-06   -5.290267976785915e-06   1.2141341397492542e-05
-7.599232080116334e-06   -5.269586789261495e-06   1.921965515134025e-05
-7.599232080116334e-06   -5.269586789261495e-06   1.921965515134025e-05
-7.599232080116334e-06   -5.269586789261495e-06   1.921965515134025e-05
-7.599232080116334e-06   -5.269586789261495e-06   1.921965515134025e-05
-4.979011165464679e-06   -4.551329721070967e-06   1.4421666052673169e-05
-4.979011165464679e-06   -4.551329721070967e-06   1.4421666052673169e-05
-4.979011165464679e-06   -4.551329721070967e-06   1.4421666052673169e-05
-4.979011165464679e-06   -4.551329721070967e-06   1.4421666052673169e-05
-7.599232080116307e-06   -5.290267976785915e-06   1.2128932684977837e-05
-7.599232080116307e-06   -5.290267976785915e-06   1.2128932684977837e-05
-7.599232080116307e-06   -5.290267976785915e-06   1.2128932684977837e-05
-7.599232080116307e-06   -5.290267976785915e-06   1.2128932684977837e-05
-3.344798600298806e-06   -5.269586789261495e-06   1.9232063863854954e-05
-3.344798600298806e-06   -5.269586789261495e-06   1.9232063863854954e-05
-3.344798600298806e-06   -5.269586789261495e-06   1.9232063863854954e-05
-3.344798600298806e-06   -5.269586789261495e-06   1.9232063863854954e-05
-3.3831209051149447e-06   -5.5158013481496114e-06   1.3308045686514971e-05
-3.3831209051149447e-06   -5.5158013481496114e-06   1.3308045686514971e-05
-3.3831209051149447e-06   -5.5158013481496114e-06   1.3308045686514971e-05
-3.3831209051149447e-06   -5.5158013481496114e-06   1.3308045686514971e-05
-8.597808681099596e-06   -6.396212811285268e-06   2.252743885770381e-05
-8.597808681099596e-06   -6.396212811285268e-06   2.252743885770381e-05
-8.597808681099596e-06   -6.396212811285268e-06   2.252743885770381e-05
-8.597808681099596e-06   -6.396212811285268e-06   2.252743885770381e-05
-5.290946333945436e-06   -4.976635379715246e-06   1.6164255153504814e-05
-5.290946333945436e-06   -4.976635379715246e-06   1.6164255153504814e-05
-5.290946333945436e-06   -4.976635379715246e-06   1.6164255153504814e-05
-5.290946333945436e-06   -4.976635379715246e-06   1.6164255153504814e-05
-3.4887347729256135e-06   -2.1421594691561495e-06   2.726346544716738e-06
-3.4887347729256135e-06   -2.1421594691561495e-06   2.726346544716738e-06
-3.4887347729256135e-06   -2.1421594691561495e-06   2.726346544716738e-06
-3.4887347729256135e-06   -2.1421594691561495e-06   2.726346544716738e-06
-2.5774324178010283e-06   6.011249000016942e-07   5.89115442475223e-06
-2.5774324178010283e-06   6.011249000016942e-07   5.89115442475223e-06
-2.5774324178010283e-06   6.011249000016942e-07   5.89115442475223e-06
-2.5774324178010283e-06   6.011249000016942e-07   5.89115442475223e-06
-2.0800258490218234e-06   -2.5096582328160578e-06   4.6276026491454255e-06
-2.0800258490218234e-06   -2.5096582328160578e-06   4.6276026491454255e-06
-2.0800258490218234e-06   -2.5096582328160578e-06   4.6276026491454255e-06
-2.0800258490218234e-06   -2.5096582328160578e-06   4.6276026491454255e-06
-3.34609759954969e-06   2.554005235017921e-07   5.078686979567465e-06
-3.34609759954969e-06   2.554005235017921e-07   5.078686979567465e-06
-3.34609759954969e-06   2.554005235017921e-07   5.078686979567465e-06
-3.34609759954969e-06   2.554005235017921e-07   5.078686979567465e-06
-2.6962646500029784e-06   -9.862944888810554e-07   4.74064907108598e-06
-2.6962646500029784e-06   -9.862944888810554e-07   4.74064907108598e-06
-2.6962646500029784e-06   -9.862944888810554e-07   4.74064907108598e-06
-2.6962646500029784e-06   -9.862944888810554e-07   4.74064907108598e-06
-3.34609759954969e-06   -2.5096582328160578e-06   2.9685673953546614e-06
-3.34609759954969e-06   -2.5096582328160578e-06   2.9685673953546614e-06
-3.34609759954969e-06   -2.5096582328160578e-06   2.9685673953546614e-06
-3.34609759954969e-06   -2.5096582328160578e-06   2.9685673953546614e-06
-2.0800258490218234e-06   2.554005235017921e-07   6.737722233358229e-06
-2.0800258490218234e-06   2.554005235017921e-07   6.737722233358229e-06
-2.0800258490218234e-06   2.554005235017921e-07   6.737722233358229e-06
-2.0800258490218234e-06   2.554005235017921e-07   6.737722233358229e-06
-1.8047500006840604e-06   -2.7904768231273337e-06   5.0830477444065375e-06
-1.8047500006840604e-06   -2.7904768231273337e-06   5.0830477444065375e-06
-1.8047500006840604e-06   -2.7904768231273337e-06   5.0830477444065375e-06
-1.8047500006840604e-06   -2.7904768231273337e-06   5.0830477444065375e-06
-3.344798600298806e-06   -2.9835583990796424e-07   6.154522820499319e-06
-3.344798600298806e-06   -2.9835583990796424e-07   6.154522820499319e-06
-3.344798600298806e-06   -2.9835583990796424e-07   6.154522820499319e-06
-3.344798600298806e-06   -2.9835583990796424e-07   6.154522820499319e-06
-2.4387716303698765e-06   -1.2675899308366568e-06   5.226018325175355e-06
-2.4387716303698765e-06   -1.2675899308366568e-06   5.226018325175355e-06
-2.4387716303698765e-06   -1.2675899308366568e-06   5.226018325175355e-06
-2.4387716303698765e-06   -1.2675899308366568e-06   5.226018325175355e-06
-3.344798600298806e-06   -2.7904768231273337e-06   3.5877751544746705e-06
-3.344798600298806e-06   -2.7904768231273337e-06   3.5877751544746705e-06
-3.344798600298806e-06   -2.7904768231273337e-06   3.5877751544746705e-06
-3.344798600298806e-06   -2.7904768231273337e-06   3.5877751544746705e-06
-1.8047500006840604e-06   -2.9835583990796424e-07   7.649795410430969e-06
-1.8047500006840604e-06   -2.9835583990796424e-07   7.649795410430969e-06
-1.8047500006840604e-06   -2.9835583990796424e-07   7.649795410430969e-06
-1.8047500006840604e-06   -2.9835583990796424e-07   7.649795410430969e-06
-1.382172776998947e-06   -3.1592904291565557e-06   5.574267353198226e-06
-1.382172776998947e-06   -3.1592904291565557e-06   5.574267353198226e-06
-1.382172776998947e-06   -3.1592904291565557e-06   5.574267353198226e-06
-1.382172776998947e-06   -3.1592904291565557e-06   5.574267353198226e-06
-3.3831209051149447e-06   -1.4428313351852392e-06   7.87930544367526e-06
-3.3831209051149447e-06   -1.4428313351852392e-06   7.87930544367526e-06
-3.3831209051149447e-06   -1.4428313351852392e-06   7.87930544367526e-06
-3.3831209051149447e-06   -1.4428313351852392e-06   7.87930544367526e-06
-2.226281793983034e-06   -1.700595390165976e-06   6.105898691444135e-06
-2.226281793983034e-06   -1.700595390165976e-06   6.105898691444135e-06
-2.226281793983034e-06   -1.700595390165976e-06   6.105898691444135e-06
-2.226281793983034e-06   -1.700595390165976e-06   6.105898691444135e-06
-2.5774324178010283e-06   -2.433124866342562e-07   -4.347985373061986e-06
-2.5774324178010283e-06   -2.433124866342562e-07   -4.347985373061986e-06
-2.5774324178010283e-06   -2.433124866342562e-07   -4.347985373061986e-06
-2.5774324178010283e-06   -2.433124866342562e-07   -4.347985373061986e-06
-4.6537342412078433e-07   3.747091715374868e-07   -4.57074055358565e-07
-4.6537342412078433e-07   3.747091715374868e-07   -4.57074055358565e-07
-4.6537342412078433e-07   3.747091715374868e-07   -4.57074055358565e-07
-4.6537342412078433e-07   3.747091715374868e-07   -4.57074055358565e-07
2.3585510127072974e-08   -3.377301957977548e-07   -3.4215698423263e-06
2.3585510127072974e-08   -3.377301957977548e-07   -3.4215698423263e-06
2.3585510127072974e-08   -3.377301957977548e-07   -3.4215698423263e-06
2.3585510127072974e-08   -3.377301957977548e-07   -3.4215698423263e-06
-2.0800258490218234e-06   6.504931635052812e-07   -5.084849259932162e-07
-2.0800258490218234e-06   6.504931635052812e-07   -5.084849259932162e-07
-2.0800258490218234e-06   6.504931635052812e-07   -5.084849259932162e-07
-2.0800258490218234e-06   6.504931635052812e-07   -5.084849259932162e-07
-1.1653489832003225e-06   1.715625159616355e-07   -1.7455879805036321e-06
-1.1653489832003225e-06   1.715625159616355e-07   -1.7455879805036321e-06
-1.1653489832003225e-06   1.715625159616355e-07   -1.7455879805036321e-06
-1.1653489832003225e-06   1.715625159616355e-07   -1.7455879805036321e-06
-2.0800258490218234e-06   -3.37730195797809e-07   -4.014503857908188e-06
-2.0800258490218234e-06   -3.37730195797809e-07   -4.014503857908188e-06
-2.0800258490218234e-06   -3.37730195797809e-07   -4.014503857908188e-06
-2.0800258490218234e-06   -3.37730195797809e-07   -4.014503857908188e-06
2.3585510127072974e-08   6.504931635052812e-07   8.444908958856346e-08
2.3585510127072974e-08   6.504931635052812e-07   8.444908958856346e-08
2.3585510127072974e-08   6.504931635052812e-07   8.444908958856346e-08
2.3585510127072974e-08   6.504931635052812e-07   8.444908958856346e-08
2.821515496329724e-07   -4.660478132995083e-07   -3.0769120882999292e-06
2.821515496329724e-07   -4.660478132995083e-07   -3.0769120882999292e-06
2.821515496329724e-07   -4.660478132995083e-07   -3.0769120882999292e-06
2.821515496329724e-07   -4.660478132995083e-07   -3.0769120882999292e-06
-1.8047500006840604e-06   5.628945043624798e-07   -2.1610822836934038e-07
-1.8047500006840604e-06   5.628945043624798e-07   -2.1610822836934038e-07
-1.8047500006840604e-06   5.628945043624798e-07   -2.1610822836934038e-07
-1.8047500006840604e-06   5.628945043624798e-07   -2.1610822836934038e-07
-8.028505948224382e-07   1.1253037325852392e-07   -1.6157220928088908e-06
-8.028505948224382e-07   1.1253037325852392e-07   -1.6157220928088908e-06
-8.028505948224382e-07   1.1253037325852392e-07   -1.6157220928088908e-06
-8.028505948224382e-07   1.1253037325852392e-07   -1.6157220928088908e-06
-1.8047500006840604e-06   -4.660478132995083e-07   -3.6942774788972766e-06
-1.8047500006840604e-06   -4.660478132995083e-07   -3.6942774788972766e-06
-1.8047500006840604e-06   -4.660478132995083e-07   -3.6942774788972766e-06
-1.8047500006840604e-06   -4.660478132995083e-07   -3.6942774788972766e-06
2.821515496329724e-07   5.628945043624798e-07   4.0125716222773593e-07
2.821515496329724e-07   5.628945043624798e-07   4.0125716222773593e-07
2.821515496329724e-07   5.628945043624798e-07   4.0125716222773593e-07
2.821515496329724e-07   5.628945043624798e-07   4.0125716222773593e-07
6.055125315890947e-07   -6.200603203544014e-07   -2.573906853493629e-06
6.055125315890947e-07   -6.200603203544014e-07   -2.573906853493629e-06
6.055125315890947e-07   -6.200603203544014e-07   -2.573906853493629e-06
6.055125315890947e-07   -6.200603203544014e-07   -2.573906853493629e-06
-1.382172776998947e-06   4.940541327355584e-07   7.043332229885076e-08
-1.382172776998947e-06   4.940541327355584e-07   7.043332229885076e-08
-1.382172776998947e-06   4.940541327355584e-07   7.043332229885076e-08
-1.382172776998947e-06   4.940541327355584e-07   7.043332229885076e-08
-4.742101364544975e-07   4.223090408432941e-08   -1.1717438080843584e-06
-4.742101364544975e-07   4.223090408432941e-08   -1.1717438080843584e-06
-4.742101364544975e-07   4.223090408432941e-08   -1.1717438080843584e-06
-4.742101364544975e-07   4.223090408432941e-08   -1.1717438080843584e-06
              </DataArray>   
             <DataArray type="Float64" NumberOfComponents="3" Name="Stress" format="ascii">   
-3.9515062736339432   -0.9878765684084858   -0.9878765684084858
-3.9515062736339432   -0.9878765684084858   -0.9878765684084858
-3.9515062736339432   -0.9878765684084858   -0.9878765684084858
-3.9515062736339432   -0.9878765684084858   -0.9878765684084858
-2.286813556983952   -0.07221399656853139   -0.04575624221108436
-2.286813556983952   -0.07221399656853139   -0.04575624221108436
-2.286813556983952   -0.07221399656853139   -0.04575624221108436
-2.286813556983952   -0.07221399656853139   -0.04575624221108436
-2.4651488037845346   -0.6162872009461337   -0.6162872009461337
-2.4651488037845346   -0.6162872009461337   -0.6162872009461337
-2.4651488037845346   -0.6162872009461337   -0.6162872009461337
-2.4651488037845346   -0.6162872009461337   -0.6162872009461337
-3.808519807722871   -0.3125743011695242   -0.11947907127348614
-3.808519807722871   -0.3125743011695242   -0.11947907127348614
-3.808519807722871   -0.3125743011695242   -0.11947907127348614
-3.808519807722871   -0.3125743011695242   -0.11947907127348614
-2.9870618471898416   -0.489600093022676   -0.008235218734983885
-2.9870618471898416   -0.489600093022676   -0.008235218734983885
-2.9870618471898416   -0.489600093022676   -0.008235218734983885
-2.9870618471898416   -0.489600093022676   -0.008235218734983885
-4.13567681470475   -1.0339192036761875   -1.0339192036761875
-4.13567681470475   -1.0339192036761875   -1.0339192036761875
-4.13567681470475   -1.0339192036761875   -1.0339192036761875
-4.13567681470475   -1.0339192036761875   -1.0339192036761875
-2.2155584647189235   0.027491033644267027   -0.012113740208480384
-2.2155584647189235   0.027491033644267027   -0.012113740208480384
-2.2155584647189235   0.027491033644267027   -0.012113740208480384
-2.2155584647189235   0.027491033644267027   -0.012113740208480384
-2.4723095021176564   -0.6180773755294141   -0.6180773755294141
-2.4723095021176564   -0.6180773755294141   -0.6180773755294141
-2.4723095021176564   -0.6180773755294141   -0.6180773755294141
-2.4723095021176564   -0.6180773755294141   -0.6180773755294141
-3.936751087592294   -0.31563797907482694   -0.17510572403192987
-3.936751087592294   -0.31563797907482694   -0.17510572403192987
-3.936751087592294   -0.31563797907482694   -0.17510572403192987
-3.936751087592294   -0.31563797907482694   -0.17510572403192987
-3.098696172098833   -0.46104131690188305   -0.16447033074189477
-3.098696172098833   -0.46104131690188305   -0.16447033074189477
-3.098696172098833   -0.46104131690188305   -0.16447033074189477
-3.098696172098833   -0.46104131690188305   -0.16447033074189477
-4.265113718856611   -1.0662784297141528   -1.0662784297141528
-4.265113718856611   -1.0662784297141528   -1.0662784297141528
-4.265113718856611   -1.0662784297141528   -1.0662784297141528
-4.265113718856611   -1.0662784297141528   -1.0662784297141528
-2.209313447355954   0.06719649860730392   0.011629024142380096
-2.209313447355954   0.06719649860730392   0.011629024142380096
-2.209313447355954   0.06719649860730392   0.011629024142380096
-2.209313447355954   0.06719649860730392   0.011629024142380096
-2.4712450872649954   -0.6178112718162488   -0.6178112718162488
-2.4712450872649954   -0.6178112718162488   -0.6178112718162488
-2.4712450872649954   -0.6178112718162488   -0.6178112718162488
-2.4712450872649954   -0.6178112718162488   -0.6178112718162488
-4.165763784856221   -0.2770002717777743   -0.1049458409172607
-4.165763784856221   -0.2770002717777743   -0.1049458409172607
-4.165763784856221   -0.2770002717777743   -0.1049458409172607
-4.165763784856221   -0.2770002717777743   -0.1049458409172607
-3.1816055579013915   -0.45393057792220604   -0.2972898978111638
-3.1816055579013915   -0.45393057792220604   -0.2972898978111638
-3.1816055579013915   -0.45393057792220604   -0.2972898978111638
-3.1816055579013915   -0.45393057792220604   -0.2972898978111638
-2.514688343586703   -0.6286720858966758   -0.6286720858966758
-2.514688343586703   -0.6286720858966758   -0.6286720858966758
-2.514688343586703   -0.6286720858966758   -0.6286720858966758
-2.514688343586703   -0.6286720858966758   -0.6286720858966758
-1.0489220313704009   -0.0696373793349992   -0.02264600106638595
-1.0489220313704009   -0.0696373793349992   -0.02264600106638595
-1.0489220313704009   -0.0696373793349992   -0.02264600106638595
-1.0489220313704009   -0.0696373793349992   -0.02264600106638595
-1.1014110317995893   -0.27535275794989733   -0.27535275794989733
-1.1014110317995893   -0.27535275794989733   -0.27535275794989733
-1.1014110317995893   -0.27535275794989733   -0.27535275794989733
-1.1014110317995893   -0.27535275794989733   -0.27535275794989733
-2.2896163925206396   -0.269198612973398   -0.08571373259939438
-2.2896163925206396   -0.269198612973398   -0.08571373259939438
-2.2896163925206396   -0.269198612973398   -0.08571373259939438
-2.2896163925206396   -0.269198612973398   -0.08571373259939438
-1.6885636026230095   -0.31982379972618924   0.013229381230284873
-1.6885636026230095   -0.31982379972618924   0.013229381230284873
-1.6885636026230095   -0.31982379972618924   0.013229381230284873
-1.6885636026230095   -0.31982379972618924   0.013229381230284873
-2.465148803784533   -0.6162872009461332   -0.6162872009461332
-2.465148803784533   -0.6162872009461332   -0.6162872009461332
-2.465148803784533   -0.6162872009461332   -0.6162872009461332
-2.465148803784533   -0.6162872009461332   -0.6162872009461332
-0.9898149761714127   0.007799474387120031   -0.0005247121460315099
-0.9898149761714127   0.007799474387120031   -0.0005247121460315099
-0.9898149761714127   0.007799474387120031   -0.0005247121460315099
-0.9898149761714127   0.007799474387120031   -0.0005247121460315099
-1.0770369915768578   -0.26925924789421446   -0.26925924789421446
-1.0770369915768578   -0.26925924789421446   -0.26925924789421446
-1.0770369915768578   -0.26925924789421446   -0.26925924789421446
-1.0770369915768578   -0.26925924789421446   -0.26925924789421446
-2.284060507665366   -0.2196645193922947   -0.07524525940508116
-2.284060507665366   -0.2196645193922947   -0.07524525940508116
-2.284060507665366   -0.2196645193922947   -0.07524525940508116
-2.284060507665366   -0.2196645193922947   -0.07524525940508116
-1.6652598463145487   -0.2692922035854572   -0.08708898842416904
-1.6652598463145487   -0.2692922035854572   -0.08708898842416904
-1.6652598463145487   -0.2692922035854572   -0.08708898842416904
-1.6652598463145487   -0.2692922035854572   -0.08708898842416904
-2.4723095021176564   -0.6180773755294141   -0.6180773755294141
-2.4723095021176564   -0.6180773755294141   -0.6180773755294141
-2.4723095021176564   -0.6180773755294141   -0.6180773755294141
-2.4723095021176564   -0.6180773755294141   -0.6180773755294141
-0.950713298252014   0.0672283071154583   0.025871663720331825
-0.950713298252014   0.0672283071154583   0.025871663720331825
-0.950713298252014   0.0672283071154583   0.025871663720331825
-0.950713298252014   0.0672283071154583   0.025871663720331825
-1.0548769688252555   -0.2637192422063139   -0.2637192422063139
-1.0548769688252555   -0.2637192422063139   -0.2637192422063139
-1.0548769688252555   -0.2637192422063139   -0.2637192422063139
-1.0548769688252555   -0.2637192422063139   -0.2637192422063139
-2.267503945006683   -0.16955704769311403   -0.047359784647849845
-2.267503945006683   -0.16955704769311403   -0.047359784647849845
-2.267503945006683   -0.16955704769311403   -0.047359784647849845
-2.267503945006683   -0.16955704769311403   -0.047359784647849845
-1.6737194715157273   -0.23836648598364252   -0.19406131197344503
-1.6737194715157273   -0.23836648598364252   -0.19406131197344503
-1.6737194715157273   -0.23836648598364252   -0.19406131197344503
-1.6737194715157273   -0.23836648598364252   -0.19406131197344503
-1.1449615058779175   -0.28624037646947936   -0.28624037646947936
-1.1449615058779175   -0.28624037646947936   -0.28624037646947936
-1.1449615058779175   -0.28624037646947936   -0.28624037646947936
-1.1449615058779175   -0.28624037646947936   -0.28624037646947936
0.13644242056765815   0.00902221141723666   0.001109166779300827
0.13644242056765815   0.00902221141723666   0.001109166779300827
0.13644242056765815   0.00902221141723666   0.001109166779300827
0.13644242056765815   0.00902221141723666   0.001109166779300827
0.1770527968229794   0.04426319920574485   0.04426319920574485
0.1770527968229794   0.04426319920574485   0.04426319920574485
0.1770527968229794   0.04426319920574485   0.04426319920574485
0.1770527968229794   0.04426319920574485   0.04426319920574485
-1.0354269796483224   -0.17897145024040806   -0.04181380490305163
-1.0354269796483224   -0.17897145024040806   -0.04181380490305163
-1.0354269796483224   -0.17897145024040806   -0.04181380490305163
-1.0354269796483224   -0.17897145024040806   -0.04181380490305163
-0.44296848020907054   -0.11238331072087795   0.07533550504913095
-0.44296848020907054   -0.11238331072087795   0.07533550504913095
-0.44296848020907054   -0.11238331072087795   0.07533550504913095
-0.44296848020907054   -0.11238331072087795   0.07533550504913095
-1.1014110317995893   -0.27535275794989733   -0.27535275794989733
-1.1014110317995893   -0.27535275794989733   -0.27535275794989733
-1.1014110317995893   -0.27535275794989733   -0.27535275794989733
-1.1014110317995893   -0.27535275794989733   -0.27535275794989733
0.18017882390023768   0.07778648184122487   0.02637005195655499
0.18017882390023768   0.07778648184122487   0.02637005195655499
0.18017882390023768   0.07778648184122487   0.02637005195655499
0.18017882390023768   0.07778648184122487   0.02637005195655499
0.19888903207553593   0.04972225801888398   0.04972225801888398
0.19888903207553593   0.04972225801888398   0.04972225801888398
0.19888903207553593   0.04972225801888398   0.04972225801888398
0.19888903207553593   0.04972225801888398   0.04972225801888398
-0.9990528349380452   -0.12055461151465999   -0.028043101079714583
-0.9990528349380452   -0.12055461151465999   -0.028043101079714583
-0.9990528349380452   -0.12055461151465999   -0.028043101079714583
-0.9990528349380452   -0.12055461151465999   -0.028043101079714583
-0.4251672322833229   -0.06949136140227975   -0.025670300635215398
-0.4251672322833229   -0.06949136140227975   -0.025670300635215398
-0.4251672322833229   -0.06949136140227975   -0.025670300635215398
-0.4251672322833229   -0.06949136140227975   -0.025670300635215398
-1.0770369915768578   -0.26925924789421446   -0.26925924789421446
-1.0770369915768578   -0.26925924789421446   -0.26925924789421446
-1.0770369915768578   -0.26925924789421446   -0.26925924789421446
-1.0770369915768578   -0.26925924789421446   -0.26925924789421446
0.21527984617371462   0.1368335518578057   0.044565034670854195
0.21527984617371462   0.1368335518578057   0.044565034670854195
0.21527984617371462   0.1368335518578057   0.044565034670854195
0.21527984617371462   0.1368335518578057   0.044565034670854195
0.22833901788734243   0.05708475447183561   0.05708475447183561
0.22833901788734243   0.05708475447183561   0.05708475447183561
0.22833901788734243   0.05708475447183561   0.05708475447183561
0.22833901788734243   0.05708475447183561   0.05708475447183561
-0.9594631128800034   -0.050871036715012086   0.0005018320286396677
-0.9594631128800034   -0.050871036715012086   0.0005018320286396677
-0.9594631128800034   -0.050871036715012086   0.0005018320286396677
-0.9594631128800034   -0.050871036715012086   0.0005018320286396677
-0.4126974965781758   -0.028142453585504115   -0.12577458850396928
-0.4126974965781758   -0.028142453585504115   -0.12577458850396928
-0.4126974965781758   -0.028142453585504115   -0.12577458850396928
-0.4126974965781758   -0.028142453585504115   -0.12577458850396928
0.14935127214261212   0.03733781803565303   0.03733781803565303
0.14935127214261212   0.03733781803565303   0.03733781803565303
0.14935127214261212   0.03733781803565303   0.03733781803565303
0.14935127214261212   0.03733781803565303   0.03733781803565303
1.4338406583698289   0.1315306426440493   0.044084112483391766
1.4338406583698289   0.1315306426440493   0.044084112483391766
1.4338406583698289   0.1315306426440493   0.044084112483391766
1.4338406583698289   0.1315306426440493   0.044084112483391766
1.5566085718299651   0.3891521429574913   0.3891521429574913
1.5566085718299651   0.3891521429574913   0.3891521429574913
1.5566085718299651   0.3891521429574913   0.3891521429574913
1.5566085718299651   0.3891521429574913   0.3891521429574913
0.13491060107216662   -0.10098578411610992   -0.02119879622646699
0.13491060107216662   -0.10098578411610992   -0.02119879622646699
0.13491060107216662   -0.10098578411610992   -0.02119879622646699
0.13491060107216662   -0.10098578411610992   -0.02119879622646699
0.8177635405272129   0.10179798636629822   0.14861006733146717
0.8177635405272129   0.10179798636629822   0.14861006733146717
0.8177635405272129   0.10179798636629822   0.14861006733146717
0.8177635405272129   0.10179798636629822   0.14861006733146717
0.17705279682298   0.044263199205745   0.044263199205745
0.17705279682298   0.044263199205745   0.044263199205745
0.17705279682298   0.044263199205745   0.044263199205745
0.17705279682298   0.044263199205745   0.044263199205745
1.450578600226813   0.18001538378329782   0.0681390441159252
1.450578600226813   0.18001538378329782   0.0681390441159252
1.450578600226813   0.18001538378329782   0.0681390441159252
1.450578600226813   0.18001538378329782   0.0681390441159252
1.5496956148975225   0.3874239037243806   0.3874239037243806
1.5496956148975225   0.3874239037243806   0.3874239037243806
1.5496956148975225   0.3874239037243806   0.3874239037243806
1.5496956148975225   0.3874239037243806   0.3874239037243806
0.17023544970687077   -0.04387289712933002   4.950132377062877e-05
0.17023544970687077   -0.04387289712933002   4.950132377062877e-05
0.17023544970687077   -0.04387289712933002   4.950132377062877e-05
0.17023544970687077   -0.04387289712933002   4.950132377062877e-05
0.8114777096372847   0.13350776205773396   0.038696859757559036
0.8114777096372847   0.13350776205773396   0.038696859757559036
0.8114777096372847   0.13350776205773396   0.038696859757559036
0.8114777096372847   0.13350776205773396   0.038696859757559036
0.1988890320755361   0.049722258018884025   0.049722258018884025
0.1988890320755361   0.049722258018884025   0.049722258018884025
0.1988890320755361   0.049722258018884025   0.049722258018884025
0.1988890320755361   0.049722258018884025   0.049722258018884025
1.4577668425916623   0.23055355863897192   0.08465038728048861
1.4577668425916623   0.23055355863897192   0.08465038728048861
1.4577668425916623   0.23055355863897192   0.08465038728048861
1.4577668425916623   0.23055355863897192   0.08465038728048861
1.5794719632863585   0.39486799082158963   0.39486799082158963
1.5794719632863585   0.39486799082158963   0.39486799082158963
1.5794719632863585   0.39486799082158963   0.39486799082158963
1.5794719632863585   0.39486799082158963   0.39486799082158963
0.2166080747020465   0.03170901917685858   0.023805773840331133
0.2166080747020465   0.03170901917685858   0.023805773840331133
0.2166080747020465   0.03170901917685858   0.023805773840331133
0.2166080747020465   0.03170901917685858   0.023805773840331133
0.8238297265288009   0.18105502020198333   -0.06321862712223839
0.8238297265288009   0.18105502020198333   -0.06321862712223839
0.8238297265288009   0.18105502020198333   -0.06321862712223839
0.8238297265288009   0.18105502020198333   -0.06321862712223839
1.5541307859381561   0.38853269648453903   0.38853269648453903
1.5541307859381561   0.38853269648453903   0.38853269648453903
1.5541307859381561   0.38853269648453903   0.38853269648453903
1.5541307859381561   0.38853269648453903   0.38853269648453903
3.2223391211897905   0.24554808361856845   0.08392094219234165
3.2223391211897905   0.24554808361856845   0.08392094219234165
3.2223391211897905   0.24554808361856845   0.08392094219234165
3.2223391211897905   0.24554808361856845   0.08392094219234165
3.293419464024483   0.8233548660061207   0.8233548660061207
3.293419464024483   0.8233548660061207   0.8233548660061207
3.293419464024483   0.8233548660061207   0.8233548660061207
3.293419464024483   0.8233548660061207   0.8233548660061207
1.3836019438830784   -0.07871591239723563   -0.00801294142221548
1.3836019438830784   -0.07871591239723563   -0.00801294142221548
1.3836019438830784   -0.07871591239723563   -0.00801294142221548
1.3836019438830784   -0.07871591239723563   -0.00801294142221548
2.2983482462265084   0.3252115392514813   0.2595416294651211
2.2983482462265084   0.3252115392514813   0.2595416294651211
2.2983482462265084   0.3252115392514813   0.2595416294651211
2.2983482462265084   0.3252115392514813   0.2595416294651211
1.556608571829964   0.389152142957491   0.389152142957491
1.556608571829964   0.389152142957491   0.389152142957491
1.556608571829964   0.389152142957491   0.389152142957491
1.556608571829964   0.389152142957491   0.389152142957491
3.051940823325575   0.2870147978993823   0.15230173061836993
3.051940823325575   0.2870147978993823   0.15230173061836993
3.051940823325575   0.2870147978993823   0.15230173061836993
3.051940823325575   0.2870147978993823   0.15230173061836993
3.1947432634913593   0.7986858158728398   0.7986858158728398
3.1947432634913593   0.7986858158728398   0.7986858158728398
3.1947432634913593   0.7986858158728398   0.7986858158728398
3.1947432634913593   0.7986858158728398   0.7986858158728398
1.3882088682599807   -0.0435399555873725   0.010954029848424238
1.3882088682599807   -0.0435399555873725   0.010954029848424238
1.3882088682599807   -0.0435399555873725   0.010954029848424238
1.3882088682599807   -0.0435399555873725   0.010954029848424238
2.2299066683642077   0.3345252743827647   0.12446643796529816
2.2299066683642077   0.3345252743827647   0.12446643796529816
2.2299066683642077   0.3345252743827647   0.12446643796529816
2.2299066683642077   0.3345252743827647   0.12446643796529816
1.5496956148975225   0.3874239037243806   0.3874239037243806
1.5496956148975225   0.3874239037243806   0.3874239037243806
1.5496956148975225   0.3874239037243806   0.3874239037243806
1.5496956148975225   0.3874239037243806   0.3874239037243806
2.9534224864666236   0.28788792617390213   0.10287982044815061
2.9534224864666236   0.28788792617390213   0.10287982044815061
2.9534224864666236   0.28788792617390213   0.10287982044815061
2.9534224864666236   0.28788792617390213   0.10287982044815061
3.048014256154644   0.762003564038661   0.762003564038661
3.048014256154644   0.762003564038661   0.762003564038661
3.048014256154644   0.762003564038661   0.762003564038661
3.048014256154644   0.762003564038661   0.762003564038661
1.4393313350004633   0.04515022181604117   0.04388261839766268
1.4393313350004633   0.04515022181604117   0.04388261839766268
1.4393313350004633   0.04515022181604117   0.04388261839766268
1.4393313350004633   0.04515022181604117   0.04388261839766268
2.1349744506026362   0.3626261319219118   -0.03260108877611616
2.1349744506026362   0.3626261319219118   -0.03260108877611616
2.1349744506026362   0.3626261319219118   -0.03260108877611616
2.1349744506026362   0.3626261319219118   -0.03260108877611616
-3.125212720046496   -0.2237532702496718   0.034946552445758075
-3.125212720046496   -0.2237532702496718   0.034946552445758075
-3.125212720046496   -0.2237532702496718   0.034946552445758075
-3.125212720046496   -0.2237532702496718   0.034946552445758075
-1.9890134777285349   -0.04566221640072354   -0.012780718532778235
-1.9890134777285349   -0.04566221640072354   -0.012780718532778235
-1.9890134777285349   -0.04566221640072354   -0.012780718532778235
-1.9890134777285349   -0.04566221640072354   -0.012780718532778235
-2.002683547674822   0.08082424675799105   0.04167740831604569
-2.002683547674822   0.08082424675799105   0.04167740831604569
-2.002683547674822   0.08082424675799105   0.04167740831604569
-2.002683547674822   0.08082424675799105   0.04167740831604569
-3.1718401239772436   -0.21624185428372594   -0.0374541587845076
-3.1718401239772436   -0.21624185428372594   -0.0374541587845076
-3.1718401239772436   -0.21624185428372594   -0.0374541587845076
-3.1718401239772436   -0.21624185428372594   -0.0374541587845076
-2.470945655109095   -0.08431372013937316   -0.009674099431916897
-2.470945655109095   -0.08431372013937316   -0.009674099431916897
-2.470945655109095   -0.08431372013937316   -0.009674099431916897
-2.470945655109095   -0.08431372013937316   -0.009674099431916897
-3.1488905893119856   -0.15378525931753295   0.014836919575589497
-3.1488905893119856   -0.15378525931753295   0.014836919575589497
-3.1488905893119856   -0.15378525931753295   0.014836919575589497
-3.1488905893119856   -0.15378525931753295   0.014836919575589497
-2.028972527070991   0.01502820706089425   -0.023971448967667147
-2.028972527070991   0.01502820706089425   -0.023971448967667147
-2.028972527070991   0.01502820706089425   -0.023971448967667147
-2.028972527070991   0.01502820706089425   -0.023971448967667147
-2.005206555144187   0.1151914158507315   0.047496718147758715
-2.005206555144187   0.1151914158507315   0.047496718147758715
-2.005206555144187   0.1151914158507315   0.047496718147758715
-2.005206555144187   0.1151914158507315   0.047496718147758715
-3.1912583382717625   -0.1905216348948756   -0.049457153834409434
-3.1912583382717625   -0.1905216348948756   -0.049457153834409434
-3.1912583382717625   -0.1905216348948756   -0.049457153834409434
-3.1912583382717625   -0.1905216348948756   -0.049457153834409434
-2.540504875972247   -0.056499070493642334   -0.024034014191027686
-2.540504875972247   -0.056499070493642334   -0.024034014191027686
-2.540504875972247   -0.056499070493642334   -0.024034014191027686
-2.540504875972247   -0.056499070493642334   -0.024034014191027686
-3.1340861023455693   -0.0924227991989709   0.1383051901006289
-3.1340861023455693   -0.0924227991989709   0.1383051901006289
-3.1340861023455693   -0.0924227991989709   0.1383051901006289
-3.1340861023455693   -0.0924227991989709   0.1383051901006289
-2.0385328232287754   0.040938547996430596   -0.04488175442086542
-2.0385328232287754   0.040938547996430596   -0.04488175442086542
-2.0385328232287754   0.040938547996430596   -0.04488175442086542
-2.0385328232287754   0.040938547996430596   -0.04488175442086542
-1.9688858755862104   0.2006453395985972   0.08640430669458629
-1.9688858755862104   0.2006453395985972   0.08640430669458629
-1.9688858755862104   0.2006453395985972   0.08640430669458629
-1.9688858755862104   0.2006453395985972   0.08640430669458629
-3.10334890946469   -0.1538455527347743   -0.08096410309056037
-3.10334890946469   -0.1538455527347743   -0.08096410309056037
-3.10334890946469   -0.1538455527347743   -0.08096410309056037
-3.10334890946469   -0.1538455527347743   -0.08096410309056037
-2.4435592071652223   0.02266398336051778   0.05411047245609607
-2.4435592071652223   0.02266398336051778   0.05411047245609607
-2.4435592071652223   0.02266398336051778   0.05411047245609607
-2.4435592071652223   0.02266398336051778   0.05411047245609607
-2.0384927964765467   -0.2701585315647202   -0.03568099710884144
-2.0384927964765467   -0.2701585315647202   -0.03568099710884144
-2.0384927964765467   -0.2701585315647202   -0.03568099710884144
-2.0384927964765467   -0.2701585315647202   -0.03568099710884144
-0.9388230081263305   -0.020722197381619817   0.010000182813512504
-0.9388230081263305   -0.020722197381619817   0.010000182813512504
-0.9388230081263305   -0.020722197381619817   0.010000182813512504
-0.9388230081263305   -0.020722197381619817   0.010000182813512504
-0.9527111823887732   0.01815615051275138   0.0141548746994897
-0.9527111823887732   0.01815615051275138   0.0141548746994897
-0.9527111823887732   0.01815615051275138   0.0141548746994897
-0.9527111823887732   0.01815615051275138   0.0141548746994897
-2.0789779137810083   -0.19777417749480442   -0.06119599796208913
-2.0789779137810083   -0.19777417749480442   -0.06119599796208913
-2.0789779137810083   -0.19777417749480442   -0.06119599796208913
-2.0789779137810083   -0.19777417749480442   -0.06119599796208913
-1.502198546052197   -0.12189703214092062   -0.034374604808772816
-1.502198546052197   -0.12189703214092062   -0.034374604808772816
-1.502198546052197   -0.12189703214092062   -0.034374604808772816
-1.502198546052197   -0.12189703214092062   -0.034374604808772816
-2.0770467657504037   -0.21617069013354046   -0.033143745170338995
-2.0770467657504037   -0.21617069013354046   -0.033143745170338995
-2.0770467657504037   -0.21617069013354046   -0.033143745170338995
-2.0770467657504037   -0.21617069013354046   -0.033143745170338995
-0.950934548024249   0.04026044554661745   0.0009337514882530734
-0.950934548024249   0.04026044554661745   0.0009337514882530734
-0.950934548024249   0.04026044554661745   0.0009337514882530734
-0.950934548024249   0.04026044554661745   0.0009337514882530734
-0.9492469748682786   0.06620108093288793   0.01926920942374849
-0.9492469748682786   0.06620108093288793   0.01926920942374849
-0.9492469748682786   0.06620108093288793   0.01926920942374849
-0.9492469748682786   0.06620108093288793   0.01926920942374849
-2.0799799941053156   -0.14500039751703409   -0.06617866329011887
-2.0799799941053156   -0.14500039751703409   -0.06617866329011887
-2.0799799941053156   -0.14500039751703409   -0.06617866329011887
-2.0799799941053156   -0.14500039751703409   -0.06617866329011887
-1.4994127463696771   -0.06786715366091961   -0.016337460865037984
-1.4994127463696771   -0.06786715366091961   -0.016337460865037984
-1.4994127463696771   -0.06786715366091961   -0.016337460865037984
-1.4994127463696771   -0.06786715366091961   -0.016337460865037984
-2.071868799961566   -0.1635847866568334   -0.007038303431570914
-2.071868799961566   -0.1635847866568334   -0.007038303431570914
-2.071868799961566   -0.1635847866568334   -0.007038303431570914
-2.071868799961566   -0.1635847866568334   -0.007038303431570914
-0.9504749619125771   0.0916686771721413   -0.012338322036980681
-0.9504749619125771   0.0916686771721413   -0.012338322036980681
-0.9504749619125771   0.0916686771721413   -0.012338322036980681
-0.9504749619125771   0.0916686771721413   -0.012338322036980681
-0.9334699882664019   0.11447565983685748   0.03876979626173391
-0.9334699882664019   0.11447565983685748   0.03876979626173391
-0.9334699882664019   0.11447565983685748   0.03876979626173391
-0.9334699882664019   0.11447565983685748   0.03876979626173391
-2.057848639440053   -0.08402628809469048   -0.07373788488134589
-2.057848639440053   -0.08402628809469048   -0.07373788488134589
-2.057848639440053   -0.08402628809469048   -0.07373788488134589
-2.057848639440053   -0.08402628809469048   -0.07373788488134589
-1.493286149854286   -0.016740646181889585   0.007502932712864799
-1.493286149854286   -0.016740646181889585   0.007502932712864799
-1.493286149854286   -0.016740646181889585   0.007502932712864799
-1.493286149854286   -0.016740646181889585   0.007502932712864799
-0.9900379571745256   -0.22487920787406476   -0.04191755193502438
-0.9900379571745256   -0.22487920787406476   -0.04191755193502438
-0.9900379571745256   -0.22487920787406476   -0.04191755193502438
-0.9900379571745256   -0.22487920787406476   -0.04191755193502438
0.10327062977796501   0.023481148796445982   0.03856956041506876
0.10327062977796501   0.023481148796445982   0.03856956041506876
0.10327062977796501   0.023481148796445982   0.03856956041506876
0.10327062977796501   0.023481148796445982   0.03856956041506876
0.09847427110572086   0.0567851873038584   0.0030681320642375245
0.09847427110572086   0.0567851873038584   0.0030681320642375245
0.09847427110572086   0.0567851873038584   0.0030681320642375245
0.09847427110572086   0.0567851873038584   0.0030681320642375245
-0.9943299098206901   -0.14902154491525646   -0.02676106703208675
-0.9943299098206901   -0.14902154491525646   -0.02676106703208675
-0.9943299098206901   -0.14902154491525646   -0.02676106703208675
-0.9943299098206901   -0.14902154491525646   -0.02676106703208675
-0.4499635545618792   -0.07451646573983532   -0.014203675972634128
-0.4499635545618792   -0.07451646573983532   -0.014203675972634128
-0.4499635545618792   -0.07451646573983532   -0.014203675972634128
-0.4499635545618792   -0.07451646573983532   -0.014203675972634128
-1.0012051263456088   -0.17149671459470178   -0.03866197997723549
-1.0012051263456088   -0.17149671459470178   -0.03866197997723549
-1.0012051263456088   -0.17149671459470178   -0.03866197997723549
-1.0012051263456088   -0.17149671459470178   -0.03866197997723549
0.10917870979500988   0.08308957914767423   0.030285933666866726
0.10917870979500988   0.08308957914767423   0.030285933666866726
0.10917870979500988   0.08308957914767423   0.030285933666866726
0.10917870979500988   0.08308957914767423   0.030285933666866726
0.10613232529976391   0.10967888741925812   0.017939233352066885
0.10613232529976391   0.10967888741925812   0.017939233352066885
0.10613232529976391   0.10967888741925812   0.017939233352066885
0.10613232529976391   0.10967888741925812   0.017939233352066885
-0.9912213157826106   -0.0910214358685664   -0.03337997834645596
-0.9912213157826106   -0.0910214358685664   -0.03337997834645596
-0.9912213157826106   -0.0910214358685664   -0.03337997834645596
-0.9912213157826106   -0.0910214358685664   -0.03337997834645596
-0.4430195723256696   -0.018297581874657298   0.00532149714350956
-0.4430195723256696   -0.018297581874657298   0.00532149714350956
-0.4430195723256696   -0.018297581874657298   0.00532149714350956
-0.4430195723256696   -0.018297581874657298   0.00532149714350956
-0.993869692811636   -0.11786501895455431   -0.019778280405595455
-0.993869692811636   -0.11786501895455431   -0.019778280405595455
-0.993869692811636   -0.11786501895455431   -0.019778280405595455
-0.993869692811636   -0.11786501895455431   -0.019778280405595455
0.112899938168294   0.14064170634475182   0.02081447876922306
0.112899938168294   0.14064170634475182   0.02081447876922306
0.112899938168294   0.14064170634475182   0.02081447876922306
0.112899938168294   0.14064170634475182   0.02081447876922306
0.10849971077634932   0.16853085526509887   0.029548468272839953
0.10849971077634932   0.16853085526509887   0.029548468272839953
0.10849971077634932   0.16853085526509887   0.029548468272839953
0.10849971077634932   0.16853085526509887   0.029548468272839953
-0.9783299976819161   -0.029009605294749496   -0.042044985684226995
-0.9783299976819161   -0.029009605294749496   -0.042044985684226995
-0.9783299976819161   -0.029009605294749496   -0.042044985684226995
-0.9783299976819161   -0.029009605294749496   -0.042044985684226995
-0.43200983973846707   0.04049480587693764   0.026696545722376633
-0.43200983973846707   0.04049480587693764   0.026696545722376633
-0.43200983973846707   0.04049480587693764   0.026696545722376633
-0.43200983973846707   0.04049480587693764   0.026696545722376633
0.04761218905510437   -0.16481681049677602   -0.05142468390601247
0.04761218905510437   -0.16481681049677602   -0.05142468390601247
0.04761218905510437   -0.16481681049677602   -0.05142468390601247
0.04761218905510437   -0.16481681049677602   -0.05142468390601247
1.1802150547807293   0.08151971901244917   0.07075159315081445
1.1802150547807293   0.08151971901244917   0.07075159315081445
1.1802150547807293   0.08151971901244917   0.07075159315081445
1.1802150547807293   0.08151971901244917   0.07075159315081445
1.1787219334940098   0.10975738480149597   -0.011294284060282503
1.1787219334940098   0.10975738480149597   -0.011294284060282503
1.1787219334940098   0.10975738480149597   -0.011294284060282503
1.1787219334940098   0.10975738480149597   -0.011294284060282503
0.06809241479798672   -0.09907804152529892   0.007022079354724119
0.06809241479798672   -0.09907804152529892   0.007022079354724119
0.06809241479798672   -0.09907804152529892   0.007022079354724119
0.06809241479798672   -0.09907804152529892   0.007022079354724119
0.6110429002711228   -0.014081910123765279   0.0013253205500590379
0.6110429002711228   -0.014081910123765279   0.0013253205500590379
0.6110429002711228   -0.014081910123765279   0.0013253205500590379
0.6110429002711228   -0.014081910123765279   0.0013253205500590379
0.05473979851428308   -0.12045332841684275   -0.03836571517224946
0.05473979851428308   -0.12045332841684275   -0.03836571517224946
0.05473979851428308   -0.12045332841684275   -0.03836571517224946
0.05473979851428308   -0.12045332841684275   -0.03836571517224946
1.1989509232858901   0.13800904520121673   0.06159900449939124
1.1989509232858901   0.13800904520121673   0.06159900449939124
1.1989509232858901   0.13800904520121673   0.06159900449939124
1.1989509232858901   0.13800904520121673   0.06159900449939124
1.187953972469583   0.16206574533335688   0.012024190874490952
1.187953972469583   0.16206574533335688   0.012024190874490952
1.187953972469583   0.16206574533335688   0.012024190874490952
1.187953972469583   0.16206574533335688   0.012024190874490952
0.07045409710559206   -0.04724676291581881   -0.003526257283715445
0.07045409710559206   -0.04724676291581881   -0.003526257283715445
0.07045409710559206   -0.04724676291581881   -0.003526257283715445
0.07045409710559206   -0.04724676291581881   -0.003526257283715445
0.6191312266470822   0.03592166194720611   0.0253211725541599
0.6191312266470822   0.03592166194720611   0.0253211725541599
0.6191312266470822   0.03592166194720611   0.0253211725541599
0.6191312266470822   0.03592166194720611   0.0253211725541599
0.06073535341974645   -0.07138013698105114   -0.02798660164771062
0.06073535341974645   -0.07138013698105114   -0.02798660164771062
0.06073535341974645   -0.07138013698105114   -0.02798660164771062
0.06073535341974645   -0.07138013698105114   -0.02798660164771062
1.2026477967115667   0.19117419995472246   0.056384857463023935
1.2026477967115667   0.19117419995472246   0.056384857463023935
1.2026477967115667   0.19117419995472246   0.056384857463023935
1.2026477967115667   0.19117419995472246   0.056384857463023935
1.1688269550651167   0.2224395625946707   0.02523961056631964
1.1688269550651167   0.2224395625946707   0.02523961056631964
1.1688269550651167   0.2224395625946707   0.02523961056631964
1.1688269550651167   0.2224395625946707   0.02523961056631964
0.06976618146555329   0.016960242353528533   -0.012548565369569737
0.06976618146555329   0.016960242353528533   -0.012548565369569737
0.06976618146555329   0.016960242353528533   -0.012548565369569737
0.06976618146555329   0.016960242353528533   -0.012548565369569737
0.6282204708347706   0.09309054202182512   0.04752794240766325
0.6282204708347706   0.09309054202182512   0.04752794240766325
0.6282204708347706   0.09309054202182512   0.04752794240766325
0.6282204708347706   0.09309054202182512   0.04752794240766325
1.0873191923930734   -0.21723474211187185   -0.09497325766314312
1.0873191923930734   -0.21723474211187185   -0.09497325766314312
1.0873191923930734   -0.21723474211187185   -0.09497325766314312
1.0873191923930734   -0.21723474211187185   -0.09497325766314312
2.2384406781965853   0.14784735678397992   0.06882763763820472
2.2384406781965853   0.14784735678397992   0.06882763763820472
2.2384406781965853   0.14784735678397992   0.06882763763820472
2.2384406781965853   0.14784735678397992   0.06882763763820472
2.263683485978026   0.07033231665776318   -0.14285333824217328
2.263683485978026   0.07033231665776318   -0.14285333824217328
2.263683485978026   0.07033231665776318   -0.14285333824217328
2.263683485978026   0.07033231665776318   -0.14285333824217328
1.1583110201870488   -0.044715256852665586   0.04112379105905507
1.1583110201870488   -0.044715256852665586   0.04112379105905507
1.1583110201870488   -0.044715256852665586   0.04112379105905507
1.1583110201870488   -0.044715256852665586   0.04112379105905507
1.6030923241297812   -0.027893583374974384   -0.0400214883130566
1.6030923241297812   -0.027893583374974384   -0.0400214883130566
1.6030923241297812   -0.027893583374974384   -0.0400214883130566
1.6030923241297812   -0.027893583374974384   -0.0400214883130566
1.11786216327988   -0.14285702524943283   -0.06297872508000697
1.11786216327988   -0.14285702524943283   -0.06297872508000697
1.11786216327988   -0.14285702524943283   -0.06297872508000697
1.11786216327988   -0.14285702524943283   -0.06297872508000697
2.324665356849829   0.1890070990191664   0.04338123375543508
2.324665356849829   0.1890070990191664   0.04338123375543508
2.324665356849829   0.1890070990191664   0.04338123375543508
2.324665356849829   0.1890070990191664   0.04338123375543508
2.2884989016338433   0.12788471089348463   -0.03221267112115664
2.2884989016338433   0.12788471089348463   -0.03221267112115664
2.2884989016338433   0.12788471089348463   -0.03221267112115664
2.2884989016338433   0.12788471089348463   -0.03221267112115664
1.1535892404890193   -0.018882152162303156   0.021148428467312713
1.1535892404890193   -0.018882152162303156   0.021148428467312713
1.1535892404890193   -0.018882152162303156   0.021148428467312713
1.1535892404890193   -0.018882152162303156   0.021148428467312713
1.6868685724368078   0.042128116302517726   0.027697526420193366
1.6868685724368078   0.042128116302517726   0.027697526420193366
1.6868685724368078   0.042128116302517726   0.027697526420193366
1.6868685724368078   0.042128116302517726   0.027697526420193366
1.1211549202048257   -0.10926884682606475   -0.050636478289885684
1.1211549202048257   -0.10926884682606475   -0.050636478289885684
1.1211549202048257   -0.10926884682606475   -0.050636478289885684
1.1211549202048257   -0.10926884682606475   -0.050636478289885684
2.3182034750280818   0.21554165866729225   0.02865324807622721
2.3182034750280818   0.21554165866729225   0.02865324807622721
2.3182034750280818   0.21554165866729225   0.02865324807622721
2.3182034750280818   0.21554165866729225   0.02865324807622721
2.28453193952019   0.19554025438049   -0.04936782329981941
2.28453193952019   0.19554025438049   -0.04936782329981941
2.28453193952019   0.19554025438049   -0.04936782329981941
2.28453193952019   0.19554025438049   -0.04936782329981941
1.1297737736259756   0.04069837759192055   0.011714888373345327
1.1297737736259756   0.04069837759192055   0.011714888373345327
1.1297737736259756   0.04069837759192055   0.011714888373345327
1.1297737736259756   0.04069837759192055   0.011714888373345327
1.6436388433609228   0.07377938159526115   0.02046828926164851
1.6436388433609228   0.07377938159526115   0.02046828926164851
1.6436388433609228   0.07377938159526115   0.02046828926164851
1.6436388433609228   0.07377938159526115   0.02046828926164851
-2.4580074903467772   -0.1116590911022396   0.12622892057788382
-2.4580074903467772   -0.1116590911022396   0.12622892057788382
-2.4580074903467772   -0.1116590911022396   0.12622892057788382
-2.4580074903467772   -0.1116590911022396   0.12622892057788382
-1.6319293904954004   -0.061802422903714016   -0.032845388870274175
-1.6319293904954004   -0.061802422903714016   -0.032845388870274175
-1.6319293904954004   -0.061802422903714016   -0.032845388870274175
-1.6319293904954004   -0.061802422903714016   -0.032845388870274175
-1.573252448234355   0.13215343619895176   0.10593461788599205
-1.573252448234355   0.13215343619895176   0.10593461788599205
-1.573252448234355   0.13215343619895176   0.10593461788599205
-1.573252448234355   0.13215343619895176   0.10593461788599205
-2.4693862340552153   -0.17622699360839206   -0.05148500283182793
-2.4693862340552153   -0.17622699360839206   -0.05148500283182793
-2.4693862340552153   -0.17622699360839206   -0.05148500283182793
-2.4693862340552153   -0.17622699360839206   -0.05148500283182793
-1.9505556719762227   -0.03016357425429622   -0.0034600716830890665
-1.9505556719762227   -0.03016357425429622   -0.0034600716830890665
-1.9505556719762227   -0.03016357425429622   -0.0034600716830890665
-1.9505556719762227   -0.03016357425429622   -0.0034600716830890665
-2.400794304444762   -0.026243606914932438   0.14149125852697836
-2.400794304444762   -0.026243606914932438   0.14149125852697836
-2.400794304444762   -0.026243606914932438   0.14149125852697836
-2.400794304444762   -0.026243606914932438   0.14149125852697836
-1.6310380803682867   -0.007023653017986353   -0.043816453566728183
-1.6310380803682867   -0.007023653017986353   -0.043816453566728183
-1.6310380803682867   -0.007023653017986353   -0.043816453566728183
-1.6310380803682867   -0.007023653017986353   -0.043816453566728183
-1.5668837146629502   0.16388839063970934   0.09821835022970324
-1.5668837146629502   0.16388839063970934   0.09821835022970324
-1.5668837146629502   0.16388839063970934   0.09821835022970324
-1.5668837146629502   0.16388839063970934   0.09821835022970324
-2.4312586676914467   -0.14746590686950783   -0.07051339062424132
-2.4312586676914467   -0.14746590686950783   -0.07051339062424132
-2.4312586676914467   -0.14746590686950783   -0.07051339062424132
-2.4312586676914467   -0.14746590686950783   -0.07051339062424132
-1.9548049549211384   0.0071237454212602636   0.02259887112077706
-1.9548049549211384   0.0071237454212602636   0.02259887112077706
-1.9548049549211384   0.0071237454212602636   0.02259887112077706
-1.9548049549211384   0.0071237454212602636   0.02259887112077706
-2.367376383304194   0.0036938431283528583   0.09773828131416404
-2.367376383304194   0.0036938431283528583   0.09773828131416404
-2.367376383304194   0.0036938431283528583   0.09773828131416404
-2.367376383304194   0.0036938431283528583   0.09773828131416404
-1.6272038275026717   0.01629081218938494   -0.05578463551856802
-1.6272038275026717   0.01629081218938494   -0.05578463551856802
-1.6272038275026717   0.01629081218938494   -0.05578463551856802
-1.6272038275026717   0.01629081218938494   -0.05578463551856802
-1.5684430152851319   0.18491473565933825   0.07793144470044397
-1.5684430152851319   0.18491473565933825   0.07793144470044397
-1.5684430152851319   0.18491473565933825   0.07793144470044397
-1.5684430152851319   0.18491473565933825   0.07793144470044397
-2.3817358203094288   -0.11693589881485361   -0.08993866450648187
-2.3817358203094288   -0.11693589881485361   -0.08993866450648187
-2.3817358203094288   -0.11693589881485361   -0.08993866450648187
-2.3817358203094288   -0.11693589881485361   -0.08993866450648187
-1.898704864764389   0.040499889360859076   0.046906026725606634
-1.898704864764389   0.040499889360859076   0.046906026725606634
-1.898704864764389   0.040499889360859076   0.046906026725606634
-1.898704864764389   0.040499889360859076   0.046906026725606634
-1.636889590163443   -0.1551877603121542   0.035738950197953256
-1.636889590163443   -0.1551877603121542   0.035738950197953256
-1.636889590163443   -0.1551877603121542   0.035738950197953256
-1.636889590163443   -0.1551877603121542   0.035738950197953256
-0.826200331436407   -0.029762551499514817   0.001605004913190905
-0.826200331436407   -0.029762551499514817   0.001605004913190905
-0.826200331436407   -0.029762551499514817   0.001605004913190905
-0.826200331436407   -0.029762551499514817   0.001605004913190905
-0.802838409080574   0.08120961610156027   0.05758346531929981
-0.802838409080574   0.08120961610156027   0.05758346531929981
-0.802838409080574   0.08120961610156027   0.05758346531929981
-0.802838409080574   0.08120961610156027   0.05758346531929981
-1.6629377553425424   -0.1530432534975397   -0.057295227958468455
-1.6629377553425424   -0.1530432534975397   -0.057295227958468455
-1.6629377553425424   -0.1530432534975397   -0.057295227958468455
-1.6629377553425424   -0.1530432534975397   -0.057295227958468455
-1.2278243309407677   -0.06025010948734341   -0.02481452789768627
-1.2278243309407677   -0.06025010948734341   -0.02481452789768627
-1.2278243309407677   -0.06025010948734341   -0.02481452789768627
-1.2278243309407677   -0.06025010948734341   -0.02481452789768627
-1.6317783934214452   -0.08916950683381403   0.03462783498329958
-1.6317783934214452   -0.08916950683381403   0.03462783498329958
-1.6317783934214452   -0.08916950683381403   0.03462783498329958
-1.6317783934214452   -0.08916950683381403   0.03462783498329958
-0.827678269629107   0.02365537081040117   -0.009061592132199571
-0.827678269629107   0.02365537081040117   -0.009061592132199571
-0.827678269629107   0.02365537081040117   -0.009061592132199571
-0.827678269629107   0.02365537081040117   -0.009061592132199571
-0.8003293858523227   0.13413124557734502   0.04982894392878348
-0.8003293858523227   0.13413124557734502   0.04982894392878348
-0.8003293858523227   0.13413124557734502   0.04982894392878348
-0.8003293858523227   0.13413124557734502   0.04982894392878348
-1.653561335982828   -0.10363749303661485   -0.06764387269336142
-1.653561335982828   -0.10363749303661485   -0.06764387269336142
-1.653561335982828   -0.10363749303661485   -0.06764387269336142
-1.653561335982828   -0.10363749303661485   -0.06764387269336142
-1.21445749381919   -0.0066896100781549395   -5.3958120911939966e-05
-1.21445749381919   -0.0066896100781549395   -5.3958120911939966e-05
-1.21445749381919   -0.0066896100781549395   -5.3958120911939966e-05
-1.21445749381919   -0.0066896100781549395   -5.3958120911939966e-05
-1.6217643935443542   -0.035484062878616274   0.023187409341008575
-1.6217643935443542   -0.035484062878616274   0.023187409341008575
-1.6217643935443542   -0.035484062878616274   0.023187409341008575
-1.6217643935443542   -0.035484062878616274   0.023187409341008575
-0.8269801378327474   0.07112400587739548   -0.0204175762733749
-0.8269801378327474   0.07112400587739548   -0.0204175762733749
-0.8269801378327474   0.07112400587739548   -0.0204175762733749
-0.8269801378327474   0.07112400587739548   -0.0204175762733749
-0.8001250104424672   0.18973500129752077   0.037344933082117185
-0.8001250104424672   0.18973500129752077   0.037344933082117185
-0.8001250104424672   0.18973500129752077   0.037344933082117185
-0.8001250104424672   0.18973500129752077   0.037344933082117185
-1.6456392129186042   -0.050337443973299645   -0.07279736383429146
-1.6456392129186042   -0.050337443973299645   -0.07279736383429146
-1.6456392129186042   -0.050337443973299645   -0.07279736383429146
-1.6456392129186042   -0.050337443973299645   -0.07279736383429146
-1.2152879959852987   0.04241258793069774   0.01886352387213168
-1.2152879959852987   0.04241258793069774   0.01886352387213168
-1.2152879959852987   0.04241258793069774   0.01886352387213168
-1.2152879959852987   0.04241258793069774   0.01886352387213168
-0.8570147093898951   -0.17727976532574488   -0.004949671028025441
-0.8570147093898951   -0.17727976532574488   -0.004949671028025441
-0.8570147093898951   -0.17727976532574488   -0.004949671028025441
-0.8570147093898951   -0.17727976532574488   -0.004949671028025441
-0.027965534790115813   0.008913656899435064   0.03660263220199151
-0.027965534790115813   0.008913656899435064   0.03660263220199151
-0.027965534790115813   0.008913656899435064   0.03660263220199151
-0.027965534790115813   0.008913656899435064   0.03660263220199151
-0.03113215033274057   0.05246747428695676   0.0174862694910298
-0.03113215033274057   0.05246747428695676   0.0174862694910298
-0.03113215033274057   0.05246747428695676   0.0174862694910298
-0.03113215033274057   0.05246747428695676   0.0174862694910298
-0.8576235886759261   -0.11367140026757526   -0.021461416288325017
-0.8576235886759261   -0.11367140026757526   -0.021461416288325017
-0.8576235886759261   -0.11367140026757526   -0.021461416288325017
-0.8576235886759261   -0.11367140026757526   -0.021461416288325017
-0.4447911041213851   -0.055534940981572356   -0.01387589424862869
-0.4447911041213851   -0.055534940981572356   -0.01387589424862869
-0.4447911041213851   -0.055534940981572356   -0.01387589424862869
-0.4447911041213851   -0.055534940981572356   -0.01387589424862869
-0.8567007997277516   -0.1185394032110475   -0.011979468603980414
-0.8567007997277516   -0.1185394032110475   -0.011979468603980414
-0.8567007997277516   -0.1185394032110475   -0.011979468603980414
-0.8567007997277516   -0.1185394032110475   -0.011979468603980414
-0.02734294271190063   0.062047473799446036   0.026852308082740688
-0.02734294271190063   0.062047473799446036   0.026852308082740688
-0.02734294271190063   0.062047473799446036   0.026852308082740688
-0.02734294271190063   0.062047473799446036   0.026852308082740688
-0.02725711324529525   0.11012871974379376   0.008406597178029607
-0.02725711324529525   0.11012871974379376   0.008406597178029607
-0.02725711324529525   0.11012871974379376   0.008406597178029607
-0.02725711324529525   0.11012871974379376   0.008406597178029607
-0.8555008165970659   -0.06044982377475708   -0.031447140442823006
-0.8555008165970659   -0.06044982377475708   -0.031447140442823006
-0.8555008165970659   -0.06044982377475708   -0.031447140442823006
-0.8555008165970659   -0.06044982377475708   -0.031447140442823006
-0.44050292075100306   -0.002211425488790178   0.006128039348229329
-0.44050292075100306   -0.002211425488790178   0.006128039348229329
-0.44050292075100306   -0.002211425488790178   0.006128039348229329
-0.44050292075100306   -0.002211425488790178   0.006128039348229329
-0.8542122047627347   -0.061695332503736156   -0.023758572542188078
-0.8542122047627347   -0.061695332503736156   -0.023758572542188078
-0.8542122047627347   -0.061695332503736156   -0.023758572542188078
-0.8542122047627347   -0.061695332503736156   -0.023758572542188078
-0.024654562073388987   0.11526539147901416   0.016282681302340847
-0.024654562073388987   0.11526539147901416   0.016282681302340847
-0.024654562073388987   0.11526539147901416   0.016282681302340847
-0.024654562073388987   0.11526539147901416   0.016282681302340847
-0.026459887944231854   0.16951692525540232   -0.0012824426711520107
-0.026459887944231854   0.16951692525540232   -0.0012824426711520107
-0.026459887944231854   0.16951692525540232   -0.0012824426711520107
-0.026459887944231854   0.16951692525540232   -0.0012824426711520107
-0.8551114175338578   -0.006319556406868793   -0.041532544670449825
-0.8551114175338578   -0.006319556406868793   -0.041532544670449825
-0.8551114175338578   -0.006319556406868793   -0.041532544670449825
-0.8551114175338578   -0.006319556406868793   -0.041532544670449825
-0.4371802413497452   0.051162470408737365   0.024471447819211616
-0.4371802413497452   0.051162470408737365   0.024471447819211616
-0.4371802413497452   0.051162470408737365   0.024471447819211616
-0.4371802413497452   0.051162470408737365   0.024471447819211616
-0.08436932675424388   -0.19404000839045912   -0.04246266232875404
-0.08436932675424388   -0.19404000839045912   -0.04246266232875404
-0.08436932675424388   -0.19404000839045912   -0.04246266232875404
-0.08436932675424388   -0.19404000839045912   -0.04246266232875404
0.767334899534706   0.05420114137578266   0.0695792378525336
0.767334899534706   0.05420114137578266   0.0695792378525336
0.767334899534706   0.05420114137578266   0.0695792378525336
0.767334899534706   0.05420114137578266   0.0695792378525336
0.7422483462573357   0.028874573358703276   -0.027370777684613823
0.7422483462573357   0.028874573358703276   -0.027370777684613823
0.7422483462573357   0.028874573358703276   -0.027370777684613823
0.7422483462573357   0.028874573358703276   -0.027370777684613823
-0.056361690234618685   -0.07111218788717223   0.014918232155768714
-0.056361690234618685   -0.07111218788717223   0.014918232155768714
-0.056361690234618685   -0.07111218788717223   0.014918232155768714
-0.056361690234618685   -0.07111218788717223   0.014918232155768714
0.3373723171449595   -0.04483014478688223   -0.0078153477474826
0.3373723171449595   -0.04483014478688223   -0.0078153477474826
0.3373723171449595   -0.04483014478688223   -0.0078153477474826
0.3373723171449595   -0.04483014478688223   -0.0078153477474826
-0.0841000724530171   -0.14158177350926843   -0.0533040933141272
-0.0841000724530171   -0.14158177350926843   -0.0533040933141272
-0.0841000724530171   -0.14158177350926843   -0.0533040933141272
-0.0841000724530171   -0.14158177350926843   -0.0533040933141272
0.7753454822148017   0.10470291271986845   0.06228656274155168
0.7753454822148017   0.10470291271986845   0.06228656274155168
0.7753454822148017   0.10470291271986845   0.06228656274155168
0.7753454822148017   0.10470291271986845   0.06228656274155168
0.7541781796745365   0.0825123275021756   -0.03845488776268775
0.7541781796745365   0.0825123275021756   -0.03845488776268775
0.7541781796745365   0.0825123275021756   -0.03845488776268775
0.7541781796745365   0.0825123275021756   -0.03845488776268775
-0.054797007555328604   -0.0234301291520905   0.004265974523747787
-0.054797007555328604   -0.0234301291520905   0.004265974523747787
-0.054797007555328604   -0.0234301291520905   0.004265974523747787
-0.054797007555328604   -0.0234301291520905   0.004265974523747787
0.34027585480339484   0.003395320369539878   0.012056209545809618
0.34027585480339484   0.003395320369539878   0.012056209545809618
0.34027585480339484   0.003395320369539878   0.012056209545809618
0.34027585480339484   0.003395320369539878   0.012056209545809618
-0.08177302431450596   -0.08982981952328574   -0.06421441890094444
-0.08177302431450596   -0.08982981952328574   -0.06421441890094444
-0.08177302431450596   -0.08982981952328574   -0.06421441890094444
-0.08177302431450596   -0.08982981952328574   -0.06421441890094444
0.7869935476296658   0.15475136906932152   0.05338291044581342
0.7869935476296658   0.15475136906932152   0.05338291044581342
0.7869935476296658   0.15475136906932152   0.05338291044581342
0.7869935476296658   0.15475136906932152   0.05338291044581342
0.7615092987935066   0.14979483590700698   -0.04011871493013081
0.7615092987935066   0.14979483590700698   -0.04011871493013081
0.7615092987935066   0.14979483590700698   -0.04011871493013081
0.7615092987935066   0.14979483590700698   -0.04011871493013081
-0.054915929230672796   0.03231412214747071   -0.006359845995424607
-0.054915929230672796   0.03231412214747071   -0.006359845995424607
-0.054915929230672796   0.03231412214747071   -0.006359845995424607
-0.054915929230672796   0.03231412214747071   -0.006359845995424607
0.3519639329355706   0.05719586250267499   0.0356647657515856
0.3519639329355706   0.05719586250267499   0.0356647657515856
0.3519639329355706   0.05719586250267499   0.0356647657515856
0.3519639329355706   0.05719586250267499   0.0356647657515856
0.6875315629903797   -0.19262271206963677   -0.08261359142367304
0.6875315629903797   -0.19262271206963677   -0.08261359142367304
0.6875315629903797   -0.19262271206963677   -0.08261359142367304
0.6875315629903797   -0.19262271206963677   -0.08261359142367304
1.5109202855743225   0.1122466793956158   0.07728138080050947
1.5109202855743225   0.1122466793956158   0.07728138080050947
1.5109202855743225   0.1122466793956158   0.07728138080050947
1.5109202855743225   0.1122466793956158   0.07728138080050947
1.4991230290314248   -0.006769464589506002   -0.10995925646952302
1.4991230290314248   -0.006769464589506002   -0.10995925646952302
1.4991230290314248   -0.006769464589506002   -0.10995925646952302
1.4991230290314248   -0.006769464589506002   -0.10995925646952302
0.74907181937292   -0.01622102691083438   0.051842188162852985
0.74907181937292   -0.01622102691083438   0.051842188162852985
0.74907181937292   -0.01622102691083438   0.051842188162852985
0.74907181937292   -0.01622102691083438   0.051842188162852985
1.057705223828645   -0.03749222070691785   -0.03463986317267534
1.057705223828645   -0.03749222070691785   -0.03463986317267534
1.057705223828645   -0.03749222070691785   -0.03463986317267534
1.057705223828645   -0.03749222070691785   -0.03463986317267534
0.6881653167194853   -0.16729285513418315   -0.10161849688096931
0.6881653167194853   -0.16729285513418315   -0.10161849688096931
0.6881653167194853   -0.16729285513418315   -0.10161849688096931
0.6881653167194853   -0.16729285513418315   -0.10161849688096931
1.564407489427128   0.14868032137611167   0.06101325954337517
1.564407489427128   0.14868032137611167   0.06101325954337517
1.564407489427128   0.14868032137611167   0.06101325954337517
1.564407489427128   0.14868032137611167   0.06101325954337517
1.5357170641864581   0.02382474788282063   -0.14744489500450747
1.5357170641864581   0.02382474788282063   -0.14744489500450747
1.5357170641864581   0.02382474788282063   -0.14744489500450747
1.5357170641864581   0.02382474788282063   -0.14744489500450747
0.7545100434254151   0.007114888378494638   0.03860187011540036
0.7545100434254151   0.007114888378494638   0.03860187011540036
0.7545100434254151   0.007114888378494638   0.03860187011540036
0.7545100434254151   0.007114888378494638   0.03860187011540036
1.1054287806912817   -0.004432871090168378   -0.010602957940714523
1.1054287806912817   -0.004432871090168378   -0.010602957940714523
1.1054287806912817   -0.004432871090168378   -0.010602957940714523
1.1054287806912817   -0.004432871090168378   -0.010602957940714523
0.6959048719674299   -0.13675877609940948   -0.11055032269662945
0.6959048719674299   -0.13675877609940948   -0.11055032269662945
0.6959048719674299   -0.13675877609940948   -0.11055032269662945
0.6959048719674299   -0.13675877609940948   -0.11055032269662945
1.6039900500656266   0.17736622678190853   0.04037855549225829
1.6039900500656266   0.17736622678190853   0.04037855549225829
1.6039900500656266   0.17736622678190853   0.04037855549225829
1.6039900500656266   0.17736622678190853   0.04037855549225829
1.593832233616394   0.10343877659106412   -0.13864157662135518
1.593832233616394   0.10343877659106412   -0.13864157662135518
1.593832233616394   0.10343877659106412   -0.13864157662135518
1.593832233616394   0.10343877659106412   -0.13864157662135518
0.7569533003410617   0.05872628461703057   0.028169844097634417
0.7569533003410617   0.05872628461703057   0.028169844097634417
0.7569533003410617   0.05872628461703057   0.028169844097634417
0.7569533003410617   0.05872628461703057   0.028169844097634417
1.1134540596354894   0.03339444676122999   0.015969627376538766
1.1134540596354894   0.03339444676122999   0.015969627376538766
1.1134540596354894   0.03339444676122999   0.015969627376538766
1.1134540596354894   0.03339444676122999   0.015969627376538766
-1.7582985486348068   -0.057616239752868725   0.11445468502335852
-1.7582985486348068   -0.057616239752868725   0.11445468502335852
-1.7582985486348068   -0.057616239752868725   0.11445468502335852
-1.7582985486348068   -0.057616239752868725   0.11445468502335852
-1.2295451394793473   -0.0819573441932831   -0.043269548143973394
-1.2295451394793473   -0.0819573441932831   -0.043269548143973394
-1.2295451394793473   -0.0819573441932831   -0.043269548143973394
-1.2295451394793473   -0.0819573441932831   -0.043269548143973394
-1.1574025920226583   0.11599044421405039   0.09761854424782714
-1.1574025920226583   0.11599044421405039   0.09761854424782714
-1.1574025920226583   0.11599044421405039   0.09761854424782714
-1.1574025920226583   0.11599044421405039   0.09761854424782714
-1.758443272682812   -0.14470282886206337   -0.06328431913221856
-1.758443272682812   -0.14470282886206337   -0.06328431913221856
-1.758443272682812   -0.14470282886206337   -0.06328431913221856
-1.758443272682812   -0.14470282886206337   -0.06328431913221856
-1.4154199823025282   -0.022597792248982007   -0.0029799940795377095
-1.4154199823025282   -0.022597792248982007   -0.0029799940795377095
-1.4154199823025282   -0.022597792248982007   -0.0029799940795377095
-1.4154199823025282   -0.022597792248982007   -0.0029799940795377095
-1.6928346095219047   0.011159637855572335   0.10889652995468314
-1.6928346095219047   0.011159637855572335   0.10889652995468314
-1.6928346095219047   0.011159637855572335   0.10889652995468314
-1.6928346095219047   0.011159637855572335   0.10889652995468314
-1.2176766642531756   -0.03453743157319378   -0.053223941117507154
-1.2176766642531756   -0.03453743157319378   -0.053223941117507154
-1.2176766642531756   -0.03453743157319378   -0.053223941117507154
-1.2176766642531756   -0.03453743157319378   -0.053223941117507154
-1.146508836312416   0.1400891278132867   0.08251195141070052
-1.146508836312416   0.1400891278132867   0.08251195141070052
-1.146508836312416   0.1400891278132867   0.08251195141070052
-1.146508836312416   0.1400891278132867   0.08251195141070052
-1.7169157066076681   -0.1178442071527755   -0.08002368022570398
-1.7169157066076681   -0.1178442071527755   -0.08002368022570398
-1.7169157066076681   -0.1178442071527755   -0.08002368022570398
-1.7169157066076681   -0.1178442071527755   -0.08002368022570398
-1.4055917771768816   0.009196755155050418   0.014946820101104055
-1.4055917771768816   0.009196755155050418   0.014946820101104055
-1.4055917771768816   0.009196755155050418   0.014946820101104055
-1.4055917771768816   0.009196755155050418   0.014946820101104055
-1.6518567590044124   0.040002102600255884   0.08742474803754254
-1.6518567590044124   0.040002102600255884   0.08742474803754254
-1.6518567590044124   0.040002102600255884   0.08742474803754254
-1.6518567590044124   0.040002102600255884   0.08742474803754254
-1.2067420543274419   -0.012931452351512773   -0.06563355849961648
-1.2067420543274419   -0.012931452351512773   -0.06563355849961648
-1.2067420543274419   -0.012931452351512773   -0.06563355849961648
-1.2067420543274419   -0.012931452351512773   -0.06563355849961648
-1.1404738660680223   0.1635050664591916   0.07100420762232246
-1.1404738660680223   0.1635050664591916   0.07100420762232246
-1.1404738660680223   0.1635050664591916   0.07100420762232246
-1.1404738660680223   0.1635050664591916   0.07100420762232246
-1.661269078335713   -0.08235768882973232   -0.09582441466493131
-1.661269078335713   -0.08235768882973232   -0.09582441466493131
-1.661269078335713   -0.08235768882973232   -0.09582441466493131
-1.661269078335713   -0.08235768882973232   -0.09582441466493131
-1.3528939050999436   0.03896421375012932   0.040126199494325596
-1.3528939050999436   0.03896421375012932   0.040126199494325596
-1.3528939050999436   0.03896421375012932   0.040126199494325596
-1.3528939050999436   0.03896421375012932   0.040126199494325596
-1.2158170990091373   -0.09943686999494977   0.042850180008731274
-1.2158170990091373   -0.09943686999494977   0.042850180008731274
-1.2158170990091373   -0.09943686999494977   0.042850180008731274
-1.2158170990091373   -0.09943686999494977   0.042850180008731274
-0.7043901522775878   -0.05311126227551481   -0.006980982594746273
-0.7043901522775878   -0.05311126227551481   -0.006980982594746273
-0.7043901522775878   -0.05311126227551481   -0.006980982594746273
-0.7043901522775878   -0.05311126227551481   -0.006980982594746273
-0.6686148424241024   0.06780760133432598   0.05263613328241997
-0.6686148424241024   0.06780760133432598   0.05263613328241997
-0.6686148424241024   0.06780760133432598   0.05263613328241997
-0.6686148424241024   0.06780760133432598   0.05263613328241997
-1.234070950953751   -0.11829130382782363   -0.051441502365763066
-1.234070950953751   -0.11829130382782363   -0.051441502365763066
-1.234070950953751   -0.11829130382782363   -0.051441502365763066
-1.234070950953751   -0.11829130382782363   -0.051441502365763066
-0.9518599324392888   -0.04645720922593005   -0.019374262679549885
-0.9518599324392888   -0.04645720922593005   -0.019374262679549885
-0.9518599324392888   -0.04645720922593005   -0.019374262679549885
-0.9518599324392888   -0.04645720922593005   -0.019374262679549885
-1.201582867385261   -0.04230975665384887   0.03501736830270443
-1.201582867385261   -0.04230975665384887   0.03501736830270443
-1.201582867385261   -0.04230975665384887   0.03501736830270443
-1.201582867385261   -0.04230975665384887   0.03501736830270443
-0.6969367077042133   -0.004007727551270962   -0.017157864232537463
-0.6969367077042133   -0.004007727551270962   -0.017157864232537463
-0.6969367077042133   -0.004007727551270962   -0.017157864232537463
-0.6969367077042133   -0.004007727551270962   -0.017157864232537463
-0.6601083247832609   0.11721473778848829   0.043164270232587065
-0.6601083247832609   0.11721473778848829   0.043164270232587065
-0.6601083247832609   0.11721473778848829   0.043164270232587065
-0.6601083247832609   0.11721473778848829   0.043164270232587065
-1.2174789995113866   -0.0716440124302948   -0.06060572434056955
-1.2174789995113866   -0.0716440124302948   -0.06060572434056955
-1.2174789995113866   -0.0716440124302948   -0.06060572434056955
-1.2174789995113866   -0.0716440124302948   -0.06060572434056955
-0.9335864807701374   0.002130420316646564   0.0014971464818746422
-0.9335864807701374   0.002130420316646564   0.0014971464818746422
-0.9335864807701374   0.002130420316646564   0.0014971464818746422
-0.9335864807701374   0.002130420316646564   0.0014971464818746422
-1.1825318589961509   0.010495308383713042   0.03199065742160101
-1.1825318589961509   0.010495308383713042   0.03199065742160101
-1.1825318589961509   0.010495308383713042   0.03199065742160101
-1.1825318589961509   0.010495308383713042   0.03199065742160101
-0.689881659782168   0.04024922249081031   -0.028736889464262443
-0.689881659782168   0.04024922249081031   -0.028736889464262443
-0.689881659782168   0.04024922249081031   -0.028736889464262443
-0.689881659782168   0.04024922249081031   -0.028736889464262443
-0.6518902075667209   0.16984057456750581   0.03434372351785246
-0.6518902075667209   0.16984057456750581   0.03434372351785246
-0.6518902075667209   0.16984057456750581   0.03434372351785246
-0.6518902075667209   0.16984057456750581   0.03434372351785246
-1.2050523885224753   -0.02139500276868661   -0.06698833542205793
-1.2050523885224753   -0.02139500276868661   -0.06698833542205793
-1.2050523885224753   -0.02139500276868661   -0.06698833542205793
-1.2050523885224753   -0.02139500276868661   -0.06698833542205793
-0.9265171631368506   0.047823842288657964   0.02136254433232894
-0.9265171631368506   0.047823842288657964   0.02136254433232894
-0.9265171631368506   0.047823842288657964   0.02136254433232894
-0.9265171631368506   0.047823842288657964   0.02136254433232894
-0.71930638730464   -0.13634143670414758   0.0016680166986177492
-0.71930638730464   -0.13634143670414758   0.0016680166986177492
-0.71930638730464   -0.13634143670414758   0.0016680166986177492
-0.71930638730464   -0.13634143670414758   0.0016680166986177492
-0.1847141464359921   -0.015770374299669886   0.029341253226197423
-0.1847141464359921   -0.015770374299669886   0.029341253226197423
-0.1847141464359921   -0.015770374299669886   0.029341253226197423
-0.1847141464359921   -0.015770374299669886   0.029341253226197423
-0.18015223943273617   0.028116317518170633   0.010005823397214546
-0.18015223943273617   0.028116317518170633   0.010005823397214546
-0.18015223943273617   0.028116317518170633   0.010005823397214546
-0.18015223943273617   0.028116317518170633   0.010005823397214546
-0.7114135329441768   -0.07982192642555998   -0.013727791558073094
-0.7114135329441768   -0.07982192642555998   -0.013727791558073094
-0.7114135329441768   -0.07982192642555998   -0.013727791558073094
-0.7114135329441768   -0.07982192642555998   -0.013727791558073094
-0.44965892379049266   -0.04878144265678026   -0.01376210855845866
-0.44965892379049266   -0.04878144265678026   -0.01376210855845866
-0.44965892379049266   -0.04878144265678026   -0.01376210855845866
-0.44965892379049266   -0.04878144265678026   -0.01376210855845866
-0.7102571580647178   -0.08121616633744684   -0.006551677248891333
-0.7102571580647178   -0.08121616633744684   -0.006551677248891333
-0.7102571580647178   -0.08121616633744684   -0.006551677248891333
-0.7102571580647178   -0.08121616633744684   -0.006551677248891333
-0.1771320191421752   0.0336871526000775   0.019536089768112785
-0.1771320191421752   0.0336871526000775   0.019536089768112785
-0.1771320191421752   0.0336871526000775   0.019536089768112785
-0.1771320191421752   0.0336871526000775   0.019536089768112785
-0.1698819468212686   0.08348997996787769   0.0026330084945534286
-0.1698819468212686   0.08348997996787769   0.0026330084945534286
-0.1698819468212686   0.08348997996787769   0.0026330084945534286
-0.1698819468212686   0.08348997996787769   0.0026330084945534286
-0.7028993676861743   -0.03002279647901307   -0.023553410014478846
-0.7028993676861743   -0.03002279647901307   -0.023553410014478846
-0.7028993676861743   -0.03002279647901307   -0.023553410014478846
-0.7028993676861743   -0.03002279647901307   -0.023553410014478846
-0.4386903224425071   0.0009903011680685164   0.005903831782143824
-0.4386903224425071   0.0009903011680685164   0.005903831782143824
-0.4386903224425071   0.0009903011680685164   0.005903831782143824
-0.4386903224425071   0.0009903011680685164   0.005903831782143824
-0.7002897466108301   -0.026019834926916202   -0.014508266189854534
-0.7002897466108301   -0.026019834926916202   -0.014508266189854534
-0.7002897466108301   -0.026019834926916202   -0.014508266189854534
-0.7002897466108301   -0.026019834926916202   -0.014508266189854534
-0.16863543685906152   0.08334314945333236   0.009012388820135588
-0.16863543685906152   0.08334314945333236   0.009012388820135588
-0.16863543685906152   0.08334314945333236   0.009012388820135588
-0.16863543685906152   0.08334314945333236   0.009012388820135588
-0.16067221517967797   0.1396666744532461   -0.006040592724070565
-0.16067221517967797   0.1396666744532461   -0.006040592724070565
-0.16067221517967797   0.1396666744532461   -0.006040592724070565
-0.16067221517967797   0.1396666744532461   -0.006040592724070565
-0.6954206133685006   0.02035566146345577   -0.03382339238699987
-0.6954206133685006   0.02035566146345577   -0.03382339238699987
-0.6954206133685006   0.02035566146345577   -0.03382339238699987
-0.6954206133685006   0.02035566146345577   -0.03382339238699987
-0.42867514352550573   0.05100043671829978   0.02484993054318367
-0.42867514352550573   0.05100043671829978   0.02484993054318367
-0.42867514352550573   0.05100043671829978   0.02484993054318367
-0.42867514352550573   0.05100043671829978   0.02484993054318367
-0.22846721311297896   -0.1665950163466164   -0.03859943811179218
-0.22846721311297896   -0.1665950163466164   -0.03859943811179218
-0.22846721311297896   -0.1665950163466164   -0.03859943811179218
-0.22846721311297896   -0.1665950163466164   -0.03859943811179218
0.3282207081545718   0.02611520922014253   0.06363537106006009
0.3282207081545718   0.02611520922014253   0.06363537106006009
0.3282207081545718   0.02611520922014253   0.06363537106006009
0.3282207081545718   0.02611520922014253   0.06363537106006009
0.30550016077106557   -0.008801095575266926   -0.0353881572904044
0.30550016077106557   -0.008801095575266926   -0.0353881572904044
0.30550016077106557   -0.008801095575266926   -0.0353881572904044
0.30550016077106557   -0.008801095575266926   -0.0353881572904044
-0.19081595114342734   -0.038726153985595084   0.023529736347524578
-0.19081595114342734   -0.038726153985595084   0.023529736347524578
-0.19081595114342734   -0.038726153985595084   0.023529736347524578
-0.19081595114342734   -0.038726153985595084   0.023529736347524578
0.05153033284484319   -0.04569944648661149   -0.009790378853833479
0.05153033284484319   -0.04569944648661149   -0.009790378853833479
0.05153033284484319   -0.04569944648661149   -0.009790378853833479
0.05153033284484319   -0.04569944648661149   -0.009790378853833479
-0.22056076801928412   -0.11643312523227495   -0.04748737678507943
-0.22056076801928412   -0.11643312523227495   -0.04748737678507943
-0.22056076801928412   -0.11643312523227495   -0.04748737678507943
-0.22056076801928412   -0.11643312523227495   -0.04748737678507943
0.34021612646699395   0.07387702449148129   0.055513551122485204
0.34021612646699395   0.07387702449148129   0.055513551122485204
0.34021612646699395   0.07387702449148129   0.055513551122485204
0.34021612646699395   0.07387702449148129   0.055513551122485204
0.32459626951333126   0.04357766550869992   -0.04008832924097536
0.32459626951333126   0.04357766550869992   -0.04008832924097536
0.32459626951333126   0.04357766550869992   -0.04008832924097536
0.32459626951333126   0.04357766550869992   -0.04008832924097536
-0.1834033971194242   0.005809461099172679   0.012706275872482022
-0.1834033971194242   0.005809461099172679   0.012706275872482022
-0.1834033971194242   0.005809461099172679   0.012706275872482022
-0.1834033971194242   0.005809461099172679   0.012706275872482022
0.06167988781079123   -0.0005846706152239992   0.01021055518976244
0.06167988781079123   -0.0005846706152239992   0.01021055518976244
0.06167988781079123   -0.0005846706152239992   0.01021055518976244
0.06167988781079123   -0.0005846706152239992   0.01021055518976244
-0.2121082181054376   -0.06728936646545118   -0.05771900149296195
-0.2121082181054376   -0.06728936646545118   -0.05771900149296195
-0.2121082181054376   -0.06728936646545118   -0.05771900149296195
-0.2121082181054376   -0.06728936646545118   -0.05771900149296195
0.3576118063380126   0.12098720891199091   0.04757981147913648
0.3576118063380126   0.12098720891199091   0.04757981147913648
0.3576118063380126   0.12098720891199091   0.04757981147913648
0.3576118063380126   0.12098720891199091   0.04757981147913648
0.3399685044371126   0.10330052466541709   -0.04631226707347811
0.3399685044371126   0.10330052466541709   -0.04631226707347811
0.3399685044371126   0.10330052466541709   -0.04631226707347811
0.3399685044371126   0.10330052466541709   -0.04631226707347811
-0.1754799374242011   0.057177176408430994   0.0024102940981274024
-0.1754799374242011   0.057177176408430994   0.0024102940981274024
-0.1754799374242011   0.057177176408430994   0.0024102940981274024
-0.1754799374242011   0.057177176408430994   0.0024102940981274024
0.07738539019697133   0.048524194510905574   0.03093271720182519
0.07738539019697133   0.048524194510905574   0.03093271720182519
0.07738539019697133   0.048524194510905574   0.03093271720182519
0.07738539019697133   0.048524194510905574   0.03093271720182519
0.26137798449589034   -0.16834222048567665   -0.07612081752752065
0.26137798449589034   -0.16834222048567665   -0.07612081752752065
0.26137798449589034   -0.16834222048567665   -0.07612081752752065
0.26137798449589034   -0.16834222048567665   -0.07612081752752065
0.7846006807478322   0.07727056131371378   0.08232184758898944
0.7846006807478322   0.07727056131371378   0.08232184758898944
0.7846006807478322   0.07727056131371378   0.08232184758898944
0.7846006807478322   0.07727056131371378   0.08232184758898944
0.7768378311877093   -0.041076199345455644   -0.10019968582502743
0.7768378311877093   -0.041076199345455644   -0.10019968582502743
0.7768378311877093   -0.041076199345455644   -0.10019968582502743
0.7768378311877093   -0.041076199345455644   -0.10019968582502743
0.32939202548585905   0.013852898355004209   0.06141717235328986
0.32939202548585905   0.013852898355004209   0.06141717235328986
0.32939202548585905   0.013852898355004209   0.06141717235328986
0.32939202548585905   0.013852898355004209   0.06141717235328986
0.5100150150919947   -0.034727729757782544   -0.026858746961865063
0.5100150150919947   -0.034727729757782544   -0.026858746961865063
0.5100150150919947   -0.034727729757782544   -0.026858746961865063
0.5100150150919947   -0.034727729757782544   -0.026858746961865063
0.2686736390870634   -0.140277894048094   -0.08804396723758848
0.2686736390870634   -0.140277894048094   -0.08804396723758848
0.2686736390870634   -0.140277894048094   -0.08804396723758848
0.2686736390870634   -0.140277894048094   -0.08804396723758848
0.8426247059867057   0.11812308145784998   0.06953540736667212
0.8426247059867057   0.11812308145784998   0.06953540736667212
0.8426247059867057   0.11812308145784998   0.06953540736667212
0.8426247059867057   0.11812308145784998   0.06953540736667212
0.8190452496239584   -0.011726557232683565   -0.12014056413901852
0.8190452496239584   -0.011726557232683565   -0.12014056413901852
0.8190452496239584   -0.011726557232683565   -0.12014056413901852
0.8190452496239584   -0.011726557232683565   -0.12014056413901852
0.34054302967703826   0.03534967518338159   0.04787346190287413
0.34054302967703826   0.03534967518338159   0.04787346190287413
0.34054302967703826   0.03534967518338159   0.04787346190287413
0.34054302967703826   0.03534967518338159   0.04787346190287413
0.5527106203950581   -0.005149066970198277   -0.003280614223365709
0.5527106203950581   -0.005149066970198277   -0.003280614223365709
0.5527106203950581   -0.005149066970198277   -0.003280614223365709
0.5527106203950581   -0.005149066970198277   -0.003280614223365709
0.2803111227265254   -0.11586045776468985   -0.10207593990161694
0.2803111227265254   -0.11586045776468985   -0.10207593990161694
0.2803111227265254   -0.11586045776468985   -0.10207593990161694
0.2803111227265254   -0.11586045776468985   -0.10207593990161694
0.8845558775008595   0.14476229664178336   0.050923721371031114
0.8845558775008595   0.14476229664178336   0.050923721371031114
0.8845558775008595   0.14476229664178336   0.050923721371031114
0.8845558775008595   0.14476229664178336   0.050923721371031114
0.8838213577962575   0.0527502516926492   -0.12857837797946817
0.8838213577962575   0.0527502516926492   -0.12857837797946817
0.8838213577962575   0.0527502516926492   -0.12857837797946817
0.8838213577962575   0.0527502516926492   -0.12857837797946817
0.35195677842752976   0.07889855285781827   0.038031074686204626
0.35195677842752976   0.07889855285781827   0.038031074686204626
0.35195677842752976   0.07889855285781827   0.038031074686204626
0.35195677842752976   0.07889855285781827   0.038031074686204626
0.5739090060869674   0.02747724138116417   0.016986022252789147
0.5739090060869674   0.02747724138116417   0.016986022252789147
0.5739090060869674   0.02747724138116417   0.016986022252789147
0.5739090060869674   0.02747724138116417   0.016986022252789147
-1.0552749541844177   -0.017907724414098103   0.10270836545705259
-1.0552749541844177   -0.017907724414098103   0.10270836545705259
-1.0552749541844177   -0.017907724414098103   0.10270836545705259
-1.0552749541844177   -0.017907724414098103   0.10270836545705259
-0.8221963232729869   -0.1042015988944533   -0.05088659148011844
-0.8221963232729869   -0.1042015988944533   -0.05088659148011844
-0.8221963232729869   -0.1042015988944533   -0.05088659148011844
-0.8221963232729869   -0.1042015988944533   -0.05088659148011844
-0.7442709615679381   0.08835817546119662   0.08784839136920743
-0.7442709615679381   0.08835817546119662   0.08784839136920743
-0.7442709615679381   0.08835817546119662   0.08784839136920743
-0.7442709615679381   0.08835817546119662   0.08784839136920743
-1.0507712553543185   -0.1144269890382119   -0.06923333801094225
-1.0507712553543185   -0.1144269890382119   -0.06923333801094225
-1.0507712553543185   -0.1144269890382119   -0.06923333801094225
-1.0507712553543185   -0.1144269890382119   -0.06923333801094225
-0.8829450718460992   -0.024349615411807024   -0.012849235556609773
-0.8829450718460992   -0.024349615411807024   -0.012849235556609773
-0.8829450718460992   -0.024349615411807024   -0.012849235556609773
-0.8829450718460992   -0.024349615411807024   -0.012849235556609773
-0.9859960465973954   0.04207218627379672   0.098143530461665
-0.9859960465973954   0.04207218627379672   0.098143530461665
-0.9859960465973954   0.04207218627379672   0.098143530461665
-0.9859960465973954   0.04207218627379672   0.098143530461665
-0.8045543143647029   -0.06364914389065225   -0.06156105326275946
-0.8045543143647029   -0.06364914389065225   -0.06156105326275946
-0.8045543143647029   -0.06364914389065225   -0.06156105326275946
-0.8045543143647029   -0.06364914389065225   -0.06156105326275946
-0.7257556431736867   0.11125634527267539   0.07431901846756907
-0.7257556431736867   0.11125634527267539   0.07431901846756907
-0.7257556431736867   0.11125634527267539   0.07431901846756907
-0.7257556431736867   0.11125634527267539   0.07431901846756907
-1.002593462459291   -0.08848142380815693   -0.08652687077401602
-1.002593462459291   -0.08848142380815693   -0.08652687077401602
-1.002593462459291   -0.08848142380815693   -0.08652687077401602
-1.002593462459291   -0.08848142380815693   -0.08652687077401602
-0.857761472782694   0.005634013923676906   0.006269550851458333
-0.857761472782694   0.005634013923676906   0.006269550851458333
-0.857761472782694   0.005634013923676906   0.006269550851458333
-0.857761472782694   0.005634013923676906   0.006269550851458333
-0.937756279219266   0.06985661557802753   0.07932100603990928
-0.937756279219266   0.06985661557802753   0.07932100603990928
-0.937756279219266   0.06985661557802753   0.07932100603990928
-0.937756279219266   0.06985661557802753   0.07932100603990928
-0.7863377433502855   -0.04282661105008423   -0.07450852609265793
-0.7863377433502855   -0.04282661105008423   -0.07450852609265793
-0.7863377433502855   -0.04282661105008423   -0.07450852609265793
-0.7863377433502855   -0.04282661105008423   -0.07450852609265793
-0.7107428960888154   0.13973223257948994   0.06409901013431318
-0.7107428960888154   0.13973223257948994   0.06409901013431318
-0.7107428960888154   0.13973223257948994   0.06409901013431318
-0.7107428960888154   0.13973223257948994   0.06409901013431318
-0.9378606555437875   -0.046952013121933034   -0.10014511343396776
-0.9378606555437875   -0.046952013121933034   -0.10014511343396776
-0.9378606555437875   -0.046952013121933034   -0.10014511343396776
-0.9378606555437875   -0.046952013121933034   -0.10014511343396776
-0.8068947538432777   0.03517418675842576   0.0300100787204581
-0.8068947538432777   0.03517418675842576   0.0300100787204581
-0.8068947538432777   0.03517418675842576   0.0300100787204581
-0.8068947538432777   0.03517418675842576   0.0300100787204581
-0.793478007639663   -0.059859966058809236   0.04836335385085669
-0.793478007639663   -0.059859966058809236   0.04836335385085669
-0.793478007639663   -0.059859966058809236   0.04836335385085669
-0.793478007639663   -0.059859966058809236   0.04836335385085669
-0.5816989117240923   -0.07901585139524867   -0.015071359190375678
-0.5816989117240923   -0.07901585139524867   -0.015071359190375678
-0.5816989117240923   -0.07901585139524867   -0.015071359190375678
-0.5816989117240923   -0.07901585139524867   -0.015071359190375678
-0.5382108661938173   0.040150457304935314   0.044907218538097864
-0.5382108661938173   0.040150457304935314   0.044907218538097864
-0.5382108661938173   0.040150457304935314   0.044907218538097864
-0.5382108661938173   0.040150457304935314   0.044907218538097864
-0.8051180607505386   -0.08449859157153775   -0.04353033751104491
-0.8051180607505386   -0.08449859157153775   -0.04353033751104491
-0.8051180607505386   -0.08449859157153775   -0.04353033751104491
-0.8051180607505386   -0.08449859157153775   -0.04353033751104491
-0.6777287561016048   -0.04220911401060616   -0.018203992351635865
-0.6777287561016048   -0.04220911401060616   -0.018203992351635865
-0.6777287561016048   -0.04220911401060616   -0.018203992351635865
-0.6777287561016048   -0.04220911401060616   -0.018203992351635865
-0.7727830652367306   -0.0075135137616487435   0.04115956224809086
-0.7727830652367306   -0.0075135137616487435   0.04115956224809086
-0.7727830652367306   -0.0075135137616487435   0.04115956224809086
-0.7727830652367306   -0.0075135137616487435   0.04115956224809086
-0.5669227045190823   -0.03321146331641334   -0.025290052466879147
-0.5669227045190823   -0.03321146331641334   -0.025290052466879147
-0.5669227045190823   -0.03321146331641334   -0.025290052466879147
-0.5669227045190823   -0.03321146331641334   -0.025290052466879147
-0.5222393888274964   0.08671008706792618   0.03592516246664534
-0.5222393888274964   0.08671008706792618   0.03592516246664534
-0.5222393888274964   0.08671008706792618   0.03592516246664534
-0.5222393888274964   0.08671008706792618   0.03592516246664534
-0.7812340402184912   -0.03970787652364652   -0.052108744960115944
-0.7812340402184912   -0.03970787652364652   -0.052108744960115944
-0.7812340402184912   -0.03970787652364652   -0.052108744960115944
-0.7812340402184912   -0.03970787652364652   -0.052108744960115944
-0.6546598122714172   0.00271065628804254   0.0019154334135028442
-0.6546598122714172   0.00271065628804254   0.0019154334135028442
-0.6546598122714172   0.00271065628804254   0.0019154334135028442
-0.6546598122714172   0.00271065628804254   0.0019154334135028442
-0.7470024412529642   0.042033932298562365   0.03730744104529409
-0.7470024412529642   0.042033932298562365   0.03730744104529409
-0.7470024412529642   0.042033932298562365   0.03730744104529409
-0.7470024412529642   0.042033932298562365   0.03730744104529409
-0.5522880766535274   0.009151189385210118   -0.036759378980796606
-0.5522880766535274   0.009151189385210118   -0.036759378980796606
-0.5522880766535274   0.009151189385210118   -0.036759378980796606
-0.5522880766535274   0.009151189385210118   -0.036759378980796606
-0.5063197802001504   0.1372232441364435   0.027370290781267695
-0.5063197802001504   0.1372232441364435   0.027370290781267695
-0.5063197802001504   0.1372232441364435   0.027370290781267695
-0.5063197802001504   0.1372232441364435   0.027370290781267695
-0.7614989587793828   0.00918864685786236   -0.059137717596888066
-0.7614989587793828   0.00918864685786236   -0.059137717596888066
-0.7614989587793828   0.00918864685786236   -0.059137717596888066
-0.7614989587793828   0.00918864685786236   -0.059137717596888066
-0.6379689489264008   0.046716776984439656   0.02158407027287071
-0.6379689489264008   0.046716776984439656   0.02158407027287071
-0.6379689489264008   0.046716776984439656   0.02158407027287071
-0.6379689489264008   0.046716776984439656   0.02158407027287071
-0.58102843715825   -0.09920704220053761   0.00847220444411673
-0.58102843715825   -0.09920704220053761   0.00847220444411673
-0.58102843715825   -0.09920704220053761   0.00847220444411673
-0.58102843715825   -0.09920704220053761   0.00847220444411673
-0.3445109354060443   -0.041567724198325606   0.02137153096729278
-0.3445109354060443   -0.041567724198325606   0.02137153096729278
-0.3445109354060443   -0.041567724198325606   0.02137153096729278
-0.3445109354060443   -0.041567724198325606   0.02137153096729278
-0.33260157507417404   -0.0007608417377560767   0.0027656740109437937
-0.33260157507417404   -0.0007608417377560767   0.0027656740109437937
-0.33260157507417404   -0.0007608417377560767   0.0027656740109437937
-0.33260157507417404   -0.0007608417377560767   0.0027656740109437937
-0.5652914040996442   -0.045298605249720694   -0.005046408436380472
-0.5652914040996442   -0.045298605249720694   -0.005046408436380472
-0.5652914040996442   -0.045298605249720694   -0.005046408436380472
-0.5652914040996442   -0.045298605249720694   -0.005046408436380472
-0.4565814414487398   -0.044526787282891445   -0.013249103306004095
-0.4565814414487398   -0.044526787282891445   -0.013249103306004095
-0.4565814414487398   -0.044526787282891445   -0.013249103306004095
-0.4565814414487398   -0.044526787282891445   -0.013249103306004095
-0.5646256233767344   -0.04760167351230682   0.0005855634407504022
-0.5646256233767344   -0.04760167351230682   0.0005855634407504022
-0.5646256233767344   -0.04760167351230682   0.0005855634407504022
-0.5646256233767344   -0.04760167351230682   0.0005855634407504022
-0.32966487703108005   0.005144705290833149   0.011543617197824697
-0.32966487703108005   0.005144705290833149   0.011543617197824697
-0.32966487703108005   0.005144705290833149   0.011543617197824697
-0.32966487703108005   0.005144705290833149   0.011543617197824697
-0.31526058419320285   0.05130232444797414   -0.004566588872514189
-0.31526058419320285   0.05130232444797414   -0.004566588872514189
-0.31526058419320285   0.05130232444797414   -0.004566588872514189
-0.31526058419320285   0.05130232444797414   -0.004566588872514189
-0.5492916888192426   0.0020794218662211483   -0.01470567229038431
-0.5492916888192426   0.0020794218662211483   -0.01470567229038431
-0.5492916888192426   0.0020794218662211483   -0.01470567229038431
-0.5492916888192426   0.0020794218662211483   -0.01470567229038431
-0.4382939253097836   0.002292705104360762   0.006256760178042383
-0.4382939253097836   0.002292705104360762   0.006256760178042383
-0.4382939253097836   0.002292705104360762   0.006256760178042383
-0.4382939253097836   0.002292705104360762   0.006256760178042383
-0.54739122163403   0.004303943195575033   -0.007427857693682663
-0.54739122163403   0.004303943195575033   -0.007427857693682663
-0.54739122163403   0.004303943195575033   -0.007427857693682663
-0.54739122163403   0.004303943195575033   -0.007427857693682663
-0.3139035511679931   0.052335303329041793   0.0011855973724694338
-0.3139035511679931   0.052335303329041793   0.0011855973724694338
-0.3139035511679931   0.052335303329041793   0.0011855973724694338
-0.3139035511679931   0.052335303329041793   0.0011855973724694338
-0.29888260315756665   0.1038404240802045   -0.012937589514190245
-0.29888260315756665   0.1038404240802045   -0.012937589514190245
-0.29888260315756665   0.1038404240802045   -0.012937589514190245
-0.29888260315756665   0.1038404240802045   -0.012937589514190245
-0.5342783516169575   0.04982362473683685   -0.025022946903157282
-0.5342783516169575   0.04982362473683685   -0.025022946903157282
-0.5342783516169575   0.04982362473683685   -0.025022946903157282
-0.5342783516169575   0.04982362473683685   -0.025022946903157282
-0.4209915817579449   0.04927998385172623   0.024978185016641466
-0.4209915817579449   0.04927998385172623   0.024978185016641466
-0.4209915817579449   0.04927998385172623   0.024978185016641466
-0.4209915817579449   0.04927998385172623   0.024978185016641466
-0.37352906563577787   -0.13334932385490061   -0.03193752052480587
-0.37352906563577787   -0.13334932385490061   -0.03193752052480587
-0.37352906563577787   -0.13334932385490061   -0.03193752052480587
-0.37352906563577787   -0.13334932385490061   -0.03193752052480587
-0.11382320877067847   -0.0018030657287802232   0.05604753496954673
-0.11382320877067847   -0.0018030657287802232   0.05604753496954673
-0.11382320877067847   -0.0018030657287802232   0.05604753496954673
-0.11382320877067847   -0.0018030657287802232   0.05604753496954673
-0.12961974486839736   -0.03940001278937518   -0.04103576394643653
-0.12961974486839736   -0.03940001278937518   -0.04103576394643653
-0.12961974486839736   -0.03940001278937518   -0.04103576394643653
-0.12961974486839736   -0.03940001278937518   -0.04103576394643653
-0.3276128658794006   -0.005096926221027871   0.032045304468080314
-0.3276128658794006   -0.005096926221027871   0.032045304468080314
-0.3276128658794006   -0.005096926221027871   0.032045304468080314
-0.3276128658794006   -0.005096926221027871   0.032045304468080314
-0.23612267924213381   -0.04295003651371916   -0.009559322352138824
-0.23612267924213381   -0.04295003651371916   -0.009559322352138824
-0.23612267924213381   -0.04295003651371916   -0.009559322352138824
-0.23612267924213381   -0.04295003651371916   -0.009559322352138824
-0.35807055946253463   -0.08495920071053807   -0.04038088895808299
-0.35807055946253463   -0.08495920071053807   -0.04038088895808299
-0.35807055946253463   -0.08495920071053807   -0.04038088895808299
-0.35807055946253463   -0.08495920071053807   -0.04038088895808299
-0.09512446350809832   0.044499849477295   0.04754078058839245
-0.09512446350809832   0.044499849477295   0.04754078058839245
-0.09512446350809832   0.044499849477295   0.04754078058839245
-0.09512446350809832   0.044499849477295   0.04754078058839245
-0.10429533106071714   0.009851031333486644   -0.046193939014655176
-0.10429533106071714   0.009851031333486644   -0.046193939014655176
-0.10429533106071714   0.009851031333486644   -0.046193939014655176
-0.10429533106071714   0.009851031333486644   -0.046193939014655176
-0.31284503930899016   0.03744568026037355   0.02136777973614998
-0.31284503930899016   0.03744568026037355   0.02136777973614998
-0.31284503930899016   0.03744568026037355   0.02136777973614998
-0.31284503930899016   0.03744568026037355   0.02136777973614998
-0.21668386190009553   0.0006441035929501543   0.010314927136503421
-0.21668386190009553   0.0006441035929501543   0.010314927136503421
-0.21668386190009553   0.0006441035929501543   0.010314927136503421
-0.21668386190009553   0.0006441035929501543   0.010314927136503421
-0.342336442662037   -0.038539262114657795   -0.050104294654057545
-0.342336442662037   -0.038539262114657795   -0.050104294654057545
-0.342336442662037   -0.038539262114657795   -0.050104294654057545
-0.342336442662037   -0.038539262114657795   -0.050104294654057545
-0.0710457479111535   0.08959415350503402   0.04031085456161573
-0.0710457479111535   0.08959415350503402   0.04031085456161573
-0.0710457479111535   0.08959415350503402   0.04031085456161573
-0.0710457479111535   0.08959415350503402   0.04031085456161573
-0.08287110109423243   0.06486879426756573   -0.051740452936198326
-0.08287110109423243   0.06486879426756573   -0.051740452936198326
-0.08287110109423243   0.06486879426756573   -0.051740452936198326
-0.08287110109423243   0.06486879426756573   -0.051740452936198326
-0.29772716423507023   0.08560517923770866   0.011074849940787383
-0.29772716423507023   0.08560517923770866   0.011074849940787383
-0.29772716423507023   0.08560517923770866   0.011074849940787383
-0.29772716423507023   0.08560517923770866   0.011074849940787383
-0.19654557232933037   0.046114408019262185   0.030201369569646887
-0.19654557232933037   0.046114408019262185   0.030201369569646887
-0.19654557232933037   0.046114408019262185   0.030201369569646887
-0.19654557232933037   0.046114408019262185   0.030201369569646887
-0.16723171312329113   -0.14343324790230294   -0.0693648046200016
-0.16723171312329113   -0.14343324790230294   -0.0693648046200016
-0.16723171312329113   -0.14343324790230294   -0.0693648046200016
-0.16723171312329113   -0.14343324790230294   -0.0693648046200016
0.06098351624941197   0.04267729476160159   0.08537347347587228
0.06098351624941197   0.04267729476160159   0.08537347347587228
0.06098351624941197   0.04267729476160159   0.08537347347587228
0.06098351624941197   0.04267729476160159   0.08537347347587228
0.06149521129365698   -0.07037559444480385   -0.09182847745354837
0.06149521129365698   -0.07037559444480385   -0.09182847745354837
0.06149521129365698   -0.07037559444480385   -0.09182847745354837
0.06149521129365698   -0.07037559444480385   -0.09182847745354837
-0.09071680280698864   0.04420792021932611   0.06987101335190596
-0.09071680280698864   0.04420792021932611   0.06987101335190596
-0.09071680280698864   0.04420792021932611   0.06987101335190596
-0.09071680280698864   0.04420792021932611   0.06987101335190596
-0.03587810417920721   -0.030359616784589746   -0.016301738148569604
-0.03587810417920721   -0.030359616784589746   -0.016301738148569604
-0.03587810417920721   -0.030359616784589746   -0.016301738148569604
-0.03587810417920721   -0.030359616784589746   -0.016301738148569604
-0.15159566065749303   -0.11057595373381846   -0.07973940194747137
-0.15159566065749303   -0.11057595373381846   -0.07973940194747137
-0.15159566065749303   -0.11057595373381846   -0.07973940194747137
-0.15159566065749303   -0.11057595373381846   -0.07973940194747137
0.12669200241275597   0.08872621277693529   0.07505367092020733
0.12669200241275597   0.08872621277693529   0.07505367092020733
0.12669200241275597   0.08872621277693529   0.07505367092020733
0.12669200241275597   0.08872621277693529   0.07505367092020733
0.1099277633181677   -0.04216019787571712   -0.10906063703374891
0.1099277633181677   -0.04216019787571712   -0.10906063703374891
0.1099277633181677   -0.04216019787571712   -0.10906063703374891
0.1099277633181677   -0.04216019787571712   -0.10906063703374891
-0.07288569704302358   0.06468058201779245   0.05602468038950689
-0.07288569704302358   0.06468058201779245   0.05602468038950689
-0.07288569704302358   0.06468058201779245   0.05602468038950689
-0.07288569704302358   0.06468058201779245   0.05602468038950689
0.004002013879394215   -0.0013425235154286984   0.005249984000452391
0.004002013879394215   -0.0013425235154286984   0.005249984000452391
0.004002013879394215   -0.0013425235154286984   0.005249984000452391
0.004002013879394215   -0.0013425235154286984   0.005249984000452391
-0.13293905911149992   -0.0873614537849311   -0.09220009415015118
-0.13293905911149992   -0.0873614537849311   -0.09220009415015118
-0.13293905911149992   -0.0873614537849311   -0.09220009415015118
-0.13293905911149992   -0.0873614537849311   -0.09220009415015118
0.17430079826582295   0.11420151080618536   0.05644282902262489
0.17430079826582295   0.11420151080618536   0.05644282902262489
0.17430079826582295   0.11420151080618536   0.05644282902262489
0.17430079826582295   0.11420151080618536   0.05644282902262489
0.17774669309163715   0.013096047797456798   -0.11677136527967943
0.17774669309163715   0.013096047797456798   -0.11677136527967943
0.17774669309163715   0.013096047797456798   -0.11677136527967943
0.17774669309163715   0.013096047797456798   -0.11677136527967943
-0.0562231856444132   0.10084281855542214   0.04552510002504141
-0.0562231856444132   0.10084281855542214   0.04552510002504141
-0.0562231856444132   0.10084281855542214   0.04552510002504141
-0.0562231856444132   0.10084281855542214   0.04552510002504141
0.03984205757341363   0.029169093187404925   0.02629572726234584
0.03984205757341363   0.029169093187404925   0.02629572726234584
0.03984205757341363   0.029169093187404925   0.02629572726234584
0.03984205757341363   0.029169093187404925   0.02629572726234584
-0.35110607706328056   0.019698737223430407   0.09752484289959379
-0.35110607706328056   0.019698737223430407   0.09752484289959379
-0.35110607706328056   0.019698737223430407   0.09752484289959379
-0.35110607706328056   0.019698737223430407   0.09752484289959379
-0.41557503905926096   -0.12722954145562645   -0.05756183622763315
-0.41557503905926096   -0.12722954145562645   -0.05756183622763315
-0.41557503905926096   -0.12722954145562645   -0.05756183622763315
-0.41557503905926096   -0.12722954145562645   -0.05756183622763315
-0.33178263327022284   0.059192391917354856   0.07987494468279598
-0.33178263327022284   0.059192391917354856   0.07987494468279598
-0.33178263327022284   0.059192391917354856   0.07987494468279598
-0.33178263327022284   0.059192391917354856   0.07987494468279598
-0.3408983958556412   -0.0839121864757957   -0.07413717187294859
-0.3408983958556412   -0.0839121864757957   -0.07413717187294859
-0.3408983958556412   -0.0839121864757957   -0.07413717187294859
-0.3408983958556412   -0.0839121864757957   -0.07413717187294859
-0.3506852607971201   -0.026984629658703338   -0.02659261972587948
-0.3506852607971201   -0.026984629658703338   -0.02659261972587948
-0.3506852607971201   -0.026984629658703338   -0.02659261972587948
-0.3506852607971201   -0.026984629658703338   -0.02659261972587948
-0.2766366835081282   0.0724153613424835   0.09084384204634462
-0.2766366835081282   0.0724153613424835   0.09084384204634462
-0.2766366835081282   0.0724153613424835   0.09084384204634462
-0.2766366835081282   0.0724153613424835   0.09084384204634462
-0.39202975268467183   -0.0931205629678578   -0.06904769750422848
-0.39202975268467183   -0.0931205629678578   -0.06904769750422848
-0.39202975268467183   -0.0931205629678578   -0.06904769750422848
-0.39202975268467183   -0.0931205629678578   -0.06904769750422848
-0.3058430509362593   0.08162108155360251   0.06723524451178023
-0.3058430509362593   0.08162108155360251   0.06723524451178023
-0.3058430509362593   0.08162108155360251   0.06723524451178023
-0.3058430509362593   0.08162108155360251   0.06723524451178023
-0.2854765087227588   -0.058564855144732045   -0.092381199939392
-0.2854765087227588   -0.058564855144732045   -0.092381199939392
-0.2854765087227588   -0.058564855144732045   -0.092381199939392
-0.2854765087227588   -0.058564855144732045   -0.092381199939392
-0.30979570888690555   0.0016840041937784267   -0.00545471529381851
-0.30979570888690555   0.0016840041937784267   -0.00545471529381851
-0.30979570888690555   0.0016840041937784267   -0.00545471529381851
-0.30979570888690555   0.0016840041937784267   -0.00545471529381851
-0.22083031324612654   0.09969463720756587   0.0725902850914642
-0.22083031324612654   0.09969463720756587   0.0725902850914642
-0.22083031324612654   0.09969463720756587   0.0725902850914642
-0.22083031324612654   0.09969463720756587   0.0725902850914642
-0.36669934296427253   -0.07284850735006607   -0.08257662672460978
-0.36669934296427253   -0.07284850735006607   -0.08257662672460978
-0.36669934296427253   -0.07284850735006607   -0.08257662672460978
-0.36669934296427253   -0.07284850735006607   -0.08257662672460978
-0.28209879847332353   0.11584406041406622   0.058073397175564555
-0.28209879847332353   0.11584406041406622   0.058073397175564555
-0.28209879847332353   0.11584406041406622   0.058073397175564555
-0.28209879847332353   0.11584406041406622   0.058073397175564555
-0.21150496930421014   -0.010379779495329068   -0.10407921342387683
-0.21150496930421014   -0.010379779495329068   -0.10407921342387683
-0.21150496930421014   -0.010379779495329068   -0.10407921342387683
-0.21150496930421014   -0.010379779495329068   -0.10407921342387683
-0.26059906514244285   0.03161431168027236   0.01719250115988069
-0.26059906514244285   0.03161431168027236   0.01719250115988069
-0.26059906514244285   0.03161431168027236   0.01719250115988069
-0.26059906514244285   0.03161431168027236   0.01719250115988069
-0.3721488495415077   -0.023019710949634543   0.05535928085514114
-0.3721488495415077   -0.023019710949634543   0.05535928085514114
-0.3721488495415077   -0.023019710949634543   0.05535928085514114
-0.3721488495415077   -0.023019710949634543   0.05535928085514114
-0.46074631226127266   -0.10377172806681609   -0.022492074058042977
-0.46074631226127266   -0.10377172806681609   -0.022492074058042977
-0.46074631226127266   -0.10377172806681609   -0.022492074058042977
-0.46074631226127266   -0.10377172806681609   -0.022492074058042977
-0.4105871411389723   0.01052551343137928   0.037059267891973884
-0.4105871411389723   0.01052551343137928   0.037059267891973884
-0.4105871411389723   0.01052551343137928   0.037059267891973884
-0.4105871411389723   0.01052551343137928   0.037059267891973884
-0.3762577681611325   -0.04921322008125606   -0.03409511777313338
-0.3762577681611325   -0.04921322008125606   -0.03409511777313338
-0.3762577681611325   -0.04921322008125606   -0.03409511777313338
-0.3762577681611325   -0.04921322008125606   -0.03409511777313338
-0.4052037081203995   -0.03820992662372453   -0.018760148869329557
-0.4052037081203995   -0.03820992662372453   -0.018760148869329557
-0.4052037081203995   -0.03820992662372453   -0.018760148869329557
-0.4052037081203995   -0.03820992662372453   -0.018760148869329557
-0.3447426877477577   0.02594663614476385   0.048320428067712806
-0.3447426877477577   0.02594663614476385   0.048320428067712806
-0.3447426877477577   0.02594663614476385   0.048320428067712806
-0.3447426877477577   0.02594663614476385   0.048320428067712806
-0.43895931414879524   -0.06149143539108556   -0.03278464833467951
-0.43895931414879524   -0.06149143539108556   -0.03278464833467951
-0.43895931414879524   -0.06149143539108556   -0.03278464833467951
-0.43895931414879524   -0.06149143539108556   -0.03278464833467951
-0.3874176314593734   0.05513313039778686   0.028279880887902682
-0.3874176314593734   0.05513313039778686   0.028279880887902682
-0.3874176314593734   0.05513313039778686   0.028279880887902682
-0.3874176314593734   0.05513313039778686   0.028279880887902682
-0.34531578250351164   -0.006188784080372586   -0.042318547690498615
-0.34531578250351164   -0.006188784080372586   -0.042318547690498615
-0.34531578250351164   -0.006188784080372586   -0.042318547690498615
-0.34531578250351164   -0.006188784080372586   -0.042318547690498615
-0.3775463484419212   0.003442424740027261   0.0007590266655025449
-0.3775463484419212   0.003442424740027261   0.0007590266655025449
-0.3775463484419212   0.003442424740027261   0.0007590266655025449
-0.3775463484419212   0.003442424740027261   0.0007590266655025449
-0.3122700664716257   0.07320909741288327   0.04351215097566753
-0.3122700664716257   0.07320909741288327   0.04351215097566753
-0.3122700664716257   0.07320909741288327   0.04351215097566753
-0.3122700664716257   0.07320909741288327   0.04351215097566753
-0.41711379048877706   -0.02091519409299432   -0.04415258976834183
-0.41711379048877706   -0.02091519409299432   -0.04415258976834183
-0.41711379048877706   -0.02091519409299432   -0.04415258976834183
-0.41711379048877706   -0.02091519409299432   -0.04415258976834183
-0.36413789695506765   0.1044755068317434   0.019935520448201995
-0.36413789695506765   0.1044755068317434   0.019935520448201995
-0.36413789695506765   0.1044755068317434   0.019935520448201995
-0.36413789695506765   0.1044755068317434   0.019935520448201995
-0.3185916917172269   0.041531988646090964   -0.05007899727596924
-0.3185916917172269   0.041531988646090964   -0.05007899727596924
-0.3185916917172269   0.041531988646090964   -0.05007899727596924
-0.3185916917172269   0.041531988646090964   -0.05007899727596924
-0.3514011154348299   0.04642359314816298   0.02061350955301386
-0.3514011154348299   0.04642359314816298   0.02061350955301386
-0.3514011154348299   0.04642359314816298   0.02061350955301386
-0.3514011154348299   0.04642359314816298   0.02061350955301386
-0.44495623811729856   -0.06282814767919007   0.01551471627419399
-0.44495623811729856   -0.06282814767919007   0.01551471627419399
-0.44495623811729856   -0.06282814767919007   0.01551471627419399
-0.44495623811729856   -0.06282814767919007   0.01551471627419399
-0.5058376096096358   -0.06537297021991129   0.013621306259236743
-0.5058376096096358   -0.06537297021991129   0.013621306259236743
-0.5058376096096358   -0.06537297021991129   0.013621306259236743
-0.5058376096096358   -0.06537297021991129   0.013621306259236743
-0.487243421320638   -0.02963751175191219   -0.0047889237263440375
-0.487243421320638   -0.02963751175191219   -0.0047889237263440375
-0.487243421320638   -0.02963751175191219   -0.0047889237263440375
-0.487243421320638   -0.02963751175191219   -0.0047889237263440375
-0.42100737196877214   -0.008938693699555258   0.004422320873909293
-0.42100737196877214   -0.008938693699555258   0.004422320873909293
-0.42100737196877214   -0.008938693699555258   0.004422320873909293
-0.42100737196877214   -0.008938693699555258   0.004422320873909293
-0.4654578855742594   -0.03932986887408565   -0.012434272494845999
-0.4654578855742594   -0.03932986887408565   -0.012434272494845999
-0.4654578855742594   -0.03932986887408565   -0.012434272494845999
-0.4654578855742594   -0.03932986887408565   -0.012434272494845999
-0.4213640697935726   -0.013969857575967928   0.007669995626311894
-0.4213640697935726   -0.013969857575967928   0.007669995626311894
-0.4213640697935726   -0.013969857575967928   0.007669995626311894
-0.4213640697935726   -0.013969857575967928   0.007669995626311894
-0.48392527689531545   -0.021644901274978035   0.0038091879233387374
-0.48392527689531545   -0.021644901274978035   0.0038091879233387374
-0.48392527689531545   -0.021644901274978035   0.0038091879233387374
-0.48392527689531545   -0.021644901274978035   0.0038091879233387374
-0.4629127723432161   0.019863915661405718   -0.012162119790488
-0.4629127723432161   0.019863915661405718   -0.012162119790488
-0.4629127723432161   0.019863915661405718   -0.012162119790488
-0.4629127723432161   0.019863915661405718   -0.012162119790488
-0.3979162395525736   0.03599809763075587   -0.0050781268110668965
-0.3979162395525736   0.03599809763075587   -0.0050781268110668965
-0.3979162395525736   0.03599809763075587   -0.0050781268110668965
-0.3979162395525736   0.03599809763075587   -0.0050781268110668965
-0.44004557059388416   0.004930910291225096   0.006830950215229517
-0.44004557059388416   0.004930910291225096   0.006830950215229517
-0.44004557059388416   0.004930910291225096   0.006830950215229517
-0.44004557059388416   0.004930910291225096   0.006830950215229517
-0.3971261228625072   0.0353564836413731   -0.00048592937135997355
-0.3971261228625072   0.0353564836413731   -0.00048592937135997355
-0.3971261228625072   0.0353564836413731   -0.00048592937135997355
-0.3971261228625072   0.0353564836413731   -0.00048592937135997355
-0.4611208453845551   0.023087573299514524   -0.006426142635292051
-0.4611208453845551   0.023087573299514524   -0.006426142635292051
-0.4611208453845551   0.023087573299514524   -0.006426142635292051
-0.4611208453845551   0.023087573299514524   -0.006426142635292051
-0.4396164803714075   0.06966226931225813   -0.02049159527157017
-0.4396164803714075   0.06966226931225813   -0.02049159527157017
-0.4396164803714075   0.06966226931225813   -0.02049159527157017
-0.4396164803714075   0.06966226931225813   -0.02049159527157017
-0.3758968130084642   0.08111883538886913   -0.015502388375906569
-0.3758968130084642   0.08111883538886913   -0.015502388375906569
-0.3758968130084642   0.08111883538886913   -0.015502388375906569
-0.3758968130084642   0.08111883538886913   -0.015502388375906569
-0.41580213748206646   0.049271527425731085   0.02519543883220074
-0.41580213748206646   0.049271527425731085   0.02519543883220074
-0.41580213748206646   0.049271527425731085   0.02519543883220074
-0.41580213748206646   0.049271527425731085   0.02519543883220074
-0.5204471598195531   -0.09941437161210372   -0.025385043398165375
-0.5204471598195531   -0.09941437161210372   -0.025385043398165375
-0.5204471598195531   -0.09941437161210372   -0.025385043398165375
-0.5204471598195531   -0.09941437161210372   -0.025385043398165375
-0.5546901373706336   -0.027771038438874796   0.04814942172914298
-0.5546901373706336   -0.027771038438874796   0.04814942172914298
-0.5546901373706336   -0.027771038438874796   0.04814942172914298
-0.5546901373706336   -0.027771038438874796   0.04814942172914298
-0.5635300189358646   -0.06812089636403909   -0.04715739319054229
-0.5635300189358646   -0.06812089636403909   -0.04715739319054229
-0.5635300189358646   -0.06812089636403909   -0.04715739319054229
-0.5635300189358646   -0.06812089636403909   -0.04715739319054229
-0.4662758412196594   0.029836009204518704   0.04057545582211803
-0.4662758412196594   0.029836009204518704   0.04057545582211803
-0.4662758412196594   0.029836009204518704   0.04057545582211803
-0.4662758412196594   0.029836009204518704   0.04057545582211803
-0.5240622746656284   -0.03868117394894666   -0.007808677797363668
-0.5240622746656284   -0.03868117394894666   -0.007808677797363668
-0.5240622746656284   -0.03868117394894666   -0.007808677797363668
-0.5240622746656284   -0.03868117394894666   -0.007808677797363668
-0.49749119424800764   -0.0521789273428174   -0.03348637277229093
-0.49749119424800764   -0.0521789273428174   -0.03348637277229093
-0.49749119424800764   -0.0521789273428174   -0.03348637277229093
-0.49749119424800764   -0.0521789273428174   -0.03348637277229093
-0.5292090998661828   0.016999606224640196   0.039326699569187634
-0.5292090998661828   0.016999606224640196   0.039326699569187634
-0.5292090998661828   0.016999606224640196   0.039326699569187634
-0.5292090998661828   0.016999606224640196   0.039326699569187634
-0.5316862746576022   -0.02117753444163785   -0.05290705842529489
-0.5316862746576022   -0.02117753444163785   -0.05290705842529489
-0.5316862746576022   -0.02117753444163785   -0.05290705842529489
-0.5316862746576022   -0.02117753444163785   -0.05290705842529489
-0.4443540968577234   0.07036897426043791   0.030126199037939547
-0.4443540968577234   0.07036897426043791   0.030126199037939547
-0.4443540968577234   0.07036897426043791   0.030126199037939547
-0.4443540968577234   0.07036897426043791   0.030126199037939547
-0.49521838370481897   0.003931659455032044   0.012072685949985604
-0.49521838370481897   0.003931659455032044   0.012072685949985604
-0.49521838370481897   0.003931659455032044   0.012072685949985604
-0.49521838370481897   0.003931659455032044   0.012072685949985604
-0.47460337415399734   -0.007774821077047911   -0.042976392105950126
-0.47460337415399734   -0.007774821077047911   -0.042976392105950126
-0.47460337415399734   -0.007774821077047911   -0.042976392105950126
-0.47460337415399734   -0.007774821077047911   -0.042976392105950126
-0.49829836171409686   0.060104896543079045   0.03275007530751867
-0.49829836171409686   0.060104896543079045   0.03275007530751867
-0.49829836171409686   0.060104896543079045   0.03275007530751867
-0.49829836171409686   0.060104896543079045   0.03275007530751867
-0.5038142374823257   0.030562978947265645   -0.058049078264172375
-0.5038142374823257   0.030562978947265645   -0.058049078264172375
-0.5038142374823257   0.030562978947265645   -0.058049078264172375
-0.5038142374823257   0.030562978947265645   -0.058049078264172375
-0.4223715341784059   0.11557433338305087   0.019821071622645063
-0.4223715341784059   0.11557433338305087   0.019821071622645063
-0.4223715341784059   0.11557433338305087   0.019821071622645063
-0.4223715341784059   0.11557433338305087   0.019821071622645063
-0.4706807158298828   0.04624766844990866   0.031092965488964237
-0.4706807158298828   0.04624766844990866   0.031092965488964237
-0.4706807158298828   0.04624766844990866   0.031092965488964237
-0.4706807158298828   0.04624766844990866   0.031092965488964237
-0.5951346026190998   -0.11832484358140785   -0.06351909937066308
-0.5951346026190998   -0.11832484358140785   -0.06351909937066308
-0.5951346026190998   -0.11832484358140785   -0.06351909937066308
-0.5951346026190998   -0.11832484358140785   -0.06351909937066308
-0.656918497754666   0.00942783119129062   0.08650608003950866
-0.656918497754666   0.00942783119129062   0.08650608003950866
-0.656918497754666   0.00942783119129062   0.08650608003950866
-0.656918497754666   0.00942783119129062   0.08650608003950866
-0.6478857171267681   -0.0981116997347371   -0.0845581720986307
-0.6478857171267681   -0.0981116997347371   -0.0845581720986307
-0.6478857171267681   -0.0981116997347371   -0.0845581720986307
-0.6478857171267681   -0.0981116997347371   -0.0845581720986307
-0.5100531729661424   0.0745624316635119   0.07754350863051857
-0.5100531729661424   0.0745624316635119   0.07754350863051857
-0.5100531729661424   0.0745624316635119   0.07754350863051857
-0.5100531729661424   0.0745624316635119   0.07754350863051857
-0.5783817778582911   -0.025318194550619177   -0.003965704104306904
-0.5783817778582911   -0.025318194550619177   -0.003965704104306904
-0.5783817778582911   -0.025318194550619177   -0.003965704104306904
-0.5783817778582911   -0.025318194550619177   -0.003965704104306904
-0.5710707396096921   -0.08036120699695087   -0.07262068592677548
-0.5710707396096921   -0.08036120699695087   -0.07262068592677548
-0.5710707396096921   -0.08036120699695087   -0.07262068592677548
-0.5710707396096921   -0.08036120699695087   -0.07262068592677548
-0.5835846464507681   0.060095442958164255   0.07874003858846748
-0.5835846464507681   0.060095442958164255   0.07874003858846748
-0.5835846464507681   0.060095442958164255   0.07874003858846748
-0.5835846464507681   0.060095442958164255   0.07874003858846748
-0.5929756363632008   -0.07069516854397767   -0.1007641330991666
-0.5929756363632008   -0.07069516854397767   -0.1007641330991666
-0.5929756363632008   -0.07069516854397767   -0.1007641330991666
-0.5929756363632008   -0.07069516854397767   -0.1007641330991666
-0.4854022899455719   0.09387265865403151   0.06346267203918732
-0.4854022899455719   0.09387265865403151   0.06346267203918732
-0.4854022899455719   0.09387265865403151   0.06346267203918732
-0.4854022899455719   0.09387265865403151   0.06346267203918732
-0.5411242004727616   0.0033209701698489053   0.015123951575306185
-0.5411242004727616   0.0033209701698489053   0.015123951575306185
-0.5411242004727616   0.0033209701698489053   0.015123951575306185
-0.5411242004727616   0.0033209701698489053   0.015123951575306185
-0.5452287404293119   -0.05779362256871992   -0.08400329915676674
-0.5452287404293119   -0.05779362256871992   -0.08400329915676674
-0.5452287404293119   -0.05779362256871992   -0.08400329915676674
-0.5452287404293119   -0.05779362256871992   -0.08400329915676674
-0.5297091531082376   0.08441114545000616   0.060461969181665014
-0.5297091531082376   0.08441114545000616   0.060461969181665014
-0.5297091531082376   0.08441114545000616   0.060461969181665014
-0.5297091531082376   0.08441114545000616   0.060461969181665014
-0.5209695367054468   -0.023231020508714686   -0.11009774423460907
-0.5209695367054468   -0.023231020508714686   -0.11009774423460907
-0.5209695367054468   -0.023231020508714686   -0.11009774423460907
-0.5209695367054468   -0.023231020508714686   -0.11009774423460907
-0.4633147345125076   0.12273799507746957   0.052273420454713886
-0.4633147345125076   0.12273799507746957   0.052273420454713886
-0.4633147345125076   0.12273799507746957   0.052273420454713886
-0.4633147345125076   0.12273799507746957   0.052273420454713886
-0.49034275800744387   0.031961157895209646   0.037200336601635096
-0.49034275800744387   0.031961157895209646   0.037200336601635096
-0.49034275800744387   0.031961157895209646   0.037200336601635096
-0.49034275800744387   0.031961157895209646   0.037200336601635096
0.3598945089106188   0.05826823401977178   0.0944574931794169
0.3598945089106188   0.05826823401977178   0.0944574931794169
0.3598945089106188   0.05826823401977178   0.0944574931794169
0.3598945089106188   0.05826823401977178   0.0944574931794169
-0.009254421750569942   -0.15188673527256558   -0.0624557546732568
-0.009254421750569942   -0.15188673527256558   -0.0624557546732568
-0.009254421750569942   -0.15188673527256558   -0.0624557546732568
-0.009254421750569942   -0.15188673527256558   -0.0624557546732568
0.08025311630503953   0.02974530308145898   0.07299876375264404
0.08025311630503953   0.02974530308145898   0.07299876375264404
0.08025311630503953   0.02974530308145898   0.07299876375264404
0.08025311630503953   0.02974530308145898   0.07299876375264404
0.37572637342587983   -0.05348939553425941   -0.07813199435464971
0.37572637342587983   -0.05348939553425941   -0.07813199435464971
0.37572637342587983   -0.05348939553425941   -0.07813199435464971
0.37572637342587983   -0.05348939553425941   -0.07813199435464971
0.18359811832512787   -0.02961657963735124   -0.044941159429741556
0.18359811832512787   -0.02961657963735124   -0.044941159429741556
0.18359811832512787   -0.02961657963735124   -0.044941159429741556
0.18359811832512787   -0.02961657963735124   -0.044941159429741556
0.43992350153296716   0.10412706458818309   0.085237186058337
0.43992350153296716   0.10412706458818309   0.085237186058337
0.43992350153296716   0.10412706458818309   0.085237186058337
0.43992350153296716   0.10412706458818309   0.085237186058337
0.019990155774564214   -0.12393698946437275   -0.07463374635390083
0.019990155774564214   -0.12393698946437275   -0.07463374635390083
0.019990155774564214   -0.12393698946437275   -0.07463374635390083
0.019990155774564214   -0.12393698946437275   -0.07463374635390083
0.11299709166670899   0.05179423095100392   0.06094063014982002
0.11299709166670899   0.05179423095100392   0.06094063014982002
0.11299709166670899   0.05179423095100392   0.06094063014982002
0.11299709166670899   0.05179423095100392   0.06094063014982002
0.4382630190797556   -0.028577520510691803   -0.09778809009476187
0.4382630190797556   -0.028577520510691803   -0.09778809009476187
0.4382630190797556   -0.028577520510691803   -0.09778809009476187
0.4382630190797556   -0.028577520510691803   -0.09778809009476187
0.24001375336904276   -0.0021088398589095628   -0.021074982827371604
0.24001375336904276   -0.0021088398589095628   -0.021074982827371604
0.24001375336904276   -0.0021088398589095628   -0.021074982827371604
0.24001375336904276   -0.0021088398589095628   -0.021074982827371604
0.5031802743686444   0.13107239552435296   0.06714827031462972
0.5031802743686444   0.13107239552435296   0.06714827031462972
0.5031802743686444   0.13107239552435296   0.06714827031462972
0.5031802743686444   0.13107239552435296   0.06714827031462972
0.051934705006709686   -0.10400081645515134   -0.08857625574401358
0.051934705006709686   -0.10400081645515134   -0.08857625574401358
0.051934705006709686   -0.10400081645515134   -0.08857625574401358
0.051934705006709686   -0.10400081645515134   -0.08857625574401358
0.14478176694541037   0.09224090602587334   0.052737477932514674
0.14478176694541037   0.09224090602587334   0.052737477932514674
0.14478176694541037   0.09224090602587334   0.052737477932514674
0.14478176694541037   0.09224090602587334   0.052737477932514674
0.5212593863392289   0.027191486355648255   -0.10785820293974861
0.5212593863392289   0.027191486355648255   -0.10785820293974861
0.5212593863392289   0.027191486355648255   -0.10785820293974861
0.5212593863392289   0.027191486355648255   -0.10785820293974861
0.28745571911776535   0.028693747295273693   0.001512691285210272
0.28745571911776535   0.028693747295273693   0.001512691285210272
0.28745571911776535   0.028693747295273693   0.001512691285210272
0.28745571911776535   0.028693747295273693   0.001512691285210272
0.049536481674102635   0.015588042472813054   0.06402398470472748
0.049536481674102635   0.015588042472813054   0.06402398470472748
0.049536481674102635   0.015588042472813054   0.06402398470472748
0.049536481674102635   0.015588042472813054   0.06402398470472748
-0.34343272880863945   -0.1289124653841605   -0.028643459879719228
-0.34343272880863945   -0.1289124653841605   -0.028643459879719228
-0.34343272880863945   -0.1289124653841605   -0.028643459879719228
-0.34343272880863945   -0.1289124653841605   -0.028643459879719228
-0.28688797367653285   -0.018659843515878675   0.02930197056909247
-0.28688797367653285   -0.018659843515878675   0.02930197056909247
-0.28688797367653285   -0.018659843515878675   0.02930197056909247
-0.28688797367653285   -0.018659843515878675   0.02930197056909247
0.05214118019868618   -0.01501360539064274   -0.022802008307021008
0.05214118019868618   -0.01501360539064274   -0.022802008307021008
0.05214118019868618   -0.01501360539064274   -0.022802008307021008
0.05214118019868618   -0.01501360539064274   -0.022802008307021008
-0.13498107968843848   -0.03344758136398213   -0.02162767591420272
-0.13498107968843848   -0.03344758136398213   -0.02162767591420272
-0.13498107968843848   -0.03344758136398213   -0.02162767591420272
-0.13498107968843848   -0.03344758136398213   -0.02162767591420272
0.08323803735687339   0.06086558249635648   0.056803089596923415
0.08323803735687339   0.06086558249635648   0.056803089596923415
0.08323803735687339   0.06086558249635648   0.056803089596923415
0.08323803735687339   0.06086558249635648   0.056803089596923415
-0.31512543498189155   -0.0916796355500584   -0.03886554392352152
-0.31512543498189155   -0.0916796355500584   -0.03886554392352152
-0.31512543498189155   -0.0916796355500584   -0.03886554392352152
-0.31512543498189155   -0.0916796355500584   -0.03886554392352152
-0.2570228184942539   0.024076776910891218   0.020716293256624108
-0.2570228184942539   0.024076776910891218   0.020716293256624108
-0.2570228184942539   0.024076776910891218   0.020716293256624108
-0.2570228184942539   0.024076776910891218   0.020716293256624108
0.08939619819381167   0.02557961142792916   -0.030849217691591723
0.08939619819381167   0.02557961142792916   -0.030849217691591723
0.08939619819381167   0.02557961142792916   -0.030849217691591723
0.08939619819381167   0.02557961142792916   -0.030849217691591723
-0.10333084264003752   0.0042808085024734314   -0.002605037996131
-0.10333084264003752   0.0042808085024734314   -0.002605037996131
-0.10333084264003752   0.0042808085024734314   -0.002605037996131
-0.10333084264003752   0.0042808085024734314   -0.002605037996131
0.12179763974524004   0.10587094183847776   0.0508666596550015
0.12179763974524004   0.10587094183847776   0.0508666596550015
0.12179763974524004   0.10587094183847776   0.0508666596550015
0.12179763974524004   0.10587094183847776   0.0508666596550015
-0.2866744134416156   -0.05346470689558053   -0.050000197673712846
-0.2866744134416156   -0.05346470689558053   -0.050000197673712846
-0.2866744134416156   -0.05346470689558053   -0.050000197673712846
-0.2866744134416156   -0.05346470689558053   -0.050000197673712846
-0.22698381897891168   0.07237567845770213   0.0125315790437713
-0.22698381897891168   0.07237567845770213   0.0125315790437713
-0.22698381897891168   0.07237567845770213   0.0125315790437713
-0.22698381897891168   0.07237567845770213   0.0125315790437713
0.12222064556795836   0.07157640117655847   -0.03940362410542265
0.12222064556795836   0.07157640117655847   -0.03940362410542265
0.12222064556795836   0.07157640117655847   -0.03940362410542265
0.12222064556795836   0.07157640117655847   -0.03940362410542265
-0.06836149349077002   0.04590365559432916   0.017663125139407435
-0.06836149349077002   0.04590365559432916   0.017663125139407435
-0.06836149349077002   0.04590365559432916   0.017663125139407435
-0.06836149349077002   0.04590365559432916   0.017663125139407435
-0.3122789862682539   -0.02478579109655983   0.022998578534612027
-0.3122789862682539   -0.02478579109655983   0.022998578534612027
-0.3122789862682539   -0.02478579109655983   0.022998578534612027
-0.3122789862682539   -0.02478579109655983   0.022998578534612027
-0.671581413950812   -0.09142662880131036   0.005982330784454029
-0.671581413950812   -0.09142662880131036   0.005982330784454029
-0.671581413950812   -0.09142662880131036   0.005982330784454029
-0.671581413950812   -0.09142662880131036   0.005982330784454029
-0.6453999027353682   -0.057234349679210234   -0.012663428257769511
-0.6453999027353682   -0.057234349679210234   -0.012663428257769511
-0.6453999027353682   -0.057234349679210234   -0.012663428257769511
-0.6453999027353682   -0.057234349679210234   -0.012663428257769511
-0.28138784181712934   0.023828979795684047   0.014313806554550956
-0.28138784181712934   0.023828979795684047   0.014313806554550956
-0.28138784181712934   0.023828979795684047   0.014313806554550956
-0.28138784181712934   0.023828979795684047   0.014313806554550956
-0.4783612177078284   -0.03433500160950308   -0.012569508720536585
-0.4783612177078284   -0.03433500160950308   -0.012569508720536585
-0.4783612177078284   -0.03433500160950308   -0.012569508720536585
-0.4783612177078284   -0.03433500160950308   -0.012569508720536585
-0.28177271618221983   0.021056213489941536   0.015162201034840984
-0.28177271618221983   0.021056213489941536   0.015162201034840984
-0.28177271618221983   0.021056213489941536   0.015162201034840984
-0.28177271618221983   0.021056213489941536   0.015162201034840984
-0.6425664739297605   -0.05201302893295058   -0.0037176049759909714
-0.6425664739297605   -0.05201302893295058   -0.0037176049759909714
-0.6425664739297605   -0.05201302893295058   -0.0037176049759909714
-0.6425664739297605   -0.05201302893295058   -0.0037176049759909714
-0.6140038666715486   -0.010186783735633725   -0.019914906524039808
-0.6140038666715486   -0.010186783735633725   -0.019914906524039808
-0.6140038666715486   -0.010186783735633725   -0.019914906524039808
-0.6140038666715486   -0.010186783735633725   -0.019914906524039808
-0.2518169687349394   0.0655752021068417   0.005247116857249691
-0.2518169687349394   0.0655752021068417   0.005247116857249691
-0.2518169687349394   0.0655752021068417   0.005247116857249691
-0.2518169687349394   0.0655752021068417   0.005247116857249691
-0.4459512080943192   0.007000567417091888   0.0065870050004154836
-0.4459512080943192   0.007000567417091888   0.0065870050004154836
-0.4459512080943192   0.007000567417091888   0.0065870050004154836
-0.4459512080943192   0.007000567417091888   0.0065870050004154836
-0.2510765422387595   0.06773879395394183   0.006785657491048903
-0.2510765422387595   0.06773879395394183   0.006785657491048903
-0.2510765422387595   0.06773879395394183   0.006785657491048903
-0.2510765422387595   0.06773879395394183   0.006785657491048903
-0.6127906293821209   -0.010396711797127312   -0.013638792015413875
-0.6127906293821209   -0.010396711797127312   -0.013638792015413875
-0.6127906293821209   -0.010396711797127312   -0.013638792015413875
-0.6127906293821209   -0.010396711797127312   -0.013638792015413875
-0.5838768535319763   0.03698368039001271   -0.028198122846676638
-0.5838768535319763   0.03698368039001271   -0.028198122846676638
-0.5838768535319763   0.03698368039001271   -0.028198122846676638
-0.5838768535319763   0.03698368039001271   -0.028198122846676638
-0.22351361409353263   0.10744448196112706   -0.005186200032754738
-0.22351361409353263   0.10744448196112706   -0.005186200032754738
-0.22351361409353263   0.10744448196112706   -0.005186200032754738
-0.22351361409353263   0.10744448196112706   -0.005186200032754738
-0.41522412667808556   0.048219605636135865   0.024492823741562184
-0.41522412667808556   0.048219605636135865   0.024492823741562184
-0.41522412667808556   0.048219605636135865   0.024492823741562184
-0.41522412667808556   0.048219605636135865   0.024492823741562184
-0.6712693584653361   -0.0645779759346252   -0.019306044654845294
-0.6712693584653361   -0.0645779759346252   -0.019306044654845294
-0.6712693584653361   -0.0645779759346252   -0.019306044654845294
-0.6712693584653361   -0.0645779759346252   -0.019306044654845294
-0.9960913199709256   -0.056203768664390974   0.03999722778334236
-0.9960913199709256   -0.056203768664390974   0.03999722778334236
-0.9960913199709256   -0.056203768664390974   0.03999722778334236
-0.9960913199709256   -0.056203768664390974   0.03999722778334236
-0.9962155039506263   -0.09498677425616084   -0.05359879875031278
-0.9962155039506263   -0.09498677425616084   -0.05359879875031278
-0.9962155039506263   -0.09498677425616084   -0.05359879875031278
-0.9962155039506263   -0.09498677425616084   -0.05359879875031278
-0.6094824532203563   0.060835017456060514   0.048854452182019344
-0.6094824532203563   0.060835017456060514   0.048854452182019344
-0.6094824532203563   0.060835017456060514   0.048854452182019344
-0.6094824532203563   0.060835017456060514   0.048854452182019344
-0.8136987291232013   -0.03473035019405843   -0.005274285232372333
-0.8136987291232013   -0.03473035019405843   -0.005274285232372333
-0.8136987291232013   -0.03473035019405843   -0.005274285232372333
-0.8136987291232013   -0.03473035019405843   -0.005274285232372333
-0.6404950218751272   -0.01849799401511662   -0.026875379620652104
-0.6404950218751272   -0.01849799401511662   -0.026875379620652104
-0.6404950218751272   -0.01849799401511662   -0.026875379620652104
-0.6404950218751272   -0.01849799401511662   -0.026875379620652104
-0.9631842936146723   -0.013635121103777598   0.030205599777083425
-0.9631842936146723   -0.013635121103777598   0.030205599777083425
-0.9631842936146723   -0.013635121103777598   0.030205599777083425
-0.9631842936146723   -0.013635121103777598   0.030205599777083425
-0.9569238542964706   -0.05009734536172819   -0.059635641634143616
-0.9569238542964706   -0.05009734536172819   -0.059635641634143616
-0.9569238542964706   -0.05009734536172819   -0.059635641634143616
-0.9569238542964706   -0.05009734536172819   -0.059635641634143616
-0.580440875526991   0.09883595414330115   0.038877311319813285
-0.580440875526991   0.09883595414330115   0.038877311319813285
-0.580440875526991   0.09883595414330115   0.038877311319813285
-0.580440875526991   0.09883595414330115   0.038877311319813285
-0.774876872971528   0.006931222304901036   0.014455955523878045
-0.774876872971528   0.006931222304901036   0.014455955523878045
-0.774876872971528   0.006931222304901036   0.014455955523878045
-0.774876872971528   0.006931222304901036   0.014455955523878045
-0.6104275135756507   0.023904221794355945   -0.036124146574542895
-0.6104275135756507   0.023904221794355945   -0.036124146574542895
-0.6104275135756507   0.023904221794355945   -0.036124146574542895
-0.6104275135756507   0.023904221794355945   -0.036124146574542895
-0.9246657895701507   0.02710581366486664   0.024451522970861783
-0.9246657895701507   0.02710581366486664   0.024451522970861783
-0.9246657895701507   0.02710581366486664   0.024451522970861783
-0.9246657895701507   0.02710581366486664   0.024451522970861783
-0.9217668744049708   -0.0011061148902557494   -0.0641858295173231
-0.9217668744049708   -0.0011061148902557494   -0.0641858295173231
-0.9217668744049708   -0.0011061148902557494   -0.0641858295173231
-0.9217668744049708   -0.0011061148902557494   -0.0641858295173231
-0.5516997585787015   0.14084358983751216   0.028827442472197914
-0.5516997585787015   0.14084358983751216   0.028827442472197914
-0.5516997585787015   0.14084358983751216   0.028827442472197914
-0.5516997585787015   0.14084358983751216   0.028827442472197914
-0.7457409880447965   0.045819936662109345   0.03214944340045962
-0.7457409880447965   0.045819936662109345   0.03214944340045962
-0.7457409880447965   0.045819936662109345   0.03214944340045962
-0.7457409880447965   0.045819936662109345   0.03214944340045962
-1.0231244654315268   -0.09282419332399522   -0.05854807486005975
-1.0231244654315268   -0.09282419332399522   -0.05854807486005975
-1.0231244654315268   -0.09282419332399522   -0.05854807486005975
-1.0231244654315268   -0.09282419332399522   -0.05854807486005975
-1.3657904428109213   -0.02377023113732929   0.08644990575485095
-1.3657904428109213   -0.02377023113732929   0.08644990575485095
-1.3657904428109213   -0.02377023113732929   0.08644990575485095
-1.3657904428109213   -0.02377023113732929   0.08644990575485095
-1.3464746642015206   -0.12384240854927497   -0.07805920119797616
-1.3464746642015206   -0.12384240854927497   -0.07805920119797616
-1.3464746642015206   -0.12384240854927497   -0.07805920119797616
-1.3464746642015206   -0.12384240854927497   -0.07805920119797616
-0.9289051818350964   0.1027423570231582   0.08522368054801803
-0.9289051818350964   0.1027423570231582   0.08522368054801803
-0.9289051818350964   0.1027423570231582   0.08522368054801803
-0.9289051818350964   0.1027423570231582   0.08522368054801803
-1.115826695047042   -0.01976792396894561   0.009171221922796749
-1.115826695047042   -0.01976792396894561   0.009171221922796749
-1.115826695047042   -0.01976792396894561   0.009171221922796749
-1.115826695047042   -0.01976792396894561   0.009171221922796749
-0.98976683182478   -0.050131203591482904   -0.06621100878575642
-0.98976683182478   -0.050131203591482904   -0.06621100878575642
-0.98976683182478   -0.050131203591482904   -0.06621100878575642
-0.98976683182478   -0.050131203591482904   -0.06621100878575642
-1.283784875271058   0.030859291006141876   0.08068804389889793
-1.283784875271058   0.030859291006141876   0.08068804389889793
-1.283784875271058   0.030859291006141876   0.08068804389889793
-1.283784875271058   0.030859291006141876   0.08068804389889793
-1.2844089936064265   -0.09719791705503766   -0.0928835028453038
-1.2844089936064265   -0.09719791705503766   -0.0928835028453038
-1.2844089936064265   -0.09719791705503766   -0.0928835028453038
-1.2844089936064265   -0.09719791705503766   -0.0928835028453038
-0.8968764345379698   0.12025826331953893   0.0702458484770857
-0.8968764345379698   0.12025826331953893   0.0702458484770857
-0.8968764345379698   0.12025826331953893   0.0702458484770857
-0.8968764345379698   0.12025826331953893   0.0702458484770857
-1.0804888197636147   0.008178161460559885   0.02511866415877642
-1.0804888197636147   0.008178161460559885   0.02511866415877642
-1.0804888197636147   0.008178161460559885   0.02511866415877642
-1.0804888197636147   0.008178161460559885   0.02511866415877642
-0.9559054658367098   -0.028207266559539007   -0.0764337781375275
-0.9559054658367098   -0.028207266559539007   -0.0764337781375275
-0.9559054658367098   -0.028207266559539007   -0.0764337781375275
-0.9559054658367098   -0.028207266559539007   -0.0764337781375275
-1.2231401939337534   0.053507381197972714   0.06275519726503831
-1.2231401939337534   0.053507381197972714   0.06275519726503831
-1.2231401939337534   0.053507381197972714   0.06275519726503831
-1.2231401939337534   0.053507381197972714   0.06275519726503831
-1.208012607675217   -0.057367139385805815   -0.10355437869889245
-1.208012607675217   -0.057367139385805815   -0.10355437869889245
-1.208012607675217   -0.057367139385805815   -0.10355437869889245
-1.208012607675217   -0.057367139385805815   -0.10355437869889245
-0.8687094898663049   0.1414777984225779   0.05851717986317319
-0.8687094898663049   0.1414777984225779   0.05851717986317319
-0.8687094898663049   0.1414777984225779   0.05851717986317319
-0.8687094898663049   0.1414777984225779   0.05851717986317319
-1.0146909063494782   0.03438206118269552   0.04755060985910918
-1.0146909063494782   0.03438206118269552   0.04755060985910918
-1.0146909063494782   0.03438206118269552   0.04755060985910918
-1.0146909063494782   0.03438206118269552   0.04755060985910918
1.0866986945465644   0.09869490491331284   0.0944993299590009
1.0866986945465644   0.09869490491331284   0.0944993299590009
1.0866986945465644   0.09869490491331284   0.0944993299590009
1.0866986945465644   0.09869490491331284   0.0944993299590009
0.3982796624658005   -0.18111341901872893   -0.06221460371482483
0.3982796624658005   -0.18111341901872893   -0.06221460371482483
0.3982796624658005   -0.18111341901872893   -0.06221460371482483
0.3982796624658005   -0.18111341901872893   -0.06221460371482483
0.4921870733210729   -0.0009675816720561004   0.06801637506117367
0.4921870733210729   -0.0009675816720561004   0.06801637506117367
0.4921870733210729   -0.0009675816720561004   0.06801637506117367
0.4921870733210729   -0.0009675816720561004   0.06801637506117367
1.1066392834792511   -0.025474549048130457   -0.07941181570889065
1.1066392834792511   -0.025474549048130457   -0.07941181570889065
1.1066392834792511   -0.025474549048130457   -0.07941181570889065
1.1066392834792511   -0.025474549048130457   -0.07941181570889065
0.7235263425217229   -0.03288185445964309   -0.06996585005720778
0.7235263425217229   -0.03288185445964309   -0.06996585005720778
0.7235263425217229   -0.03288185445964309   -0.06996585005720778
0.7235263425217229   -0.03288185445964309   -0.06996585005720778
1.1715924346015405   0.13773841145223878   0.08214097940218049
1.1715924346015405   0.13773841145223878   0.08214097940218049
1.1715924346015405   0.13773841145223878   0.08214097940218049
1.1715924346015405   0.13773841145223878   0.08214097940218049
0.43182139573080336   -0.15959306864040532   -0.07518652592181733
0.43182139573080336   -0.15959306864040532   -0.07518652592181733
0.43182139573080336   -0.15959306864040532   -0.07518652592181733
0.43182139573080336   -0.15959306864040532   -0.07518652592181733
0.5293359464806371   0.020415880129673575   0.05610598570612225
0.5293359464806371   0.020415880129673575   0.05610598570612225
0.5293359464806371   0.020415880129673575   0.05610598570612225
0.5293359464806371   0.020415880129673575   0.05610598570612225
1.174234567910493   -0.00116304263966438   -0.10008574053962058
1.174234567910493   -0.00116304263966438   -0.10008574053962058
1.174234567910493   -0.00116304263966438   -0.10008574053962058
1.174234567910493   -0.00116304263966438   -0.10008574053962058
0.7940634777133881   -0.0066081793399282995   -0.04234623563729533
0.7940634777133881   -0.0066081793399282995   -0.04234623563729533
0.7940634777133881   -0.0066081793399282995   -0.04234623563729533
0.7940634777133881   -0.0066081793399282995   -0.04234623563729533
1.2399212262219457   0.16395720051025406   0.06322730786771591
1.2399212262219457   0.16395720051025406   0.06322730786771591
1.2399212262219457   0.16395720051025406   0.06322730786771591
1.2399212262219457   0.16395720051025406   0.06322730786771591
0.4685393779027177   -0.139814273286713   -0.08764670376708825
0.4685393779027177   -0.139814273286713   -0.08764670376708825
0.4685393779027177   -0.139814273286713   -0.08764670376708825
0.4685393779027177   -0.139814273286713   -0.08764670376708825
0.5664310812483306   0.06752302342133995   0.0486277874796081
0.5664310812483306   0.06752302342133995   0.0486277874796081
0.5664310812483306   0.06752302342133995   0.0486277874796081
0.5664310812483306   0.06752302342133995   0.0486277874796081
1.2629735118839982   0.06224766299422815   -0.1079811574398298
1.2629735118839982   0.06224766299422815   -0.1079811574398298
1.2629735118839982   0.06224766299422815   -0.1079811574398298
1.2629735118839982   0.06224766299422815   -0.1079811574398298
0.8377166457286094   0.02533074166738994   -0.018425656312430927
0.8377166457286094   0.02533074166738994   -0.018425656312430927
0.8377166457286094   0.02533074166738994   -0.018425656312430927
0.8377166457286094   0.02533074166738994   -0.018425656312430927
0.47307119920415136   0.05520245365499362   0.0754272073031993
0.47307119920415136   0.05520245365499362   0.0754272073031993
0.47307119920415136   0.05520245365499362   0.0754272073031993
0.47307119920415136   0.05520245365499362   0.0754272073031993
-0.22997447517697822   -0.16896913561714988   -0.032573418274916624
-0.22997447517697822   -0.16896913561714988   -0.032573418274916624
-0.22997447517697822   -0.16896913561714988   -0.032573418274916624
-0.22997447517697822   -0.16896913561714988   -0.032573418274916624
-0.16532527127094995   -0.04936915529399559   0.022886693645850897
-0.16532527127094995   -0.04936915529399559   0.022886693645850897
-0.16532527127094995   -0.04936915529399559   0.022886693645850897
-0.16532527127094995   -0.04936915529399559   0.022886693645850897
0.47697999346177106   0.001054373170417039   -0.01004097907780152
0.47697999346177106   0.001054373170417039   -0.01004097907780152
0.47697999346177106   0.001054373170417039   -0.01004097907780152
0.47697999346177106   0.001054373170417039   -0.01004097907780152
0.13246756543708887   -0.03581807354781118   -0.029848280324823805
0.13246756543708887   -0.03581807354781118   -0.029848280324823805
0.13246756543708887   -0.03581807354781118   -0.029848280324823805
0.13246756543708887   -0.03581807354781118   -0.029848280324823805
0.5112176219966895   0.09483532665316845   0.0673662101140317
0.5112176219966895   0.09483532665316845   0.0673662101140317
0.5112176219966895   0.09483532665316845   0.0673662101140317
0.5112176219966895   0.09483532665316845   0.0673662101140317
-0.19680770446617904   -0.1403949134370589   -0.043499714187231156
-0.19680770446617904   -0.1403949134370589   -0.043499714187231156
-0.19680770446617904   -0.1403949134370589   -0.043499714187231156
-0.19680770446617904   -0.1403949134370589   -0.043499714187231156
-0.1307102661501568   -0.009376202616644552   0.014478176429508199
-0.1307102661501568   -0.009376202616644552   0.014478176429508199
-0.1307102661501568   -0.009376202616644552   0.014478176429508199
-0.1307102661501568   -0.009376202616644552   0.014478176429508199
0.5176822973114397   0.03695779322284841   -0.018704173233039325
0.5176822973114397   0.03695779322284841   -0.018704173233039325
0.5176822973114397   0.03695779322284841   -0.018704173233039325
0.5176822973114397   0.03695779322284841   -0.018704173233039325
0.16592446214019976   -0.0042050869642882086   -0.011874952056059209
0.16592446214019976   -0.0042050869642882086   -0.011874952056059209
0.16592446214019976   -0.0042050869642882086   -0.011874952056059209
0.16592446214019976   -0.0042050869642882086   -0.011874952056059209
0.5532870764241863   0.13648594476919237   0.059791570784349726
0.5532870764241863   0.13648594476919237   0.059791570784349726
0.5532870764241863   0.13648594476919237   0.059791570784349726
0.5532870764241863   0.13648594476919237   0.059791570784349726
-0.16355229216438136   -0.10614160106446646   -0.05296655519379263
-0.16355229216438136   -0.10614160106446646   -0.05296655519379263
-0.16355229216438136   -0.10614160106446646   -0.05296655519379263
-0.16355229216438136   -0.10614160106446646   -0.05296655519379263
-0.09653642664618971   0.03692685392468626   0.006105711849425693
-0.09653642664618971   0.03692685392468626   0.006105711849425693
-0.09653642664618971   0.03692685392468626   0.006105711849425693
-0.09653642664618971   0.03692685392468626   0.006105711849425693
0.5537987488211199   0.0796842697424659   -0.026695120977572033
0.5537987488211199   0.0796842697424659   -0.026695120977572033
0.5537987488211199   0.0796842697424659   -0.026695120977572033
0.5537987488211199   0.0796842697424659   -0.026695120977572033
0.20719524568411996   0.034539466057527876   0.009101070834427752
0.20719524568411996   0.034539466057527876   0.009101070834427752
0.20719524568411996   0.034539466057527876   0.009101070834427752
0.20719524568411996   0.034539466057527876   0.009101070834427752
-0.18087363633429399   0.011925657191144433   0.0320359831302101
-0.18087363633429399   0.011925657191144433   0.0320359831302101
-0.18087363633429399   0.011925657191144433   0.0320359831302101
-0.18087363633429399   0.011925657191144433   0.0320359831302101
-0.8457452736307519   -0.1491338291065458   -0.004265877207229192
-0.8457452736307519   -0.1491338291065458   -0.004265877207229192
-0.8457452736307519   -0.1491338291065458   -0.004265877207229192
-0.8457452736307519   -0.1491338291065458   -0.004265877207229192
-0.8046731504208865   -0.08766768894356791   -0.019884228538013117
-0.8046731504208865   -0.08766768894356791   -0.019884228538013117
-0.8046731504208865   -0.08766768894356791   -0.019884228538013117
-0.8046731504208865   -0.08766768894356791   -0.019884228538013117
-0.1513738471371458   0.02194510380366288   0.02132955521721317
-0.1513738471371458   0.02194510380366288   0.02132955521721317
-0.1513738471371458   0.02194510380366288   0.02132955521721317
-0.1513738471371458   0.02194510380366288   0.02132955521721317
-0.4965417087166647   -0.04588141923875845   -0.01862610141416915
-0.4965417087166647   -0.04588141923875845   -0.01862610141416915
-0.4965417087166647   -0.04588141923875845   -0.01862610141416915
-0.4965417087166647   -0.04588141923875845   -0.01862610141416915
-0.1445488496483929   0.05317828850954107   0.02422135795509964
-0.1445488496483929   0.05317828850954107   0.02422135795509964
-0.1445488496483929   0.05317828850954107   0.02422135795509964
-0.1445488496483929   0.05317828850954107   0.02422135795509964
-0.8096654457415571   -0.11706817148137408   -0.015445222603560307
-0.8096654457415571   -0.11706817148137408   -0.015445222603560307
-0.8096654457415571   -0.11706817148137408   -0.015445222603560307
-0.8096654457415571   -0.11706817148137408   -0.015445222603560307
-0.7665272891833012   -0.043789289377398316   -0.02686502011558864
-0.7665272891833012   -0.043789289377398316   -0.02686502011558864
-0.7665272891833012   -0.043789289377398316   -0.02686502011558864
-0.7665272891833012   -0.043789289377398316   -0.02686502011558864
-0.11767919626639965   0.0582102942429268   0.012047028988722626
-0.11767919626639965   0.0582102942429268   0.012047028988722626
-0.11767919626639965   0.0582102942429268   0.012047028988722626
-0.11767919626639965   0.0582102942429268   0.012047028988722626
-0.45807152218075947   -0.009165429401897712   -0.00029000223706214176
-0.45807152218075947   -0.009165429401897712   -0.00029000223706214176
-0.45807152218075947   -0.009165429401897712   -0.00029000223706214176
-0.45807152218075947   -0.009165429401897712   -0.00029000223706214176
-0.10944606799300358   0.09607045983625406   0.015352504762375714
-0.10944606799300358   0.09607045983625406   0.015352504762375714
-0.10944606799300358   0.09607045983625406   0.015352504762375714
-0.10944606799300358   0.09607045983625406   0.015352504762375714
-0.7730565461509564   -0.07994558366498475   -0.02335501066627839
-0.7730565461509564   -0.07994558366498475   -0.02335501066627839
-0.7730565461509564   -0.07994558366498475   -0.02335501066627839
-0.7730565461509564   -0.07994558366498475   -0.02335501066627839
-0.7310224024091782   -6.374640387371566e-05   -0.035218553542174603
-0.7310224024091782   -6.374640387371566e-05   -0.035218553542174603
-0.7310224024091782   -6.374640387371566e-05   -0.035218553542174603
-0.7310224024091782   -6.374640387371566e-05   -0.035218553542174603
-0.08550736499812363   0.09525593630174176   0.002921937712700551
-0.08550736499812363   0.09525593630174176   0.002921937712700551
-0.08550736499812363   0.09525593630174176   0.002921937712700551
-0.08550736499812363   0.09525593630174176   0.002921937712700551
-0.42272610695100904   0.027410752965141866   0.017161285632630138
-0.42272610695100904   0.027410752965141866   0.017161285632630138
-0.42272610695100904   0.027410752965141866   0.017161285632630138
-0.42272610695100904   0.027410752965141866   0.017161285632630138
-0.8240728723233306   -0.03233922053906041   -0.012698479237599702
-0.8240728723233306   -0.03233922053906041   -0.012698479237599702
-0.8240728723233306   -0.03233922053906041   -0.012698479237599702
-0.8240728723233306   -0.03233922053906041   -0.012698479237599702
-1.447218107290829   -0.12072089316725598   0.028095652839400118
-1.447218107290829   -0.12072089316725598   0.028095652839400118
-1.447218107290829   -0.12072089316725598   0.028095652839400118
-1.447218107290829   -0.12072089316725598   0.028095652839400118
-1.4271089190087483   -0.12443153520446928   -0.05985184533223783
-1.4271089190087483   -0.12443153520446928   -0.05985184533223783
-1.4271089190087483   -0.12443153520446928   -0.05985184533223783
-1.4271089190087483   -0.12443153520446928   -0.05985184533223783
-0.7612278866783173   0.05600836268892101   0.05366603854235032
-0.7612278866783173   0.05600836268892101   0.05366603854235032
-0.7612278866783173   0.05600836268892101   0.05366603854235032
-0.7612278866783173   0.05600836268892101   0.05366603854235032
-1.107192672407188   -0.04837154734161689   -0.006484763687943512
-1.107192672407188   -0.04837154734161689   -0.006484763687943512
-1.107192672407188   -0.04837154734161689   -0.006484763687943512
-1.107192672407188   -0.04837154734161689   -0.006484763687943512
-0.7845811540105542   0.012188333146372299   -0.01928026857628512
-0.7845811540105542   0.012188333146372299   -0.01928026857628512
-0.7845811540105542   0.012188333146372299   -0.01928026857628512
-0.7845811540105542   0.012188333146372299   -0.01928026857628512
-1.4036832275583753   -0.08053908154377237   0.013384158258941306
-1.4036832275583753   -0.08053908154377237   0.013384158258941306
-1.4036832275583753   -0.08053908154377237   0.013384158258941306
-1.4036832275583753   -0.08053908154377237   0.013384158258941306
-1.3772911949368225   -0.08154929505827713   -0.06619861527824653
-1.3772911949368225   -0.08154929505827713   -0.06619861527824653
-1.3772911949368225   -0.08154929505827713   -0.06619861527824653
-1.3772911949368225   -0.08154929505827713   -0.06619861527824653
-0.7257000602401232   0.09060028869159006   0.0428815465313193
-0.7257000602401232   0.09060028869159006   0.0428815465313193
-0.7257000602401232   0.09060028869159006   0.0428815465313193
-0.7257000602401232   0.09060028869159006   0.0428815465313193
-1.0565433615082653   -0.007782401387383092   0.011893291095331174
-1.0565433615082653   -0.007782401387383092   0.011893291095331174
-1.0565433615082653   -0.007782401387383092   0.011893291095331174
-1.0565433615082653   -0.007782401387383092   0.011893291095331174
-0.7476217683149013   0.051999143576299506   -0.028125848727284603
-0.7476217683149013   0.051999143576299506   -0.028125848727284603
-0.7476217683149013   0.051999143576299506   -0.028125848727284603
-0.7476217683149013   0.051999143576299506   -0.028125848727284603
-1.3542320749986685   -0.04181073807961122   0.009358427433857966
-1.3542320749986685   -0.04181073807961122   0.009358427433857966
-1.3542320749986685   -0.04181073807961122   0.009358427433857966
-1.3542320749986685   -0.04181073807961122   0.009358427433857966
-1.3327422191432665   -0.035049349901236815   -0.06959479565698205
-1.3327422191432665   -0.035049349901236815   -0.06959479565698205
-1.3327422191432665   -0.035049349901236815   -0.06959479565698205
-1.3327422191432665   -0.035049349901236815   -0.06959479565698205
-0.6912898935929406   0.12866067296401967   0.034719571171125646
-0.6912898935929406   0.12866067296401967   0.034719571171125646
-0.6912898935929406   0.12866067296401967   0.034719571171125646
-0.6912898935929406   0.12866067296401967   0.034719571171125646
-1.0221961190984823   0.026936376692728414   0.02775383654738528
-1.0221961190984823   0.026936376692728414   0.02775383654738528
-1.0221961190984823   0.026936376692728414   0.02775383654738528
-1.0221961190984823   0.026936376692728414   0.02775383654738528
-1.4533939208657602   -0.06940147461647478   -0.05410283358603751
-1.4533939208657602   -0.06940147461647478   -0.05410283358603751
-1.4533939208657602   -0.06940147461647478   -0.05410283358603751
-1.4533939208657602   -0.06940147461647478   -0.05410283358603751
-2.0709467104190917   -0.0746075486466467   0.09378590958138082
-2.0709467104190917   -0.0746075486466467   0.09378590958138082
-2.0709467104190917   -0.0746075486466467   0.09378590958138082
-2.0709467104190917   -0.0746075486466467   0.09378590958138082
-2.0307876293913574   -0.14899788090047034   -0.07159506151386365
-2.0307876293913574   -0.14899788090047034   -0.07159506151386365
-2.0307876293913574   -0.14899788090047034   -0.07159506151386365
-2.0307876293913574   -0.14899788090047034   -0.07159506151386365
-1.3479930019864368   0.11600946003426688   0.09528674454058238
-1.3479930019864368   0.11600946003426688   0.09528674454058238
-1.3479930019864368   0.11600946003426688   0.09528674454058238
-1.3479930019864368   0.11600946003426688   0.09528674454058238
-1.6492555549726855   -0.020395432268106306   0.01899776321869455
-1.6492555549726855   -0.020395432268106306   0.01899776321869455
-1.6492555549726855   -0.020395432268106306   0.01899776321869455
-1.6492555549726855   -0.020395432268106306   0.01899776321869455
-1.4066557865567484   -0.021880036405106884   -0.06013768187159384
-1.4066557865567484   -0.021880036405106884   -0.06013768187159384
-1.4066557865567484   -0.021880036405106884   -0.06013768187159384
-1.4066557865567484   -0.021880036405106884   -0.06013768187159384
-1.9711757609698957   -0.010159300609957678   0.08762570030291837
-1.9711757609698957   -0.010159300609957678   0.08762570030291837
-1.9711757609698957   -0.010159300609957678   0.08762570030291837
-1.9711757609698957   -0.010159300609957678   0.08762570030291837
-1.9554925900962048   -0.12237417598020528   -0.08430019246340015
-1.9554925900962048   -0.12237417598020528   -0.08430019246340015
-1.9554925900962048   -0.12237417598020528   -0.08430019246340015
-1.9554925900962048   -0.12237417598020528   -0.08430019246340015
-1.3061581597474774   0.13243356456693905   0.0754837010432632
-1.3061581597474774   0.13243356456693905   0.0754837010432632
-1.3061581597474774   0.13243356456693905   0.0754837010432632
-1.3061581597474774   0.13243356456693905   0.0754837010432632
-1.6102212995642   0.008656896107619716   0.034323430907610114
-1.6102212995642   0.008656896107619716   0.034323430907610114
-1.6102212995642   0.008656896107619716   0.034323430907610114
-1.6102212995642   0.008656896107619716   0.034323430907610114
-1.3615051535540093   -0.00040015905298118604   -0.06841754436947564
-1.3615051535540093   -0.00040015905298118604   -0.06841754436947564
-1.3615051535540093   -0.00040015905298118604   -0.06841754436947564
-1.3615051535540093   -0.00040015905298118604   -0.06841754436947564
-1.8992035567677583   0.011401587161624704   0.06336921103697264
-1.8992035567677583   0.011401587161624704   0.06336921103697264
-1.8992035567677583   0.011401587161624704   0.06336921103697264
-1.8992035567677583   0.011401587161624704   0.06336921103697264
-1.8732510285679578   -0.09034128590694435   -0.09603670308278515
-1.8732510285679578   -0.09034128590694435   -0.09603670308278515
-1.8732510285679578   -0.09034128590694435   -0.09603670308278515
-1.8732510285679578   -0.09034128590694435   -0.09603670308278515
-1.2693650356075188   0.14795649099375768   0.06428528112676167
-1.2693650356075188   0.14795649099375768   0.06428528112676167
-1.2693650356075188   0.14795649099375768   0.06428528112676167
-1.2693650356075188   0.14795649099375768   0.06428528112676167
-1.5273325706402066   0.03283208516843811   0.05743188564400509
-1.5273325706402066   0.03283208516843811   0.05743188564400509
-1.5273325706402066   0.03283208516843811   0.05743188564400509
-1.5273325706402066   0.03283208516843811   0.05743188564400509
1.8268639485065667   0.13644996286836353   0.09701801967987128
1.8268639485065667   0.13644996286836353   0.09701801967987128
1.8268639485065667   0.13644996286836353   0.09701801967987128
1.8268639485065667   0.13644996286836353   0.09701801967987128
0.8062454788657994   -0.21559648705769247   -0.04448163956156044
0.8062454788657994   -0.21559648705769247   -0.04448163956156044
0.8062454788657994   -0.21559648705769247   -0.04448163956156044
0.8062454788657994   -0.21559648705769247   -0.04448163956156044
0.8993416130344797   -0.03771627703622421   0.06667721479541196
0.8993416130344797   -0.03771627703622421   0.06667721479541196
0.8993416130344797   -0.03771627703622421   0.06667721479541196
0.8993416130344797   -0.03771627703622421   0.06667721479541196
1.8472205349518693   -0.0038407224868792778   -0.0697903809614739
1.8472205349518693   -0.0038407224868792778   -0.0697903809614739
1.8472205349518693   -0.0038407224868792778   -0.0697903809614739
1.8472205349518693   -0.0038407224868792778   -0.0697903809614739
1.2661221493460115   -0.03856870188822592   -0.09919485359815507
1.2661221493460115   -0.03856870188822592   -0.09919485359815507
1.2661221493460115   -0.03856870188822592   -0.09919485359815507
1.2661221493460115   -0.03856870188822592   -0.09919485359815507
1.9117130373250524   0.16765737212192994   0.08117403629561011
1.9117130373250524   0.16765737212192994   0.08117403629561011
1.9117130373250524   0.16765737212192994   0.08117403629561011
1.9117130373250524   0.16765737212192994   0.08117403629561011
0.8410382352434069   -0.20302524706292543   -0.059530704133242365
0.8410382352434069   -0.20302524706292543   -0.059530704133242365
0.8410382352434069   -0.20302524706292543   -0.059530704133242365
0.8410382352434069   -0.20302524706292543   -0.059530704133242365
0.9358259907468999   -0.018042717294335736   0.053924463350615875
0.9358259907468999   -0.018042717294335736   0.053924463350615875
0.9358259907468999   -0.018042717294335736   0.053924463350615875
0.9358259907468999   -0.018042717294335736   0.053924463350615875
1.9108609864389998   0.0178601487253246   -0.08725069889657064
1.9108609864389998   0.0178601487253246   -0.08725069889657064
1.9108609864389998   0.0178601487253246   -0.08725069889657064
1.9108609864389998   0.0178601487253246   -0.08725069889657064
1.3459609572983438   -0.015359153865974806   -0.06744475815544577
1.3459609572983438   -0.015359153865974806   -0.06744475815544577
1.3459609572983438   -0.015359153865974806   -0.06744475815544577
1.3459609572983438   -0.015359153865974806   -0.06744475815544577
1.9749828292676892   0.19103957544511618   0.060179088527086005
1.9749828292676892   0.19103957544511618   0.060179088527086005
1.9749828292676892   0.19103957544511618   0.060179088527086005
1.9749828292676892   0.19103957544511618   0.060179088527086005
0.8771255176233662   -0.18580077430897124   -0.07181984525241655
0.8771255176233662   -0.18580077430897124   -0.07181984525241655
0.8771255176233662   -0.18580077430897124   -0.07181984525241655
0.8771255176233662   -0.18580077430897124   -0.07181984525241655
0.9688662941805795   0.03447787267778718   0.04727710868138415
0.9688662941805795   0.03447787267778718   0.04727710868138415
0.9688662941805795   0.03447787267778718   0.04727710868138415
0.9688662941805795   0.03447787267778718   0.04727710868138415
1.9891201101070723   0.08133968022973848   -0.09138668210168994
1.9891201101070723   0.08133968022973848   -0.09138668210168994
1.9891201101070723   0.08133968022973848   -0.09138668210168994
1.9891201101070723   0.08133968022973848   -0.09138668210168994
1.375970388891512   0.01585820918775316   -0.04544093375678562
1.375970388891512   0.01585820918775316   -0.04544093375678562
1.375970388891512   0.01585820918775316   -0.04544093375678562
1.375970388891512   0.01585820918775316   -0.04544093375678562
0.8919269465076657   0.0796597289106469   0.08866948267942339
0.8919269465076657   0.0796597289106469   0.08866948267942339
0.8919269465076657   0.0796597289106469   0.08866948267942339
0.8919269465076657   0.0796597289106469   0.08866948267942339
-0.10948310540780624   -0.26582474832939673   -0.025303142668955114
-0.10948310540780624   -0.26582474832939673   -0.025303142668955114
-0.10948310540780624   -0.26582474832939673   -0.025303142668955114
-0.10948310540780624   -0.26582474832939673   -0.025303142668955114
-0.029220886194483417   -0.093649355850295   0.02264125547495408
-0.029220886194483417   -0.093649355850295   0.02264125547495408
-0.029220886194483417   -0.093649355850295   0.02264125547495408
-0.029220886194483417   -0.093649355850295   0.02264125547495408
0.8844710021249034   -0.04972906607541053   0.004336949286716726
0.8844710021249034   -0.04972906607541053   0.004336949286716726
0.8844710021249034   -0.04972906607541053   0.004336949286716726
0.8844710021249034   -0.04972906607541053   0.004336949286716726
0.39833346941841974   -0.07430044645164971   -0.04736260707821427
0.39833346941841974   -0.07430044645164971   -0.04736260707821427
0.39833346941841974   -0.07430044645164971   -0.04736260707821427
0.39833346941841974   -0.07430044645164971   -0.04736260707821427
0.93117557802341   0.10960653203255195   0.07852423067129544
0.93117557802341   0.10960653203255195   0.07852423067129544
0.93117557802341   0.10960653203255195   0.07852423067129544
0.93117557802341   0.10960653203255195   0.07852423067129544
-0.07267227558431599   -0.2497317674495821   -0.038533279874921694
-0.07267227558431599   -0.2497317674495821   -0.038533279874921694
-0.07267227558431599   -0.2497317674495821   -0.038533279874921694
-0.07267227558431599   -0.2497317674495821   -0.038533279874921694
0.007987598141958655   -0.05847150641674807   0.013844027738459313
0.007987598141958655   -0.05847150641674807   0.013844027738459313
0.007987598141958655   -0.05847150641674807   0.013844027738459313
0.007987598141958655   -0.05847150641674807   0.013844027738459313
0.9225552509891196   -0.02320808430092189   -0.007263868431699121
0.9225552509891196   -0.02320808430092189   -0.007263868431699121
0.9225552509891196   -0.02320808430092189   -0.007263868431699121
0.9225552509891196   -0.02320808430092189   -0.007263868431699121
0.4306848182063265   -0.05270921570440143   -0.03071835545556676
0.4306848182063265   -0.05270921570440143   -0.03071835545556676
0.4306848182063265   -0.05270921570440143   -0.03071835545556676
0.4306848182063265   -0.05270921570440143   -0.03071835545556676
0.971769169405404   0.1455296084650078   0.07006803088379318
0.971769169405404   0.1455296084650078   0.07006803088379318
0.971769169405404   0.1455296084650078   0.07006803088379318
0.971769169405404   0.1455296084650078   0.07006803088379318
-0.039298634507563074   -0.22528151341591507   -0.055777128509982336
-0.039298634507563074   -0.22528151341591507   -0.055777128509982336
-0.039298634507563074   -0.22528151341591507   -0.055777128509982336
-0.039298634507563074   -0.22528151341591507   -0.055777128509982336
0.037190223211089043   -0.017308705797069696   0.004948526934780795
0.037190223211089043   -0.017308705797069696   0.004948526934780795
0.037190223211089043   -0.017308705797069696   0.004948526934780795
0.037190223211089043   -0.017308705797069696   0.004948526934780795
0.9510844599891652   0.010594760266290859   -0.017748949864205096
0.9510844599891652   0.010594760266290859   -0.017748949864205096
0.9510844599891652   0.010594760266290859   -0.017748949864205096
0.9510844599891652   0.010594760266290859   -0.017748949864205096
0.4702254961662834   -0.02042814522012791   -0.012884171386547082
0.4702254961662834   -0.02042814522012791   -0.012884171386547082
0.4702254961662834   -0.02042814522012791   -0.012884171386547082
0.4702254961662834   -0.02042814522012791   -0.012884171386547082
-0.038040667746547505   0.022064272477784655   0.0440200248301572
-0.038040667746547505   0.022064272477784655   0.0440200248301572
-0.038040667746547505   0.022064272477784655   0.0440200248301572
-0.038040667746547505   0.022064272477784655   0.0440200248301572
-1.0181789841062578   -0.3338022170582363   -0.020400516113843505
-1.0181789841062578   -0.3338022170582363   -0.020400516113843505
-1.0181789841062578   -0.3338022170582363   -0.020400516113843505
-1.0181789841062578   -0.3338022170582363   -0.020400516113843505
-0.9368877698837945   -0.14370532699625307   -0.021408676035779166
-0.9368877698837945   -0.14370532699625307   -0.021408676035779166
-0.9368877698837945   -0.14370532699625307   -0.021408676035779166
-0.9368877698837945   -0.14370532699625307   -0.021408676035779166
-0.03417183793138212   -0.11557243296003623   0.019809573900201813
-0.03417183793138212   -0.11557243296003623   0.019809573900201813
-0.03417183793138212   -0.11557243296003623   0.019809573900201813
-0.03417183793138212   -0.11557243296003623   0.019809573900201813
-0.5091420493498299   -0.13510500525121444   -0.042333255627028624
-0.5091420493498299   -0.13510500525121444   -0.042333255627028624
-0.5091420493498299   -0.13510500525121444   -0.042333255627028624
-0.5091420493498299   -0.13510500525121444   -0.042333255627028624
0.003282696417612474   0.055760386673499675   0.03574942601163886
0.003282696417612474   0.055760386673499675   0.03574942601163886
0.003282696417612474   0.055760386673499675   0.03574942601163886
0.003282696417612474   0.055760386673499675   0.03574942601163886
-0.9719961699677672   -0.3126920123647772   -0.027963991087118042
-0.9719961699677672   -0.3126920123647772   -0.027963991087118042
-0.9719961699677672   -0.3126920123647772   -0.027963991087118042
-0.9719961699677672   -0.3126920123647772   -0.027963991087118042
-0.8907444924664749   -0.10464755242217352   -0.029176908136703747
-0.8907444924664749   -0.10464755242217352   -0.029176908136703747
-0.8907444924664749   -0.10464755242217352   -0.029176908136703747
-0.8907444924664749   -0.10464755242217352   -0.029176908136703747
0.0005003799779621093   -0.09009264518810153   0.008029075689830033
0.0005003799779621093   -0.09009264518810153   0.008029075689830033
0.0005003799779621093   -0.09009264518810153   0.008029075689830033
0.0005003799779621093   -0.09009264518810153   0.008029075689830033
-0.4643483264059842   -0.10703782321839628   -0.023538032954650148
-0.4643483264059842   -0.10703782321839628   -0.023538032954650148
-0.4643483264059842   -0.10703782321839628   -0.023538032954650148
-0.4643483264059842   -0.10703782321839628   -0.023538032954650148
0.04110036851691799   0.09312006336762281   0.027816309828885086
0.04110036851691799   0.09312006336762281   0.027816309828885086
0.04110036851691799   0.09312006336762281   0.027816309828885086
0.04110036851691799   0.09312006336762281   0.027816309828885086
-0.9313774227204368   -0.2878932026929026   -0.04909590913577652
-0.9313774227204368   -0.2878932026929026   -0.04909590913577652
-0.9313774227204368   -0.2878932026929026   -0.04909590913577652
-0.9313774227204368   -0.2878932026929026   -0.04909590913577652
-0.8581409243558653   -0.0674288719033328   -0.037868543954930556
-0.8581409243558653   -0.0674288719033328   -0.037868543954930556
-0.8581409243558653   -0.0674288719033328   -0.037868543954930556
-0.8581409243558653   -0.0674288719033328   -0.037868543954930556
0.023278133553701816   -0.06976262911223544   -0.012157998036993429
0.023278133553701816   -0.06976262911223544   -0.012157998036993429
0.023278133553701816   -0.06976262911223544   -0.012157998036993429
0.023278133553701816   -0.06976262911223544   -0.012157998036993429
-0.43148891204336093   -0.08087637982194235   -0.011793156489842492
-0.43148891204336093   -0.08087637982194235   -0.011793156489842492
-0.43148891204336093   -0.08087637982194235   -0.011793156489842492
-0.43148891204336093   -0.08087637982194235   -0.011793156489842492
-0.9532056135622543   -0.02783725089987238   -0.0014986295521949994
-0.9532056135622543   -0.02783725089987238   -0.0014986295521949994
-0.9532056135622543   -0.02783725089987238   -0.0014986295521949994
-0.9532056135622543   -0.02783725089987238   -0.0014986295521949994
-1.9308929361457918   -0.35887740984763905   -0.016455134421829526
-1.9308929361457918   -0.35887740984763905   -0.016455134421829526
-1.9308929361457918   -0.35887740984763905   -0.016455134421829526
-1.9308929361457918   -0.35887740984763905   -0.016455134421829526
-1.8434921993421878   -0.18393823431228642   -0.06380263379987774
-1.8434921993421878   -0.18393823431228642   -0.06380263379987774
-1.8434921993421878   -0.18393823431228642   -0.06380263379987774
-1.8434921993421878   -0.18393823431228642   -0.06380263379987774
-0.9194530725005184   -0.12003802144550979   0.04209750532984968
-0.9194530725005184   -0.12003802144550979   0.04209750532984968
-0.9194530725005184   -0.12003802144550979   0.04209750532984968
-0.9194530725005184   -0.12003802144550979   0.04209750532984968
-1.3993689033231422   -0.16231948104363045   -0.029851391961286146
-1.3993689033231422   -0.16231948104363045   -0.029851391961286146
-1.3993689033231422   -0.16231948104363045   -0.029851391961286146
-1.3993689033231422   -0.16231948104363045   -0.029851391961286146
-0.9022326788756648   0.015588739118929495   -0.007427287110321139
-0.9022326788756648   0.015588739118929495   -0.007427287110321139
-0.9022326788756648   0.015588739118929495   -0.007427287110321139
-0.9022326788756648   0.015588739118929495   -0.007427287110321139
-1.861485557646622   -0.32033795955630373   -0.01736970007801636
-1.861485557646622   -0.32033795955630373   -0.01736970007801636
-1.861485557646622   -0.32033795955630373   -0.01736970007801636
-1.861485557646622   -0.32033795955630373   -0.01736970007801636
-1.7775599072252009   -0.1431298565466908   -0.07390933267500747
-1.7775599072252009   -0.1431298565466908   -0.07390933267500747
-1.7775599072252009   -0.1431298565466908   -0.07390933267500747
-1.7775599072252009   -0.1431298565466908   -0.07390933267500747
-0.8746207811166368   -0.08937949413811887   0.03617359032843971
-0.8746207811166368   -0.08937949413811887   0.03617359032843971
-0.8746207811166368   -0.08937949413811887   0.03617359032843971
-0.8746207811166368   -0.08937949413811887   0.03617359032843971
-1.3316576481126743   -0.1231692008333819   -0.009870421300381751
-1.3316576481126743   -0.1231692008333819   -0.009870421300381751
-1.3316576481126743   -0.1231692008333819   -0.009870421300381751
-1.3316576481126743   -0.1231692008333819   -0.009870421300381751
-0.8559747207468149   0.0533116057432263   -0.013287207703807882
-0.8559747207468149   0.0533116057432263   -0.013287207703807882
-0.8559747207468149   0.0533116057432263   -0.013287207703807882
-0.8559747207468149   0.0533116057432263   -0.013287207703807882
-1.7994080393514793   -0.28902302818448183   -0.037256821668593565
-1.7994080393514793   -0.28902302818448183   -0.037256821668593565
-1.7994080393514793   -0.28902302818448183   -0.037256821668593565
-1.7994080393514793   -0.28902302818448183   -0.037256821668593565
-1.7240194597628116   -0.1000797238383096   -0.07625284667071111
-1.7240194597628116   -0.1000797238383096   -0.07625284667071111
-1.7240194597628116   -0.1000797238383096   -0.07625284667071111
-1.7240194597628116   -0.1000797238383096   -0.07625284667071111
-0.8488573294338373   -0.06988849275686643   0.011009051508750589
-0.8488573294338373   -0.06988849275686643   0.011009051508750589
-0.8488573294338373   -0.06988849275686643   0.011009051508750589
-0.8488573294338373   -0.06988849275686643   0.011009051508750589
-1.2941777891151092   -0.09929276794304762   -0.003362892084428408
-1.2941777891151092   -0.09929276794304762   -0.003362892084428408
-1.2941777891151092   -0.09929276794304762   -0.003362892084428408
-1.2941777891151092   -0.09929276794304762   -0.003362892084428408
-1.877999345754353   -0.06412348007702473   -0.04674111223524842
-1.877999345754353   -0.06412348007702473   -0.04674111223524842
-1.877999345754353   -0.06412348007702473   -0.04674111223524842
-1.877999345754353   -0.06412348007702473   -0.04674111223524842
-2.8316876161292033   -0.24222043547499356   0.10753397936593721
-2.8316876161292033   -0.24222043547499356   0.10753397936593721
-2.8316876161292033   -0.24222043547499356   0.10753397936593721
-2.8316876161292033   -0.24222043547499356   0.10753397936593721
-2.7339377761716364   -0.19272396091546778   -0.06243558602289147
-2.7339377761716364   -0.19272396091546778   -0.06243558602289147
-2.7339377761716364   -0.19272396091546778   -0.06243558602289147
-2.7339377761716364   -0.19272396091546778   -0.06243558602289147
-1.764117804392337   0.050379777282238525   0.09875132935483626
-1.764117804392337   0.050379777282238525   0.09875132935483626
-1.764117804392337   0.050379777282238525   0.09875132935483626
-1.764117804392337   0.050379777282238525   0.09875132935483626
-2.1989988832278486   -0.07613904399902921   0.010268905094840478
-2.1989988832278486   -0.07613904399902921   0.010268905094840478
-2.1989988832278486   -0.07613904399902921   0.010268905094840478
-2.1989988832278486   -0.07613904399902921   0.010268905094840478
-1.8052768809100581   -0.004864599874062847   -0.05179967607744497
-1.8052768809100581   -0.004864599874062847   -0.05179967607744497
-1.8052768809100581   -0.004864599874062847   -0.05179967607744497
-1.8052768809100581   -0.004864599874062847   -0.05179967607744497
-2.686138621181563   -0.1308395052868106   0.11467573329881707
-2.686138621181563   -0.1308395052868106   0.11467573329881707
-2.686138621181563   -0.1308395052868106   0.11467573329881707
-2.686138621181563   -0.1308395052868106   0.11467573329881707
-2.6291091571420773   -0.16212416550263148   -0.07435395191005119
-2.6291091571420773   -0.16212416550263148   -0.07435395191005119
-2.6291091571420773   -0.16212416550263148   -0.07435395191005119
-2.6291091571420773   -0.16212416550263148   -0.07435395191005119
-1.698891217870513   0.08090624813606262   0.09539800941567875
-1.698891217870513   0.08090624813606262   0.09539800941567875
-1.698891217870513   0.08090624813606262   0.09539800941567875
-1.698891217870513   0.08090624813606262   0.09539800941567875
-2.136888602018784   -0.030716527200987276   0.043727605946500825
-2.136888602018784   -0.030716527200987276   0.043727605946500825
-2.136888602018784   -0.030716527200987276   0.043727605946500825
-2.136888602018784   -0.030716527200987276   0.043727605946500825
-1.7415202308794873   0.019080207194384635   -0.055921014687498924
-1.7415202308794873   0.019080207194384635   -0.055921014687498924
-1.7415202308794873   0.019080207194384635   -0.055921014687498924
-1.7415202308794873   0.019080207194384635   -0.055921014687498924
-2.5851524530580425   -0.09897043348590451   0.08227583649337264
-2.5851524530580425   -0.09897043348590451   0.08227583649337264
-2.5851524530580425   -0.09897043348590451   0.08227583649337264
-2.5851524530580425   -0.09897043348590451   0.08227583649337264
-2.5207193676087085   -0.1331398805672303   -0.08984224467698838
-2.5207193676087085   -0.1331398805672303   -0.08984224467698838
-2.5207193676087085   -0.1331398805672303   -0.08984224467698838
-2.5207193676087085   -0.1331398805672303   -0.08984224467698838
-1.6504700381566773   0.11756596109532441   0.07384857642632738
-1.6504700381566773   0.11756596109532441   0.07384857642632738
-1.6504700381566773   0.11756596109532441   0.07384857642632738
-1.6504700381566773   0.11756596109532441   0.07384857642632738
-2.0204745589030515   0.00814185775611509   0.07717193549617578
-2.0204745589030515   0.00814185775611509   0.07717193549617578
-2.0204745589030515   0.00814185775611509   0.07717193549617578
-2.0204745589030515   0.00814185775611509   0.07717193549617578
2.4966024766136234   0.1495229903935908   0.09075874994697024
2.4966024766136234   0.1495229903935908   0.09075874994697024
2.4966024766136234   0.1495229903935908   0.09075874994697024
2.4966024766136234   0.1495229903935908   0.09075874994697024
1.1906447176011485   -0.22328594994361678   0.02056463803370709
1.1906447176011485   -0.22328594994361678   0.02056463803370709
1.1906447176011485   -0.22328594994361678   0.02056463803370709
1.1906447176011485   -0.22328594994361678   0.02056463803370709
1.256578033651253   -0.09403157582634791   0.06989785364179919
1.256578033651253   -0.09403157582634791   0.06989785364179919
1.256578033651253   -0.09403157582634791   0.06989785364179919
1.256578033651253   -0.09403157582634791   0.06989785364179919
2.5099018093078853   0.020812512878163103   -0.01997859924389525
2.5099018093078853   0.020812512878163103   -0.01997859924389525
2.5099018093078853   0.020812512878163103   -0.01997859924389525
2.5099018093078853   0.020812512878163103   -0.01997859924389525
1.7555582149197282   -0.04811197955962648   -0.11682886506438227
1.7555582149197282   -0.04811197955962648   -0.11682886506438227
1.7555582149197282   -0.04811197955962648   -0.11682886506438227
1.7555582149197282   -0.04811197955962648   -0.11682886506438227
2.557394007530481   0.16650919097548983   0.07178571377175945
2.557394007530481   0.16650919097548983   0.07178571377175945
2.557394007530481   0.16650919097548983   0.07178571377175945
2.557394007530481   0.16650919097548983   0.07178571377175945
1.220498632837955   -0.2283154565143765   0.023784730263336745
1.220498632837955   -0.2283154565143765   0.023784730263336745
1.220498632837955   -0.2283154565143765   0.023784730263336745
1.220498632837955   -0.2283154565143765   0.023784730263336745
1.2816099203309825   -0.0798981127683262   0.053209059743192566
1.2816099203309825   -0.0798981127683262   0.053209059743192566
1.2816099203309825   -0.0798981127683262   0.053209059743192566
1.2816099203309825   -0.0798981127683262   0.053209059743192566
2.55405466413133   0.036756626814566484   -0.0058944392572595206
2.55405466413133   0.036756626814566484   -0.0058944392572595206
2.55405466413133   0.036756626814566484   -0.0058944392572595206
2.55405466413133   0.036756626814566484   -0.0058944392572595206
1.8281496002740023   -0.038084274417613695   -0.0797620116283884
1.8281496002740023   -0.038084274417613695   -0.0797620116283884
1.8281496002740023   -0.038084274417613695   -0.0797620116283884
1.8281496002740023   -0.038084274417613695   -0.0797620116283884
2.5942189882020172   0.18193220869949223   0.04975159921124975
2.5942189882020172   0.18193220869949223   0.04975159921124975
2.5942189882020172   0.18193220869949223   0.04975159921124975
2.5942189882020172   0.18193220869949223   0.04975159921124975
1.2493851449049997   -0.21713414600854736   0.029321215853501337
1.2493851449049997   -0.21713414600854736   0.029321215853501337
1.2493851449049997   -0.21713414600854736   0.029321215853501337
1.2493851449049997   -0.21713414600854736   0.029321215853501337
1.3184233553784894   -0.024794123816208102   0.04864105239715995
1.3184233553784894   -0.024794123816208102   0.04864105239715995
1.3184233553784894   -0.024794123816208102   0.04864105239715995
1.3184233553784894   -0.024794123816208102   0.04864105239715995
2.5999355398690747   0.07319592922095747   -0.0007306320432020202
2.5999355398690747   0.07319592922095747   -0.0007306320432020202
2.5999355398690747   0.07319592922095747   -0.0007306320432020202
2.5999355398690747   0.07319592922095747   -0.0007306320432020202
1.837321445616152   -0.01766704291041782   -0.05955300869805118
1.837321445616152   -0.01766704291041782   -0.05955300869805118
1.837321445616152   -0.01766704291041782   -0.05955300869805118
1.837321445616152   -0.01766704291041782   -0.05955300869805118
1.2564658286931376   0.03141876311215852   0.09496548043787739
1.2564658286931376   0.03141876311215852   0.09496548043787739
1.2564658286931376   0.03141876311215852   0.09496548043787739
1.2564658286931376   0.03141876311215852   0.09496548043787739
0.06727986544030573   -0.44541783786872957   0.045962032144272524
0.06727986544030573   -0.44541783786872957   0.045962032144272524
0.06727986544030573   -0.44541783786872957   0.045962032144272524
0.06727986544030573   -0.44541783786872957   0.045962032144272524
0.15329695709138208   -0.18827885525011015   0.042762048446739864
0.15329695709138208   -0.18827885525011015   0.042762048446739864
0.15329695709138208   -0.18827885525011015   0.042762048446739864
0.15329695709138208   -0.18827885525011015   0.042762048446739864
1.2241666294607483   -0.21509746127619483   0.028906718139110638
1.2241666294607483   -0.21509746127619483   0.028906718139110638
1.2241666294607483   -0.21509746127619483   0.028906718139110638
1.2241666294607483   -0.21509746127619483   0.028906718139110638
0.6533360166740522   -0.2000266144199254   -0.07486720323347759
0.6533360166740522   -0.2000266144199254   -0.07486720323347759
0.6533360166740522   -0.2000266144199254   -0.07486720323347759
0.6533360166740522   -0.2000266144199254   -0.07486720323347759
1.2863875428404365   0.045641347468856786   0.07927247629252
1.2863875428404365   0.045641347468856786   0.07927247629252
1.2863875428404365   0.045641347468856786   0.07927247629252
1.2863875428404365   0.045641347468856786   0.07927247629252
0.10750035817366538   -0.4325933495331869   0.05809354814123316
0.10750035817366538   -0.4325933495331869   0.05809354814123316
0.10750035817366538   -0.4325933495331869   0.05809354814123316
0.10750035817366538   -0.4325933495331869   0.05809354814123316
0.18791386272897007   -0.16247659167821   0.031034982942009938
0.18791386272897007   -0.16247659167821   0.031034982942009938
0.18791386272897007   -0.16247659167821   0.031034982942009938
0.18791386272897007   -0.16247659167821   0.031034982942009938
1.2537818708372364   -0.20161147471660934   0.035782174222746516
1.2537818708372364   -0.20161147471660934   0.035782174222746516
1.2537818708372364   -0.20161147471660934   0.035782174222746516
1.2537818708372364   -0.20161147471660934   0.035782174222746516
0.682838039768281   -0.19017101793455915   -0.03743191328600229
0.682838039768281   -0.19017101793455915   -0.03743191328600229
0.682838039768281   -0.19017101793455915   -0.03743191328600229
0.682838039768281   -0.19017101793455915   -0.03743191328600229
1.3142888247267595   0.06994374826974689   0.06676172068400493
1.3142888247267595   0.06994374826974689   0.06676172068400493
1.3142888247267595   0.06994374826974689   0.06676172068400493
1.3142888247267595   0.06994374826974689   0.06676172068400493
0.14321116998218195   -0.41822755352183144   0.0632724810516907
0.14321116998218195   -0.41822755352183144   0.0632724810516907
0.14321116998218195   -0.41822755352183144   0.0632724810516907
0.14321116998218195   -0.41822755352183144   0.0632724810516907
0.24102378816789932   -0.12374880456610698   0.02059389779507176
0.24102378816789932   -0.12374880456610698   0.02059389779507176
0.24102378816789932   -0.12374880456610698   0.02059389779507176
0.24102378816789932   -0.12374880456610698   0.02059389779507176
1.2862128034158   -0.18109950665821817   0.043893675425727224
1.2862128034158   -0.18109950665821817   0.043893675425727224
1.2862128034158   -0.18109950665821817   0.043893675425727224
1.2862128034158   -0.18109950665821817   0.043893675425727224
0.7344470298751239   -0.16625973176754688   0.006119812025691743
0.7344470298751239   -0.16625973176754688   0.006119812025691743
0.7344470298751239   -0.16625973176754688   0.006119812025691743
0.7344470298751239   -0.16625973176754688   0.006119812025691743
0.142321171501405   -0.08539328149810603   0.06114400607914527
0.142321171501405   -0.08539328149810603   0.06114400607914527
0.142321171501405   -0.08539328149810603   0.06114400607914527
0.142321171501405   -0.08539328149810603   0.06114400607914527
-1.0655143796675421   -0.7655740975094718   0.06642106720977473
-1.0655143796675421   -0.7655740975094718   0.06642106720977473
-1.0655143796675421   -0.7655740975094718   0.06642106720977473
-1.0655143796675421   -0.7655740975094718   0.06642106720977473
-0.9294392145219467   -0.297673173765892   0.004573246461487615
-0.9294392145219467   -0.297673173765892   0.004573246461487615
-0.9294392145219467   -0.297673173765892   0.004573246461487615
-0.9294392145219467   -0.297673173765892   0.004573246461487615
0.0757912751993928   -0.5581609149442938   0.0251156986809771
0.0757912751993928   -0.5581609149442938   0.0251156986809771
0.0757912751993928   -0.5581609149442938   0.0251156986809771
0.0757912751993928   -0.5581609149442938   0.0251156986809771
-0.4582226142448151   -0.4297697867341107   -0.08984505140752652
-0.4582226142448151   -0.4297697867341107   -0.08984505140752652
-0.4582226142448151   -0.4297697867341107   -0.08984505140752652
-0.4582226142448151   -0.4297697867341107   -0.08984505140752652
0.17856911732952285   -0.06734779817535741   0.048191792562691
0.17856911732952285   -0.06734779817535741   0.048191792562691
0.17856911732952285   -0.06734779817535741   0.048191792562691
0.17856911732952285   -0.06734779817535741   0.048191792562691
-1.0084743435787045   -0.7647435774614446   0.07646800487325878
-1.0084743435787045   -0.7647435774614446   0.07646800487325878
-1.0084743435787045   -0.7647435774614446   0.07646800487325878
-1.0084743435787045   -0.7647435774614446   0.07646800487325878
-0.8769566649157968   -0.267159798776626   0.00015035264090547742
-0.8769566649157968   -0.267159798776626   0.00015035264090547742
-0.8769566649157968   -0.267159798776626   0.00015035264090547742
-0.8769566649157968   -0.267159798776626   0.00015035264090547742
0.11227601631646034   -0.5459984920626486   0.03636765126389982
0.11227601631646034   -0.5459984920626486   0.03636765126389982
0.11227601631646034   -0.5459984920626486   0.03636765126389982
0.11227601631646034   -0.5459984920626486   0.03636765126389982
-0.40509002009217243   -0.4152084819281723   -0.03356938808374414
-0.40509002009217243   -0.4152084819281723   -0.03356938808374414
-0.40509002009217243   -0.4152084819281723   -0.03356938808374414
-0.40509002009217243   -0.4152084819281723   -0.03356938808374414
0.21170808407163713   -0.043292516593254574   0.030822014570389803
0.21170808407163713   -0.043292516593254574   0.030822014570389803
0.21170808407163713   -0.043292516593254574   0.030822014570389803
0.21170808407163713   -0.043292516593254574   0.030822014570389803
-0.9549342808041309   -0.7484113223791743   0.09151379680180086
-0.9549342808041309   -0.7484113223791743   0.09151379680180086
-0.9549342808041309   -0.7484113223791743   0.09151379680180086
-0.9549342808041309   -0.7484113223791743   0.09151379680180086
-0.7903576057119516   -0.2320008733302913   -0.009713479861558003
-0.7903576057119516   -0.2320008733302913   -0.009713479861558003
-0.7903576057119516   -0.2320008733302913   -0.009713479861558003
-0.7903576057119516   -0.2320008733302913   -0.009713479861558003
0.16923601144491796   -0.5118472920287884   0.049753501642846504
0.16923601144491796   -0.5118472920287884   0.049753501642846504
0.16923601144491796   -0.5118472920287884   0.049753501642846504
0.16923601144491796   -0.5118472920287884   0.049753501642846504
-0.33611076799551637   -0.3824391375737971   0.025398344566785594
-0.33611076799551637   -0.3824391375737971   0.025398344566785594
-0.33611076799551637   -0.3824391375737971   0.025398344566785594
-0.33611076799551637   -0.3824391375737971   0.025398344566785594
-0.950596435012628   -0.1536997867847233   0.029136479759585082
-0.950596435012628   -0.1536997867847233   0.029136479759585082
-0.950596435012628   -0.1536997867847233   0.029136479759585082
-0.950596435012628   -0.1536997867847233   0.029136479759585082
-2.3728914668474026   -1.1923945726156906   -0.05663595387051401
-2.3728914668474026   -1.1923945726156906   -0.05663595387051401
-2.3728914668474026   -1.1923945726156906   -0.05663595387051401
-2.3728914668474026   -1.1923945726156906   -0.05663595387051401
-2.1482384386725464   -0.3873378607681416   -0.06561632511128096
-2.1482384386725464   -0.3873378607681416   -0.06561632511128096
-2.1482384386725464   -0.3873378607681416   -0.06561632511128096
-2.1482384386725464   -0.3873378607681416   -0.06561632511128096
-1.0664066925034812   -0.9977456177971302   0.0198083005850537
-1.0664066925034812   -0.9977456177971302   0.0198083005850537
-1.0664066925034812   -0.9977456177971302   0.0198083005850537
-1.0664066925034812   -0.9977456177971302   0.0198083005850537
-1.632669292017663   -0.7052448716859256   -0.09432799845415084
-1.632669292017663   -0.7052448716859256   -0.09432799845415084
-1.632669292017663   -0.7052448716859256   -0.09432799845415084
-1.632669292017663   -0.7052448716859256   -0.09432799845415084
-0.888575049687847   -0.11669811547977221   0.02791901234586619
-0.888575049687847   -0.11669811547977221   0.02791901234586619
-0.888575049687847   -0.11669811547977221   0.02791901234586619
-0.888575049687847   -0.11669811547977221   0.02791901234586619
-2.320778824503698   -1.2630941061010166   -0.05256200893416166
-2.320778824503698   -1.2630941061010166   -0.05256200893416166
-2.320778824503698   -1.2630941061010166   -0.05256200893416166
-2.320778824503698   -1.2630941061010166   -0.05256200893416166
-2.078426551957382   -0.3507431539351305   -0.06683893781593447
-2.078426551957382   -0.3507431539351305   -0.06683893781593447
-2.078426551957382   -0.3507431539351305   -0.06683893781593447
-2.078426551957382   -0.3507431539351305   -0.06683893781593447
-1.0155622597927159   -0.990030464702542   0.029993044182235445
-1.0155622597927159   -0.990030464702542   0.029993044182235445
-1.0155622597927159   -0.990030464702542   0.029993044182235445
-1.0155622597927159   -0.990030464702542   0.029993044182235445
-1.5594942258723619   -0.6863236842765956   -0.0663844851711549
-1.5594942258723619   -0.6863236842765956   -0.0663844851711549
-1.5594942258723619   -0.6863236842765956   -0.0663844851711549
-1.5594942258723619   -0.6863236842765956   -0.0663844851711549
-0.8392085952189421   -0.08765466212878652   0.009385564477345624
-0.8392085952189421   -0.08765466212878652   0.009385564477345624
-0.8392085952189421   -0.08765466212878652   0.009385564477345624
-0.8392085952189421   -0.08765466212878652   0.009385564477345624
-2.2547524351360115   -1.2530911751137388   -0.04612033253045303
-2.2547524351360115   -1.2530911751137388   -0.04612033253045303
-2.2547524351360115   -1.2530911751137388   -0.04612033253045303
-2.2547524351360115   -1.2530911751137388   -0.04612033253045303
-1.9695717376372137   -0.3113855998302717   -0.07576207565489915
-1.9695717376372137   -0.3113855998302717   -0.07576207565489915
-1.9695717376372137   -0.3113855998302717   -0.07576207565489915
-1.9695717376372137   -0.3113855998302717   -0.07576207565489915
-0.905568694054428   -0.8906991446098298   0.07292934970560963
-0.905568694054428   -0.8906991446098298   0.07292934970560963
-0.905568694054428   -0.8906991446098298   0.07292934970560963
-0.905568694054428   -0.8906991446098298   0.07292934970560963
-1.4777930106242345   -0.6223696663823027   -0.03720343203140464
-1.4777930106242345   -0.6223696663823027   -0.03720343203140464
-1.4777930106242345   -0.6223696663823027   -0.03720343203140464
-1.4777930106242345   -0.6223696663823027   -0.03720343203140464
-2.152286727651703   -0.1308736831285185   -0.015133147379187598
-2.152286727651703   -0.1308736831285185   -0.015133147379187598
-2.152286727651703   -0.1308736831285185   -0.015133147379187598
-2.152286727651703   -0.1308736831285185   -0.015133147379187598
-3.8003753147296635   -0.7523267317232087   0.03874165611361935
-3.8003753147296635   -0.7523267317232087   0.03874165611361935
-3.8003753147296635   -0.7523267317232087   0.03874165611361935
-3.8003753147296635   -0.7523267317232087   0.03874165611361935
-3.650438320966969   -0.3626968820885191   -0.08031145092431959
-3.650438320966969   -0.3626968820885191   -0.08031145092431959
-3.650438320966969   -0.3626968820885191   -0.08031145092431959
-3.650438320966969   -0.3626968820885191   -0.08031145092431959
-2.1039358755457034   -0.38922954096515416   0.15778817071993234
-2.1039358755457034   -0.38922954096515416   0.15778817071993234
-2.1039358755457034   -0.38922954096515416   0.15778817071993234
-2.1039358755457034   -0.38922954096515416   0.15778817071993234
-2.8081508458087248   -0.43654549690894984   0.040484708318901524
-2.8081508458087248   -0.43654549690894984   0.040484708318901524
-2.8081508458087248   -0.43654549690894984   0.040484708318901524
-2.8081508458087248   -0.43654549690894984   0.040484708318901524
-2.0633728695373152   -0.029122308048649237   0.0004959678453759081
-2.0633728695373152   -0.029122308048649237   0.0004959678453759081
-2.0633728695373152   -0.029122308048649237   0.0004959678453759081
-2.0633728695373152   -0.029122308048649237   0.0004959678453759081
-3.7053386789609792   -0.73714146699065   0.01963134400772948
-3.7053386789609792   -0.73714146699065   0.01963134400772948
-3.7053386789609792   -0.73714146699065   0.01963134400772948
-3.7053386789609792   -0.73714146699065   0.01963134400772948
-3.5676712816894804   -0.332314527145791   -0.1019258031745609
-3.5676712816894804   -0.332314527145791   -0.1019258031745609
-3.5676712816894804   -0.332314527145791   -0.1019258031745609
-3.5676712816894804   -0.332314527145791   -0.1019258031745609
-2.0320633214560857   -0.3696382101167752   0.1838722708722098
-2.0320633214560857   -0.3696382101167752   0.1838722708722098
-2.0320633214560857   -0.3696382101167752   0.1838722708722098
-2.0320633214560857   -0.3696382101167752   0.1838722708722098
-2.76431547164549   -0.359453929961782   0.03886286296685347
-2.76431547164549   -0.359453929961782   0.03886286296685347
-2.76431547164549   -0.359453929961782   0.03886286296685347
-2.76431547164549   -0.359453929961782   0.03886286296685347
-1.9993350702119619   -0.0022392173501267765   -0.019885465673819075
-1.9993350702119619   -0.0022392173501267765   -0.019885465673819075
-1.9993350702119619   -0.0022392173501267765   -0.019885465673819075
-1.9993350702119619   -0.0022392173501267765   -0.019885465673819075
-3.605714594538701   -0.705028581517531   0.08057168695104577
-3.605714594538701   -0.705028581517531   0.08057168695104577
-3.605714594538701   -0.705028581517531   0.08057168695104577
-3.605714594538701   -0.705028581517531   0.08057168695104577
-3.395816800062038   -0.2690475998052732   -0.11387246617129947
-3.395816800062038   -0.2690475998052732   -0.11387246617129947
-3.395816800062038   -0.2690475998052732   -0.11387246617129947
-3.395816800062038   -0.2690475998052732   -0.11387246617129947
-1.9203112279558983   -0.34352605917241275   0.20268093209383475
-1.9203112279558983   -0.34352605917241275   0.20268093209383475
-1.9203112279558983   -0.34352605917241275   0.20268093209383475
-1.9203112279558983   -0.34352605917241275   0.20268093209383475
-2.598389645467537   -0.27474353332698376   0.07942299664021221
-2.598389645467537   -0.27474353332698376   0.07942299664021221
-2.598389645467537   -0.27474353332698376   0.07942299664021221
-2.598389645467537   -0.27474353332698376   0.07942299664021221
2.734492871469365   0.08908976598524854   0.03859506380981775
2.734492871469365   0.08908976598524854   0.03859506380981775
2.734492871469365   0.08908976598524854   0.03859506380981775
2.734492871469365   0.08908976598524854   0.03859506380981775
1.3970187387850426   -0.07325623894160244   0.028614439113648943
1.3970187387850426   -0.07325623894160244   0.028614439113648943
1.3970187387850426   -0.07325623894160244   0.028614439113648943
1.3970187387850426   -0.07325623894160244   0.028614439113648943
1.3421840300825099   -0.197530609389992   0.05602356864070429
1.3421840300825099   -0.197530609389992   0.05602356864070429
1.3421840300825099   -0.197530609389992   0.05602356864070429
1.3421840300825099   -0.197530609389992   0.05602356864070429
2.7146106218763784   0.15298647048964875   0.020786473758211882
2.7146106218763784   0.15298647048964875   0.020786473758211882
2.7146106218763784   0.15298647048964875   0.020786473758211882
2.7146106218763784   0.15298647048964875   0.020786473758211882
1.9379703273832833   -0.027657644342928056   -0.07151598090969633
1.9379703273832833   -0.027657644342928056   -0.07151598090969633
1.9379703273832833   -0.027657644342928056   -0.07151598090969633
1.9379703273832833   -0.027657644342928056   -0.07151598090969633
2.6994986959794867   0.06864189417828559   0.02957142058511561
2.6994986959794867   0.06864189417828559   0.02957142058511561
2.6994986959794867   0.06864189417828559   0.02957142058511561
2.6994986959794867   0.06864189417828559   0.02957142058511561
1.352794903871091   -0.11768708518693949   0.029234413380558016
1.352794903871091   -0.11768708518693949   0.029234413380558016
1.352794903871091   -0.11768708518693949   0.029234413380558016
1.352794903871091   -0.11768708518693949   0.029234413380558016
1.3072584749817597   -0.20214975538010532   0.04636983891895191
1.3072584749817597   -0.20214975538010532   0.04636983891895191
1.3072584749817597   -0.20214975538010532   0.04636983891895191
1.3072584749817597   -0.20214975538010532   0.04636983891895191
2.6826596664758586   0.14629474103379514   0.03583439851132314
2.6826596664758586   0.14629474103379514   0.03583439851132314
2.6826596664758586   0.14629474103379514   0.03583439851132314
2.6826596664758586   0.14629474103379514   0.03583439851132314
1.931995139751316   -0.038163268149070506   -0.08291403699227749
1.931995139751316   -0.038163268149070506   -0.08291403699227749
1.931995139751316   -0.038163268149070506   -0.08291403699227749
1.931995139751316   -0.038163268149070506   -0.08291403699227749
2.6601952806238582   0.0609375666846087   0.00886964360048495
2.6601952806238582   0.0609375666846087   0.00886964360048495
2.6601952806238582   0.0609375666846087   0.00886964360048495
2.6601952806238582   0.0609375666846087   0.00886964360048495
1.3216568348009459   -0.12485860706374691   0.041070489698525475
1.3216568348009459   -0.12485860706374691   0.041070489698525475
1.3216568348009459   -0.12485860706374691   0.041070489698525475
1.3216568348009459   -0.12485860706374691   0.041070489698525475
1.2703867531235036   -0.18456044622888973   0.04003627745313286
1.2703867531235036   -0.18456044622888973   0.04003627745313286
1.2703867531235036   -0.18456044622888973   0.04003627745313286
1.2703867531235036   -0.18456044622888973   0.04003627745313286
2.6333946489709636   0.1477659882378713   0.051423280618670644
2.6333946489709636   0.1477659882378713   0.051423280618670644
2.6333946489709636   0.1477659882378713   0.051423280618670644
2.6333946489709636   0.1477659882378713   0.051423280618670644
1.859215368239381   -0.038526907631921126   -0.1120615660503024
1.859215368239381   -0.038526907631921126   -0.1120615660503024
1.859215368239381   -0.038526907631921126   -0.1120615660503024
1.859215368239381   -0.038526907631921126   -0.1120615660503024
1.3841152950330802   -0.17756246841381856   0.06840344982605306
1.3841152950330802   -0.17756246841381856   0.06840344982605306
1.3841152950330802   -0.17756246841381856   0.06840344982605306
1.3841152950330802   -0.17756246841381856   0.06840344982605306
0.27074107980582535   -0.16486407666312958   0.014883681057994987
0.27074107980582535   -0.16486407666312958   0.014883681057994987
0.27074107980582535   -0.16486407666312958   0.014883681057994987
0.27074107980582535   -0.16486407666312958   0.014883681057994987
0.1762017854680726   -0.415735184331081   0.07368294685735563
0.1762017854680726   -0.415735184331081   0.07368294685735563
0.1762017854680726   -0.415735184331081   0.07368294685735563
0.1762017854680726   -0.415735184331081   0.07368294685735563
1.3917571743679171   0.05345442221600338   0.052904258461744985
1.3917571743679171   0.05345442221600338   0.052904258461744985
1.3917571743679171   0.05345442221600338   0.052904258461744985
1.3917571743679171   0.05345442221600338   0.052904258461744985
0.7933292186541457   -0.17687877834772214   -0.0030078470054403783
0.7933292186541457   -0.17687877834772214   -0.0030078470054403783
0.7933292186541457   -0.17687877834772214   -0.0030078470054403783
0.7933292186541457   -0.17687877834772214   -0.0030078470054403783
1.344882699203314   -0.18528194165379902   0.05726824650852405
1.344882699203314   -0.18528194165379902   0.05726824650852405
1.344882699203314   -0.18528194165379902   0.05726824650852405
1.344882699203314   -0.18528194165379902   0.05726824650852405
0.21124218624154997   -0.18883289485240562   0.021982661246067098
0.21124218624154997   -0.18883289485240562   0.021982661246067098
0.21124218624154997   -0.18883289485240562   0.021982661246067098
0.21124218624154997   -0.18883289485240562   0.021982661246067098
0.1338885910338831   -0.41955061728942344   0.0659797411620294
0.1338885910338831   -0.41955061728942344   0.0659797411620294
0.1338885910338831   -0.41955061728942344   0.0659797411620294
0.1338885910338831   -0.41955061728942344   0.0659797411620294
1.3595449564483784   0.042942208282114425   0.06271028258982626
1.3595449564483784   0.042942208282114425   0.06271028258982626
1.3595449564483784   0.042942208282114425   0.06271028258982626
1.3595449564483784   0.042942208282114425   0.06271028258982626
0.7358915985619929   -0.1885538131273322   -0.03813171188382242
0.7358915985619929   -0.1885538131273322   -0.03813171188382242
0.7358915985619929   -0.1885538131273322   -0.03813171188382242
0.7358915985619929   -0.1885538131273322   -0.03813171188382242
1.3102790459559928   -0.1880032390461724   0.04732617745617493
1.3102790459559928   -0.1880032390461724   0.04732617745617493
1.3102790459559928   -0.1880032390461724   0.04732617745617493
1.3102790459559928   -0.1880032390461724   0.04732617745617493
0.17029750636628355   -0.20146216512112342   0.029935865655731753
0.17029750636628355   -0.20146216512112342   0.029935865655731753
0.17029750636628355   -0.20146216512112342   0.029935865655731753
0.17029750636628355   -0.20146216512112342   0.029935865655731753
0.08653236552720259   -0.41947696161257386   0.051686838542546326
0.08653236552720259   -0.41947696161257386   0.051686838542546326
0.08653236552720259   -0.41947696161257386   0.051686838542546326
0.08653236552720259   -0.41947696161257386   0.051686838542546326
1.3229876141679573   0.043476474551531974   0.07500366189498353
1.3229876141679573   0.043476474551531974   0.07500366189498353
1.3229876141679573   0.043476474551531974   0.07500366189498353
1.3229876141679573   0.043476474551531974   0.07500366189498353
0.7007498459660993   -0.1872130699276584   -0.06803450505104407
0.7007498459660993   -0.1872130699276584   -0.06803450505104407
0.7007498459660993   -0.1872130699276584   -0.06803450505104407
0.7007498459660993   -0.1872130699276584   -0.06803450505104407
0.21077300758873538   -0.5113041540319068   0.061483397341322216
0.21077300758873538   -0.5113041540319068   0.061483397341322216
0.21077300758873538   -0.5113041540319068   0.061483397341322216
0.21077300758873538   -0.5113041540319068   0.061483397341322216
-0.8118631130043977   -0.25610241210314355   0.0011166947802415325
-0.8118631130043977   -0.25610241210314355   0.0011166947802415325
-0.8118631130043977   -0.25610241210314355   0.0011166947802415325
-0.8118631130043977   -0.25610241210314355   0.0011166947802415325
-0.9829012333470111   -0.7580321387443777   0.08445208822689979
-0.9829012333470111   -0.7580321387443777   0.08445208822689979
-0.9829012333470111   -0.7580321387443777   0.08445208822689979
-0.9829012333470111   -0.7580321387443777   0.08445208822689979
0.24248015950789775   -0.044053899671365096   0.033393532396761585
0.24248015950789775   -0.044053899671365096   0.033393532396761585
0.24248015950789775   -0.044053899671365096   0.033393532396761585
0.24248015950789775   -0.044053899671365096   0.033393532396761585
-0.33085255858404994   -0.38685469041695686   0.014501653481938673
-0.33085255858404994   -0.38685469041695686   0.014501653481938673
-0.33085255858404994   -0.38685469041695686   0.014501653481938673
-0.33085255858404994   -0.38685469041695686   0.014501653481938673
0.145338546817789   -0.5404569054181988   0.04408847469305552
0.145338546817789   -0.5404569054181988   0.04408847469305552
0.145338546817789   -0.5404569054181988   0.04408847469305552
0.145338546817789   -0.5404569054181988   0.04408847469305552
-0.9023015531369356   -0.2781710654775983   0.007589416010490159
-0.9023015531369356   -0.2781710654775983   0.007589416010490159
-0.9023015531369356   -0.2781710654775983   0.007589416010490159
-0.9023015531369356   -0.2781710654775983   0.007589416010490159
-1.041873829083439   -0.7703694028567458   0.0686629426932516
-1.041873829083439   -0.7703694028567458   0.0686629426932516
-1.041873829083439   -0.7703694028567458   0.0686629426932516
-1.041873829083439   -0.7703694028567458   0.0686629426932516
0.2028418330427653   -0.055728196383145266   0.04692353030016223
0.2028418330427653   -0.055728196383145266   0.04692353030016223
0.2028418330427653   -0.055728196383145266   0.04692353030016223
0.2028418330427653   -0.055728196383145266   0.04692353030016223
-0.4045258845435939   -0.4104679095172773   -0.0347311339940829
-0.4045258845435939   -0.4104679095172773   -0.0347311339940829
-0.4045258845435939   -0.4104679095172773   -0.0347311339940829
-0.4045258845435939   -0.4104679095172773   -0.0347311339940829
0.10026655478287774   -0.5500084384155142   0.02832738103309332
0.10026655478287774   -0.5500084384155142   0.02832738103309332
0.10026655478287774   -0.5500084384155142   0.02832738103309332
0.10026655478287774   -0.5500084384155142   0.02832738103309332
-0.958946310437134   -0.29573692043796057   0.008668053505984988
-0.958946310437134   -0.29573692043796057   0.008668053505984988
-0.958946310437134   -0.29573692043796057   0.008668053505984988
-0.958946310437134   -0.29573692043796057   0.008668053505984988
-1.1057434160418107   -0.7651948239673787   0.05799526943662403
-1.1057434160418107   -0.7651948239673787   0.05799526943662403
-1.1057434160418107   -0.7651948239673787   0.05799526943662403
-1.1057434160418107   -0.7651948239673787   0.05799526943662403
0.15872914857799617   -0.062267362448632776   0.05546115463257316
0.15872914857799617   -0.062267362448632776   0.05546115463257316
0.15872914857799617   -0.062267362448632776   0.05546115463257316
0.15872914857799617   -0.062267362448632776   0.05546115463257316
-0.46426885748657715   -0.4194810789202252   -0.0838483297677199
-0.46426885748657715   -0.4194810789202252   -0.0838483297677199
-0.46426885748657715   -0.4194810789202252   -0.0838483297677199
-0.46426885748657715   -0.4194810789202252   -0.0838483297677199
-0.9214761677739453   -0.8761621002175196   0.07311110904688378
-0.9214761677739453   -0.8761621002175196   0.07311110904688378
-0.9214761677739453   -0.8761621002175196   0.07311110904688378
-0.9214761677739453   -0.8761621002175196   0.07311110904688378
-2.0437085393992165   -0.31893575328487705   -0.047481678452195544
-2.0437085393992165   -0.31893575328487705   -0.047481678452195544
-2.0437085393992165   -0.31893575328487705   -0.047481678452195544
-2.0437085393992165   -0.31893575328487705   -0.047481678452195544
-2.342524583362621   -1.2701537381417216   -0.06611441027876389
-2.342524583362621   -1.2701537381417216   -0.06611441027876389
-2.342524583362621   -1.2701537381417216   -0.06611441027876389
-2.342524583362621   -1.2701537381417216   -0.06611441027876389
-0.8568930723641709   -0.07239202577683378   0.02885278017354884
-0.8568930723641709   -0.07239202577683378   0.02885278017354884
-0.8568930723641709   -0.07239202577683378   0.02885278017354884
-0.8568930723641709   -0.07239202577683378   0.02885278017354884
-1.5264388858616127   -0.6099409141277914   -0.05289909371423736
-1.5264388858616127   -0.6099409141277914   -0.05289909371423736
-1.5264388858616127   -0.6099409141277914   -0.05289909371423736
-1.5264388858616127   -0.6099409141277914   -0.05289909371423736
-1.041682012029505   -0.9918826088377795   0.024398664907831713
-1.041682012029505   -0.9918826088377795   0.024398664907831713
-1.041682012029505   -0.9918826088377795   0.024398664907831713
-1.041682012029505   -0.9918826088377795   0.024398664907831713
-2.1529410757010607   -0.3458685870845491   -0.04248202302813758
-2.1529410757010607   -0.3458685870845491   -0.04248202302813758
-2.1529410757010607   -0.3458685870845491   -0.04248202302813758
-2.1529410757010607   -0.3458685870845491   -0.04248202302813758
-2.41263164208807   -1.2907351044210693   -0.07646077211504657
-2.41263164208807   -1.2907351044210693   -0.07646077211504657
-2.41263164208807   -1.2907351044210693   -0.07646077211504657
-2.41263164208807   -1.2907351044210693   -0.07646077211504657
-0.9112055650974248   -0.0915066391227842   0.04314149888935515
-0.9112055650974248   -0.0915066391227842   0.04314149888935515
-0.9112055650974248   -0.0915066391227842   0.04314149888935515
-0.9112055650974248   -0.0915066391227842   0.04314149888935515
-1.612070100437227   -0.6756186073032278   -0.07453065287123936
-1.612070100437227   -0.6756186073032278   -0.07453065287123936
-1.612070100437227   -0.6756186073032278   -0.07453065287123936
-1.612070100437227   -0.6756186073032278   -0.07453065287123936
-1.1019066256513714   -1.0113933627594613   0.009522919756294629
-1.1019066256513714   -1.0113933627594613   0.009522919756294629
-1.1019066256513714   -1.0113933627594613   0.009522919756294629
-1.1019066256513714   -1.0113933627594613   0.009522919756294629
-2.222126953359279   -0.37104475260955205   -0.04362768028262964
-2.222126953359279   -0.37104475260955205   -0.04362768028262964
-2.222126953359279   -0.37104475260955205   -0.04362768028262964
-2.222126953359279   -0.37104475260955205   -0.04362768028262964
-2.472473732730435   -1.235911764261949   -0.08622870987897982
-2.472473732730435   -1.235911764261949   -0.08622870987897982
-2.472473732730435   -1.235911764261949   -0.08622870987897982
-2.472473732730435   -1.235911764261949   -0.08622870987897982
-0.9800188275206954   -0.11848128841838383   0.03990467649318731
-0.9800188275206954   -0.11848128841838383   0.03990467649318731
-0.9800188275206954   -0.11848128841838383   0.03990467649318731
-0.9800188275206954   -0.11848128841838383   0.03990467649318731
-1.6908468073432963   -0.6980775618761172   -0.0951312544523209
-1.6908468073432963   -0.6980775618761172   -0.0951312544523209
-1.6908468073432963   -0.6980775618761172   -0.0951312544523209
-1.6908468073432963   -0.6980775618761172   -0.0951312544523209
-2.0070219328291876   -0.36500105528602556   0.18201665639905973
-2.0070219328291876   -0.36500105528602556   0.18201665639905973
-2.0070219328291876   -0.36500105528602556   0.18201665639905973
-2.0070219328291876   -0.36500105528602556   0.18201665639905973
-3.5380524281726617   -0.2651969725974842   -0.06325673077034952
-3.5380524281726617   -0.2651969725974842   -0.06325673077034952
-3.5380524281726617   -0.2651969725974842   -0.06325673077034952
-3.5380524281726617   -0.2651969725974842   -0.06325673077034952
-3.7553269080393745   -0.7410646300506365   0.050003757786191594
-3.7553269080393745   -0.7410646300506365   0.050003757786191594
-3.7553269080393745   -0.7410646300506365   0.050003757786191594
-3.7553269080393745   -0.7410646300506365   0.050003757786191594
-2.0658374798935903   0.02940640401562039   0.01776096490902758
-2.0658374798935903   0.02940640401562039   0.01776096490902758
-2.0658374798935903   0.02940640401562039   0.01776096490902758
-2.0658374798935903   0.02940640401562039   0.01776096490902758
-2.7062286237193915   -0.26034946478995413   0.05448450048126638
-2.7062286237193915   -0.26034946478995413   0.05448450048126638
-2.7062286237193915   -0.26034946478995413   0.05448450048126638
-2.7062286237193915   -0.26034946478995413   0.05448450048126638
-2.121353121535359   -0.3919606601365939   0.1615498208523899
-2.121353121535359   -0.3919606601365939   0.1615498208523899
-2.121353121535359   -0.3919606601365939   0.1615498208523899
-2.121353121535359   -0.3919606601365939   0.1615498208523899
-3.6902292803587193   -0.3101155798595327   -0.055457154001608874
-3.6902292803587193   -0.3101155798595327   -0.055457154001608874
-3.6902292803587193   -0.3101155798595327   -0.055457154001608874
-3.6902292803587193   -0.3101155798595327   -0.055457154001608874
-3.8477830764252823   -0.7727525663567257   -0.01597975535834628
-3.8477830764252823   -0.7727525663567257   -0.01597975535834628
-3.8477830764252823   -0.7727525663567257   -0.01597975535834628
-3.8477830764252823   -0.7727525663567257   -0.01597975535834628
-2.1310547180943638   0.008016481268570852   0.032672262163825225
-2.1310547180943638   0.008016481268570852   0.032672262163825225
-2.1310547180943638   0.008016481268570852   0.032672262163825225
-2.1310547180943638   0.008016481268570852   0.032672262163825225
-2.86874015874054   -0.343843516085131   0.022530958088004288
-2.86874015874054   -0.343843516085131   0.022530958088004288
-2.86874015874054   -0.343843516085131   0.022530958088004288
-2.86874015874054   -0.343843516085131   0.022530958088004288
-2.1948115215566317   -0.41215113257259606   0.13405585869365144
-2.1948115215566317   -0.41215113257259606   0.13405585869365144
-2.1948115215566317   -0.41215113257259606   0.13405585869365144
-2.1948115215566317   -0.41215113257259606   0.13405585869365144
-3.7648640151959025   -0.33342269474843705   -0.04071432081967509
-3.7648640151959025   -0.33342269474843705   -0.04071432081967509
-3.7648640151959025   -0.33342269474843705   -0.04071432081967509
-3.7648640151959025   -0.33342269474843705   -0.04071432081967509
-3.9284829815999354   -0.7857206782828396   -0.00012040981426286734
-3.9284829815999354   -0.7857206782828396   -0.00012040981426286734
-3.9284829815999354   -0.7857206782828396   -0.00012040981426286734
-3.9284829815999354   -0.7857206782828396   -0.00012040981426286734
-2.2225828572535082   -0.08598015518060975   0.013294058424313637
-2.2225828572535082   -0.08598015518060975   0.013294058424313637
-2.2225828572535082   -0.08598015518060975   0.013294058424313637
-2.2225828572535082   -0.08598015518060975   0.013294058424313637
-2.9040990603033516   -0.4156108536247507   0.03559777424834185
-2.9040990603033516   -0.4156108536247507   0.03559777424834185
-2.9040990603033516   -0.4156108536247507   0.03559777424834185
-2.9040990603033516   -0.4156108536247507   0.03559777424834185
2.3926610383540123   0.10969706847981597   -0.05226132334822867
2.3926610383540123   0.10969706847981597   -0.05226132334822867
2.3926610383540123   0.10969706847981597   -0.05226132334822867
2.3926610383540123   0.10969706847981597   -0.05226132334822867
1.2050113124748825   -0.0238418712516677   0.025837163314855985
1.2050113124748825   -0.0238418712516677   0.025837163314855985
1.2050113124748825   -0.0238418712516677   0.025837163314855985
1.2050113124748825   -0.0238418712516677   0.025837163314855985
1.1279750918723654   -0.1777151445405306   -0.04608607138867213
1.1279750918723654   -0.1777151445405306   -0.04608607138867213
1.1279750918723654   -0.1777151445405306   -0.04608607138867213
1.1279750918723654   -0.1777151445405306   -0.04608607138867213
2.364852487119656   0.17291404256987603   0.03022925114456236
2.364852487119656   0.17291404256987603   0.03022925114456236
2.364852487119656   0.17291404256987603   0.03022925114456236
2.364852487119656   0.17291404256987603   0.03022925114456236
1.6797015682462517   0.004112031116324133   -0.06489468357526558
1.6797015682462517   0.004112031116324133   -0.06489468357526558
1.6797015682462517   0.004112031116324133   -0.06489468357526558
1.6797015682462517   0.004112031116324133   -0.06489468357526558
2.3257905227442164   0.06052654189918866   -0.052693070061926556
2.3257905227442164   0.06052654189918866   -0.052693070061926556
2.3257905227442164   0.06052654189918866   -0.052693070061926556
2.3257905227442164   0.06052654189918866   -0.052693070061926556
1.1648570866554842   -0.06750761346216283   0.028116371448540192
1.1648570866554842   -0.06750761346216283   0.028116371448540192
1.1648570866554842   -0.06750761346216283   0.028116371448540192
1.1648570866554842   -0.06750761346216283   0.028116371448540192
1.0865116435431998   -0.18770698706720373   -0.03802621906107384
1.0865116435431998   -0.18770698706720373   -0.03802621906107384
1.0865116435431998   -0.18770698706720373   -0.03802621906107384
1.0865116435431998   -0.18770698706720373   -0.03802621906107384
2.307222084284065   0.15878072009852362   0.04410810928267153
2.307222084284065   0.15878072009852362   0.04410810928267153
2.307222084284065   0.15878072009852362   0.04410810928267153
2.307222084284065   0.15878072009852362   0.04410810928267153
1.656887985281027   -0.016930347250901423   -0.07758982110792988
1.656887985281027   -0.016930347250901423   -0.07758982110792988
1.656887985281027   -0.016930347250901423   -0.07758982110792988
1.656887985281027   -0.016930347250901423   -0.07758982110792988
2.2678789874568244   0.04783866214726806   -0.04166531690227787
2.2678789874568244   0.04783866214726806   -0.04166531690227787
2.2678789874568244   0.04783866214726806   -0.04166531690227787
2.2678789874568244   0.04783866214726806   -0.04166531690227787
1.1228427410688175   -0.0797769284175816   0.035699209917392755
1.1228427410688175   -0.0797769284175816   0.035699209917392755
1.1228427410688175   -0.0797769284175816   0.035699209917392755
1.1228427410688175   -0.0797769284175816   0.035699209917392755
1.0463290050590774   -0.18514215378713286   -0.02605178559452541
1.0463290050590774   -0.18514215378713286   -0.02605178559452541
1.0463290050590774   -0.18514215378713286   -0.02605178559452541
1.0463290050590774   -0.18514215378713286   -0.02605178559452541
2.2358421564785367   0.14903397554987025   0.05731383683513501
2.2358421564785367   0.14903397554987025   0.05731383683513501
2.2358421564785367   0.14903397554987025   0.05731383683513501
2.2358421564785367   0.14903397554987025   0.05731383683513501
1.5746403368228505   -0.02957574612213887   -0.10199002931672875
1.5746403368228505   -0.02957574612213887   -0.10199002931672875
1.5746403368228505   -0.02957574612213887   -0.10199002931672875
1.5746403368228505   -0.02957574612213887   -0.10199002931672875
1.2112005351550146   0.022366132739897765   0.010575272723942618
1.2112005351550146   0.022366132739897765   0.010575272723942618
1.2112005351550146   0.022366132739897765   0.010575272723942618
1.2112005351550146   0.022366132739897765   0.010575272723942618
0.11783779730144871   -0.07232383527337297   -0.002608171307582518
0.11783779730144871   -0.07232383527337297   -0.002608171307582518
0.11783779730144871   -0.07232383527337297   -0.002608171307582518
0.11783779730144871   -0.07232383527337297   -0.002608171307582518
0.045249557662614986   -0.23528782752606525   -0.044299373543235
0.045249557662614986   -0.23528782752606525   -0.044299373543235
0.045249557662614986   -0.23528782752606525   -0.044299373543235
0.045249557662614986   -0.23528782752606525   -0.044299373543235
1.212711979102229   0.1397812911078689   0.06010192911223258
1.212711979102229   0.1397812911078689   0.06010192911223258
1.212711979102229   0.1397812911078689   0.06010192911223258
1.212711979102229   0.1397812911078689   0.06010192911223258
0.6348785809126337   -0.03326076833271846   -0.025270682676749076
0.6348785809126337   -0.03326076833271846   -0.025270682676749076
0.6348785809126337   -0.03326076833271846   -0.025270682676749076
0.6348785809126337   -0.03326076833271846   -0.025270682676749076
1.177132312646282   0.0036213131394916553   0.01836357480088248
1.177132312646282   0.0036213131394916553   0.01836357480088248
1.177132312646282   0.0036213131394916553   0.01836357480088248
1.177132312646282   0.0036213131394916553   0.01836357480088248
0.08216935921492086   -0.09778771446132781   0.0027995211535569095
0.08216935921492086   -0.09778771446132781   0.0027995211535569095
0.08216935921492086   -0.09778771446132781   0.0027995211535569095
0.08216935921492086   -0.09778771446132781   0.0027995211535569095
0.005271153474583623   -0.2466079188520612   -0.03076655010725729
0.005271153474583623   -0.2466079188520612   -0.03076655010725729
0.005271153474583623   -0.2466079188520612   -0.03076655010725729
0.005271153474583623   -0.2466079188520612   -0.03076655010725729
1.1688180576476332   0.11949064671207227   0.06630821768181705
1.1688180576476332   0.11949064671207227   0.06630821768181705
1.1688180576476332   0.11949064671207227   0.06630821768181705
1.1688180576476332   0.11949064671207227   0.06630821768181705
0.588916435138675   -0.05191612904651283   -0.03578194080085152
0.588916435138675   -0.05191612904651283   -0.03578194080085152
0.588916435138675   -0.05191612904651283   -0.03578194080085152
0.588916435138675   -0.05191612904651283   -0.03578194080085152
1.1352319843613818   -0.009073952550601672   0.02694245051324247
1.1352319843613818   -0.009073952550601672   0.02694245051324247
1.1352319843613818   -0.009073952550601672   0.02694245051324247
1.1352319843613818   -0.009073952550601672   0.02694245051324247
0.038661586160919095   -0.11823896018930183   0.007816654661660719
0.038661586160919095   -0.11823896018930183   0.007816654661660719
0.038661586160919095   -0.11823896018930183   0.007816654661660719
0.038661586160919095   -0.11823896018930183   0.007816654661660719
-0.0376619730311798   -0.2478405153200122   -0.020931700263538675
-0.0376619730311798   -0.2478405153200122   -0.020931700263538675
-0.0376619730311798   -0.2478405153200122   -0.020931700263538675
-0.0376619730311798   -0.2478405153200122   -0.020931700263538675
1.1245344438454483   0.10653359866163745   0.07329965588856271
1.1245344438454483   0.10653359866163745   0.07329965588856271
1.1245344438454483   0.10653359866163745   0.07329965588856271
1.1245344438454483   0.10653359866163745   0.07329965588856271
0.5528724200832457   -0.059430031334508915   -0.0448456773493826
0.5528724200832457   -0.059430031334508915   -0.0448456773493826
0.5528724200832457   -0.059430031334508915   -0.0448456773493826
0.5528724200832457   -0.059430031334508915   -0.0448456773493826
0.11973665178936252   -0.0692444541072649   0.003806719965874575
0.11973665178936252   -0.0692444541072649   0.003806719965874575
0.11973665178936252   -0.0692444541072649   0.003806719965874575
0.11973665178936252   -0.0692444541072649   0.003806719965874575
-0.932887673997881   -0.10790464373648599   -0.02937781010263429
-0.932887673997881   -0.10790464373648599   -0.02937781010263429
-0.932887673997881   -0.10790464373648599   -0.02937781010263429
-0.932887673997881   -0.10790464373648599   -0.02937781010263429
-1.0135844678978947   -0.3120280733202646   -0.05041270844188205
-1.0135844678978947   -0.3120280733202646   -0.05041270844188205
-1.0135844678978947   -0.3120280733202646   -0.05041270844188205
-1.0135844678978947   -0.3120280733202646   -0.05041270844188205
0.12850508843270125   0.1022503323398238   0.03444012044130735
0.12850508843270125   0.1022503323398238   0.03444012044130735
0.12850508843270125   0.1022503323398238   0.03444012044130735
0.12850508843270125   0.1022503323398238   0.03444012044130735
-0.42583286407764276   -0.09209396003017463   -0.025114663495746523
-0.42583286407764276   -0.09209396003017463   -0.025114663495746523
-0.42583286407764276   -0.09209396003017463   -0.025114663495746523
-0.42583286407764276   -0.09209396003017463   -0.025114663495746523
0.08970559900606365   -0.07729076426792325   0.019983769915866312
0.08970559900606365   -0.07729076426792325   0.019983769915866312
0.08970559900606365   -0.07729076426792325   0.019983769915866312
0.08970559900606365   -0.07729076426792325   0.019983769915866312
-0.9718238825352589   -0.1295258807765194   -0.024111974172448425
-0.9718238825352589   -0.1295258807765194   -0.024111974172448425
-0.9718238825352589   -0.1295258807765194   -0.024111974172448425
-0.9718238825352589   -0.1295258807765194   -0.024111974172448425
-1.0604790208352968   -0.32443692302658605   -0.03329924903897963
-1.0604790208352968   -0.32443692302658605   -0.03329924903897963
-1.0604790208352968   -0.32443692302658605   -0.03329924903897963
-1.0604790208352968   -0.32443692302658605   -0.03329924903897963
0.0846417180983353   0.08052234861411213   0.038956005545327785
0.0846417180983353   0.08052234861411213   0.038956005545327785
0.0846417180983353   0.08052234861411213   0.038956005545327785
0.0846417180983353   0.08052234861411213   0.038956005545327785
-0.46461640901251783   -0.10506102430016814   -0.030134812651924355
-0.46461640901251783   -0.10506102430016814   -0.030134812651924355
-0.46461640901251783   -0.10506102430016814   -0.030134812651924355
-0.46461640901251783   -0.10506102430016814   -0.030134812651924355
0.048186588172432834   -0.09050284209271557   0.027705546622643174
0.048186588172432834   -0.09050284209271557   0.027705546622643174
0.048186588172432834   -0.09050284209271557   0.027705546622643174
0.048186588172432834   -0.09050284209271557   0.027705546622643174
-1.023408631286637   -0.15279647269700225   -0.01958775162527202
-1.023408631286637   -0.15279647269700225   -0.01958775162527202
-1.023408631286637   -0.15279647269700225   -0.01958775162527202
-1.023408631286637   -0.15279647269700225   -0.01958775162527202
-1.112525274938934   -0.3335318220207188   -0.02960671971092668
-1.112525274938934   -0.3335318220207188   -0.02960671971092668
-1.112525274938934   -0.3335318220207188   -0.02960671971092668
-1.112525274938934   -0.3335318220207188   -0.02960671971092668
0.03719867883343558   0.061965982087918065   0.04356506165160799
0.03719867883343558   0.061965982087918065   0.04356506165160799
0.03719867883343558   0.061965982087918065   0.04356506165160799
0.03719867883343558   0.061965982087918065   0.04356506165160799
-0.5150176970560788   -0.12058731451187443   -0.04221286098201727
-0.5150176970560788   -0.12058731451187443   -0.04221286098201727
-0.5150176970560788   -0.12058731451187443   -0.04221286098201727
-0.5150176970560788   -0.12058731451187443   -0.04221286098201727
-0.9188090674536237   -0.08153117285739804   0.014641751739545444
-0.9188090674536237   -0.08153117285739804   0.014641751739545444
-0.9188090674536237   -0.08153117285739804   0.014641751739545444
-0.9188090674536237   -0.08153117285739804   0.014641751739545444
-1.957964357951538   -0.12626008500890445   -0.05186721044195618
-1.957964357951538   -0.12626008500890445   -0.05186721044195618
-1.957964357951538   -0.12626008500890445   -0.05186721044195618
-1.957964357951538   -0.12626008500890445   -0.05186721044195618
-2.0497344537761135   -0.32678208357088745   -0.05025612738477703
-2.0497344537761135   -0.32678208357088745   -0.05025612738477703
-2.0497344537761135   -0.32678208357088745   -0.05025612738477703
-2.0497344537761135   -0.32678208357088745   -0.05025612738477703
-0.9235665321727478   0.07798462487823554   0.009664271985336648
-0.9235665321727478   0.07798462487823554   0.009664271985336648
-0.9235665321727478   0.07798462487823554   0.009664271985336648
-0.9235665321727478   0.07798462487823554   0.009664271985336648
-1.4504483831838182   -0.10885332891508825   -0.021164869238677456
-1.4504483831838182   -0.10885332891508825   -0.021164869238677456
-1.4504483831838182   -0.10885332891508825   -0.021164869238677456
-1.4504483831838182   -0.10885332891508825   -0.021164869238677456
-0.9520792427186577   -0.09015228921302897   0.035237633347059594
-0.9520792427186577   -0.09015228921302897   0.035237633347059594
-0.9520792427186577   -0.09015228921302897   0.035237633347059594
-0.9520792427186577   -0.09015228921302897   0.035237633347059594
-2.015402491667477   -0.15282591791689754   -0.05255248249559971
-2.015402491667477   -0.15282591791689754   -0.05255248249559971
-2.015402491667477   -0.15282591791689754   -0.05255248249559971
-2.015402491667477   -0.15282591791689754   -0.05255248249559971
-2.114640659509081   -0.3478662523516176   -0.03522147284315535
-2.114640659509081   -0.3478662523516176   -0.03522147284315535
-2.114640659509081   -0.3478662523516176   -0.03522147284315535
-2.114640659509081   -0.3478662523516176   -0.03522147284315535
-0.9757242124796801   0.054187278098781544   0.01185059161372748
-0.9757242124796801   0.054187278098781544   0.01185059161372748
-0.9757242124796801   0.054187278098781544   0.01185059161372748
-0.9757242124796801   0.054187278098781544   0.01185059161372748
-1.4915651420681313   -0.12057643974461607   -0.021258190368540347
-1.4915651420681313   -0.12057643974461607   -0.021258190368540347
-1.4915651420681313   -0.12057643974461607   -0.021258190368540347
-1.4915651420681313   -0.12057643974461607   -0.021258190368540347
-1.0038934088580256   -0.11136177507384978   0.03655366289462809
-1.0038934088580256   -0.11136177507384978   0.03655366289462809
-1.0038934088580256   -0.11136177507384978   0.03655366289462809
-1.0038934088580256   -0.11136177507384978   0.03655366289462809
-2.082574163292465   -0.17841989934071611   -0.04433534477097603
-2.082574163292465   -0.17841989934071611   -0.04433534477097603
-2.082574163292465   -0.17841989934071611   -0.04433534477097603
-2.082574163292465   -0.17841989934071611   -0.04433534477097603
-2.188110091220842   -0.37562869575380914   -0.03774109648379291
-2.188110091220842   -0.37562869575380914   -0.03774109648379291
-2.188110091220842   -0.37562869575380914   -0.03774109648379291
-2.188110091220842   -0.37562869575380914   -0.03774109648379291
-1.0320870017152908   0.024847462965129685   0.014205361421423632
-1.0320870017152908   0.024847462965129685   0.014205361421423632
-1.0320870017152908   0.024847462965129685   0.014205361421423632
-1.0320870017152908   0.024847462965129685   0.014205361421423632
-1.5643343655265936   -0.14898760970416294   -0.034479129343256316
-1.5643343655265936   -0.14898760970416294   -0.034479129343256316
-1.5643343655265936   -0.14898760970416294   -0.034479129343256316
-1.5643343655265936   -0.14898760970416294   -0.034479129343256316
-1.891456543380482   0.08971325499657734   0.06469852240784063
-1.891456543380482   0.08971325499657734   0.06469852240784063
-1.891456543380482   0.08971325499657734   0.06469852240784063
-1.891456543380482   0.08971325499657734   0.06469852240784063
-2.9331130263668816   -0.14617243790213874   -0.03968412879277283
-2.9331130263668816   -0.14617243790213874   -0.03968412879277283
-2.9331130263668816   -0.14617243790213874   -0.03968412879277283
-2.9331130263668816   -0.14617243790213874   -0.03968412879277283
-3.0057076492596866   -0.14882239472194586   0.06648714058735321
-3.0057076492596866   -0.14882239472194586   0.06648714058735321
-3.0057076492596866   -0.14882239472194586   0.06648714058735321
-3.0057076492596866   -0.14882239472194586   0.06648714058735321
-1.965393898974511   0.06063805391425037   -0.0159734908619191
-1.965393898974511   0.06063805391425037   -0.0159734908619191
-1.965393898974511   0.06063805391425037   -0.0159734908619191
-1.965393898974511   0.06063805391425037   -0.0159734908619191
-2.3348132280118943   0.0018746431181982937   0.059204511401908355
-2.3348132280118943   0.0018746431181982937   0.059204511401908355
-2.3348132280118943   0.0018746431181982937   0.059204511401908355
-2.3348132280118943   0.0018746431181982937   0.059204511401908355
-1.9447237860551085   0.06639997944280362   0.08161514820652342
-1.9447237860551085   0.06639997944280362   0.08161514820652342
-1.9447237860551085   0.06639997944280362   0.08161514820652342
-1.9447237860551085   0.06639997944280362   0.08161514820652342
-3.0250312971453566   -0.1532378552167699   -0.02571563834617499
-3.0250312971453566   -0.1532378552167699   -0.02571563834617499
-3.0250312971453566   -0.1532378552167699   -0.02571563834617499
-3.0250312971453566   -0.1532378552167699   -0.02571563834617499
-3.097399717518813   -0.17370895431398808   0.09039008367547983
-3.097399717518813   -0.17370895431398808   0.09039008367547983
-3.097399717518813   -0.17370895431398808   0.09039008367547983
-3.097399717518813   -0.17370895431398808   0.09039008367547983
-2.032612417322399   0.043735641484848264   -0.016682155746234273
-2.032612417322399   0.043735641484848264   -0.016682155746234273
-2.032612417322399   0.043735641484848264   -0.016682155746234273
-2.032612417322399   0.043735641484848264   -0.016682155746234273
-2.4528736387665617   -0.0272768410778238   0.032185769472480835
-2.4528736387665617   -0.0272768410778238   0.032185769472480835
-2.4528736387665617   -0.0272768410778238   0.032185769472480835
-2.4528736387665617   -0.0272768410778238   0.032185769472480835
-2.0137202290318537   0.04104317673881347   0.08047125045252855
-2.0137202290318537   0.04104317673881347   0.08047125045252855
-2.0137202290318537   0.04104317673881347   0.08047125045252855
-2.0137202290318537   0.04104317673881347   0.08047125045252855
-3.1198492724654727   -0.17457385622407806   -0.020992789147730534
-3.1198492724654727   -0.17457385622407806   -0.020992789147730534
-3.1198492724654727   -0.17457385622407806   -0.020992789147730534
-3.1198492724654727   -0.17457385622407806   -0.020992789147730534
-3.227692373182207   -0.27393745910902356   0.0786170547109436
-3.227692373182207   -0.27393745910902356   0.0786170547109436
-3.227692373182207   -0.27393745910902356   0.0786170547109436
-3.227692373182207   -0.27393745910902356   0.0786170547109436
-2.110109239203313   -0.007672626720824971   -0.01569290542916814
-2.110109239203313   -0.007672626720824971   -0.01569290542916814
-2.110109239203313   -0.007672626720824971   -0.01569290542916814
-2.110109239203313   -0.007672626720824971   -0.01569290542916814
-2.503499383682745   -0.06392044418890636   0.008328639886027875
-2.503499383682745   -0.06392044418890636   0.008328639886027875
-2.503499383682745   -0.06392044418890636   0.008328639886027875
-2.503499383682745   -0.06392044418890636   0.008328639886027875
1.936331417662905   0.1033782946570968   -0.06938211232934406
1.936331417662905   0.1033782946570968   -0.06938211232934406
1.936331417662905   0.1033782946570968   -0.06938211232934406
1.936331417662905   0.1033782946570968   -0.06938211232934406
0.9604828708423169   -0.0006006424220533491   0.025238822897839318
0.9604828708423169   -0.0006006424220533491   0.025238822897839318
0.9604828708423169   -0.0006006424220533491   0.025238822897839318
0.9604828708423169   -0.0006006424220533491   0.025238822897839318
0.8774618934045754   -0.14332374547065296   -0.06356909534300172
0.8774618934045754   -0.14332374547065296   -0.06356909534300172
0.8774618934045754   -0.14332374547065296   -0.06356909534300172
0.8774618934045754   -0.14332374547065296   -0.06356909534300172
1.8996763669139827   0.15675534098473604   0.03164014741160845
1.8996763669139827   0.15675534098473604   0.03164014741160845
1.8996763669139827   0.15675534098473604   0.03164014741160845
1.8996763669139827   0.15675534098473604   0.03164014741160845
1.3451542666355092   0.0118991439312095   -0.04425970525797662
1.3451542666355092   0.0118991439312095   -0.04425970525797662
1.3451542666355092   0.0118991439312095   -0.04425970525797662
1.3451542666355092   0.0118991439312095   -0.04425970525797662
1.859109533406119   0.0523598881413872   -0.06679856728434426
1.859109533406119   0.0523598881413872   -0.06679856728434426
1.859109533406119   0.0523598881413872   -0.06679856728434426
1.859109533406119   0.0523598881413872   -0.06679856728434426
0.9162826595688641   -0.040674359970878815   0.027885349978652746
0.9162826595688641   -0.040674359970878815   0.027885349978652746
0.9162826595688641   -0.040674359970878815   0.027885349978652746
0.9162826595688641   -0.040674359970878815   0.027885349978652746
0.8359347640736853   -0.1553454998699625   -0.055235670349379484
0.8359347640736853   -0.1553454998699625   -0.055235670349379484
0.8359347640736853   -0.1553454998699625   -0.055235670349379484
0.8359347640736853   -0.1553454998699625   -0.055235670349379484
1.8375499104479147   0.14024973525726286   0.043208519537952905
1.8375499104479147   0.14024973525726286   0.043208519537952905
1.8375499104479147   0.14024973525726286   0.043208519537952905
1.8375499104479147   0.14024973525726286   0.043208519537952905
1.3125301479210192   -0.00972800905742488   -0.05825288081703586
1.3125301479210192   -0.00972800905742488   -0.05825288081703586
1.3125301479210192   -0.00972800905742488   -0.05825288081703586
1.3125301479210192   -0.00972800905742488   -0.05825288081703586
1.7978573138250287   0.037570998738631456   -0.05257572705781438
1.7978573138250287   0.037570998738631456   -0.05257572705781438
1.7978573138250287   0.037570998738631456   -0.05257572705781438
1.7978573138250287   0.037570998738631456   -0.05257572705781438
0.8740673198836976   -0.05422680416419065   0.034308412994902504
0.8740673198836976   -0.05422680416419065   0.034308412994902504
0.8740673198836976   -0.05422680416419065   0.034308412994902504
0.8740673198836976   -0.05422680416419065   0.034308412994902504
0.7979989363739751   -0.15902111344341768   -0.045118388026742964
0.7979989363739751   -0.15902111344341768   -0.045118388026742964
0.7979989363739751   -0.15902111344341768   -0.045118388026742964
0.7979989363739751   -0.15902111344341768   -0.045118388026742964
1.7675117936553841   0.12569447408391754   0.05372293135031167
1.7675117936553841   0.12569447408391754   0.05372293135031167
1.7675117936553841   0.12569447408391754   0.05372293135031167
1.7675117936553841   0.12569447408391754   0.05372293135031167
1.2369151213044414   -0.02465753225423606   -0.07916986424288334
1.2369151213044414   -0.02465753225423606   -0.07916986424288334
1.2369151213044414   -0.02465753225423606   -0.07916986424288334
1.2369151213044414   -0.02465753225423606   -0.07916986424288334
0.976792903774085   0.10102207442466334   0.005166270709962683
0.976792903774085   0.10102207442466334   0.005166270709962683
0.976792903774085   0.10102207442466334   0.005166270709962683
0.976792903774085   0.10102207442466334   0.005166270709962683
0.03422115942484181   -0.03172876042911734   -0.003882804047876369
0.03422115942484181   -0.03172876042911734   -0.003882804047876369
0.03422115942484181   -0.03172876042911734   -0.003882804047876369
0.03422115942484181   -0.03172876042911734   -0.003882804047876369
-0.028351855348153654   -0.12909180058460393   -0.043199694899749175
-0.028351855348153654   -0.12909180058460393   -0.043199694899749175
-0.028351855348153654   -0.12909180058460393   -0.043199694899749175
-0.028351855348153654   -0.12909180058460393   -0.043199694899749175
0.9578579087404345   0.1418777307531273   0.053209505112498966
0.9578579087404345   0.1418777307531273   0.053209505112498966
0.9578579087404345   0.1418777307531273   0.053209505112498966
0.9578579087404345   0.1418777307531273   0.053209505112498966
0.47757525250161587   0.020204565012348033   -0.005508020126976758
0.47757525250161587   0.020204565012348033   -0.005508020126976758
0.47757525250161587   0.020204565012348033   -0.005508020126976758
0.47757525250161587   0.020204565012348033   -0.005508020126976758
0.9358963423733575   0.07454471562141424   0.010734688408830323
0.9358963423733575   0.07454471562141424   0.010734688408830323
0.9358963423733575   0.07454471562141424   0.010734688408830323
0.9358963423733575   0.07454471562141424   0.010734688408830323
-0.00600331864367901   -0.06137181511549266   0.000823003153512785
-0.00600331864367901   -0.06137181511549266   0.000823003153512785
-0.00600331864367901   -0.06137181511549266   0.000823003153512785
-0.00600331864367901   -0.06137181511549266   0.000823003153512785
-0.06769162219965463   -0.14853745754288256   -0.03732262374566914
-0.06769162219965463   -0.14853745754288256   -0.03732262374566914
-0.06769162219965463   -0.14853745754288256   -0.03732262374566914
-0.06769162219965463   -0.14853745754288256   -0.03732262374566914
0.9132966216107133   0.11733758590382692   0.05889053156196375
0.9132966216107133   0.11733758590382692   0.05889053156196375
0.9132966216107133   0.11733758590382692   0.05889053156196375
0.9132966216107133   0.11733758590382692   0.05889053156196375
0.4295612265296442   -0.003964878021729706   -0.01924816732087015
0.4295612265296442   -0.003964878021729706   -0.01924816732087015
0.4295612265296442   -0.003964878021729706   -0.01924816732087015
0.4295612265296442   -0.003964878021729706   -0.01924816732087015
0.8921542865287618   0.05416628113595223   0.01635016092008837
0.8921542865287618   0.05416628113595223   0.01635016092008837
0.8921542865287618   0.05416628113595223   0.01635016092008837
0.8921542865287618   0.05416628113595223   0.01635016092008837
-0.04651031640514551   -0.08532718206245922   0.0053736297464532096
-0.04651031640514551   -0.08532718206245922   0.0053736297464532096
-0.04651031640514551   -0.08532718206245922   0.0053736297464532096
-0.04651031640514551   -0.08532718206245922   0.0053736297464532096
-0.10663881521729707   -0.16029178233734226   -0.0296539900435906
-0.10663881521729707   -0.16029178233734226   -0.0296539900435906
-0.10663881521729707   -0.16029178233734226   -0.0296539900435906
-0.10663881521729707   -0.16029178233734226   -0.0296539900435906
0.8709162232144665   0.09660281519865861   0.06384411753362614
0.8709162232144665   0.09660281519865861   0.06384411753362614
0.8709162232144665   0.09660281519865861   0.06384411753362614
0.8709162232144665   0.09660281519865861   0.06384411753362614
0.393996951249128   -0.019478246917436187   -0.029393548873501835
0.393996951249128   -0.019478246917436187   -0.029393548873501835
0.393996951249128   -0.019478246917436187   -0.029393548873501835
0.393996951249128   -0.019478246917436187   -0.029393548873501835
0.06616982740316411   0.10217397803932207   0.021957797375299577
0.06616982740316411   0.10217397803932207   0.021957797375299577
0.06616982740316411   0.10217397803932207   0.021957797375299577
0.06616982740316411   0.10217397803932207   0.021957797375299577
-0.8631927858907407   -0.055691880707518876   -0.02972294075399999
-0.8631927858907407   -0.055691880707518876   -0.02972294075399999
-0.8631927858907407   -0.055691880707518876   -0.02972294075399999
-0.8631927858907407   -0.055691880707518876   -0.02972294075399999
-0.9120131548123108   -0.11819347489696325   -0.027260672497615712
-0.9120131548123108   -0.11819347489696325   -0.027260672497615712
-0.9120131548123108   -0.11819347489696325   -0.027260672497615712
-0.9120131548123108   -0.11819347489696325   -0.027260672497615712
0.03448785894798995   0.1161589900448235   0.025748085951541426
0.03448785894798995   0.1161589900448235   0.025748085951541426
0.03448785894798995   0.1161589900448235   0.025748085951541426
0.03448785894798995   0.1161589900448235   0.025748085951541426
-0.4181152945874121   0.013100271940671121   0.0015656211334964115
-0.4181152945874121   0.013100271940671121   0.0015656211334964115
-0.4181152945874121   0.013100271940671121   0.0015656211334964115
-0.4181152945874121   0.013100271940671121   0.0015656211334964115
0.027780627156313395   0.08074299950323433   0.02762791753474784
0.027780627156313395   0.08074299950323433   0.02762791753474784
0.027780627156313395   0.08074299950323433   0.02762791753474784
0.027780627156313395   0.08074299950323433   0.02762791753474784
-0.9042348019282304   -0.08170636326295987   -0.024856019711216478
-0.9042348019282304   -0.08170636326295987   -0.024856019711216478
-0.9042348019282304   -0.08170636326295987   -0.024856019711216478
-0.9042348019282304   -0.08170636326295987   -0.024856019711216478
-0.9542349342006761   -0.13956456731750133   -0.022601921813728252
-0.9542349342006761   -0.13956456731750133   -0.022601921813728252
-0.9542349342006761   -0.13956456731750133   -0.022601921813728252
-0.9542349342006761   -0.13956456731750133   -0.022601921813728252
-0.006084588635835456   0.09091164529364001   0.03126344123690803
-0.006084588635835456   0.09091164529364001   0.03126344123690803
-0.006084588635835456   0.09091164529364001   0.03126344123690803
-0.006084588635835456   0.09091164529364001   0.03126344123690803
-0.45856275182257045   -0.007791102833554289   -0.008774127302059693
-0.45856275182257045   -0.007791102833554289   -0.008774127302059693
-0.45856275182257045   -0.007791102833554289   -0.008774127302059693
-0.45856275182257045   -0.007791102833554289   -0.008774127302059693
-0.01181763622640589   0.060117705296363955   0.03339214328132811
-0.01181763622640589   0.060117705296363955   0.03339214328132811
-0.01181763622640589   0.060117705296363955   0.03339214328132811
-0.01181763622640589   0.060117705296363955   0.03339214328132811
-0.9475789252039245   -0.10784766591404357   -0.02103877823342077
-0.9475789252039245   -0.10784766591404357   -0.02103877823342077
-0.9475789252039245   -0.10784766591404357   -0.02103877823342077
-0.9475789252039245   -0.10784766591404357   -0.02103877823342077
-0.996176404092271   -0.1563942178718172   -0.014860855221361815
-0.996176404092271   -0.1563942178718172   -0.014860855221361815
-0.996176404092271   -0.1563942178718172   -0.014860855221361815
-0.996176404092271   -0.1563942178718172   -0.014860855221361815
-0.04811535983277722   0.06712787255687303   0.035543631984793315
-0.04811535983277722   0.06712787255687303   0.035543631984793315
-0.04811535983277722   0.06712787255687303   0.035543631984793315
-0.04811535983277722   0.06712787255687303   0.035543631984793315
-0.5020816431126301   -0.02903946134757593   -0.02006624673174885
-0.5020816431126301   -0.02903946134757593   -0.02006624673174885
-0.5020816431126301   -0.02903946134757593   -0.02006624673174885
-0.5020816431126301   -0.02903946134757593   -0.02006624673174885
-0.8138756678554759   0.12097104070139625   0.04019972801342392
-0.8138756678554759   0.12097104070139625   0.04019972801342392
-0.8138756678554759   0.12097104070139625   0.04019972801342392
-0.8138756678554759   0.12097104070139625   0.04019972801342392
-1.7304481468388928   -0.076650195268125   -0.04875308257431549
-1.7304481468388928   -0.076650195268125   -0.04875308257431549
-1.7304481468388928   -0.076650195268125   -0.04875308257431549
-1.7304481468388928   -0.076650195268125   -0.04875308257431549
-1.7685241788065167   -0.09446373996647878   -0.007619905604466043
-1.7685241788065167   -0.09446373996647878   -0.007619905604466043
-1.7685241788065167   -0.09446373996647878   -0.007619905604466043
-1.7685241788065167   -0.09446373996647878   -0.007619905604466043
-0.8656666273947194   0.08779818550556445   -0.0015196958121783122
-0.8656666273947194   0.08779818550556445   -0.0015196958121783122
-0.8656666273947194   0.08779818550556445   -0.0015196958121783122
-0.8656666273947194   0.08779818550556445   -0.0015196958121783122
-1.2852827997230394   0.013417652311655315   0.009347219048296676
-1.2852827997230394   0.013417652311655315   0.009347219048296676
-1.2852827997230394   0.013417652311655315   0.009347219048296676
-1.2852827997230394   0.013417652311655315   0.009347219048296676
-0.8541017349799893   0.09897110022760602   0.045131851539430556
-0.8541017349799893   0.09897110022760602   0.045131851539430556
-0.8541017349799893   0.09897110022760602   0.045131851539430556
-0.8541017349799893   0.09897110022760602   0.045131851539430556
-1.7786254984548517   -0.10417308192212804   -0.0484171618905084
-1.7786254984548517   -0.10417308192212804   -0.0484171618905084
-1.7786254984548517   -0.10417308192212804   -0.0484171618905084
-1.7786254984548517   -0.10417308192212804   -0.0484171618905084
-1.8205275360820001   -0.11848538177442997   -0.006709384150010128
-1.8205275360820001   -0.11848538177442997   -0.006709384150010128
-1.8205275360820001   -0.11848538177442997   -0.006709384150010128
-1.8205275360820001   -0.11848538177442997   -0.006709384150010128
-0.9083812205252807   0.06370509168649047   0.003396987559264278
-0.9083812205252807   0.06370509168649047   0.003396987559264278
-0.9083812205252807   0.06370509168649047   0.003396987559264278
-0.9083812205252807   0.06370509168649047   0.003396987559264278
-1.3217473130568547   -0.005724938664264989   0.0008602291658537237
-1.3217473130568547   -0.005724938664264989   0.0008602291658537237
-1.3217473130568547   -0.005724938664264989   0.0008602291658537237
-1.3217473130568547   -0.005724938664264989   0.0008602291658537237
-0.8957197983484129   0.07824990052360048   0.052159289606493325
-0.8957197983484129   0.07824990052360048   0.052159289606493325
-0.8957197983484129   0.07824990052360048   0.052159289606493325
-0.8957197983484129   0.07824990052360048   0.052159289606493325
-1.830228349610252   -0.13006958196291513   -0.04362925160279239
-1.830228349610252   -0.13006958196291513   -0.04362925160279239
-1.830228349610252   -0.13006958196291513   -0.04362925160279239
-1.830228349610252   -0.13006958196291513   -0.04362925160279239
-1.8684223025317097   -0.14419257086725323   0.005340493075866898
-1.8684223025317097   -0.14419257086725323   0.005340493075866898
-1.8684223025317097   -0.14419257086725323   0.005340493075866898
-1.8684223025317097   -0.14419257086725323   0.005340493075866898
-0.9536465145392669   0.035064281324614976   0.00633009334724248
-0.9536465145392669   0.035064281324614976   0.00633009334724248
-0.9536465145392669   0.035064281324614976   0.00633009334724248
-0.9536465145392669   0.035064281324614976   0.00633009334724248
-1.3785154539456907   -0.03251729976543288   -0.0105227756646466
-1.3785154539456907   -0.03251729976543288   -0.0105227756646466
-1.3785154539456907   -0.03251729976543288   -0.0105227756646466
-1.3785154539456907   -0.03251729976543288   -0.0105227756646466
-1.6689181371671333   0.12587726649969455   0.056369504016645255
-1.6689181371671333   0.12587726649969455   0.056369504016645255
-1.6689181371671333   0.12587726649969455   0.056369504016645255
-1.6689181371671333   0.12587726649969455   0.056369504016645255
-2.554042566859059   -0.11808344307571056   -0.04512456662048027
-2.554042566859059   -0.11808344307571056   -0.04512456662048027
-2.554042566859059   -0.11808344307571056   -0.04512456662048027
-2.554042566859059   -0.11808344307571056   -0.04512456662048027
-2.589367149363428   -0.05135624078487522   0.048028286031369744
-2.589367149363428   -0.05135624078487522   0.048028286031369744
-2.589367149363428   -0.05135624078487522   0.048028286031369744
-2.589367149363428   -0.05135624078487522   0.048028286031369744
-1.742728458513941   0.05231171812302765   -0.025416762231093792
-1.742728458513941   0.05231171812302765   -0.025416762231093792
-1.742728458513941   0.05231171812302765   -0.025416762231093792
-1.742728458513941   0.05231171812302765   -0.025416762231093792
-2.0442960757501303   0.026304260777737398   0.0468619677268166
-2.0442960757501303   0.026304260777737398   0.0468619677268166
-2.0442960757501303   0.026304260777737398   0.0468619677268166
-2.0442960757501303   0.026304260777737398   0.0468619677268166
-1.7095625187406907   0.12795329923752674   0.06477135552064237
-1.7095625187406907   0.12795329923752674   0.06477135552064237
-1.7095625187406907   0.12795329923752674   0.06477135552064237
-1.7095625187406907   0.12795329923752674   0.06477135552064237
-2.6205742872092825   -0.12503901997197353   -0.03432462401075809
-2.6205742872092825   -0.12503901997197353   -0.03432462401075809
-2.6205742872092825   -0.12503901997197353   -0.03432462401075809
-2.6205742872092825   -0.12503901997197353   -0.03432462401075809
-2.653946011855511   -0.06392171700157301   0.06636464635483283
-2.653946011855511   -0.06392171700157301   0.06636464635483283
-2.653946011855511   -0.06392171700157301   0.06636464635483283
-2.653946011855511   -0.06392171700157301   0.06636464635483283
-1.7923218407679304   0.03846293717883875   -0.022629226532929966
-1.7923218407679304   0.03846293717883875   -0.022629226532929966
-1.7923218407679304   0.03846293717883875   -0.022629226532929966
-1.7923218407679304   0.03846293717883875   -0.022629226532929966
-2.1329044720716097   0.012954431985085557   0.029996166173313785
-2.1329044720716097   0.012954431985085557   0.029996166173313785
-2.1329044720716097   0.012954431985085557   0.029996166173313785
-2.1329044720716097   0.012954431985085557   0.029996166173313785
-1.755693418815063   0.11854253034799944   0.08043329006224678
-1.755693418815063   0.11854253034799944   0.08043329006224678
-1.755693418815063   0.11854253034799944   0.08043329006224678
-1.755693418815063   0.11854253034799944   0.08043329006224678
-2.6886871914450703   -0.1421140678074177   -0.029148900787072593
-2.6886871914450703   -0.1421140678074177   -0.029148900787072593
-2.6886871914450703   -0.1421140678074177   -0.029148900787072593
-2.6886871914450703   -0.1421140678074177   -0.029148900787072593
-2.741528386682926   -0.11760483675020322   0.0660651919035538
-2.741528386682926   -0.11760483675020322   0.0660651919035538
-2.741528386682926   -0.11760483675020322   0.0660651919035538
-2.741528386682926   -0.11760483675020322   0.0660651919035538
-1.8454804114157328   -0.0028973955334979373   -0.02124522667800431
-1.8454804114157328   -0.0028973955334979373   -0.02124522667800431
-1.8454804114157328   -0.0028973955334979373   -0.02124522667800431
-1.8454804114157328   -0.0028973955334979373   -0.02124522667800431
-2.159018384483305   -0.006186608948263228   0.024342211758277457
-2.159018384483305   -0.006186608948263228   0.024342211758277457
-2.159018384483305   -0.006186608948263228   0.024342211758277457
-2.159018384483305   -0.006186608948263228   0.024342211758277457
1.4653041702270586   0.08124873005289854   -0.07033561411214304
1.4653041702270586   0.08124873005289854   -0.07033561411214304
1.4653041702270586   0.08124873005289854   -0.07033561411214304
1.4653041702270586   0.08124873005289854   -0.07033561411214304
0.6972007741526125   0.014341746089062052   0.02690225580300403
0.6972007741526125   0.014341746089062052   0.02690225580300403
0.6972007741526125   0.014341746089062052   0.02690225580300403
0.6972007741526125   0.014341746089062052   0.02690225580300403
0.6190152923063472   -0.11905397529593911   -0.06674535938413179
0.6190152923063472   -0.11905397529593911   -0.06674535938413179
0.6190152923063472   -0.11905397529593911   -0.06674535938413179
0.6190152923063472   -0.11905397529593911   -0.06674535938413179
1.4333434362696396   0.1348764973174277   0.03325372928731488
1.4333434362696396   0.1348764973174277   0.03325372928731488
1.4333434362696396   0.1348764973174277   0.03325372928731488
1.4333434362696396   0.1348764973174277   0.03325372928731488
0.9992962235335152   0.013528721130225602   -0.029540003715465828
0.9992962235335152   0.013528721130225602   -0.029540003715465828
0.9992962235335152   0.013528721130225602   -0.029540003715465828
0.9992962235335152   0.013528721130225602   -0.029540003715465828
1.3936139423086944   0.03592614828446661   -0.06644339148445041
1.3936139423086944   0.03592614828446661   -0.06644339148445041
1.3936139423086944   0.03592614828446661   -0.06644339148445041
1.3936139423086944   0.03592614828446661   -0.06644339148445041
0.6579591159272603   -0.02088929660301103   0.02980908002750062
0.6579591159272603   -0.02088929660301103   0.02980908002750062
0.6579591159272603   -0.02088929660301103   0.02980908002750062
0.6579591159272603   -0.02088929660301103   0.02980908002750062
0.582472426942666   -0.13078732318942432   -0.056899289190295604
0.582472426942666   -0.13078732318942432   -0.056899289190295604
0.582472426942666   -0.13078732318942432   -0.056899289190295604
0.582472426942666   -0.13078732318942432   -0.056899289190295604
1.3765276358088343   0.1181185529599649   0.04369039958041223
1.3765276358088343   0.1181185529599649   0.04369039958041223
1.3765276358088343   0.1181185529599649   0.04369039958041223
1.3765276358088343   0.1181185529599649   0.04369039958041223
0.9664669922956926   -0.006784929564804615   -0.04158278671409576
0.9664669922956926   -0.006784929564804615   -0.04158278671409576
0.9664669922956926   -0.006784929564804615   -0.04158278671409576
0.9664669922956926   -0.006784929564804615   -0.04158278671409576
1.3377341967404386   0.021011033373226462   -0.053169276174814456
1.3377341967404386   0.021011033373226462   -0.053169276174814456
1.3377341967404386   0.021011033373226462   -0.053169276174814456
1.3377341967404386   0.021011033373226462   -0.053169276174814456
0.6202808740037964   -0.03466479560994956   0.03602041853587761
0.6202808740037964   -0.03466479560994956   0.03602041853587761
0.6202808740037964   -0.03466479560994956   0.03602041853587761
0.6202808740037964   -0.03466479560994956   0.03602041853587761
0.5495218933096073   -0.13812411932574556   -0.047380135352227265
0.5495218933096073   -0.13812411932574556   -0.047380135352227265
0.5495218933096073   -0.13812411932574556   -0.047380135352227265
0.5495218933096073   -0.13812411932574556   -0.047380135352227265
1.3124729097624745   0.09989616146916941   0.05186331536808933
1.3124729097624745   0.09989616146916941   0.05186331536808933
1.3124729097624745   0.09989616146916941   0.05186331536808933
1.3124729097624745   0.09989616146916941   0.05186331536808933
0.9019324972730841   -0.022173356987373743   -0.05934035681620474
0.9019324972730841   -0.022173356987373743   -0.05934035681620474
0.9019324972730841   -0.022173356987373743   -0.05934035681620474
0.9019324972730841   -0.022173356987373743   -0.05934035681620474
0.7086871780016879   0.10306350693610875   -0.004387485798653312
0.7086871780016879   0.10306350693610875   -0.004387485798653312
0.7086871780016879   0.10306350693610875   -0.004387485798653312
0.7086871780016879   0.10306350693610875   -0.004387485798653312
-0.04591032467375014   -0.009793516465081744   -0.0002600527024435199
-0.04591032467375014   -0.009793516465081744   -0.0002600527024435199
-0.04591032467375014   -0.009793516465081744   -0.0002600527024435199
-0.04591032467375014   -0.009793516465081744   -0.0002600527024435199
-0.1009853525575461   -0.0890088472923695   -0.042380123817004386
-0.1009853525575461   -0.0890088472923695   -0.042380123817004386
-0.1009853525575461   -0.0890088472923695   -0.042380123817004386
-0.1009853525575461   -0.0890088472923695   -0.042380123817004386
0.6901085087501155   0.12254274502839455   0.04712400251037111
0.6901085087501155   0.12254274502839455   0.04712400251037111
0.6901085087501155   0.12254274502839455   0.04712400251037111
0.6901085087501155   0.12254274502839455   0.04712400251037111
0.3081575165625084   0.0302863577239249   0.0021703035884619182
0.3081575165625084   0.0302863577239249   0.0021703035884619182
0.3081575165625084   0.0302863577239249   0.0021703035884619182
0.3081575165625084   0.0302863577239249   0.0021703035884619182
0.671424604169733   0.07433217811988305   0.0019150465169792893
0.671424604169733   0.07433217811988305   0.0019150465169792893
0.671424604169733   0.07433217811988305   0.0019150465169792893
0.671424604169733   0.07433217811988305   0.0019150465169792893
-0.0819796120356404   -0.040476444442333295   0.004116175942487856
-0.0819796120356404   -0.040476444442333295   0.004116175942487856
-0.0819796120356404   -0.040476444442333295   0.004116175942487856
-0.0819796120356404   -0.040476444442333295   0.004116175942487856
-0.13540959806242517   -0.11118598154649309   -0.03502108601643654
-0.13540959806242517   -0.11118598154649309   -0.03502108601643654
-0.13540959806242517   -0.11118598154649309   -0.03502108601643654
-0.13540959806242517   -0.11118598154649309   -0.03502108601643654
0.6495335826396176   0.09609777784538309   0.05152138825965091
0.6495335826396176   0.09609777784538309   0.05152138825965091
0.6495335826396176   0.09609777784538309   0.05152138825965091
0.6495335826396176   0.09609777784538309   0.05152138825965091
0.26576706385581333   0.0041483858546116775   -0.010956076631994712
0.26576706385581333   0.0041483858546116775   -0.010956076631994712
0.26576706385581333   0.0041483858546116775   -0.010956076631994712
0.26576706385581333   0.0041483858546116775   -0.010956076631994712
0.6314665174429778   0.0505418556518689   0.006741984469970461
0.6314665174429778   0.0505418556518689   0.006741984469970461
0.6314665174429778   0.0505418556518689   0.006741984469970461
0.6314665174429778   0.0505418556518689   0.006741984469970461
-0.11760124497320253   -0.06588877146039535   0.008723469343578925
-0.11760124497320253   -0.06588877146039535   0.008723469343578925
-0.11760124497320253   -0.06588877146039535   0.008723469343578925
-0.11760124497320253   -0.06588877146039535   0.008723469343578925
-0.16938867630940527   -0.12984823893460662   -0.028106253608828218
-0.16938867630940527   -0.12984823893460662   -0.028106253608828218
-0.16938867630940527   -0.12984823893460662   -0.028106253608828218
-0.16938867630940527   -0.12984823893460662   -0.028106253608828218
0.6120720462472005   0.07161241491953603   0.055634095090455554
0.6120720462472005   0.07161241491953603   0.055634095090455554
0.6120720462472005   0.07161241491953603   0.055634095090455554
0.6120720462472005   0.07161241491953603   0.055634095090455554
0.23320070095692327   -0.015708492754574074   -0.021906406726959197
0.23320070095692327   -0.015708492754574074   -0.021906406726959197
0.23320070095692327   -0.015708492754574074   -0.021906406726959197
0.23320070095692327   -0.015708492754574074   -0.021906406726959197
-0.015857906274047665   0.12313448994401428   0.017074032886972828
-0.015857906274047665   0.12313448994401428   0.017074032886972828
-0.015857906274047665   0.12313448994401428   0.017074032886972828
-0.015857906274047665   0.12313448994401428   0.017074032886972828
-0.7731714357634933   -0.03331690576848359   -0.025647976764028954
-0.7731714357634933   -0.03331690576848359   -0.025647976764028954
-0.7731714357634933   -0.03331690576848359   -0.025647976764028954
-0.7731714357634933   -0.03331690576848359   -0.025647976764028954
-0.8086710819631365   -0.0616233959303049   -0.020004903013035587
-0.8086710819631365   -0.0616233959303049   -0.020004903013035587
-0.8086710819631365   -0.0616233959303049   -0.020004903013035587
-0.8086710819631365   -0.0616233959303049   -0.020004903013035587
-0.05081001071224632   0.09897418727854253   0.020513550838582483
-0.05081001071224632   0.09897418727854253   0.020513550838582483
-0.05081001071224632   0.09897418727854253   0.020513550838582483
-0.05081001071224632   0.09897418727854253   0.020513550838582483
-0.41115254270694873   0.03201417639263021   0.008069613996336066
-0.41115254270694873   0.03201417639263021   0.008069613996336066
-0.41115254270694873   0.03201417639263021   0.008069613996336066
-0.41115254270694873   0.03201417639263021   0.008069613996336066
-0.0501167784367836   0.09889935439704019   0.024054545097398437
-0.0501167784367836   0.09889935439704019   0.024054545097398437
-0.0501167784367836   0.09889935439704019   0.024054545097398437
-0.0501167784367836   0.09889935439704019   0.024054545097398437
-0.808697829471802   -0.06088207828201571   -0.020879958204652913
-0.808697829471802   -0.06088207828201571   -0.020879958204652913
-0.808697829471802   -0.06088207828201571   -0.020879958204652913
-0.808697829471802   -0.06088207828201571   -0.020879958204652913
-0.8439304239759822   -0.08562602532854782   -0.013579076533884439
-0.8439304239759822   -0.08562602532854782   -0.013579076533884439
-0.8439304239759822   -0.08562602532854782   -0.013579076533884439
-0.8439304239759822   -0.08562602532854782   -0.013579076533884439
-0.08669626793611579   0.07174287451479819   0.025616708553819076
-0.08669626793611579   0.07174287451479819   0.025616708553819076
-0.08669626793611579   0.07174287451479819   0.025616708553819076
-0.08669626793611579   0.07174287451479819   0.025616708553819076
-0.4467746226541272   0.008350797547963237   -0.002587805181792101
-0.4467746226541272   0.008350797547963237   -0.002587805181792101
-0.4467746226541272   0.008350797547963237   -0.002587805181792101
-0.4467746226541272   0.008350797547963237   -0.002587805181792101
-0.08529325944054392   0.07474345666217672   0.029631168884299945
-0.08529325944054392   0.07474345666217672   0.029631168884299945
-0.08529325944054392   0.07474345666217672   0.029631168884299945
-0.08529325944054392   0.07474345666217672   0.029631168884299945
-0.845134795432731   -0.08842797043710318   -0.01679898870907269
-0.845134795432731   -0.08842797043710318   -0.01679898870907269
-0.845134795432731   -0.08842797043710318   -0.01679898870907269
-0.845134795432731   -0.08842797043710318   -0.01679898870907269
-0.8787799530851437   -0.10755798189160666   -0.0072210470051772176
-0.8787799530851437   -0.10755798189160666   -0.0072210470051772176
-0.8787799530851437   -0.10755798189160666   -0.0072210470051772176
-0.8787799530851437   -0.10755798189160666   -0.0072210470051772176
-0.12272519967115364   0.045405381626463244   0.02995750902136004
-0.12272519967115364   0.045405381626463244   0.02995750902136004
-0.12272519967115364   0.045405381626463244   0.02995750902136004
-0.12272519967115364   0.045405381626463244   0.02995750902136004
-0.484024524625233   -0.015514275313665851   -0.014453253478456812
-0.484024524625233   -0.015514275313665851   -0.014453253478456812
-0.484024524625233   -0.015514275313665851   -0.014453253478456812
-0.484024524625233   -0.015514275313665851   -0.014453253478456812
-0.7256304982910573   0.1415099266018554   0.03722987822781232
-0.7256304982910573   0.1415099266018554   0.03722987822781232
-0.7256304982910573   0.1415099266018554   0.03722987822781232
-0.7256304982910573   0.1415099266018554   0.03722987822781232
-1.48353965772099   -0.057328560600371614   -0.04628816372523803
-1.48353965772099   -0.057328560600371614   -0.04628816372523803
-1.48353965772099   -0.057328560600371614   -0.04628816372523803
-1.48353965772099   -0.057328560600371614   -0.04628816372523803
-1.502951221899636   -0.03847867285369899   0.004380606896421085
-1.502951221899636   -0.03847867285369899   0.004380606896421085
-1.502951221899636   -0.03847867285369899   0.004380606896421085
-1.502951221899636   -0.03847867285369899   0.004380606896421085
-0.7793395762396342   0.0710395444831124   -0.006010314808937933
-0.7793395762396342   0.0710395444831124   -0.006010314808937933
-0.7793395762396342   0.0710395444831124   -0.006010314808937933
-0.7793395762396342   0.0710395444831124   -0.006010314808937933
-1.1155858051058407   0.030620077863452944   0.0136803949859204
-1.1155858051058407   0.030620077863452944   0.0136803949859204
-1.1155858051058407   0.030620077863452944   0.0136803949859204
-1.1155858051058407   0.030620077863452944   0.0136803949859204
-0.7599483403399744   0.11803571992786921   0.04394968924460052
-0.7599483403399744   0.11803571992786921   0.04394968924460052
-0.7599483403399744   0.11803571992786921   0.04394968924460052
-0.7599483403399744   0.11803571992786921   0.04394968924460052
-1.5221565146486105   -0.08528890514777104   -0.04483562455437895
-1.5221565146486105   -0.08528890514777104   -0.04483562455437895
-1.5221565146486105   -0.08528890514777104   -0.04483562455437895
-1.5221565146486105   -0.08528890514777104   -0.04483562455437895
-1.5440055184406993   -0.06274049511364194   0.0067933514740208395
-1.5440055184406993   -0.06274049511364194   0.0067933514740208395
-1.5440055184406993   -0.06274049511364194   0.0067933514740208395
-1.5440055184406993   -0.06274049511364194   0.0067933514740208395
-0.8150888571357574   0.04582040034977955   -0.0008176680110845574
-0.8150888571357574   0.04582040034977955   -0.0008176680110845574
-0.8150888571357574   0.04582040034977955   -0.0008176680110845574
-0.8150888571357574   0.04582040034977955   -0.0008176680110845574
-1.145751920638661   0.009487885971552035   0.0037554311722080014
-1.145751920638661   0.009487885971552035   0.0037554311722080014
-1.145751920638661   0.009487885971552035   0.0037554311722080014
-1.145751920638661   0.009487885971552035   0.0037554311722080014
-0.7948914267066989   0.09576802486262559   0.05022185962135818
-0.7948914267066989   0.09576802486262559   0.05022185962135818
-0.7948914267066989   0.09576802486262559   0.05022185962135818
-0.7948914267066989   0.09576802486262559   0.05022185962135818
-1.563160952961173   -0.11164612371790367   -0.04007819252408497
-1.563160952961173   -0.11164612371790367   -0.04007819252408497
-1.563160952961173   -0.11164612371790367   -0.04007819252408497
-1.563160952961173   -0.11164612371790367   -0.04007819252408497
-1.5812561987981235   -0.08884151583975164   0.014410791784266005
-1.5812561987981235   -0.08884151583975164   0.014410791784266005
-1.5812561987981235   -0.08884151583975164   0.014410791784266005
-1.5812561987981235   -0.08884151583975164   0.014410791784266005
-0.8518375909300395   0.01698894633321188   0.0029438355455290097
-0.8518375909300395   0.01698894633321188   0.0029438355455290097
-0.8518375909300395   0.01698894633321188   0.0029438355455290097
-0.8518375909300395   0.01698894633321188   0.0029438355455290097
-1.1915892497900111   -0.01696776865445218   -0.008827572947811176
-1.1915892497900111   -0.01696776865445218   -0.008827572947811176
-1.1915892497900111   -0.01696776865445218   -0.008827572947811176
-1.1915892497900111   -0.01696776865445218   -0.008827572947811176
-1.4269024116544964   0.1269028354088914   0.05266667059796708
-1.4269024116544964   0.1269028354088914   0.05266667059796708
-1.4269024116544964   0.1269028354088914   0.05266667059796708
-1.4269024116544964   0.1269028354088914   0.05266667059796708
-2.158587077919172   -0.09953265363043473   -0.05114249935733327
-2.158587077919172   -0.09953265363043473   -0.05114249935733327
-2.158587077919172   -0.09953265363043473   -0.05114249935733327
-2.158587077919172   -0.09953265363043473   -0.05114249935733327
-2.182769618971336   -0.02089981167478261   0.04856674923724991
-2.182769618971336   -0.02089981167478261   0.04856674923724991
-2.182769618971336   -0.02089981167478261   0.04856674923724991
-2.182769618971336   -0.02089981167478261   0.04856674923724991
-1.4950037078713145   0.035628971516298846   -0.029989467331968805
-1.4950037078713145   0.035628971516298846   -0.029989467331968805
-1.4950037078713145   0.035628971516298846   -0.029989467331968805
-1.4950037078713145   0.035628971516298846   -0.029989467331968805
-1.735521848532087   0.02863523636200538   0.042429390051653096
-1.735521848532087   0.02863523636200538   0.042429390051653096
-1.735521848532087   0.02863523636200538   0.042429390051653096
-1.735521848532087   0.02863523636200538   0.042429390051653096
-1.4584564217710532   0.12660388737912465   0.061772047306503375
-1.4584564217710532   0.12660388737912465   0.061772047306503375
-1.4584564217710532   0.12660388737912465   0.061772047306503375
-1.4584564217710532   0.12660388737912465   0.061772047306503375
-2.218693802427741   -0.11125162489375096   -0.040702354825791015
-2.218693802427741   -0.11125162489375096   -0.040702354825791015
-2.218693802427741   -0.11125162489375096   -0.040702354825791015
-2.218693802427741   -0.11125162489375096   -0.040702354825791015
-2.236498945384868   -0.03369477996694936   0.060759292355128225
-2.236498945384868   -0.03369477996694936   0.060759292355128225
-2.236498945384868   -0.03369477996694936   0.060759292355128225
-2.236498945384868   -0.03369477996694936   0.060759292355128225
-1.5335969688360225   0.021801282288392954   -0.02570567790462855
-1.5335969688360225   0.021801282288392954   -0.02570567790462855
-1.5335969688360225   0.021801282288392954   -0.02570567790462855
-1.5335969688360225   0.021801282288392954   -0.02570567790462855
-1.810409433265938   0.01434389145619408   0.025715188882663734
-1.810409433265938   0.01434389145619408   0.025715188882663734
-1.810409433265938   0.01434389145619408   0.025715188882663734
-1.810409433265938   0.01434389145619408   0.025715188882663734
-1.494828020416736   0.11706301320975254   0.07287733327044439
-1.494828020416736   0.11706301320975254   0.07287733327044439
-1.494828020416736   0.11706301320975254   0.07287733327044439
-1.494828020416736   0.11706301320975254   0.07287733327044439
-2.274246033495039   -0.12793465057919123   -0.03373627758347135
-2.274246033495039   -0.12793465057919123   -0.03373627758347135
-2.274246033495039   -0.12793465057919123   -0.03373627758347135
-2.274246033495039   -0.12793465057919123   -0.03373627758347135
-2.3074073137391626   -0.07909140937444231   0.05971160644070335
-2.3074073137391626   -0.07909140937444231   0.05971160644070335
-2.3074073137391626   -0.07909140937444231   0.05971160644070335
-2.3074073137391626   -0.07909140937444231   0.05971160644070335
-1.5743343926032836   -0.01653169781029884   -0.023289995270986102
-1.5743343926032836   -0.01653169781029884   -0.023289995270986102
-1.5743343926032836   -0.01653169781029884   -0.023289995270986102
-1.5743343926032836   -0.01653169781029884   -0.023289995270986102
-1.829938379190995   -0.0033932877310648424   0.020101312416614225
-1.829938379190995   -0.0033932877310648424   0.020101312416614225
-1.829938379190995   -0.0033932877310648424   0.020101312416614225
-1.829938379190995   -0.0033932877310648424   0.020101312416614225
1.0041480954565585   0.056706907834888826   -0.06821925677180801
1.0041480954565585   0.056706907834888826   -0.06821925677180801
1.0041480954565585   0.056706907834888826   -0.06821925677180801
1.0041480954565585   0.056706907834888826   -0.06821925677180801
0.42893304310953934   0.027745209260565465   0.029343436894238017
0.42893304310953934   0.027745209260565465   0.029343436894238017
0.42893304310953934   0.027745209260565465   0.029343436894238017
0.42893304310953934   0.027745209260565465   0.029343436894238017
0.3585687052494089   -0.09944551685747005   -0.06358161056694311
0.3585687052494089   -0.09944551685747005   -0.06358161056694311
0.3585687052494089   -0.09944551685747005   -0.06358161056694311
0.3585687052494089   -0.09944551685747005   -0.06358161056694311
0.980398843306802   0.11431294916296392   0.035644028195175
0.980398843306802   0.11431294916296392   0.035644028195175
0.980398843306802   0.11431294916296392   0.035644028195175
0.980398843306802   0.11431294916296392   0.035644028195175
0.6563029701572602   0.01457214477285379   -0.01793802237773154
0.6563029701572602   0.01457214477285379   -0.01793802237773154
0.6563029701572602   0.01457214477285379   -0.01793802237773154
0.6563029701572602   0.01457214477285379   -0.01793802237773154
0.9410966714926128   0.01705468513500688   -0.06360856684782368
0.9410966714926128   0.01705468513500688   -0.06360856684782368
0.9410966714926128   0.01705468513500688   -0.06360856684782368
0.9410966714926128   0.01705468513500688   -0.06360856684782368
0.3971330396660635   -0.0029250902270379214   0.03271963488590433
0.3971330396660635   -0.0029250902270379214   0.03271963488590433
0.3971330396660635   -0.0029250902270379214   0.03271963488590433
0.3971330396660635   -0.0029250902270379214   0.03271963488590433
0.3285784584128489   -0.11102833423569843   -0.054094859001919134
0.3285784584128489   -0.11102833423569843   -0.054094859001919134
0.3285784584128489   -0.11102833423569843   -0.054094859001919134
0.3285784584128489   -0.11102833423569843   -0.054094859001919134
0.9310689305404468   0.09788178113334273   0.04589999233754002
0.9310689305404468   0.09788178113334273   0.04589999233754002
0.9310689305404468   0.09788178113334273   0.04589999233754002
0.9310689305404468   0.09788178113334273   0.04589999233754002
0.625212958094703   -0.004510980920451324   -0.029300757244473653
0.625212958094703   -0.004510980920451324   -0.029300757244473653
0.625212958094703   -0.004510980920451324   -0.029300757244473653
0.625212958094703   -0.004510980920451324   -0.029300757244473653
0.8924207639969343   0.002222739026804116   -0.051681798273491765
0.8924207639969343   0.002222739026804116   -0.051681798273491765
0.8924207639969343   0.002222739026804116   -0.051681798273491765
0.8924207639969343   0.002222739026804116   -0.051681798273491765
0.36614191246364336   -0.016454004621878696   0.03914808163823635
0.36614191246364336   -0.016454004621878696   0.03914808163823635
0.36614191246364336   -0.016454004621878696   0.03914808163823635
0.36614191246364336   -0.016454004621878696   0.03914808163823635
0.30175906484918524   -0.1216348618976221   -0.045077956552579124
0.30175906484918524   -0.1216348618976221   -0.045077956552579124
0.30175906484918524   -0.1216348618976221   -0.045077956552579124
0.30175906484918524   -0.1216348618976221   -0.045077956552579124
0.873503001521844   0.07622135490111086   0.05235781435888372
0.873503001521844   0.07622135490111086   0.05235781435888372
0.873503001521844   0.07622135490111086   0.05235781435888372
0.873503001521844   0.07622135490111086   0.05235781435888372
0.5728643579633264   -0.02020187350706712   -0.044861138274966704
0.5728643579633264   -0.02020187350706712   -0.044861138274966704
0.5728643579633264   -0.02020187350706712   -0.044861138274966704
0.5728643579633264   -0.02020187350706712   -0.044861138274966704
0.4316932128553183   0.08329758379829919   -0.01240808891460739
0.4316932128553183   0.08329758379829919   -0.01240808891460739
0.4316932128553183   0.08329758379829919   -0.01240808891460739
0.4316932128553183   0.08329758379829919   -0.01240808891460739
-0.1329721998378632   0.007409853455878763   0.004048796120689773
-0.1329721998378632   0.007409853455878763   0.004048796120689773
-0.1329721998378632   0.007409853455878763   0.004048796120689773
-0.1329721998378632   0.007409853455878763   0.004048796120689773
-0.18107496488212516   -0.06894333926077943   -0.03912294530325806
-0.18107496488212516   -0.06894333926077943   -0.03912294530325806
-0.18107496488212516   -0.06894333926077943   -0.03912294530325806
-0.18107496488212516   -0.06894333926077943   -0.03912294530325806
0.4196049084067452   0.10018760021725724   0.04196628814501754
0.4196049084067452   0.10018760021725724   0.04196628814501754
0.4196049084067452   0.10018760021725724   0.04196628814501754
0.4196049084067452   0.10018760021725724   0.04196628814501754
0.13136272126146603   0.029010565752248897   0.0050269752870623
0.13136272126146603   0.029010565752248897   0.0050269752870623
0.13136272126146603   0.029010565752248897   0.0050269752870623
0.13136272126146603   0.029010565752248897   0.0050269752870623
0.40060774496558377   0.05387617166724508   -0.006708100510783078
0.40060774496558377   0.05387617166724508   -0.006708100510783078
0.40060774496558377   0.05387617166724508   -0.006708100510783078
0.40060774496558377   0.05387617166724508   -0.006708100510783078
-0.16235538191160998   -0.022909491181424047   0.008441121469966235
-0.16235538191160998   -0.022909491181424047   0.008441121469966235
-0.16235538191160998   -0.022909491181424047   0.008441121469966235
-0.16235538191160998   -0.022909491181424047   0.008441121469966235
-0.20897272759231286   -0.09223457657188455   -0.03163407359475688
-0.20897272759231286   -0.09223457657188455   -0.03163407359475688
-0.20897272759231286   -0.09223457657188455   -0.03163407359475688
-0.20897272759231286   -0.09223457657188455   -0.03163407359475688
0.38539572137819944   0.07333827692949901   0.045624844659638904
0.38539572137819944   0.07333827692949901   0.045624844659638904
0.38539572137819944   0.07333827692949901   0.045624844659638904
0.38539572137819944   0.07333827692949901   0.045624844659638904
0.09698474640369681   0.0027072870110104313   -0.007608920279897099
0.09698474640369681   0.0027072870110104313   -0.007608920279897099
0.09698474640369681   0.0027072870110104313   -0.007608920279897099
0.09698474640369681   0.0027072870110104313   -0.007608920279897099
0.3669989929900362   0.02890206516099971   -0.0019225855126845815
0.3669989929900362   0.02890206516099971   -0.0019225855126845815
0.3669989929900362   0.02890206516099971   -0.0019225855126845815
0.3669989929900362   0.02890206516099971   -0.0019225855126845815
-0.19128214881776828   -0.0485045144170146   0.0130887581230998
-0.19128214881776828   -0.0485045144170146   0.0130887581230998
-0.19128214881776828   -0.0485045144170146   0.0130887581230998
-0.19128214881776828   -0.0485045144170146   0.0130887581230998
-0.23650318966757142   -0.11417217118974232   -0.02471359954116425
-0.23650318966757142   -0.11417217118974232   -0.02471359954116425
-0.23650318966757142   -0.11417217118974232   -0.02471359954116425
-0.23650318966757142   -0.11417217118974232   -0.02471359954116425
0.35452462131824897   0.04749961630132561   0.04961534759379833
0.35452462131824897   0.04749961630132561   0.04961534759379833
0.35452462131824897   0.04749961630132561   0.04961534759379833
0.35452462131824897   0.04749961630132561   0.04961534759379833
0.06934432221664216   -0.01916959663997312   -0.018783451152013332
0.06934432221664216   -0.01916959663997312   -0.018783451152013332
0.06934432221664216   -0.01916959663997312   -0.018783451152013332
0.06934432221664216   -0.01916959663997312   -0.018783451152013332
-0.11214667409732239   0.1059457479778418   0.009640530301427124
-0.11214667409732239   0.1059457479778418   0.009640530301427124
-0.11214667409732239   0.1059457479778418   0.009640530301427124
-0.11214667409732239   0.1059457479778418   0.009640530301427124
-0.6865810520682724   -0.017119227000589737   -0.02085288011184202
-0.6865810520682724   -0.017119227000589737   -0.02085288011184202
-0.6865810520682724   -0.017119227000589737   -0.02085288011184202
-0.6865810520682724   -0.017119227000589737   -0.02085288011184202
-0.7140910655721415   -0.04085253976621385   -0.01533902952530428
-0.7140910655721415   -0.04085253976621385   -0.01533902952530428
-0.7140910655721415   -0.04085253976621385   -0.01533902952530428
-0.7140910655721415   -0.04085253976621385   -0.01533902952530428
-0.14093033591403034   0.07640138505180008   0.016255475224640218
-0.14093033591403034   0.07640138505180008   0.016255475224640218
-0.14093033591403034   0.07640138505180008   0.016255475224640218
-0.14093033591403034   0.07640138505180008   0.016255475224640218
-0.4124332815941494   0.030619666439202428   0.008137089199632571
-0.4124332815941494   0.030619666439202428   0.008137089199632571
-0.4124332815941494   0.030619666439202428   0.008137089199632571
-0.4124332815941494   0.030619666439202428   0.008137089199632571
-0.14005721260719797   0.08035544341162948   0.0166670333989689
-0.14005721260719797   0.08035544341162948   0.0166670333989689
-0.14005721260719797   0.08035544341162948   0.0166670333989689
-0.14005721260719797   0.08035544341162948   0.0166670333989689
-0.7150389827822992   -0.04488139202936921   -0.01604976331293732
-0.7150389827822992   -0.04488139202936921   -0.01604976331293732
-0.7150389827822992   -0.04488139202936921   -0.01604976331293732
-0.7150389827822992   -0.04488139202936921   -0.01604976331293732
-0.7422745103843268   -0.06622905357474862   -0.008664689445704046
-0.7422745103843268   -0.06622905357474862   -0.008664689445704046
-0.7422745103843268   -0.06622905357474862   -0.008664689445704046
-0.7422745103843268   -0.06622905357474862   -0.008664689445704046
-0.17020367905919564   0.04876936018517254   0.021207232313768035
-0.17020367905919564   0.04876936018517254   0.021207232313768035
-0.17020367905919564   0.04876936018517254   0.021207232313768035
-0.17020367905919564   0.04876936018517254   0.021207232313768035
-0.4414106426281928   0.005924579483298886   -0.002732029424344074
-0.4414106426281928   0.005924579483298886   -0.002732029424344074
-0.4414106426281928   0.005924579483298886   -0.002732029424344074
-0.4414106426281928   0.005924579483298886   -0.002732029424344074
-0.16872659200399515   0.05473822795453991   0.02262379982040707
-0.16872659200399515   0.05473822795453991   0.02262379982040707
-0.16872659200399515   0.05473822795453991   0.02262379982040707
-0.16872659200399515   0.05473822795453991   0.02262379982040707
-0.744196530383456   -0.07264285428803395   -0.01186098872806542
-0.744196530383456   -0.07264285428803395   -0.01186098872806542
-0.744196530383456   -0.07264285428803395   -0.01186098872806542
-0.744196530383456   -0.07264285428803395   -0.01186098872806542
-0.7699877620290175   -0.0904744064974618   -0.0021788692404013377
-0.7699877620290175   -0.0904744064974618   -0.0021788692404013377
-0.7699877620290175   -0.0904744064974618   -0.0021788692404013377
-0.7699877620290175   -0.0904744064974618   -0.0021788692404013377
-0.19922549165140296   0.021918105758463438   0.02558461359146847
-0.19922549165140296   0.021918105758463438   0.02558461359146847
-0.19922549165140296   0.021918105758463438   0.02558461359146847
-0.19922549165140296   0.021918105758463438   0.02558461359146847
-0.4715776471647548   -0.018799673643175682   -0.014511160256027684
-0.4715776471647548   -0.018799673643175682   -0.014511160256027684
-0.4715776471647548   -0.018799673643175682   -0.014511160256027684
-0.4715776471647548   -0.018799673643175682   -0.014511160256027684
-0.6476832853755286   0.12533640990335465   0.03118031644793201
-0.6476832853755286   0.12533640990335465   0.03118031644793201
-0.6476832853755286   0.12533640990335465   0.03118031644793201
-0.6476832853755286   0.12533640990335465   0.03118031644793201
-1.2302202010492373   -0.04149732967954245   -0.0425017270657158
-1.2302202010492373   -0.04149732967954245   -0.0425017270657158
-1.2302202010492373   -0.04149732967954245   -0.0425017270657158
-1.2302202010492373   -0.04149732967954245   -0.0425017270657158
-1.2405708460977871   -0.01796915039878666   0.010177480639719572
-1.2405708460977871   -0.01796915039878666   0.010177480639719572
-1.2405708460977871   -0.01796915039878666   0.010177480639719572
-1.2405708460977871   -0.01796915039878666   0.010177480639719572
-0.6947198987174935   0.04976755751938963   -0.009103292537690787
-0.6947198987174935   0.04976755751938963   -0.009103292537690787
-0.6947198987174935   0.04976755751938963   -0.009103292537690787
-0.6947198987174935   0.04976755751938963   -0.009103292537690787
-0.9476597626979953   0.029196561351861383   0.011827642940293204
-0.9476597626979953   0.029196561351861383   0.011827642940293204
-0.9476597626979953   0.029196561351861383   0.011827642940293204
-0.9476597626979953   0.029196561351861383   0.011827642940293204
-0.6750737391156705   0.10072815622321676   0.03816690676762027
-0.6750737391156705   0.10072815622321676   0.03816690676762027
-0.6750737391156705   0.10072815622321676   0.03816690676762027
-0.6750737391156705   0.10072815622321676   0.03816690676762027
-1.2610695986286748   -0.069782342031666   -0.04050309038184882
-1.2610695986286748   -0.069782342031666   -0.04050309038184882
-1.2610695986286748   -0.069782342031666   -0.04050309038184882
-1.2610695986286748   -0.069782342031666   -0.04050309038184882
-1.2737875127078522   -0.04310063103099698   0.013275830657127494
-1.2737875127078522   -0.04310063103099698   0.013275830657127494
-1.2737875127078522   -0.04310063103099698   0.013275830657127494
-1.2737875127078522   -0.04310063103099698   0.013275830657127494
-0.7232034292664172   0.024306697310805397   -0.0038450347417259972
-0.7232034292664172   0.024306697310805397   -0.0038450347417259972
-0.7232034292664172   0.024306697310805397   -0.0038450347417259972
-0.7232034292664172   0.024306697310805397   -0.0038450347417259972
-0.9720852238602627   0.006786633298915157   0.0009258978249327421
-0.9720852238602627   0.006786633298915157   0.0009258978249327421
-0.9720852238602627   0.006786633298915157   0.0009258978249327421
-0.9720852238602627   0.006786633298915157   0.0009258978249327421
-0.7028521603546934   0.07739572894479213   0.044822278182914274
-0.7028521603546934   0.07739572894479213   0.044822278182914274
-0.7028521603546934   0.07739572894479213   0.044822278182914274
-0.7028521603546934   0.07739572894479213   0.044822278182914274
-1.2942100978476898   -0.0962609788930874   -0.035676747179978645
-1.2942100978476898   -0.0962609788930874   -0.035676747179978645
-1.2942100978476898   -0.0962609788930874   -0.035676747179978645
-1.2942100978476898   -0.0962609788930874   -0.035676747179978645
-1.3033747403909879   -0.0698599955431011   0.020236275624912585
-1.3033747403909879   -0.0698599955431011   0.020236275624912585
-1.3033747403909879   -0.0698599955431011   0.020236275624912585
-1.3033747403909879   -0.0698599955431011   0.020236275624912585
-0.7521826743747158   -0.00391515899804909   0.0002873215316792077
-0.7521826743747158   -0.00391515899804909   0.0002873215316792077
-0.7521826743747158   -0.00391515899804909   0.0002873215316792077
-0.7521826743747158   -0.00391515899804909   0.0002873215316792077
-1.008663169394224   -0.01918812462376454   -0.011713012077006632
-1.008663169394224   -0.01918812462376454   -0.011713012077006632
-1.008663169394224   -0.01918812462376454   -0.011713012077006632
-1.008663169394224   -0.01918812462376454   -0.011713012077006632
-1.180384115843564   0.11614392709398963   0.04903744218911946
-1.180384115843564   0.11614392709398963   0.04903744218911946
-1.180384115843564   0.11614392709398963   0.04903744218911946
-1.180384115843564   0.11614392709398963   0.04903744218911946
-1.7411536531525615   -0.08009361773887441   -0.05532219457614876
-1.7411536531525615   -0.08009361773887441   -0.05532219457614876
-1.7411536531525615   -0.08009361773887441   -0.05532219457614876
-1.7411536531525615   -0.08009361773887441   -0.05532219457614876
-1.7580767773711075   -0.0012651360641589005   0.048613064265535494
-1.7580767773711075   -0.0012651360641589005   0.048613064265535494
-1.7580767773711075   -0.0012651360641589005   0.048613064265535494
-1.7580767773711075   -0.0012651360641589005   0.048613064265535494
-1.2422984295311839   0.016823599916768794   -0.03325318684284284
-1.2422984295311839   0.016823599916768794   -0.03325318684284284
-1.2422984295311839   0.016823599916768794   -0.03325318684284284
-1.2422984295311839   0.016823599916768794   -0.03325318684284284
-1.4153644511478247   0.027039391059824447   0.03576996397958576
-1.4153644511478247   0.027039391059824447   0.03576996397958576
-1.4153644511478247   0.027039391059824447   0.03576996397958576
-1.4153644511478247   0.027039391059824447   0.03576996397958576
-1.2052136062838987   0.11115315930187425   0.05784137000849246
-1.2052136062838987   0.11115315930187425   0.05784137000849246
-1.2052136062838987   0.11115315930187425   0.05784137000849246
-1.2052136062838987   0.11115315930187425   0.05784137000849246
-1.7958876650209112   -0.09632075985177813   -0.04538575019584984
-1.7958876650209112   -0.09632075985177813   -0.04538575019584984
-1.7958876650209112   -0.09632075985177813   -0.04538575019584984
-1.7958876650209112   -0.09632075985177813   -0.04538575019584984
-1.8049871564986004   -0.01508099978691635   0.06127309938140321
-1.8049871564986004   -0.01508099978691635   0.06127309938140321
-1.8049871564986004   -0.01508099978691635   0.06127309938140321
-1.8049871564986004   -0.01508099978691635   0.06127309938140321
-1.2729193473977503   0.0028604982549621516   -0.02834447207833829
-1.2729193473977503   0.0028604982549621516   -0.02834447207833829
-1.2729193473977503   0.0028604982549621516   -0.02834447207833829
-1.2729193473977503   0.0028604982549621516   -0.02834447207833829
-1.4785202610308776   0.011148678804032586   0.018653743627294092
-1.4785202610308776   0.011148678804032586   0.018653743627294092
-1.4785202610308776   0.011148678804032586   0.018653743627294092
-1.4785202610308776   0.011148678804032586   0.018653743627294092
-1.2340958822455723   0.10047442131242901   0.06815893062510173
-1.2340958822455723   0.10047442131242901   0.06815893062510173
-1.2340958822455723   0.10047442131242901   0.06815893062510173
-1.2340958822455723   0.10047442131242901   0.06815893062510173
-1.8443359199024678   -0.11322022109606983   -0.03733149632878058
-1.8443359199024678   -0.11322022109606983   -0.03733149632878058
-1.8443359199024678   -0.11322022109606983   -0.03733149632878058
-1.8443359199024678   -0.11322022109606983   -0.03733149632878058
-1.867744103528132   -0.05825565962075174   0.061499906601597626
-1.867744103528132   -0.05825565962075174   0.061499906601597626
-1.867744103528132   -0.05825565962075174   0.061499906601597626
-1.867744103528132   -0.05825565962075174   0.061499906601597626
-1.304950079921849   -0.03243989146360393   -0.025060526108914183
-1.304950079921849   -0.03243989146360393   -0.025060526108914183
-1.304950079921849   -0.03243989146360393   -0.025060526108914183
-1.304950079921849   -0.03243989146360393   -0.025060526108914183
-1.496540981141601   -0.006954418990965883   0.010483443193115033
-1.496540981141601   -0.006954418990965883   0.010483443193115033
-1.496540981141601   -0.006954418990965883   0.010483443193115033
-1.496540981141601   -0.006954418990965883   0.010483443193115033
0.5503542989532457   0.03282841557170138   -0.06666178739378877
0.5503542989532457   0.03282841557170138   -0.06666178739378877
0.5503542989532457   0.03282841557170138   -0.06666178739378877
0.5503542989532457   0.03282841557170138   -0.06666178739378877
0.15939413675571928   0.04015836362148502   0.03193806749301486
0.15939413675571928   0.04015836362148502   0.03193806749301486
0.15939413675571928   0.04015836362148502   0.03193806749301486
0.15939413675571928   0.04015836362148502   0.03193806749301486
0.09731024946582674   -0.08118709164747652   -0.058767582016113276
0.09731024946582674   -0.08118709164747652   -0.058767582016113276
0.09731024946582674   -0.08118709164747652   -0.058767582016113276
0.09731024946582674   -0.08118709164747652   -0.058767582016113276
0.5350413130061485   0.0942148470944831   0.03842999020492786
0.5350413130061485   0.0942148470944831   0.03842999020492786
0.5350413130061485   0.0942148470944831   0.03842999020492786
0.5350413130061485   0.0942148470944831   0.03842999020492786
0.3159000458626303   0.01569888770709591   -0.007327876291256611
0.3159000458626303   0.01569888770709591   -0.007327876291256611
0.3159000458626303   0.01569888770709591   -0.007327876291256611
0.3159000458626303   0.01569888770709591   -0.007327876291256611
0.49590655751400536   -0.0019334180557435965   -0.06109552210556591
0.49590655751400536   -0.0019334180557435965   -0.06109552210556591
0.49590655751400536   -0.0019334180557435965   -0.06109552210556591
0.49590655751400536   -0.0019334180557435965   -0.06109552210556591
0.13522333637789208   0.013739504922661523   0.0358712559740765
0.13522333637789208   0.013739504922661523   0.0358712559740765
0.13522333637789208   0.013739504922661523   0.0358712559740765
0.13522333637789208   0.013739504922661523   0.0358712559740765
0.07386565233704645   -0.0927173311268163   -0.04989229075985475
0.07386565233704645   -0.0927173311268163   -0.04989229075985475
0.07386565233704645   -0.0927173311268163   -0.04989229075985475
0.07386565233704645   -0.0927173311268163   -0.04989229075985475
0.4929011124449185   0.07830139910223938   0.049340570135868844
0.4929011124449185   0.07830139910223938   0.049340570135868844
0.4929011124449185   0.07830139910223938   0.049340570135868844
0.4929011124449185   0.07830139910223938   0.049340570135868844
0.28641733859468227   -0.002299730112367615   -0.01902314475287357
0.28641733859468227   -0.002299730112367615   -0.01902314475287357
0.28641733859468227   -0.002299730112367615   -0.01902314475287357
0.28641733859468227   -0.002299730112367615   -0.01902314475287357
0.45399772611700795   -0.016739542249285644   -0.050135420152163
0.45399772611700795   -0.016739542249285644   -0.050135420152163
0.45399772611700795   -0.016739542249285644   -0.050135420152163
0.45399772611700795   -0.016739542249285644   -0.050135420152163
0.1111353098114373   0.000689881371188493   0.04304878411409564
0.1111353098114373   0.000689881371188493   0.04304878411409564
0.1111353098114373   0.000689881371188493   0.04304878411409564
0.1111353098114373   0.000689881371188493   0.04304878411409564
0.05289707043690413   -0.10668063682937606   -0.041546213208610974
0.05289707043690413   -0.10668063682937606   -0.041546213208610974
0.05289707043690413   -0.10668063682937606   -0.041546213208610974
0.05289707043690413   -0.10668063682937606   -0.041546213208610974
0.4407350579366489   0.052806679170552685   0.05475715941425041
0.4407350579366489   0.052806679170552685   0.05475715941425041
0.4407350579366489   0.052806679170552685   0.05475715941425041
0.4407350579366489   0.052806679170552685   0.05475715941425041
0.24580974838192426   -0.018352388965589078   -0.03329590650240559
0.24580974838192426   -0.018352388965589078   -0.03329590650240559
0.24580974838192426   -0.018352388965589078   -0.03329590650240559
0.24580974838192426   -0.018352388965589078   -0.03329590650240559
0.15308381187522813   0.05993354826398321   -0.019388741551940678
0.15308381187522813   0.05993354826398321   -0.019388741551940678
0.15308381187522813   0.05993354826398321   -0.019388741551940678
0.15308381187522813   0.05993354826398321   -0.019388741551940678
-0.22517345147722165   0.01946955834154472   0.00779732485128436
-0.22517345147722165   0.01946955834154472   0.00779732485128436
-0.22517345147722165   0.01946955834154472   0.00779732485128436
-0.22517345147722165   0.01946955834154472   0.00779732485128436
-0.2651588400560469   -0.05201302877825969   -0.03427310836977505
-0.2651588400560469   -0.05201302877825969   -0.03427310836977505
-0.2651588400560469   -0.05201302877825969   -0.03427310836977505
-0.2651588400560469   -0.05201302877825969   -0.03427310836977505
0.14746338806723494   0.07440897859369175   0.03640204074976048
0.14746338806723494   0.07440897859369175   0.03640204074976048
0.14746338806723494   0.07440897859369175   0.03640204074976048
0.14746338806723494   0.07440897859369175   0.03640204074976048
-0.04875833627837626   0.02437898620016789   0.006145674826769311
-0.04875833627837626   0.02437898620016789   0.006145674826769311
-0.04875833627837626   0.02437898620016789   0.006145674826769311
-0.04875833627837626   0.02437898620016789   0.006145674826769311
0.12859892852755053   0.030742409117850707   -0.014253687472820534
0.12859892852755053   0.030742409117850707   -0.014253687472820534
0.12859892852755053   0.030742409117850707   -0.014253687472820534
0.12859892852755053   0.030742409117850707   -0.014253687472820534
-0.24733379168251   -0.009385870468571242   0.012224975188221191
-0.24733379168251   -0.009385870468571242   0.012224975188221191
-0.24733379168251   -0.009385870468571242   0.012224975188221191
-0.24733379168251   -0.009385870468571242   0.012224975188221191
-0.2861337699085904   -0.07545741858169583   -0.026824141609484202
-0.2861337699085904   -0.07545741858169583   -0.026824141609484202
-0.2861337699085904   -0.07545741858169583   -0.026824141609484202
-0.2861337699085904   -0.07545741858169583   -0.026824141609484202
0.11994282731813591   0.04809083320098588   0.03968541981779128
0.11994282731813591   0.04809083320098588   0.03968541981779128
0.11994282731813591   0.04809083320098588   0.03968541981779128
0.11994282731813591   0.04809083320098588   0.03968541981779128
-0.07466333794385248   -0.0008881960450399032   -0.005959702054430159
-0.07466333794385248   -0.0008881960450399032   -0.005959702054430159
-0.07466333794385248   -0.0008881960450399032   -0.005959702054430159
-0.07466333794385248   -0.0008881960450399032   -0.005959702054430159
0.10163749184703477   0.005592981019983453   -0.009343405356712943
0.10163749184703477   0.005592981019983453   -0.009343405356712943
0.10163749184703477   0.005592981019983453   -0.009343405356712943
0.10163749184703477   0.005592981019983453   -0.009343405356712943
-0.2691734683570002   -0.034304600320203785   0.016824547886978982
-0.2691734683570002   -0.034304600320203785   0.016824547886978982
-0.2691734683570002   -0.034304600320203785   0.016824547886978982
-0.2691734683570002   -0.034304600320203785   0.016824547886978982
-0.30694978775034615   -0.09873657123662055   -0.02009118102733734
-0.30694978775034615   -0.09873657123662055   -0.02009118102733734
-0.30694978775034615   -0.09873657123662055   -0.02009118102733734
-0.30694978775034615   -0.09873657123662055   -0.02009118102733734
0.09584750922864975   0.022226746831199653   0.044298597089541515
0.09584750922864975   0.022226746831199653   0.044298597089541515
0.09584750922864975   0.022226746831199653   0.044298597089541515
0.09584750922864975   0.022226746831199653   0.044298597089541515
-0.0971027089418691   -0.023540813813216627   -0.017399160862787127
-0.0971027089418691   -0.023540813813216627   -0.017399160862787127
-0.0971027089418691   -0.023540813813216627   -0.017399160862787127
-0.0971027089418691   -0.023540813813216627   -0.017399160862787127
-0.21360513545295293   0.08222352083973089   0.002884942474441869
-0.21360513545295293   0.08222352083973089   0.002884942474441869
-0.21360513545295293   0.08222352083973089   0.002884942474441869
-0.21360513545295293   0.08222352083973089   0.002884942474441869
-0.6046833238322884   -0.007084827876867067   -0.016588423740248395
-0.6046833238322884   -0.007084827876867067   -0.016588423740248395
-0.6046833238322884   -0.007084827876867067   -0.016588423740248395
-0.6046833238322884   -0.007084827876867067   -0.016588423740248395
-0.6235672423259693   -0.025356610237675395   -0.00989759481079817
-0.6235672423259693   -0.025356610237675395   -0.00989759481079817
-0.6235672423259693   -0.025356610237675395   -0.00989759481079817
-0.6235672423259693   -0.025356610237675395   -0.00989759481079817
-0.2357927159663588   0.04897076917937851   0.011573714121023693
-0.2357927159663588   0.04897076917937851   0.011573714121023693
-0.2357927159663588   0.04897076917937851   0.011573714121023693
-0.2357927159663588   0.04897076917937851   0.011573714121023693
-0.41842093492829596   0.024175389093370456   0.006380326917128146
-0.41842093492829596   0.024175389093370456   0.006380326917128146
-0.41842093492829596   0.024175389093370456   0.006380326917128146
-0.41842093492829596   0.024175389093370456   0.006380326917128146
-0.23465999922986025   0.05637164228358172   0.009836424699316955
-0.23465999922986025   0.05637164228358172   0.009836424699316955
-0.23465999922986025   0.05637164228358172   0.009836424699316955
-0.23465999922986025   0.05637164228358172   0.009836424699316955
-0.6256094273015811   -0.03366695158097585   -0.011798178345556583
-0.6256094273015811   -0.03366695158097585   -0.011798178345556583
-0.6256094273015811   -0.03366695158097585   -0.011798178345556583
-0.6256094273015811   -0.03366695158097585   -0.011798178345556583
-0.644449340043158   -0.05095034348564635   -0.0031456250563641035
-0.644449340043158   -0.05095034348564635   -0.0031456250563641035
-0.644449340043158   -0.05095034348564635   -0.0031456250563641035
-0.644449340043158   -0.05095034348564635   -0.0031456250563641035
-0.257933991195837   0.022279353327764408   0.016437980044822546
-0.257933991195837   0.022279353327764408   0.016437980044822546
-0.257933991195837   0.022279353327764408   0.016437980044822546
-0.257933991195837   0.022279353327764408   0.016437980044822546
-0.44020983239740613   -0.0001281677836624251   -0.0044752067825118945
-0.44020983239740613   -0.0001281677836624251   -0.0044752067825118945
-0.44020983239740613   -0.0001281677836624251   -0.0044752067825118945
-0.44020983239740613   -0.0001281677836624251   -0.0044752067825118945
-0.25641530310475175   0.030456453065759295   0.01585432076225789
-0.25641530310475175   0.030456453065759295   0.01585432076225789
-0.25641530310475175   0.030456453065759295   0.01585432076225789
-0.25641530310475175   0.030456453065759295   0.01585432076225789
-0.6472612403596484   -0.060420655449046984   -0.007734814675423078
-0.6472612403596484   -0.060420655449046984   -0.007734814675423078
-0.6472612403596484   -0.060420655449046984   -0.007734814675423078
-0.6472612403596484   -0.060420655449046984   -0.007734814675423078
-0.6649335838611338   -0.07566291782809922   0.0033875878683859717
-0.6649335838611338   -0.07566291782809922   0.0033875878683859717
-0.6649335838611338   -0.07566291782809922   0.0033875878683859717
-0.6649335838611338   -0.07566291782809922   0.0033875878683859717
-0.2796925503012739   -0.0034360138173045868   0.02089444879870408
-0.2796925503012739   -0.0034360138173045868   0.02089444879870408
-0.2796925503012739   -0.0034360138173045868   0.02089444879870408
-0.2796925503012739   -0.0034360138173045868   0.02089444879870408
-0.4631328839326244   -0.0244913384209946   -0.016260233222752787
-0.4631328839326244   -0.0244913384209946   -0.016260233222752787
-0.4631328839326244   -0.0244913384209946   -0.016260233222752787
-0.4631328839326244   -0.0244913384209946   -0.016260233222752787
-0.5741279062194674   0.10336853499079379   0.025735301456195667
-0.5741279062194674   0.10336853499079379   0.025735301456195667
-0.5741279062194674   0.10336853499079379   0.025735301456195667
-0.5741279062194674   0.10336853499079379   0.025735301456195667
-0.975779575573156   -0.02884379944311466   -0.037901406682786784
-0.975779575573156   -0.02884379944311466   -0.037901406682786784
-0.975779575573156   -0.02884379944311466   -0.037901406682786784
-0.975779575573156   -0.02884379944311466   -0.037901406682786784
-0.9776526195477362   -0.0018084136510645998   0.01594957244028076
-0.9776526195477362   -0.0018084136510645998   0.01594957244028076
-0.9776526195477362   -0.0018084136510645998   0.01594957244028076
-0.9776526195477362   -0.0018084136510645998   0.01594957244028076
-0.613880982345194   0.025156737269043244   -0.011979642413647837
-0.613880982345194   0.025156737269043244   -0.011979642413647837
-0.613880982345194   0.025156737269043244   -0.011979642413647837
-0.613880982345194   0.025156737269043244   -0.011979642413647837
-0.7813741536976233   0.024426950986310758   0.008416256808757419
-0.7813741536976233   0.024426950986310758   0.008416256808757419
-0.7813741536976233   0.024426950986310758   0.008416256808757419
-0.7813741536976233   0.024426950986310758   0.008416256808757419
-0.5943330827347987   0.07820741483745217   0.03270917806992705
-0.5943330827347987   0.07820741483745217   0.03270917806992705
-0.5943330827347987   0.07820741483745217   0.03270917806992705
-0.5943330827347987   0.07820741483745217   0.03270917806992705
-0.9989481838771069   -0.05660675593845538   -0.035729906919197495
-0.9989481838771069   -0.05660675593845538   -0.035729906919197495
-0.9989481838771069   -0.05660675593845538   -0.035729906919197495
-0.9989481838771069   -0.05660675593845538   -0.035729906919197495
-1.003357128831777   -0.027037355476183605   0.019588400888627573
-1.003357128831777   -0.027037355476183605   0.019588400888627573
-1.003357128831777   -0.027037355476183605   0.019588400888627573
-1.003357128831777   -0.027037355476183605   0.019588400888627573
-0.6348728430672564   0.0005866562666548558   -0.006800139929165526
-0.6348728430672564   0.0005866562666548558   -0.006800139929165526
-0.6348728430672564   0.0005866562666548558   -0.006800139929165526
-0.6348728430672564   0.0005866562666548558   -0.006800139929165526
-0.799904998684098   0.0017695159545448036   -0.002967195689046652
-0.799904998684098   0.0017695159545448036   -0.002967195689046652
-0.799904998684098   0.0017695159545448036   -0.002967195689046652
-0.799904998684098   0.0017695159545448036   -0.002967195689046652
-0.6148048075056513   0.054650639533683876   0.0394760546118391
-0.6148048075056513   0.054650639533683876   0.0394760546118391
-0.6148048075056513   0.054650639533683876   0.0394760546118391
-0.6148048075056513   0.054650639533683876   0.0394760546118391
-1.024514279390384   -0.08219045374021708   -0.031044253640397583
-1.024514279390384   -0.08219045374021708   -0.031044253640397583
-1.024514279390384   -0.08219045374021708   -0.031044253640397583
-1.024514279390384   -0.08219045374021708   -0.031044253640397583
-1.025568500060681   -0.05332191126081465   0.0266393859038781
-1.025568500060681   -0.05332191126081465   0.0266393859038781
-1.025568500060681   -0.05332191126081465   0.0266393859038781
-1.025568500060681   -0.05332191126081465   0.0266393859038781
-0.6561256260438324   -0.025676650125636108   -0.002558890747577869
-0.6561256260438324   -0.025676650125636108   -0.002558890747577869
-0.6561256260438324   -0.025676650125636108   -0.002558890747577869
-0.6561256260438324   -0.025676650125636108   -0.002558890747577869
-0.827426124931849   -0.02289498228413389   -0.015364727580941845
-0.827426124931849   -0.02289498228413389   -0.015364727580941845
-0.827426124931849   -0.02289498228413389   -0.015364727580941845
-0.827426124931849   -0.02289498228413389   -0.015364727580941845
-0.9329663351402796   0.10172706998875905   0.045593926049736444
-0.9329663351402796   0.10172706998875905   0.045593926049736444
-0.9329663351402796   0.10172706998875905   0.045593926049736444
-0.9329663351402796   0.10172706998875905   0.045593926049736444
-1.3124240138056824   -0.06032729895928171   -0.05763382177992813
-1.3124240138056824   -0.06032729895928171   -0.05763382177992813
-1.3124240138056824   -0.06032729895928171   -0.05763382177992813
-1.3124240138056824   -0.06032729895928171   -0.05763382177992813
-1.3220757277989383   0.017105417125267253   0.04793319746740421
-1.3220757277989383   0.017105417125267253   0.04793319746740421
-1.3220757277989383   0.017105417125267253   0.04793319746740421
-1.3220757277989383   0.017105417125267253   0.04793319746740421
-0.9881448220423286   -0.003095131329802131   -0.0352247223539588
-0.9881448220423286   -0.003095131329802131   -0.0352247223539588
-0.9881448220423286   -0.003095131329802131   -0.0352247223539588
-0.9881448220423286   -0.003095131329802131   -0.0352247223539588
-1.0899799186000398   0.02446859133632376   0.02634088201680515
-1.0899799186000398   0.02446859133632376   0.02634088201680515
-1.0899799186000398   0.02446859133632376   0.02634088201680515
-1.0899799186000398   0.02446859133632376   0.02634088201680515
-0.9512006067445831   0.09247837200305234   0.05392285080191318
-0.9512006067445831   0.09247837200305234   0.05392285080191318
-0.9512006067445831   0.09247837200305234   0.05392285080191318
-0.9512006067445831   0.09247837200305234   0.05392285080191318
-1.3608787864154481   -0.08032692952634127   -0.048649748963535
-1.3608787864154481   -0.08032692952634127   -0.048649748963535
-1.3608787864154481   -0.08032692952634127   -0.048649748963535
-1.3608787864154481   -0.08032692952634127   -0.048649748963535
-1.3620946684612125   0.0029393007033607366   0.061224861227116956
-1.3620946684612125   0.0029393007033607366   0.061224861227116956
-1.3620946684612125   0.0029393007033607366   0.061224861227116956
-1.3620946684612125   0.0029393007033607366   0.061224861227116956
-1.0112754348400586   -0.016805398920741538   -0.03023508570824507
-1.0112754348400586   -0.016805398920741538   -0.03023508570824507
-1.0112754348400586   -0.016805398920741538   -0.03023508570824507
-1.0112754348400586   -0.016805398920741538   -0.03023508570824507
-1.1410744396491315   0.0077064825376498836   0.009423638073469895
-1.1410744396491315   0.0077064825376498836   0.009423638073469895
-1.1410744396491315   0.0077064825376498836   0.009423638073469895
-1.1410744396491315   0.0077064825376498836   0.009423638073469895
-0.9727607281496373   0.08138977190406493   0.06414327691906274
-0.9727607281496373   0.08138977190406493   0.06414327691906274
-0.9727607281496373   0.08138977190406493   0.06414327691906274
-0.9727607281496373   0.08138977190406493   0.06414327691906274
-1.4023708259610994   -0.09701732093090992   -0.04019930463804633
-1.4023708259610994   -0.09701732093090992   -0.04019930463804633
-1.4023708259610994   -0.09701732093090992   -0.04019930463804633
-1.4023708259610994   -0.09701732093090992   -0.04019930463804633
-1.4174482353062685   -0.03728062537163579   0.06323395973534607
-1.4174482353062685   -0.03728062537163579   0.06323395973534607
-1.4174482353062685   -0.03728062537163579   0.06323395973534607
-1.4174482353062685   -0.03728062537163579   0.06323395973534607
-1.0351400392717285   -0.04817408878630622   -0.026366132625884282
-1.0351400392717285   -0.04817408878630622   -0.026366132625884282
-1.0351400392717285   -0.04817408878630622   -0.026366132625884282
-1.0351400392717285   -0.04817408878630622   -0.026366132625884282
-1.1578141807095466   -0.010103406136103166   -0.0006568993303986692
-1.1578141807095466   -0.010103406136103166   -0.0006568993303986692
-1.1578141807095466   -0.010103406136103166   -0.0006568993303986692
-1.1578141807095466   -0.010103406136103166   -0.0006568993303986692
0.0968737717500752   0.007976437113252768   -0.06645120004253299
0.0968737717500752   0.007976437113252768   -0.06645120004253299
0.0968737717500752   0.007976437113252768   -0.06645120004253299
0.0968737717500752   0.007976437113252768   -0.06645120004253299
-0.10956981183929182   0.04988077045382524   0.034017034849787096
-0.10956981183929182   0.04988077045382524   0.034017034849787096
-0.10956981183929182   0.04988077045382524   0.034017034849787096
-0.10956981183929182   0.04988077045382524   0.034017034849787096
-0.16372075173129386   -0.06392383383304329   -0.053501349695292286
-0.16372075173129386   -0.06392383383304329   -0.053501349695292286
-0.16372075173129386   -0.06392383383304329   -0.053501349695292286
-0.16372075173129386   -0.06392383383304329   -0.053501349695292286
0.0886687308635644   0.07021581593672498   0.04178573235930542
0.0886687308635644   0.07021581593672498   0.04178573235930542
0.0886687308635644   0.07021581593672498   0.04178573235930542
0.0886687308635644   0.07021581593672498   0.04178573235930542
-0.024112760026944582   0.015406157052142933   0.005786291837777926
-0.024112760026944582   0.015406157052142933   0.005786291837777926
-0.024112760026944582   0.015406157052142933   0.005786291837777926
-0.024112760026944582   0.015406157052142933   0.005786291837777926
0.049915094193373456   -0.022374768100030185   -0.059391866954894075
0.049915094193373456   -0.022374768100030185   -0.059391866954894075
0.049915094193373456   -0.022374768100030185   -0.059391866954894075
0.049915094193373456   -0.022374768100030185   -0.059391866954894075
-0.12726157382059985   0.026372291444214935   0.03849841458091948
-0.12726157382059985   0.026372291444214935   0.03849841458091948
-0.12726157382059985   0.026372291444214935   0.03849841458091948
-0.12726157382059985   0.026372291444214935   0.03849841458091948
-0.18155437441158281   -0.07552526013531088   -0.04533723919541181
-0.18155437441158281   -0.07552526013531088   -0.04533723919541181
-0.18155437441158281   -0.07552526013531088   -0.04533723919541181
-0.18155437441158281   -0.07552526013531088   -0.04533723919541181
0.05193214051151036   0.05445216557293718   0.057292331701813026
0.05193214051151036   0.05445216557293718   0.057292331701813026
0.05193214051151036   0.05445216557293718   0.057292331701813026
0.05193214051151036   0.05445216557293718   0.057292331701813026
-0.053131015570597594   -0.001973032417383563   -0.007623222931952438
-0.053131015570597594   -0.001973032417383563   -0.007623222931952438
-0.053131015570597594   -0.001973032417383563   -0.007623222931952438
-0.053131015570597594   -0.001973032417383563   -0.007623222931952438
0.012287455223648101   -0.037487693501750574   -0.04899123566281049
0.012287455223648101   -0.037487693501750574   -0.04899123566281049
0.012287455223648101   -0.037487693501750574   -0.04899123566281049
0.012287455223648101   -0.037487693501750574   -0.04899123566281049
-0.14509194247007873   0.013232345593013273   0.04821731478378259
-0.14509194247007873   0.013232345593013273   0.04821731478378259
-0.14509194247007873   0.013232345593013273   0.04821731478378259
-0.14509194247007873   0.013232345593013273   0.04821731478378259
-0.19788952312894662   -0.09338385486984782   -0.03757092972218725
-0.19788952312894662   -0.09338385486984782   -0.03757092972218725
-0.19788952312894662   -0.09338385486984782   -0.03757092972218725
-0.19788952312894662   -0.09338385486984782   -0.03757092972218725
0.0009144129718906277   0.02139171754476633   0.0653023958921583
0.0009144129718906277   0.02139171754476633   0.0653023958921583
0.0009144129718906277   0.02139171754476633   0.0653023958921583
0.0009144129718906277   0.02139171754476633   0.0653023958921583
-0.0842344147238766   -0.019482315395252654   -0.023073815381624327
-0.0842344147238766   -0.019482315395252654   -0.023073815381624327
-0.0842344147238766   -0.019482315395252654   -0.023073815381624327
-0.0842344147238766   -0.019482315395252654   -0.023073815381624327
-0.12511809458770828   0.03262703588458044   -0.026470644323050425
-0.12511809458770828   0.03262703588458044   -0.026470644323050425
-0.12511809458770828   0.03262703588458044   -0.026470644323050425
-0.12511809458770828   0.03262703588458044   -0.026470644323050425
-0.3185834637924906   0.013395918128658896   0.008892148624574554
-0.3185834637924906   0.013395918128658896   0.008892148624574554
-0.3185834637924906   0.013395918128658896   0.008892148624574554
-0.3185834637924906   0.013395918128658896   0.008892148624574554
-0.3465037745765304   -0.03722645038790693   -0.027807941514467534
-0.3465037745765304   -0.03722645038790693   -0.027807941514467534
-0.3465037745765304   -0.03722645038790693   -0.027807941514467534
-0.3465037745765304   -0.03722645038790693   -0.027807941514467534
-0.12860367627667801   0.03160507156099906   0.026555122183744624
-0.12860367627667801   0.03160507156099906   0.026555122183744624
-0.12860367627667801   0.03160507156099906   0.026555122183744624
-0.12860367627667801   0.03160507156099906   0.026555122183744624
-0.22922705886985642   0.009455323325403553   0.005027287691198409
-0.22922705886985642   0.009455323325403553   0.005027287691198409
-0.22922705886985642   0.009455323325403553   0.005027287691198409
-0.22922705886985642   0.009455323325403553   0.005027287691198409
-0.1436745220995134   0.0045518177804196105   -0.021745853149851835
-0.1436745220995134   0.0045518177804196105   -0.021745853149851835
-0.1436745220995134   0.0045518177804196105   -0.021745853149851835
-0.1436745220995134   0.0045518177804196105   -0.021745853149851835
-0.3333141504927753   -0.012054418346408226   0.012968146862805506
-0.3333141504927753   -0.012054418346408226   0.012968146862805506
-0.3333141504927753   -0.012054418346408226   0.012968146862805506
-0.3333141504927753   -0.012054418346408226   0.012968146862805506
-0.36038396951641954   -0.06001373686089472   -0.0205106336570256
-0.36038396951641954   -0.06001373686089472   -0.0205106336570256
-0.36038396951641954   -0.06001373686089472   -0.0205106336570256
-0.36038396951641954   -0.06001373686089472   -0.0205106336570256
-0.1501086800366636   0.0064261979125063776   0.029939774631365018
-0.1501086800366636   0.0064261979125063776   0.029939774631365018
-0.1501086800366636   0.0064261979125063776   0.029939774631365018
-0.1501086800366636   0.0064261979125063776   0.029939774631365018
-0.24676233011748835   -0.01340324358157522   -0.006437679070069239
-0.24676233011748835   -0.01340324358157522   -0.006437679070069239
-0.24676233011748835   -0.01340324358157522   -0.006437679070069239
-0.24676233011748835   -0.01340324358157522   -0.006437679070069239
-0.16463293570288534   -0.020010387103524832   -0.016244918683710398
-0.16463293570288534   -0.020010387103524832   -0.016244918683710398
-0.16463293570288534   -0.020010387103524832   -0.016244918683710398
-0.16463293570288534   -0.020010387103524832   -0.016244918683710398
-0.34787857499569264   -0.03559601299035801   0.017598615076072126
-0.34787857499569264   -0.03559601299035801   0.017598615076072126
-0.34787857499569264   -0.03559601299035801   0.017598615076072126
-0.34787857499569264   -0.03559601299035801   0.017598615076072126
-0.3743556918134374   -0.08348313348247878   -0.014047603436763471
-0.3743556918134374   -0.08348313348247878   -0.014047603436763471
-0.3743556918134374   -0.08348313348247878   -0.014047603436763471
-0.3743556918134374   -0.08348313348247878   -0.014047603436763471
-0.1680910506307207   -0.01911120511163085   0.03714878301072538
-0.1680910506307207   -0.01911120511163085   0.03714878301072538
-0.1680910506307207   -0.01911120511163085   0.03714878301072538
-0.1680910506307207   -0.01911120511163085   0.03714878301072538
-0.26429093894821426   -0.03603618221083725   -0.01810393862395669
-0.26429093894821426   -0.03603618221083725   -0.01810393862395669
-0.26429093894821426   -0.03603618221083725   -0.01810393862395669
-0.26429093894821426   -0.03603618221083725   -0.01810393862395669
-0.31279352318235726   0.05404864246829011   -0.002810872664393678
-0.31279352318235726   0.05404864246829011   -0.002810872664393678
-0.31279352318235726   0.05404864246829011   -0.002810872664393678
-0.31279352318235726   0.05404864246829011   -0.002810872664393678
-0.5257811529282892   -0.017972997070182156   -0.014833874499199939
-0.5257811529282892   -0.017972997070182156   -0.014833874499199939
-0.5257811529282892   -0.017972997070182156   -0.014833874499199939
-0.5257811529282892   -0.017972997070182156   -0.014833874499199939
-0.5312923275635606   -0.013065153902596341   -0.0031062896916486983
-0.5312923275635606   -0.013065153902596341   -0.0031062896916486983
-0.5312923275635606   -0.013065153902596341   -0.0031062896916486983
-0.5312923275635606   -0.013065153902596341   -0.0031062896916486983
-0.3320946678509477   0.0029170146153199433   0.00409412711021534
-0.3320946678509477   0.0029170146153199433   0.00409412711021534
-0.3320946678509477   0.0029170146153199433   0.00409412711021534
-0.3320946678509477   0.0029170146153199433   0.00409412711021534
-0.4246037783664106   0.006071268151996587   0.0016923052992878392
-0.4246037783664106   0.006071268151996587   0.0016923052992878392
-0.4246037783664106   0.006071268151996587   0.0016923052992878392
-0.4246037783664106   0.006071268151996587   0.0016923052992878392
-0.326834474338149   0.029258413782267942   0.004053695507261045
-0.326834474338149   0.029258413782267942   0.004053695507261045
-0.326834474338149   0.029258413782267942   0.004053695507261045
-0.326834474338149   0.029258413782267942   0.004053695507261045
-0.5383612583451511   -0.041215290338336055   -0.01030080716386128
-0.5383612583451511   -0.041215290338336055   -0.01030080716386128
-0.5383612583451511   -0.041215290338336055   -0.01030080716386128
-0.5383612583451511   -0.041215290338336055   -0.01030080716386128
-0.5443046338200508   -0.037544934450681106   0.0036871837768088014
-0.5443046338200508   -0.037544934450681106   0.0036871837768088014
-0.5443046338200508   -0.037544934450681106   0.0036871837768088014
-0.5443046338200508   -0.037544934450681106   0.0036871837768088014
-0.34681841970487476   -0.021145665124886436   0.008449043664689971
-0.34681841970487476   -0.021145665124886436   0.008449043664689971
-0.34681841970487476   -0.021145665124886436   0.008449043664689971
-0.34681841970487476   -0.021145665124886436   0.008449043664689971
-0.4387132294646371   -0.01619207710915975   -0.008837981056413813
-0.4387132294646371   -0.01619207710915975   -0.008837981056413813
-0.4387132294646371   -0.01619207710915975   -0.008837981056413813
-0.4387132294646371   -0.01619207710915975   -0.008837981056413813
-0.34139379568637634   0.004320913455959294   0.010105585176336356
-0.34139379568637634   0.004320913455959294   0.010105585176336356
-0.34139379568637634   0.004320913455959294   0.010105585176336356
-0.34139379568637634   0.004320913455959294   0.010105585176336356
-0.5519094501964636   -0.06519170538944119   -0.006690127166495004
-0.5519094501964636   -0.06519170538944119   -0.006690127166495004
-0.5519094501964636   -0.06519170538944119   -0.006690127166495004
-0.5519094501964636   -0.06519170538944119   -0.006690127166495004
-0.5569788138207382   -0.06103228743385897   0.010199344235396559
-0.5569788138207382   -0.06103228743385897   0.010199344235396559
-0.5569788138207382   -0.06103228743385897   0.010199344235396559
-0.5569788138207382   -0.06103228743385897   0.010199344235396559
-0.3609536990457923   -0.04385297162095041   0.01333219853993372
-0.3609536990457923   -0.04385297162095041   0.01333219853993372
-0.3609536990457923   -0.04385297162095041   0.01333219853993372
-0.3609536990457923   -0.04385297162095041   0.01333219853993372
-0.45389623202288937   -0.038596214417222635   -0.020279755273922603
-0.45389623202288937   -0.038596214417222635   -0.020279755273922603
-0.45389623202288937   -0.038596214417222635   -0.020279755273922603
-0.45389623202288937   -0.038596214417222635   -0.020279755273922603
-0.49922819745777786   0.07836528222762887   0.021592623555552887
-0.49922819745777786   0.07836528222762887   0.021592623555552887
-0.49922819745777786   0.07836528222762887   0.021592623555552887
-0.49922819745777786   0.07836528222762887   0.021592623555552887
-0.7247221885773508   -0.029852817900688   -0.033294320862816154
-0.7247221885773508   -0.029852817900688   -0.033294320862816154
-0.7247221885773508   -0.029852817900688   -0.033294320862816154
-0.7247221885773508   -0.029852817900688   -0.033294320862816154
-0.7149580618216299   0.011816230258028998   0.0223949020077475
-0.7149580618216299   0.011816230258028998   0.0223949020077475
-0.7149580618216299   0.011816230258028998   0.0223949020077475
-0.7149580618216299   0.011816230258028998   0.0223949020077475
-0.5331464216633839   -0.0106079877176493   -0.01483392637571232
-0.5331464216633839   -0.0106079877176493   -0.01483392637571232
-0.5331464216633839   -0.0106079877176493   -0.01483392637571232
-0.5331464216633839   -0.0106079877176493   -0.01483392637571232
-0.6158871941276325   0.012521867623842137   0.002938966083546206
-0.6158871941276325   0.012521867623842137   0.002938966083546206
-0.6158871941276325   0.012521867623842137   0.002938966083546206
-0.6158871941276325   0.012521867623842137   0.002938966083546206
-0.5116239432575238   0.05369847429707375   0.028472003638865158
-0.5116239432575238   0.05369847429707375   0.028472003638865158
-0.5116239432575238   0.05369847429707375   0.028472003638865158
-0.5116239432575238   0.05369847429707375   0.028472003638865158
-0.7391214781505063   -0.055131169679706465   -0.03147477969890643
-0.7391214781505063   -0.055131169679706465   -0.03147477969890643
-0.7391214781505063   -0.055131169679706465   -0.03147477969890643
-0.7391214781505063   -0.055131169679706465   -0.03147477969890643
-0.7324024845266118   -0.012269924178810815   0.02644659930283079
-0.7324024845266118   -0.012269924178810815   0.02644659930283079
-0.7324024845266118   -0.012269924178810815   0.02644659930283079
-0.7324024845266118   -0.012269924178810815   0.02644659930283079
-0.5460466413434379   -0.03247746882913005   -0.010090319461677617
-0.5460466413434379   -0.03247746882913005   -0.010090319461677617
-0.5460466413434379   -0.03247746882913005   -0.010090319461677617
-0.5460466413434379   -0.03247746882913005   -0.010090319461677617
-0.6277398640907875   -0.008933520985974358   -0.008476333892483083
-0.6277398640907875   -0.008933520985974358   -0.008476333892483083
-0.6277398640907875   -0.008933520985974358   -0.008476333892483083
-0.6277398640907875   -0.008933520985974358   -0.008476333892483083
-0.524280421496901   0.031098192295783686   0.03516511864609252
-0.524280421496901   0.031098192295783686   0.03516511864609252
-0.524280421496901   0.031098192295783686   0.03516511864609252
-0.524280421496901   0.031098192295783686   0.03516511864609252
-0.7562541376882544   -0.07793101861883285   -0.027150572065375137
-0.7562541376882544   -0.07793101861883285   -0.027150572065375137
-0.7562541376882544   -0.07793101861883285   -0.027150572065375137
-0.7562541376882544   -0.07793101861883285   -0.027150572065375137
-0.746584703195547   -0.03652160097618817   0.03367543215137639
-0.746584703195547   -0.03652160097618817   0.03367543215137639
-0.746584703195547   -0.03652160097618817   0.03367543215137639
-0.746584703195547   -0.03652160097618817   0.03367543215137639
-0.5589924215076836   -0.0548605010686222   -0.00604048056457504
-0.5589924215076836   -0.0548605010686222   -0.00604048056457504
-0.5589924215076836   -0.0548605010686222   -0.00604048056457504
-0.5589924215076836   -0.0548605010686222   -0.00604048056457504
-0.6455696729110108   -0.030801112502784334   -0.020169593927086088
-0.6455696729110108   -0.030801112502784334   -0.020169593927086088
-0.6455696729110108   -0.030801112502784334   -0.020169593927086088
-0.6455696729110108   -0.030801112502784334   -0.020169593927086088
-0.68657319633897   0.0849076611464386   0.042690161281961035
-0.68657319633897   0.0849076611464386   0.042690161281961035
-0.68657319633897   0.0849076611464386   0.042690161281961035
-0.68657319633897   0.0849076611464386   0.042690161281961035
-0.882895051894652   -0.04410197788066483   -0.05576555701313453
-0.882895051894652   -0.04410197788066483   -0.05576555701313453
-0.882895051894652   -0.04410197788066483   -0.05576555701313453
-0.882895051894652   -0.04410197788066483   -0.05576555701313453
-0.8835653040721221   0.03427749242370712   0.047058878443380935
-0.8835653040721221   0.03427749242370712   0.047058878443380935
-0.8835653040721221   0.03427749242370712   0.047058878443380935
-0.8835653040721221   0.03427749242370712   0.047058878443380935
-0.733638975342132   -0.025071933917582084   -0.0341215014191512
-0.733638975342132   -0.025071933917582084   -0.0341215014191512
-0.733638975342132   -0.025071933917582084   -0.0341215014191512
-0.733638975342132   -0.025071933917582084   -0.0341215014191512
-0.7644609137211997   0.020207600652881935   0.014728642361386997
-0.7644609137211997   0.020207600652881935   0.014728642361386997
-0.7644609137211997   0.020207600652881935   0.014728642361386997
-0.7644609137211997   0.020207600652881935   0.014728642361386997
-0.6972892484738252   0.07219330637970861   0.05036189262509163
-0.6972892484738252   0.07219330637970861   0.05036189262509163
-0.6972892484738252   0.07219330637970861   0.05036189262509163
-0.6972892484738252   0.07219330637970861   0.05036189262509163
-0.9226559512309269   -0.06572866816407918   -0.048388196762841826
-0.9226559512309269   -0.06572866816407918   -0.048388196762841826
-0.9226559512309269   -0.06572866816407918   -0.048388196762841826
-0.9226559512309269   -0.06572866816407918   -0.048388196762841826
-0.9152966947741533   0.020566434675090506   0.06064534220500989
-0.9152966947741533   0.020566434675090506   0.06064534220500989
-0.9152966947741533   0.020566434675090506   0.06064534220500989
-0.9152966947741533   0.020566434675090506   0.06064534220500989
-0.748746583778528   -0.037641878539165896   -0.029901942596402657
-0.748746583778528   -0.037641878539165896   -0.029901942596402657
-0.748746583778528   -0.037641878539165896   -0.029901942596402657
-0.748746583778528   -0.037641878539165896   -0.029901942596402657
-0.802206931345681   0.0035289786903388853   -0.001089942078908647
-0.802206931345681   0.0035289786903388853   -0.001089942078908647
-0.802206931345681   0.0035289786903388853   -0.001089942078908647
-0.802206931345681   0.0035289786903388853   -0.001089942078908647
-0.710877188897506   0.06140158171943358   0.06040157155010857
-0.710877188897506   0.06140158171943358   0.06040157155010857
-0.710877188897506   0.06140158171943358   0.06040157155010857
-0.710877188897506   0.06140158171943358   0.06040157155010857
-0.9559623319181436   -0.08127326784648223   -0.04084314099336885
-0.9559623319181436   -0.08127326784648223   -0.04084314099336885
-0.9559623319181436   -0.08127326784648223   -0.04084314099336885
-0.9559623319181436   -0.08127326784648223   -0.04084314099336885
-0.9622196956313189   -0.015489496260655294   0.06413648636196068
-0.9622196956313189   -0.015489496260655294   0.06413648636196068
-0.9622196956313189   -0.015489496260655294   0.06413648636196068
-0.9622196956313189   -0.015489496260655294   0.06413648636196068
-0.763914166582184   -0.06366425969800839   -0.025829226059996175
-0.763914166582184   -0.06366425969800839   -0.025829226059996175
-0.763914166582184   -0.06366425969800839   -0.025829226059996175
-0.763914166582184   -0.06366425969800839   -0.025829226059996175
-0.8167385239518623   -0.01298182154212918   -0.012331656719978261
-0.8167385239518623   -0.01298182154212918   -0.012331656719978261
-0.8167385239518623   -0.01298182154212918   -0.012331656719978261
-0.8167385239518623   -0.01298182154212918   -0.012331656719978261
-0.377928777923805   -0.024697725260559897   -0.07051647763762545
-0.377928777923805   -0.024697725260559897   -0.07051647763762545
-0.377928777923805   -0.024697725260559897   -0.07051647763762545
-0.377928777923805   -0.024697725260559897   -0.07051647763762545
-0.372853549268975   0.05408514771793416   0.03174255270070408
-0.372853549268975   0.05408514771793416   0.03174255270070408
-0.372853549268975   0.05408514771793416   0.03174255270070408
-0.372853549268975   0.05408514771793416   0.03174255270070408
-0.4193403077619926   -0.04929768952640743   -0.047772756330799596
-0.4193403077619926   -0.04929768952640743   -0.047772756330799596
-0.4193403077619926   -0.04929768952640743   -0.047772756330799596
-0.4193403077619926   -0.04929768952640743   -0.047772756330799596
-0.38565957339575274   0.028062005014509173   0.04775043063158892
-0.38565957339575274   0.028062005014509173   0.04775043063158892
-0.38565957339575274   0.028062005014509173   0.04775043063158892
-0.38565957339575274   0.028062005014509173   0.04775043063158892
-0.36942741443715704   0.009064271516084396   0.032382915920432395
-0.36942741443715704   0.009064271516084396   0.032382915920432395
-0.36942741443715704   0.009064271516084396   0.032382915920432395
-0.36942741443715704   0.009064271516084396   0.032382915920432395
-0.4230966245341174   -0.052307471353186016   -0.05906534869253709
-0.4230966245341174   -0.052307471353186016   -0.05906534869253709
-0.4230966245341174   -0.052307471353186016   -0.05906534869253709
-0.4230966245341174   -0.052307471353186016   -0.05906534869253709
-0.38656669776979313   0.026408345695117783   0.04038925840867243
-0.38656669776979313   0.026408345695117783   0.04038925840867243
-0.38656669776979313   0.026408345695117783   0.04038925840867243
-0.38656669776979313   0.026408345695117783   0.04038925840867243
-0.43329838572266716   -0.06213446586658561   -0.04041029926165408
-0.43329838572266716   -0.06213446586658561   -0.04041029926165408
-0.43329838572266716   -0.06213446586658561   -0.04041029926165408
-0.43329838572266716   -0.06213446586658561   -0.04041029926165408
-0.421723853154797   0.010573320673237893   0.08870902973698366
-0.421723853154797   0.010573320673237893   0.08870902973698366
-0.421723853154797   0.010573320673237893   0.08870902973698366
-0.421723853154797   0.010573320673237893   0.08870902973698366
-0.40270601267656914   -0.012994867210931585   0.012921174464053435
-0.40270601267656914   -0.012994867210931585   0.012921174464053435
-0.40270601267656914   -0.012994867210931585   0.012921174464053435
-0.40270601267656914   -0.012994867210931585   0.012921174464053435
-0.46468690334118407   -0.06953057470191681   -0.046002325819793154
-0.46468690334118407   -0.06953057470191681   -0.046002325819793154
-0.46468690334118407   -0.06953057470191681   -0.046002325819793154
-0.46468690334118407   -0.06953057470191681   -0.046002325819793154
-0.4013541434274492   0.006950621617400621   0.05022582473044949
-0.4013541434274492   0.006950621617400621   0.05022582473044949
-0.4013541434274492   0.006950621617400621   0.05022582473044949
-0.4013541434274492   0.006950621617400621   0.05022582473044949
-0.4447191475322318   -0.08715249250410412   -0.031785093848071495
-0.4447191475322318   -0.08715249250410412   -0.031785093848071495
-0.4447191475322318   -0.08715249250410412   -0.031785093848071495
-0.4447191475322318   -0.08715249250410412   -0.031785093848071495
-0.4777969510980008   -0.04721955308080217   0.08302799286180146
-0.4777969510980008   -0.04721955308080217   0.08302799286180146
-0.4777969510980008   -0.04721955308080217   0.08302799286180146
-0.4777969510980008   -0.04721955308080217   0.08302799286180146
-0.43146835245231074   -0.03907956005981042   -0.017882086264973795
-0.43146835245231074   -0.03907956005981042   -0.017882086264973795
-0.43146835245231074   -0.03907956005981042   -0.017882086264973795
-0.43146835245231074   -0.03907956005981042   -0.017882086264973795
-0.39966314808935693   -0.01186875599357029   -0.03635153768970503
-0.39966314808935693   -0.01186875599357029   -0.03635153768970503
-0.39966314808935693   -0.01186875599357029   -0.03635153768970503
-0.39966314808935693   -0.01186875599357029   -0.03635153768970503
-0.40418239153618096   -0.049622980566800465   -0.0021089879648094195
-0.40418239153618096   -0.049622980566800465   -0.0021089879648094195
-0.40418239153618096   -0.049622980566800465   -0.0021089879648094195
-0.40418239153618096   -0.049622980566800465   -0.0021089879648094195
-0.4070511043590089   -0.03301203241156467   -0.01808296959677382
-0.4070511043590089   -0.03301203241156467   -0.01808296959677382
-0.4070511043590089   -0.03301203241156467   -0.01808296959677382
-0.4070511043590089   -0.03301203241156467   -0.01808296959677382
-0.41360545568643936   -0.06764277279422098   -0.0007534126852198116
-0.41360545568643936   -0.06764277279422098   -0.0007534126852198116
-0.41360545568643936   -0.06764277279422098   -0.0007534126852198116
-0.41360545568643936   -0.06764277279422098   -0.0007534126852198116
-0.4026695407892983   -0.04229503352050273   -0.001498762206903646
-0.4026695407892983   -0.04229503352050273   -0.001498762206903646
-0.4026695407892983   -0.04229503352050273   -0.001498762206903646
-0.4026695407892983   -0.04229503352050273   -0.001498762206903646
-0.4136149502573375   -0.036997449448885236   -0.03144620888504808
-0.4136149502573375   -0.036997449448885236   -0.03144620888504808
-0.4136149502573375   -0.036997449448885236   -0.03144620888504808
-0.4136149502573375   -0.036997449448885236   -0.03144620888504808
-0.40963631389009003   -0.06625205985888058   0.002231010195132785
-0.40963631389009003   -0.06625205985888058   0.002231010195132785
-0.40963631389009003   -0.06625205985888058   0.002231010195132785
-0.40963631389009003   -0.06625205985888058   0.002231010195132785
-0.4138132027493954   -0.054632101604333676   -0.011647200240103425
-0.4138132027493954   -0.054632101604333676   -0.011647200240103425
-0.4138132027493954   -0.054632101604333676   -0.011647200240103425
-0.4138132027493954   -0.054632101604333676   -0.011647200240103425
-0.42849644586692615   -0.08771392124979757   0.009178855400262755
-0.42849644586692615   -0.08771392124979757   0.009178855400262755
-0.42849644586692615   -0.08771392124979757   0.009178855400262755
-0.42849644586692615   -0.08771392124979757   0.009178855400262755
-0.4118454832894314   -0.05974941795920883   -0.011495294978236535
-0.4118454832894314   -0.05974941795920883   -0.011495294978236535
-0.4118454832894314   -0.05974941795920883   -0.011495294978236535
-0.4118454832894314   -0.05974941795920883   -0.011495294978236535
-0.4294745882320319   -0.06010007848987751   -0.0233256991851861
-0.4294745882320319   -0.06010007848987751   -0.0233256991851861
-0.4294745882320319   -0.06010007848987751   -0.0233256991851861
-0.4294745882320319   -0.06010007848987751   -0.0233256991851861
-0.4161543353437524   -0.08556521932371774   0.007580254507488117
-0.4161543353437524   -0.08556521932371774   0.007580254507488117
-0.4161543353437524   -0.08556521932371774   0.007580254507488117
-0.4161543353437524   -0.08556521932371774   0.007580254507488117
-0.41987444090435155   -0.07795199048961027   -0.005271753605510106
-0.41987444090435155   -0.07795199048961027   -0.005271753605510106
-0.41987444090435155   -0.07795199048961027   -0.005271753605510106
-0.41987444090435155   -0.07795199048961027   -0.005271753605510106
-0.4398822944161326   -0.11323615915076185   0.01848283837908031
-0.4398822944161326   -0.11323615915076185   0.01848283837908031
-0.4398822944161326   -0.11323615915076185   0.01848283837908031
-0.4398822944161326   -0.11323615915076185   0.01848283837908031
-0.4245015367928129   -0.08086511262187601   -0.024224339538482006
-0.4245015367928129   -0.08086511262187601   -0.024224339538482006
-0.4245015367928129   -0.08086511262187601   -0.024224339538482006
-0.4245015367928129   -0.08086511262187601   -0.024224339538482006
-0.39312897920744116   0.01019269266353319   -0.006657599551440515
-0.39312897920744116   0.01019269266353319   -0.006657599551440515
-0.39312897920744116   0.01019269266353319   -0.006657599551440515
-0.39312897920744116   0.01019269266353319   -0.006657599551440515
-0.44402711498361375   -0.08428852076447685   -0.02126202572143924
-0.44402711498361375   -0.08428852076447685   -0.02126202572143924
-0.44402711498361375   -0.08428852076447685   -0.02126202572143924
-0.44402711498361375   -0.08428852076447685   -0.02126202572143924
-0.425830208984879   -0.015519516971672531   0.005647010309184214
-0.425830208984879   -0.015519516971672531   0.005647010309184214
-0.425830208984879   -0.015519516971672531   0.005647010309184214
-0.425830208984879   -0.015519516971672531   0.005647010309184214
-0.41772212659421903   -0.09129814526777998   -0.013151967916612786
-0.41772212659421903   -0.09129814526777998   -0.013151967916612786
-0.41772212659421903   -0.09129814526777998   -0.013151967916612786
-0.41772212659421903   -0.09129814526777998   -0.013151967916612786
-0.4198840089614236   -0.046658227595053885   -0.009541775249292594
-0.4198840089614236   -0.046658227595053885   -0.009541775249292594
-0.4198840089614236   -0.046658227595053885   -0.009541775249292594
-0.4198840089614236   -0.046658227595053885   -0.009541775249292594
-0.39910262012090614   -0.011311597853571567   -4.0982964253141047e-05
-0.39910262012090614   -0.011311597853571567   -4.0982964253141047e-05
-0.39910262012090614   -0.011311597853571567   -4.0982964253141047e-05
-0.39910262012090614   -0.011311597853571567   -4.0982964253141047e-05
-0.44680407074531797   -0.09786041967301151   -0.016881395791671486
-0.44680407074531797   -0.09786041967301151   -0.016881395791671486
-0.44680407074531797   -0.09786041967301151   -0.016881395791671486
-0.44680407074531797   -0.09786041967301151   -0.016881395791671486
-0.43067198611911867   -0.037198089657150574   0.012040487417582482
-0.43067198611911867   -0.037198089657150574   0.012040487417582482
-0.43067198611911867   -0.037198089657150574   0.012040487417582482
-0.43067198611911867   -0.037198089657150574   0.012040487417582482
-0.42405071801430944   -0.10838784959256315   -0.009079028576447719
-0.42405071801430944   -0.10838784959256315   -0.009079028576447719
-0.42405071801430944   -0.10838784959256315   -0.009079028576447719
-0.42405071801430944   -0.10838784959256315   -0.009079028576447719
-0.42503306958913667   -0.0631774074899407   -0.01811326287063499
-0.42503306958913667   -0.0631774074899407   -0.01811326287063499
-0.42503306958913667   -0.0631774074899407   -0.01811326287063499
-0.42503306958913667   -0.0631774074899407   -0.01811326287063499
-0.40594656299044246   -0.033375269270721916   0.006429166221049578
-0.40594656299044246   -0.033375269270721916   0.006429166221049578
-0.40594656299044246   -0.033375269270721916   0.006429166221049578
-0.40594656299044246   -0.033375269270721916   0.006429166221049578
-0.4514060404606873   -0.11484056929669664   -0.013987304650721953
-0.4514060404606873   -0.11484056929669664   -0.013987304650721953
-0.4514060404606873   -0.11484056929669664   -0.013987304650721953
-0.4514060404606873   -0.11484056929669664   -0.013987304650721953
-0.4346033172606258   -0.05759109049186628   0.0182912224001879
-0.4346033172606258   -0.05759109049186628   0.0182912224001879
-0.4346033172606258   -0.05759109049186628   0.0182912224001879
-0.4346033172606258   -0.05759109049186628   0.0182912224001879
-0.42874600849774913   -0.12479712150295363   -0.0027844605591582916
-0.42874600849774913   -0.12479712150295363   -0.0027844605591582916
-0.42874600849774913   -0.12479712150295363   -0.0027844605591582916
-0.42874600849774913   -0.12479712150295363   -0.0027844605591582916
-0.4311777842136042   -0.08045670233790486   -0.02753188353698416
-0.4311777842136042   -0.08045670233790486   -0.02753188353698416
-0.4311777842136042   -0.08045670233790486   -0.02753188353698416
-0.4311777842136042   -0.08045670233790486   -0.02753188353698416
-0.4100001620160784   0.04388941271206817   0.020694805639692282
-0.4100001620160784   0.04388941271206817   0.020694805639692282
-0.4100001620160784   0.04388941271206817   0.020694805639692282
-0.4100001620160784   0.04388941271206817   0.020694805639692282
-0.4839434835930825   -0.06278701178765117   -0.029600224917894068
-0.4839434835930825   -0.06278701178765117   -0.029600224917894068
-0.4839434835930825   -0.06278701178765117   -0.029600224917894068
-0.4839434835930825   -0.06278701178765117   -0.029600224917894068
-0.45775183996558766   0.013178933734368098   0.028706099186547693
-0.45775183996558766   0.013178933734368098   0.028706099186547693
-0.45775183996558766   0.013178933734368098   0.028706099186547693
-0.45775183996558766   0.013178933734368098   0.028706099186547693
-0.4414976501221218   -0.07025940312704734   -0.017950309221655053
-0.4414976501221218   -0.07025940312704734   -0.017950309221655053
-0.4414976501221218   -0.07025940312704734   -0.017950309221655053
-0.4414976501221218   -0.07025940312704734   -0.017950309221655053
-0.44827079221562544   -0.018520010803831352   -0.005699514511649521
-0.44827079221562544   -0.018520010803831352   -0.005699514511649521
-0.44827079221562544   -0.018520010803831352   -0.005699514511649521
-0.44827079221562544   -0.018520010803831352   -0.005699514511649521
-0.4141167350406981   0.021586422911433062   0.02710844014698295
-0.4141167350406981   0.021586422911433062   0.02710844014698295
-0.4141167350406981   0.021586422911433062   0.02710844014698295
-0.4141167350406981   0.021586422911433062   0.02710844014698295
-0.4882572430437845   -0.08179138030088542   -0.028850602169182796
-0.4882572430437845   -0.08179138030088542   -0.028850602169182796
-0.4882572430437845   -0.08179138030088542   -0.028850602169182796
-0.4882572430437845   -0.08179138030088542   -0.028850602169182796
-0.46618821950190087   -0.007979270182439574   0.032542251930268426
-0.46618821950190087   -0.007979270182439574   0.032542251930268426
-0.46618821950190087   -0.007979270182439574   0.032542251930268426
-0.46618821950190087   -0.007979270182439574   0.032542251930268426
-0.4457044742041603   -0.08602554176328207   -0.014294500901494077
-0.4457044742041603   -0.08602554176328207   -0.014294500901494077
-0.4457044742041603   -0.08602554176328207   -0.014294500901494077
-0.4457044742041603   -0.08602554176328207   -0.014294500901494077
-0.45250353420351414   -0.03642015619997953   -0.015750170382648622
-0.45250353420351414   -0.03642015619997953   -0.015750170382648622
-0.45250353420351414   -0.03642015619997953   -0.015750170382648622
-0.45250353420351414   -0.03642015619997953   -0.015750170382648622
-0.4186338431672892   0.0016914810019592191   0.033341631517620124
-0.4186338431672892   0.0016914810019592191   0.033341631517620124
-0.4186338431672892   0.0016914810019592191   0.033341631517620124
-0.4186338431672892   0.0016914810019592191   0.033341631517620124
-0.49596675531375023   -0.09840419772265405   -0.025925499588764004
-0.49596675531375023   -0.09840419772265405   -0.025925499588764004
-0.49596675531375023   -0.09840419772265405   -0.025925499588764004
-0.49596675531375023   -0.09840419772265405   -0.025925499588764004
-0.4717544109648611   -0.028268424423467317   0.039681892118376805
-0.4717544109648611   -0.028268424423467317   0.039681892118376805
-0.4717544109648611   -0.028268424423467317   0.039681892118376805
-0.4717544109648611   -0.028268424423467317   0.039681892118376805
-0.44930968298474017   -0.10185981451338087   -0.010971882198869376
-0.44930968298474017   -0.10185981451338087   -0.010971882198869376
-0.44930968298474017   -0.10185981451338087   -0.010971882198869376
-0.44930968298474017   -0.10185981451338087   -0.010971882198869376
-0.45994253062369495   -0.05328167863764408   -0.025484502749181508
-0.45994253062369495   -0.05328167863764408   -0.025484502749181508
-0.45994253062369495   -0.05328167863764408   -0.025484502749181508
-0.45994253062369495   -0.05328167863764408   -0.025484502749181508
-0.4446148112983916   0.06296533882899027   0.04129078593891134
-0.4446148112983916   0.06296533882899027   0.04129078593891134
-0.4446148112983916   0.06296533882899027   0.04129078593891134
-0.4446148112983916   0.06296533882899027   0.04129078593891134
-0.4744327517632468   -0.03784008919616251   -0.042919759802002154
-0.4744327517632468   -0.03784008919616251   -0.042919759802002154
-0.4744327517632468   -0.03784008919616251   -0.042919759802002154
-0.4744327517632468   -0.03784008919616251   -0.042919759802002154
-0.4636788819062021   0.044920832880803965   0.045882239136849204
-0.4636788819062021   0.044920832880803965   0.045882239136849204
-0.4636788819062021   0.044920832880803965   0.045882239136849204
-0.4636788819062021   0.044920832880803965   0.045882239136849204
-0.48112853716181486   -0.048765516488431256   -0.026232936571796366
-0.48112853716181486   -0.048765516488431256   -0.026232936571796366
-0.48112853716181486   -0.048765516488431256   -0.026232936571796366
-0.48112853716181486   -0.048765516488431256   -0.026232936571796366
-0.4501432310367372   0.01129645040361478   0.0016874544605425743
-0.4501432310367372   0.01129645040361478   0.0016874544605425743
-0.4501432310367372   0.01129645040361478   0.0016874544605425743
-0.4501432310367372   0.01129645040361478   0.0016874544605425743
-0.44684985413812783   0.04865765251557405   0.04773730954262538
-0.44684985413812783   0.04865765251557405   0.04773730954262538
-0.44684985413812783   0.04865765251557405   0.04773730954262538
-0.44684985413812783   0.04865765251557405   0.04773730954262538
-0.5004991581034512   -0.05504392929676472   -0.038254379671827425
-0.5004991581034512   -0.05504392929676472   -0.038254379671827425
-0.5004991581034512   -0.05504392929676472   -0.038254379671827425
-0.5004991581034512   -0.05504392929676472   -0.038254379671827425
-0.4841031383605661   0.033084186408871064   0.05908493672582019
-0.4841031383605661   0.033084186408871064   0.05908493672582019
-0.4841031383605661   0.033084186408871064   0.05908493672582019
-0.4841031383605661   0.033084186408871064   0.05908493672582019
-0.48749810144134803   -0.058038275134073815   -0.02394815281533339
-0.48749810144134803   -0.058038275134073815   -0.02394815281533339
-0.48749810144134803   -0.058038275134073815   -0.02394815281533339
-0.48749810144134803   -0.058038275134073815   -0.02394815281533339
-0.4721338161170356   -0.0030516979549136264   -0.01015515993963758
-0.4721338161170356   -0.0030516979549136264   -0.01015515993963758
-0.4721338161170356   -0.0030516979549136264   -0.01015515993963758
-0.4721338161170356   -0.0030516979549136264   -0.01015515993963758
-0.4518413826316661   0.0391491528577384   0.05714801324125677
-0.4518413826316661   0.0391491528577384   0.05714801324125677
-0.4518413826316661   0.0391491528577384   0.05714801324125677
-0.4518413826316661   0.0391491528577384   0.05714801324125677
-0.5230764037547789   -0.0674197881674706   -0.0352774156688865
-0.5230764037547789   -0.0674197881674706   -0.0352774156688865
-0.5230764037547789   -0.0674197881674706   -0.0352774156688865
-0.5230764037547789   -0.0674197881674706   -0.0352774156688865
-0.5201950003118684   0.0028733484869692266   0.06313964859457631
-0.5201950003118684   0.0028733484869692266   0.06313964859457631
-0.5201950003118684   0.0028733484869692266   0.06313964859457631
-0.5201950003118684   0.0028733484869692266   0.06313964859457631
-0.4933038161655509   -0.07551790507829505   -0.020815653230252522
-0.4933038161655509   -0.07551790507829505   -0.020815653230252522
-0.4933038161655509   -0.07551790507829505   -0.020815653230252522
-0.4933038161655509   -0.07551790507829505   -0.020815653230252522
-0.4825662435193075   -0.016242705350710318   -0.02084963075140375
-0.4825662435193075   -0.016242705350710318   -0.02084963075140375
-0.4825662435193075   -0.016242705350710318   -0.02084963075140375
-0.4825662435193075   -0.016242705350710318   -0.02084963075140375
-0.9594384275643784   -0.08760821533572391   -0.09013938427218288
-0.9594384275643784   -0.08760821533572391   -0.09013938427218288
-0.9594384275643784   -0.08760821533572391   -0.09013938427218288
-0.9594384275643784   -0.08760821533572391   -0.09013938427218288
-0.6077776755795307   0.05221104318288072   0.021276627738606786
-0.6077776755795307   0.05221104318288072   0.021276627738606786
-0.6077776755795307   0.05221104318288072   0.021276627738606786
-0.6077776755795307   0.05221104318288072   0.021276627738606786
-0.6381156869287288   -0.04000487988892762   -0.040127880352618994
-0.6381156869287288   -0.04000487988892762   -0.040127880352618994
-0.6381156869287288   -0.04000487988892762   -0.040127880352618994
-0.6381156869287288   -0.04000487988892762   -0.040127880352618994
-1.0195848450066136   -0.11435768861934013   0.10121854031330701
-1.0195848450066136   -0.11435768861934013   0.10121854031330701
-1.0195848450066136   -0.11435768861934013   0.10121854031330701
-1.0195848450066136   -0.11435768861934013   0.10121854031330701
-0.7412825609443011   -0.028045161273499   0.09805884778815586
-0.7412825609443011   -0.028045161273499   0.09805884778815586
-0.7412825609443011   -0.028045161273499   0.09805884778815586
-0.7412825609443011   -0.028045161273499   0.09805884778815586
-1.0559014143280547   -0.12873404023409588   -0.06598795467913438
-1.0559014143280547   -0.12873404023409588   -0.06598795467913438
-1.0559014143280547   -0.12873404023409588   -0.06598795467913438
-1.0559014143280547   -0.12873404023409588   -0.06598795467913438
-0.6273271822315716   -0.05115659289845444   0.024966356142693515
-0.6273271822315716   -0.05115659289845444   0.024966356142693515
-0.6273271822315716   -0.05115659289845444   0.024966356142693515
-0.6273271822315716   -0.05115659289845444   0.024966356142693515
-0.6477234675738278   -0.058117876141871444   -0.028747339919532135
-0.6477234675738278   -0.058117876141871444   -0.028747339919532135
-0.6477234675738278   -0.058117876141871444   -0.028747339919532135
-0.6477234675738278   -0.058117876141871444   -0.028747339919532135
-1.051776378239151   -0.15985898236354526   0.002638661529398076
-1.051776378239151   -0.15985898236354526   0.002638661529398076
-1.051776378239151   -0.15985898236354526   0.002638661529398076
-1.051776378239151   -0.15985898236354526   0.002638661529398076
-0.820362932717723   -0.09646444801517125   0.02260839976142893
-0.820362932717723   -0.09646444801517125   0.02260839976142893
-0.820362932717723   -0.09646444801517125   0.02260839976142893
-0.820362932717723   -0.09646444801517125   0.02260839976142893
-1.0600337992319253   -0.14544329970765527   -0.05306412609035394
-1.0600337992319253   -0.14544329970765527   -0.05306412609035394
-1.0600337992319253   -0.14544329970765527   -0.05306412609035394
-1.0600337992319253   -0.14544329970765527   -0.05306412609035394
-0.6472175314369842   -0.08028504365369118   -0.004050491723498409
-0.6472175314369842   -0.08028504365369118   -0.004050491723498409
-0.6472175314369842   -0.08028504365369118   -0.004050491723498409
-0.6472175314369842   -0.08028504365369118   -0.004050491723498409
-0.6479887883267627   -0.10204350501405571   -0.020899929575704294
-0.6479887883267627   -0.10204350501405571   -0.020899929575704294
-0.6479887883267627   -0.10204350501405571   -0.020899929575704294
-0.6479887883267627   -0.10204350501405571   -0.020899929575704294
-1.0766270454365534   -0.24425053022787635   0.016232448132244108
-1.0766270454365534   -0.24425053022787635   0.016232448132244108
-1.0766270454365534   -0.24425053022787635   0.016232448132244108
-1.0766270454365534   -0.24425053022787635   0.016232448132244108
-0.8192700525569652   -0.13264706681600985   0.001637779292739493
-0.8192700525569652   -0.13264706681600985   0.001637779292739493
-0.8192700525569652   -0.13264706681600985   0.001637779292739493
-0.8192700525569652   -0.13264706681600985   0.001637779292739493
-0.6563248085308353   -0.1112327209498129   -0.0580152728852172
-0.6563248085308353   -0.1112327209498129   -0.0580152728852172
-0.6563248085308353   -0.1112327209498129   -0.0580152728852172
-0.6563248085308353   -0.1112327209498129   -0.0580152728852172
-0.45029068208559236   -0.29028941067415587   -0.054459182119858715
-0.45029068208559236   -0.29028941067415587   -0.054459182119858715
-0.45029068208559236   -0.29028941067415587   -0.054459182119858715
-0.45029068208559236   -0.29028941067415587   -0.054459182119858715
-0.395557427674948   -0.06455662965699921   -0.003370725010602432
-0.395557427674948   -0.06455662965699921   -0.003370725010602432
-0.395557427674948   -0.06455662965699921   -0.003370725010602432
-0.395557427674948   -0.06455662965699921   -0.003370725010602432
-0.6974535834652974   -0.30810123370772236   -0.06872100921666717
-0.6974535834652974   -0.30810123370772236   -0.06872100921666717
-0.6974535834652974   -0.30810123370772236   -0.06872100921666717
-0.6974535834652974   -0.30810123370772236   -0.06872100921666717
-0.5435100671372256   -0.2054602463323925   -0.015823805922538965
-0.5435100671372256   -0.2054602463323925   -0.015823805922538965
-0.5435100671372256   -0.2054602463323925   -0.015823805922538965
-0.5435100671372256   -0.2054602463323925   -0.015823805922538965
-0.6557518360605449   -0.12465338959343583   -0.04366011630718843
-0.6557518360605449   -0.12465338959343583   -0.04366011630718843
-0.6557518360605449   -0.12465338959343583   -0.04366011630718843
-0.6557518360605449   -0.12465338959343583   -0.04366011630718843
-0.439921253296492   -0.2506665519880775   -0.039079930787248404
-0.439921253296492   -0.2506665519880775   -0.039079930787248404
-0.439921253296492   -0.2506665519880775   -0.039079930787248404
-0.439921253296492   -0.2506665519880775   -0.039079930787248404
-0.3998687645543086   -0.08368455172970167   0.0006980216881247467
-0.3998687645543086   -0.08368455172970167   0.0006980216881247467
-0.3998687645543086   -0.08368455172970167   0.0006980216881247467
-0.3998687645543086   -0.08368455172970167   0.0006980216881247467
-0.6997704881378024   -0.30650777701868226   -0.040592541862598225
-0.6997704881378024   -0.30650777701868226   -0.040592541862598225
-0.6997704881378024   -0.30650777701868226   -0.040592541862598225
-0.6997704881378024   -0.30650777701868226   -0.040592541862598225
-0.5373467543616495   -0.1925938262310255   -0.016809600137375678
-0.5373467543616495   -0.1925938262310255   -0.016809600137375678
-0.5373467543616495   -0.1925938262310255   -0.016809600137375678
-0.5373467543616495   -0.1925938262310255   -0.016809600137375678
-0.665595992086165   -0.14351264108192982   -0.03271519754115958
-0.665595992086165   -0.14351264108192982   -0.03271519754115958
-0.665595992086165   -0.14351264108192982   -0.03271519754115958
-0.665595992086165   -0.14351264108192982   -0.03271519754115958
-0.43954058074792035   -0.2521770078084277   -0.02916860320120765
-0.43954058074792035   -0.2521770078084277   -0.02916860320120765
-0.43954058074792035   -0.2521770078084277   -0.02916860320120765
-0.43954058074792035   -0.2521770078084277   -0.02916860320120765
-0.39949699424738944   -0.10755282653596711   0.006514201284310947
-0.39949699424738944   -0.10755282653596711   0.006514201284310947
-0.39949699424738944   -0.10755282653596711   0.006514201284310947
-0.39949699424738944   -0.10755282653596711   0.006514201284310947
-0.6978285673141654   -0.3116888661321548   -0.06045346339462737
-0.6978285673141654   -0.3116888661321548   -0.06045346339462737
-0.6978285673141654   -0.3116888661321548   -0.06045346339462737
-0.6978285673141654   -0.3116888661321548   -0.06045346339462737
-0.5452405919608273   -0.20720262253593524   -0.03120530317374538
-0.5452405919608273   -0.20720262253593524   -0.03120530317374538
-0.5452405919608273   -0.20720262253593524   -0.03120530317374538
-0.5452405919608273   -0.20720262253593524   -0.03120530317374538
-0.3966506834096769   -0.07155879099024093   -0.004989808424196459
-0.3966506834096769   -0.07155879099024093   -0.004989808424196459
-0.3966506834096769   -0.07155879099024093   -0.004989808424196459
-0.3966506834096769   -0.07155879099024093   -0.004989808424196459
-0.3319888633113189   -0.2219536925981243   -0.03831724109842095
-0.3319888633113189   -0.2219536925981243   -0.03831724109842095
-0.3319888633113189   -0.2219536925981243   -0.03831724109842095
-0.3319888633113189   -0.2219536925981243   -0.03831724109842095
-0.28606848459303924   -0.05927035664823675   0.01533333317992358
-0.28606848459303924   -0.05927035664823675   0.01533333317992358
-0.28606848459303924   -0.05927035664823675   0.01533333317992358
-0.28606848459303924   -0.05927035664823675   0.01533333317992358
-0.4387438531987399   -0.24147295673242308   -0.0423865255541419
-0.4387438531987399   -0.24147295673242308   -0.0423865255541419
-0.4387438531987399   -0.24147295673242308   -0.0423865255541419
-0.4387438531987399   -0.24147295673242308   -0.0423865255541419
-0.3617520544464821   -0.15066585841553598   -0.017692037398115847
-0.3617520544464821   -0.15066585841553598   -0.017692037398115847
-0.3617520544464821   -0.15066585841553598   -0.017692037398115847
-0.3617520544464821   -0.15066585841553598   -0.017692037398115847
-0.3987784634406651   -0.08473793812748737   0.0007054046312963134
-0.3987784634406651   -0.08473793812748737   0.0007054046312963134
-0.3987784634406651   -0.08473793812748737   0.0007054046312963134
-0.3987784634406651   -0.08473793812748737   0.0007054046312963134
-0.3283874484196468   -0.21835894932170524   -0.0371728932796457
-0.3283874484196468   -0.21835894932170524   -0.0371728932796457
-0.3283874484196468   -0.21835894932170524   -0.0371728932796457
-0.3283874484196468   -0.21835894932170524   -0.0371728932796457
-0.2859790057626171   -0.07498600124900094   0.019858500889670984
-0.2859790057626171   -0.07498600124900094   0.019858500889670984
-0.2859790057626171   -0.07498600124900094   0.019858500889670984
-0.2859790057626171   -0.07498600124900094   0.019858500889670984
-0.4399341076825969   -0.24530337868013705   -0.03800986700288135
-0.4399341076825969   -0.24530337868013705   -0.03800986700288135
-0.4399341076825969   -0.24530337868013705   -0.03800986700288135
-0.4399341076825969   -0.24530337868013705   -0.03800986700288135
-0.3609423906214968   -0.156602398542317   -0.022953845981834035
-0.3609423906214968   -0.156602398542317   -0.022953845981834035
-0.3609423906214968   -0.156602398542317   -0.022953845981834035
-0.3609423906214968   -0.156602398542317   -0.022953845981834035
-0.4019232136159459   -0.10066524838963059   0.0074064730398669554
-0.4019232136159459   -0.10066524838963059   0.0074064730398669554
-0.4019232136159459   -0.10066524838963059   0.0074064730398669554
-0.4019232136159459   -0.10066524838963059   0.0074064730398669554
-0.3252814283982459   -0.22091566010848784   -0.03072395342898629
-0.3252814283982459   -0.22091566010848784   -0.03072395342898629
-0.3252814283982459   -0.22091566010848784   -0.03072395342898629
-0.3252814283982459   -0.22091566010848784   -0.03072395342898629
-0.28239507293118615   -0.0900140018071936   0.024780202353078887
-0.28239507293118615   -0.0900140018071936   0.024780202353078887
-0.28239507293118615   -0.0900140018071936   0.024780202353078887
-0.28239507293118615   -0.0900140018071936   0.024780202353078887
-0.43446648345300143   -0.24847307424931456   -0.027412997030401336
-0.43446648345300143   -0.24847307424931456   -0.027412997030401336
-0.43446648345300143   -0.24847307424931456   -0.027412997030401336
-0.43446648345300143   -0.24847307424931456   -0.027412997030401336
-0.35964899961915253   -0.164392657359174   -0.02657797096889527
-0.35964899961915253   -0.164392657359174   -0.02657797096889527
-0.35964899961915253   -0.164392657359174   -0.02657797096889527
-0.35964899961915253   -0.164392657359174   -0.02657797096889527
-0.27650440970703233   -0.009957404301570681   0.027108738626458274
-0.27650440970703233   -0.009957404301570681   0.027108738626458274
-0.27650440970703233   -0.009957404301570681   0.027108738626458274
-0.27650440970703233   -0.009957404301570681   0.027108738626458274
-0.2607114891012811   -0.11733945944194454   -0.02287024322285418
-0.2607114891012811   -0.11733945944194454   -0.02287024322285418
-0.2607114891012811   -0.11733945944194454   -0.02287024322285418
-0.2607114891012811   -0.11733945944194454   -0.02287024322285418
-0.2246139548433892   -0.017008318321932128   0.0314214195251884
-0.2246139548433892   -0.017008318321932128   0.0314214195251884
-0.2246139548433892   -0.017008318321932128   0.0314214195251884
-0.2246139548433892   -0.017008318321932128   0.0314214195251884
-0.30768788263964814   -0.1358064227140797   -0.016227590987278113
-0.30768788263964814   -0.1358064227140797   -0.016227590987278113
-0.30768788263964814   -0.1358064227140797   -0.016227590987278113
-0.30768788263964814   -0.1358064227140797   -0.016227590987278113
-0.2682778303640089   -0.06939307954269179   -0.009587867135463543
-0.2682778303640089   -0.06939307954269179   -0.009587867135463543
-0.2682778303640089   -0.06939307954269179   -0.009587867135463543
-0.2682778303640089   -0.06939307954269179   -0.009587867135463543
-0.2765118412677233   -0.0274191174001528   0.031265310558419177
-0.2765118412677233   -0.0274191174001528   0.031265310558419177
-0.2765118412677233   -0.0274191174001528   0.031265310558419177
-0.2765118412677233   -0.0274191174001528   0.031265310558419177
-0.25828579741703767   -0.12789142483758265   -0.026054686827403348
-0.25828579741703767   -0.12789142483758265   -0.026054686827403348
-0.25828579741703767   -0.12789142483758265   -0.026054686827403348
-0.25828579741703767   -0.12789142483758265   -0.026054686827403348
-0.22475724286148546   -0.032224646384330737   0.03376274465058775
-0.22475724286148546   -0.032224646384330737   0.03376274465058775
-0.22475724286148546   -0.032224646384330737   0.03376274465058775
-0.22475724286148546   -0.032224646384330737   0.03376274465058775
-0.3073911473857992   -0.14407197105559422   -0.018116237419654117
-0.3073911473857992   -0.14407197105559422   -0.018116237419654117
-0.3073911473857992   -0.14407197105559422   -0.018116237419654117
-0.3073911473857992   -0.14407197105559422   -0.018116237419654117
-0.26693504903371595   -0.0816276567723504   -0.016258668478439285
-0.26693504903371595   -0.0816276567723504   -0.016258668478439285
-0.26693504903371595   -0.0816276567723504   -0.016258668478439285
-0.26693504903371595   -0.0816276567723504   -0.016258668478439285
-0.276271597834554   -0.04216513204405541   0.03557467132503295
-0.276271597834554   -0.04216513204405541   0.03557467132503295
-0.276271597834554   -0.04216513204405541   0.03557467132503295
-0.276271597834554   -0.04216513204405541   0.03557467132503295
-0.2573873755236433   -0.13564206850678223   -0.025970496537750062
-0.2573873755236433   -0.13564206850678223   -0.025970496537750062
-0.2573873755236433   -0.13564206850678223   -0.025970496537750062
-0.2573873755236433   -0.13564206850678223   -0.025970496537750062
-0.22263689204654832   -0.04650689308763252   0.0391199339916805
-0.22263689204654832   -0.04650689308763252   0.0391199339916805
-0.22263689204654832   -0.04650689308763252   0.0391199339916805
-0.22263689204654832   -0.04650689308763252   0.0391199339916805
-0.30230158528728424   -0.15235125704125696   -0.012415104193348063
-0.30230158528728424   -0.15235125704125696   -0.012415104193348063
-0.30230158528728424   -0.15235125704125696   -0.012415104193348063
-0.30230158528728424   -0.15235125704125696   -0.012415104193348063
-0.26592259378299843   -0.09212057120749483   -0.02087380991496771
-0.26592259378299843   -0.09212057120749483   -0.02087380991496771
-0.26592259378299843   -0.09212057120749483   -0.02087380991496771
-0.26592259378299843   -0.09212057120749483   -0.02087380991496771
-0.21813941861059596   0.03044388279374456   0.042206766994882385
-0.21813941861059596   0.03044388279374456   0.042206766994882385
-0.21813941861059596   0.03044388279374456   0.042206766994882385
-0.21813941861059596   0.03044388279374456   0.042206766994882385
-0.1439390751371557   -0.038476941079755425   -0.01401691340287418
-0.1439390751371557   -0.038476941079755425   -0.01401691340287418
-0.1439390751371557   -0.038476941079755425   -0.01401691340287418
-0.1439390751371557   -0.038476941079755425   -0.01401691340287418
-0.1253571372783423   0.03596669478069249   0.04165671989034975
-0.1253571372783423   0.03596669478069249   0.04165671989034975
-0.1253571372783423   0.03596669478069249   0.04165671989034975
-0.1253571372783423   0.03596669478069249   0.04165671989034975
-0.2407789217754021   -0.0591632463229321   -0.007248487133876083
-0.2407789217754021   -0.0591632463229321   -0.007248487133876083
-0.2407789217754021   -0.0591632463229321   -0.007248487133876083
-0.2407789217754021   -0.0591632463229321   -0.007248487133876083
-0.17959575571685607   -0.0037426486284170835   -0.007681719239289656
-0.17959575571685607   -0.0037426486284170835   -0.007681719239289656
-0.17959575571685607   -0.0037426486284170835   -0.007681719239289656
-0.17959575571685607   -0.0037426486284170835   -0.007681719239289656
-0.21447788877169996   0.01902490568024292   0.04606852588145958
-0.21447788877169996   0.01902490568024292   0.04606852588145958
-0.21447788877169996   0.01902490568024292   0.04606852588145958
-0.21447788877169996   0.01902490568024292   0.04606852588145958
-0.15190059599533953   -0.04246388293577637   -0.012629995978152321
-0.15190059599533953   -0.04246388293577637   -0.012629995978152321
-0.15190059599533953   -0.04246388293577637   -0.012629995978152321
-0.15190059599533953   -0.04246388293577637   -0.012629995978152321
-0.13076747593451732   0.02858086359856403   0.0524169153410251
-0.13076747593451732   0.02858086359856403   0.0524169153410251
-0.13076747593451732   0.02858086359856403   0.0524169153410251
-0.13076747593451732   0.02858086359856403   0.0524169153410251
-0.2395188459866119   -0.06295575482131127   -0.009314162538064021
-0.2395188459866119   -0.06295575482131127   -0.009314162538064021
-0.2395188459866119   -0.06295575482131127   -0.009314162538064021
-0.2395188459866119   -0.06295575482131127   -0.009314162538064021
-0.18477009317520895   -0.011812986069188632   -0.010767020503038759
-0.18477009317520895   -0.011812986069188632   -0.010767020503038759
-0.18477009317520895   -0.011812986069188632   -0.010767020503038759
-0.18477009317520895   -0.011812986069188632   -0.010767020503038759
-0.21196105092310147   0.012468814270233886   0.05305024368794316
-0.21196105092310147   0.012468814270233886   0.05305024368794316
-0.21196105092310147   0.012468814270233886   0.05305024368794316
-0.21196105092310147   0.012468814270233886   0.05305024368794316
-0.1602117765232554   -0.048730211018206196   -0.017493512985895146
-0.1602117765232554   -0.048730211018206196   -0.017493512985895146
-0.1602117765232554   -0.048730211018206196   -0.017493512985895146
-0.1602117765232554   -0.048730211018206196   -0.017493512985895146
-0.14967789421940275   0.008278811178460063   0.05454200610737486
-0.14967789421940275   0.008278811178460063   0.05454200610737486
-0.14967789421940275   0.008278811178460063   0.05454200610737486
-0.14967789421940275   0.008278811178460063   0.05454200610737486
-0.23598619880753513   -0.06630970450642815   -0.007823788394457801
-0.23598619880753513   -0.06630970450642815   -0.007823788394457801
-0.23598619880753513   -0.06630970450642815   -0.007823788394457801
-0.23598619880753513   -0.06630970450642815   -0.007823788394457801
-0.1872015509865925   -0.01762526407645691   -0.015811477612180234
-0.1872015509865925   -0.01762526407645691   -0.015811477612180234
-0.1872015509865925   -0.01762526407645691   -0.015811477612180234
-0.1872015509865925   -0.01762526407645691   -0.015811477612180234
-2.258571628283145   -0.31973388398873914   -0.18765405541587793
-2.258571628283145   -0.31973388398873914   -0.18765405541587793
-2.258571628283145   -0.31973388398873914   -0.18765405541587793
-2.258571628283145   -0.31973388398873914   -0.18765405541587793
-0.7834054323150249   -1.229573340243245   -0.14694265979361448
-0.7834054323150249   -1.229573340243245   -0.14694265979361448
-0.7834054323150249   -1.229573340243245   -0.14694265979361448
-0.7834054323150249   -1.229573340243245   -0.14694265979361448
-0.6058631991548851   -0.05168083816069151   0.0008811467548215622
-0.6058631991548851   -0.05168083816069151   0.0008811467548215622
-0.6058631991548851   -0.05168083816069151   0.0008811467548215622
-0.6058631991548851   -0.05168083816069151   0.0008811467548215622
-2.410768709965235   -1.445886490777982   -0.7713310401486435
-2.410768709965235   -1.445886490777982   -0.7713310401486435
-2.410768709965235   -1.445886490777982   -0.7713310401486435
-2.410768709965235   -1.445886490777982   -0.7713310401486435
-1.4768083943642611   -0.7193881197010641   -0.104814670467352
-1.4768083943642611   -0.7193881197010641   -0.104814670467352
-1.4768083943642611   -0.7193881197010641   -0.104814670467352
-1.4768083943642611   -0.7193881197010641   -0.104814670467352
-2.0986165303195463   -0.4014158835701899   -0.2550407491280094
-2.0986165303195463   -0.4014158835701899   -0.2550407491280094
-2.0986165303195463   -0.4014158835701899   -0.2550407491280094
-2.0986165303195463   -0.4014158835701899   -0.2550407491280094
-0.8458766022781963   -1.0240126688461084   -0.22685403817631372
-0.8458766022781963   -1.0240126688461084   -0.22685403817631372
-0.8458766022781963   -1.0240126688461084   -0.22685403817631372
-0.8458766022781963   -1.0240126688461084   -0.22685403817631372
-0.6179732963876771   -0.06897125825093472   0.02327420024097652
-0.6179732963876771   -0.06897125825093472   0.02327420024097652
-0.6179732963876771   -0.06897125825093472   0.02327420024097652
-0.6179732963876771   -0.06897125825093472   0.02327420024097652
-2.255857083841083   -1.28946590734241   -0.7090645982366985
-2.255857083841083   -1.28946590734241   -0.7090645982366985
-2.255857083841083   -1.28946590734241   -0.7090645982366985
-2.255857083841083   -1.28946590734241   -0.7090645982366985
-1.3909055093521565   -0.6485984671744544   0.05637363478066498
-1.3909055093521565   -0.6485984671744544   0.05637363478066498
-1.3909055093521565   -0.6485984671744544   0.05637363478066498
-1.3909055093521565   -0.6485984671744544   0.05637363478066498
-1.9706187240715267   -0.38218577098514056   -0.19015293574620307
-1.9706187240715267   -0.38218577098514056   -0.19015293574620307
-1.9706187240715267   -0.38218577098514056   -0.19015293574620307
-1.9706187240715267   -0.38218577098514056   -0.19015293574620307
-0.8230639663345116   -0.8961037047854845   -0.17504670295864272
-0.8230639663345116   -0.8961037047854845   -0.17504670295864272
-0.8230639663345116   -0.8961037047854845   -0.17504670295864272
-0.8230639663345116   -0.8961037047854845   -0.17504670295864272
-0.7098862291674739   -0.18151489698779422   -0.036830201936416854
-0.7098862291674739   -0.18151489698779422   -0.036830201936416854
-0.7098862291674739   -0.18151489698779422   -0.036830201936416854
-0.7098862291674739   -0.18151489698779422   -0.036830201936416854
-2.056000916704308   -1.0833489969857448   -0.6278699827380106
-2.056000916704308   -1.0833489969857448   -0.6278699827380106
-2.056000916704308   -1.0833489969857448   -0.6278699827380106
-2.056000916704308   -1.0833489969857448   -0.6278699827380106
-1.2883283361260305   -0.562241219239989   0.23842636069367715
-1.2883283361260305   -0.562241219239989   0.23842636069367715
-1.2883283361260305   -0.562241219239989   0.23842636069367715
-1.2883283361260305   -0.562241219239989   0.23842636069367715
-0.580377336901594   -0.3147416748394384   -0.04663384813026959
-0.580377336901594   -0.3147416748394384   -0.04663384813026959
-0.580377336901594   -0.3147416748394384   -0.04663384813026959
-0.580377336901594   -0.3147416748394384   -0.04663384813026959
-0.26800539496741926   -0.38740688626535114   -0.06620340596845445
-0.26800539496741926   -0.38740688626535114   -0.06620340596845445
-0.26800539496741926   -0.38740688626535114   -0.06620340596845445
-0.26800539496741926   -0.38740688626535114   -0.06620340596845445
-0.23660761808188047   -0.20095914190058606   0.0061434844355974585
-0.23660761808188047   -0.20095914190058606   0.0061434844355974585
-0.23660761808188047   -0.20095914190058606   0.0061434844355974585
-0.23660761808188047   -0.20095914190058606   0.0061434844355974585
-0.7092761148825248   -0.5680517848213329   0.00018751477726788868
-0.7092761148825248   -0.5680517848213329   0.00018751477726788868
-0.7092761148825248   -0.5680517848213329   0.00018751477726788868
-0.7092761148825248   -0.5680517848213329   0.00018751477726788868
-0.3811290142731476   -0.27558286124766174   0.12199562453643273
-0.3811290142731476   -0.27558286124766174   0.12199562453643273
-0.3811290142731476   -0.27558286124766174   0.12199562453643273
-0.3811290142731476   -0.27558286124766174   0.12199562453643273
-0.6602822909715204   -0.2929181695528693   -0.02997698093617905
-0.6602822909715204   -0.2929181695528693   -0.02997698093617905
-0.6602822909715204   -0.2929181695528693   -0.02997698093617905
-0.6602822909715204   -0.2929181695528693   -0.02997698093617905
-0.3055831135882622   -0.4960744287644278   -0.04361870623246922
-0.3055831135882622   -0.4960744287644278   -0.04361870623246922
-0.3055831135882622   -0.4960744287644278   -0.04361870623246922
-0.3055831135882622   -0.4960744287644278   -0.04361870623246922
-0.25545294783836187   -0.20826703379778738   0.00629363394243565
-0.25545294783836187   -0.20826703379778738   0.00629363394243565
-0.25545294783836187   -0.20826703379778738   0.00629363394243565
-0.25545294783836187   -0.20826703379778738   0.00629363394243565
-0.7437104205813632   -0.5606370090922167   -0.11374566988616858
-0.7437104205813632   -0.5606370090922167   -0.11374566988616858
-0.7437104205813632   -0.5606370090922167   -0.11374566988616858
-0.7437104205813632   -0.5606370090922167   -0.11374566988616858
-0.4542557600877205   -0.3536420205458807   0.055791434642193466
-0.4542557600877205   -0.3536420205458807   0.055791434642193466
-0.4542557600877205   -0.3536420205458807   0.055791434642193466
-0.4542557600877205   -0.3536420205458807   0.055791434642193466
-0.6812001907963074   -0.30586792932373813   -0.05596360072937234
-0.6812001907963074   -0.30586792932373813   -0.05596360072937234
-0.6812001907963074   -0.30586792932373813   -0.05596360072937234
-0.6812001907963074   -0.30586792932373813   -0.05596360072937234
-0.316093770642798   -0.46116670658564635   -0.04401080729188209
-0.316093770642798   -0.46116670658564635   -0.04401080729188209
-0.316093770642798   -0.46116670658564635   -0.04401080729188209
-0.316093770642798   -0.46116670658564635   -0.04401080729188209
-0.2844804133835583   -0.21507580864629097   0.009263670104092292
-0.2844804133835583   -0.21507580864629097   0.009263670104092292
-0.2844804133835583   -0.21507580864629097   0.009263670104092292
-0.2844804133835583   -0.21507580864629097   0.009263670104092292
-0.7949741043922155   -0.5446470711956921   -0.0991374038522247
-0.7949741043922155   -0.5446470711956921   -0.0991374038522247
-0.7949741043922155   -0.5446470711956921   -0.0991374038522247
-0.7949741043922155   -0.5446470711956921   -0.0991374038522247
-0.4751458134841178   -0.3332833480819476   0.05905009102081607
-0.4751458134841178   -0.3332833480819476   0.05905009102081607
-0.4751458134841178   -0.3332833480819476   0.05905009102081607
-0.4751458134841178   -0.3332833480819476   0.05905009102081607
-0.2120469392685328   -0.1875545519314646   0.013736538192091446
-0.2120469392685328   -0.1875545519314646   0.013736538192091446
-0.2120469392685328   -0.1875545519314646   0.013736538192091446
-0.2120469392685328   -0.1875545519314646   0.013736538192091446
-0.129231549903117   -0.12021339885755461   -0.03228838028905601
-0.129231549903117   -0.12021339885755461   -0.03228838028905601
-0.129231549903117   -0.12021339885755461   -0.03228838028905601
-0.129231549903117   -0.12021339885755461   -0.03228838028905601
-0.1254316275465011   -0.16755855997532654   0.013873232579102106
-0.1254316275465011   -0.16755855997532654   0.013873232579102106
-0.1254316275465011   -0.16755855997532654   0.013873232579102106
-0.1254316275465011   -0.16755855997532654   0.013873232579102106
-0.2336974396443725   -0.16533693968889507   -0.014927825588553767
-0.2336974396443725   -0.16533693968889507   -0.014927825588553767
-0.2336974396443725   -0.16533693968889507   -0.014927825588553767
-0.2336974396443725   -0.16533693968889507   -0.014927825588553767
-0.1479154085300417   -0.13514585347489022   0.061149350429629074
-0.1479154085300417   -0.13514585347489022   0.061149350429629074
-0.1479154085300417   -0.13514585347489022   0.061149350429629074
-0.1479154085300417   -0.13514585347489022   0.061149350429629074
-0.23244088807436375   -0.18877621673516767   0.014794209307759057
-0.23244088807436375   -0.18877621673516767   0.014794209307759057
-0.23244088807436375   -0.18877621673516767   0.014794209307759057
-0.23244088807436375   -0.18877621673516767   0.014794209307759057
-0.12869141680973775   -0.1461225206222824   -0.023861753090125244
-0.12869141680973775   -0.1461225206222824   -0.023861753090125244
-0.12869141680973775   -0.1461225206222824   -0.023861753090125244
-0.12869141680973775   -0.1461225206222824   -0.023861753090125244
-0.1267137219522893   -0.17259437474777695   0.012314766928611554
-0.1267137219522893   -0.17259437474777695   0.012314766928611554
-0.1267137219522893   -0.17259437474777695   0.012314766928611554
-0.1267137219522893   -0.17259437474777695   0.012314766928611554
-0.24795821537977789   -0.1930174139371179   0.028517676374689806
-0.24795821537977789   -0.1930174139371179   0.028517676374689806
-0.24795821537977789   -0.1930174139371179   0.028517676374689806
-0.24795821537977789   -0.1930174139371179   0.028517676374689806
-0.16063081112614053   -0.15054465706252215   0.05192068134507151
-0.16063081112614053   -0.15054465706252215   0.05192068134507151
-0.16063081112614053   -0.15054465706252215   0.05192068134507151
-0.16063081112614053   -0.15054465706252215   0.05192068134507151
-0.2502146501950404   -0.19576158009149866   0.019979668452754118
-0.2502146501950404   -0.19576158009149866   0.019979668452754118
-0.2502146501950404   -0.19576158009149866   0.019979668452754118
-0.2502146501950404   -0.19576158009149866   0.019979668452754118
-0.13517006844997603   -0.18056298990634612   -0.02199835040125298
-0.13517006844997603   -0.18056298990634612   -0.02199835040125298
-0.13517006844997603   -0.18056298990634612   -0.02199835040125298
-0.13517006844997603   -0.18056298990634612   -0.02199835040125298
-0.12793083342757927   -0.17822654720914682   0.017283988145015153
-0.12793083342757927   -0.17822654720914682   0.017283988145015153
-0.12793083342757927   -0.17822654720914682   0.017283988145015153
-0.12793083342757927   -0.17822654720914682   0.017283988145015153
-0.2896787436405668   -0.23775777437744555   0.0059539845502044955
-0.2896787436405668   -0.23775777437744555   0.0059539845502044955
-0.2896787436405668   -0.23775777437744555   0.0059539845502044955
-0.2896787436405668   -0.23775777437744555   0.0059539845502044955
-0.17913920489696408   -0.17172670489303546   0.024699586661494154
-0.17913920489696408   -0.17172670489303546   0.024699586661494154
-0.17913920489696408   -0.17172670489303546   0.024699586661494154
-0.17913920489696408   -0.17172670489303546   0.024699586661494154
-0.10641017199689749   -0.07465343774966762   0.03625854813415452
-0.10641017199689749   -0.07465343774966762   0.03625854813415452
-0.10641017199689749   -0.07465343774966762   0.03625854813415452
-0.10641017199689749   -0.07465343774966762   0.03625854813415452
-0.07424280663329051   0.0007181701115570246   -0.007225516159164086
-0.07424280663329051   0.0007181701115570246   -0.007225516159164086
-0.07424280663329051   0.0007181701115570246   -0.007225516159164086
-0.07424280663329051   0.0007181701115570246   -0.007225516159164086
-0.07048397433671498   -0.080616138054529   0.02251992400754215
-0.07048397433671498   -0.080616138054529   0.02251992400754215
-0.07048397433671498   -0.080616138054529   0.02251992400754215
-0.07048397433671498   -0.080616138054529   0.02251992400754215
-0.09831938999745718   -0.013384059262159725   -0.004740080388845024
-0.09831938999745718   -0.013384059262159725   -0.004740080388845024
-0.09831938999745718   -0.013384059262159725   -0.004740080388845024
-0.09831938999745718   -0.013384059262159725   -0.004740080388845024
-0.08080184546858885   -0.040475049168796816   0.017987269801274106
-0.08080184546858885   -0.040475049168796816   0.017987269801274106
-0.08080184546858885   -0.040475049168796816   0.017987269801274106
-0.08080184546858885   -0.040475049168796816   0.017987269801274106
-0.10489588610808184   -0.08516985770928036   0.03416323750515226
-0.10489588610808184   -0.08516985770928036   0.03416323750515226
-0.10489588610808184   -0.08516985770928036   0.03416323750515226
-0.10489588610808184   -0.08516985770928036   0.03416323750515226
-0.06203916532970669   -0.0069620267110247595   -0.008910142300920677
-0.06203916532970669   -0.0069620267110247595   -0.008910142300920677
-0.06203916532970669   -0.0069620267110247595   -0.008910142300920677
-0.06203916532970669   -0.0069620267110247595   -0.008910142300920677
-0.06446873237456072   -0.08771545660384791   0.020743919827838887
-0.06446873237456072   -0.08771545660384791   0.020743919827838887
-0.06446873237456072   -0.08771545660384791   0.020743919827838887
-0.06446873237456072   -0.08771545660384791   0.020743919827838887
-0.09888156595192818   -0.027036290852710827   0.005917463035350986
-0.09888156595192818   -0.027036290852710827   0.005917463035350986
-0.09888156595192818   -0.027036290852710827   0.005917463035350986
-0.09888156595192818   -0.027036290852710827   0.005917463035350986
-0.07398225879397378   -0.04636189037998202   0.021536782107450636
-0.07398225879397378   -0.04636189037998202   0.021536782107450636
-0.07398225879397378   -0.04636189037998202   0.021536782107450636
-0.07398225879397378   -0.04636189037998202   0.021536782107450636
-0.1053017309377689   -0.09222897569280836   0.039009322946244866
-0.1053017309377689   -0.09222897569280836   0.039009322946244866
-0.1053017309377689   -0.09222897569280836   0.039009322946244866
-0.1053017309377689   -0.09222897569280836   0.039009322946244866
-0.05857927564079706   -0.023053480015827462   -0.01447077309136331
-0.05857927564079706   -0.023053480015827462   -0.01447077309136331
-0.05857927564079706   -0.023053480015827462   -0.01447077309136331
-0.05857927564079706   -0.023053480015827462   -0.01447077309136331
-0.05367624589807678   -0.09558660386146037   0.022782822316427524
-0.05367624589807678   -0.09558660386146037   0.022782822316427524
-0.05367624589807678   -0.09558660386146037   0.022782822316427524
-0.05367624589807678   -0.09558660386146037   0.022782822316427524
-0.10629254221520626   -0.06053404652436403   0.007782943522097414
-0.10629254221520626   -0.06053404652436403   0.007782943522097414
-0.10629254221520626   -0.06053404652436403   0.007782943522097414
-0.10629254221520626   -0.06053404652436403   0.007782943522097414
-0.07096989209224262   -0.058572454402223674   0.018741867789609838
-0.07096989209224262   -0.058572454402223674   0.018741867789609838
-0.07096989209224262   -0.058572454402223674   0.018741867789609838
-0.07096989209224262   -0.058572454402223674   0.018741867789609838
-0.06830865182806527   -0.013262323451382212   0.036425751429901454
-0.06830865182806527   -0.013262323451382212   0.036425751429901454
-0.06830865182806527   -0.013262323451382212   0.036425751429901454
-0.06830865182806527   -0.013262323451382212   0.036425751429901454
-0.011693417145736504   0.00811853073520439   -0.0007352769507959246
-0.011693417145736504   0.00811853073520439   -0.0007352769507959246
-0.011693417145736504   0.00811853073520439   -0.0007352769507959246
-0.011693417145736504   0.00811853073520439   -0.0007352769507959246
0.004327334734948957   -0.004193693996444898   0.022493017988208856
0.004327334734948957   -0.004193693996444898   0.022493017988208856
0.004327334734948957   -0.004193693996444898   0.022493017988208856
0.004327334734948957   -0.004193693996444898   0.022493017988208856
-0.05821404401024676   0.006180696035184122   -0.002927258449829916
-0.05821404401024676   0.006180696035184122   -0.002927258449829916
-0.05821404401024676   0.006180696035184122   -0.002927258449829916
-0.05821404401024676   0.006180696035184122   -0.002927258449829916
-0.034055954198490015   -0.002527124676587172   -0.002855765193017275
-0.034055954198490015   -0.002527124676587172   -0.002855765193017275
-0.034055954198490015   -0.002527124676587172   -0.002855765193017275
-0.034055954198490015   -0.002527124676587172   -0.002855765193017275
-0.05384331472967437   -0.01275417557447469   0.037861259562690895
-0.05384331472967437   -0.01275417557447469   0.037861259562690895
-0.05384331472967437   -0.01275417557447469   0.037861259562690895
-0.05384331472967437   -0.01275417557447469   0.037861259562690895
0.002004216267261245   0.016788788426097323   -0.010105056772771924
0.002004216267261245   0.016788788426097323   -0.010105056772771924
0.002004216267261245   0.016788788426097323   -0.010105056772771924
0.002004216267261245   0.016788788426097323   -0.010105056772771924
0.012498139475040849   -0.005146895500783486   0.02771314860292214
0.012498139475040849   -0.005146895500783486   0.02771314860292214
0.012498139475040849   -0.005146895500783486   0.02771314860292214
0.012498139475040849   -0.005146895500783486   0.02771314860292214
-0.05096602486020885   0.004870924717138729   -0.004328923921388409
-0.05096602486020885   0.004870924717138729   -0.004328923921388409
-0.05096602486020885   0.004870924717138729   -0.004328923921388409
-0.05096602486020885   0.004870924717138729   -0.004328923921388409
-0.022097646590414598   -0.0005099120931719072   0.0036250383084739254
-0.022097646590414598   -0.0005099120931719072   0.0036250383084739254
-0.022097646590414598   -0.0005099120931719072   0.0036250383084739254
-0.022097646590414598   -0.0005099120931719072   0.0036250383084739254
-0.0457920724792991   -0.01422101256014675   0.04063277526044578
-0.0457920724792991   -0.01422101256014675   0.04063277526044578
-0.0457920724792991   -0.01422101256014675   0.04063277526044578
-0.0457920724792991   -0.01422101256014675   0.04063277526044578
0.009180904202090388   0.015801758884461274   -0.009821682147074923
0.009180904202090388   0.015801758884461274   -0.009821682147074923
0.009180904202090388   0.015801758884461274   -0.009821682147074923
0.009180904202090388   0.015801758884461274   -0.009821682147074923
0.02091422112007037   -0.007988871971597079   0.02687995435209203
0.02091422112007037   -0.007988871971597079   0.02687995435209203
0.02091422112007037   -0.007988871971597079   0.02687995435209203
0.02091422112007037   -0.007988871971597079   0.02687995435209203
-0.03906234676663967   0.005185337854599084   -0.004919623742446427
-0.03906234676663967   0.005185337854599084   -0.004919623742446427
-0.03906234676663967   0.005185337854599084   -0.004919623742446427
-0.03906234676663967   0.005185337854599084   -0.004919623742446427
-0.011388003339317963   0.0007913978667227052   0.009369319744998878
-0.011388003339317963   0.0007913978667227052   0.009369319744998878
-0.011388003339317963   0.0007913978667227052   0.009369319744998878
-0.011388003339317963   0.0007913978667227052   0.009369319744998878
              </DataArray>   
             <DataArray type="Float64" NumberOfComponents="3" Name="Displacements" format="ascii">   
0.0   0.0   0.0
-0.006283313862668806   -0.0041194364926828335   -0.0021046589055699304
0.0   0.0   0.0
0.0   0.0   0.0
-0.006283313862668806   -0.0041194364926828335   -0.0021046589055699304
-0.003998621041038921   -0.003701450665894343   -0.0015462695827692097
0.0   0.0   0.0
-0.003919847921212152   -0.003887367262656779   -0.0012953571749368111
0.0   0.0   0.0
0.0   0.0   0.0
-0.003919847921212152   -0.003887367262656779   -0.0012953571749368111
0.0   0.0   0.0
0.0   0.0   0.0
-0.003919847921212152   -0.003887367262656779   -0.0012953571749368111
-0.0065761645463503   -0.004388807695126475   -0.0016896178275340099
-0.006283313862668806   -0.0041194364926828335   -0.0021046589055699304
0.0   0.0   0.0
-0.003919847921212152   -0.003887367262656779   -0.0012953571749368111
-0.006283313862668806   -0.0041194364926828335   -0.0021046589055699304
0.0   0.0   0.0
0.0   0.0   0.0
-0.0065761645463503   -0.004388807695126475   -0.0016896178275340099
0.0   0.0   0.0
0.0   0.0   0.0
-0.0065761645463503   -0.004388807695126475   -0.0016896178275340099
-0.003919847921212152   -0.003887367262656779   -0.0012953571749368111
0.0   0.0   0.0
-0.003931234190646444   -0.003982605609614965   -0.001044768396369997
0.0   0.0   0.0
0.0   0.0   0.0
-0.003931234190646444   -0.003982605609614965   -0.001044768396369997
0.0   0.0   0.0
0.0   0.0   0.0
-0.003931234190646444   -0.003982605609614965   -0.001044768396369997
-0.006781982945178347   -0.004519778807406503   -0.0012918721919029767
-0.0065761645463503   -0.004388807695126475   -0.0016896178275340099
0.0   0.0   0.0
-0.003931234190646444   -0.003982605609614965   -0.001044768396369997
-0.0065761645463503   -0.004388807695126475   -0.0016896178275340099
0.0   0.0   0.0
0.0   0.0   0.0
-0.006781982945178347   -0.004519778807406503   -0.0012918721919029767
0.0   0.0   0.0
0.0   0.0   0.0
-0.006781982945178347   -0.004519778807406503   -0.0012918721919029767
-0.003931234190646444   -0.003982605609614965   -0.001044768396369997
0.0   0.0   0.0
-0.003929541658195217   -0.004007025775844019   -0.0007856091420165753
0.0   0.0   0.0
0.0   0.0   0.0
-0.003929541658195217   -0.004007025775844019   -0.0007856091420165753
0.0   0.0   0.0
0.0   0.0   0.0
-0.003929541658195217   -0.004007025775844019   -0.0007856091420165753
-0.007225043396320168   -0.004618836715819556   -0.0008303839878926479
-0.006781982945178347   -0.004519778807406503   -0.0012918721919029767
0.0   0.0   0.0
-0.003929541658195217   -0.004007025775844019   -0.0007856091420165753
-0.006781982945178347   -0.004519778807406503   -0.0012918721919029767
0.0   0.0   0.0
0.0   0.0   0.0
-0.003998621041038921   -0.003701450665894343   -0.0015462695827692097
0.0   0.0   0.0
0.0   0.0   0.0
-0.003998621041038921   -0.003701450665894343   -0.0015462695827692097
-0.00182061016835711   -0.0035480836406444937   -0.0011759822786905525
0.0   0.0   0.0
-0.0017513602979145387   -0.0036691332569494194   -0.0010575689211671756
0.0   0.0   0.0
0.0   0.0   0.0
-0.0017513602979145387   -0.0036691332569494194   -0.0010575689211671756
0.0   0.0   0.0
0.0   0.0   0.0
-0.0017513602979145387   -0.0036691332569494194   -0.0010575689211671756
-0.003919847921212152   -0.003887367262656779   -0.0012953571749368111
-0.003998621041038921   -0.003701450665894343   -0.0015462695827692097
0.0   0.0   0.0
-0.0017513602979145387   -0.0036691332569494194   -0.0010575689211671756
-0.003998621041038921   -0.003701450665894343   -0.0015462695827692097
0.0   0.0   0.0
0.0   0.0   0.0
-0.003919847921212152   -0.003887367262656779   -0.0012953571749368111
0.0   0.0   0.0
0.0   0.0   0.0
-0.003919847921212152   -0.003887367262656779   -0.0012953571749368111
-0.0017513602979145387   -0.0036691332569494194   -0.0010575689211671756
0.0   0.0   0.0
-0.0017126029901398776   -0.003715259354468186   -0.0009422106242232257
0.0   0.0   0.0
0.0   0.0   0.0
-0.0017126029901398776   -0.003715259354468186   -0.0009422106242232257
0.0   0.0   0.0
0.0   0.0   0.0
-0.0017126029901398776   -0.003715259354468186   -0.0009422106242232257
-0.003931234190646444   -0.003982605609614965   -0.001044768396369997
-0.003919847921212152   -0.003887367262656779   -0.0012953571749368111
0.0   0.0   0.0
-0.0017126029901398776   -0.003715259354468186   -0.0009422106242232257
-0.003919847921212152   -0.003887367262656779   -0.0012953571749368111
0.0   0.0   0.0
0.0   0.0   0.0
-0.003931234190646444   -0.003982605609614965   -0.001044768396369997
0.0   0.0   0.0
0.0   0.0   0.0
-0.003931234190646444   -0.003982605609614965   -0.001044768396369997
-0.0017126029901398776   -0.003715259354468186   -0.0009422106242232257
0.0   0.0   0.0
-0.0016773662048458116   -0.0036959843996202113   -0.0008229122367393371
0.0   0.0   0.0
0.0   0.0   0.0
-0.0016773662048458116   -0.0036959843996202113   -0.0008229122367393371
0.0   0.0   0.0
0.0   0.0   0.0
-0.0016773662048458116   -0.0036959843996202113   -0.0008229122367393371
-0.003929541658195217   -0.004007025775844019   -0.0007856091420165753
-0.003931234190646444   -0.003982605609614965   -0.001044768396369997
0.0   0.0   0.0
-0.0016773662048458116   -0.0036959843996202113   -0.0008229122367393371
-0.003931234190646444   -0.003982605609614965   -0.001044768396369997
0.0   0.0   0.0
0.0   0.0   0.0
-0.00182061016835711   -0.0035480836406444937   -0.0011759822786905525
0.0   0.0   0.0
0.0   0.0   0.0
-0.00182061016835711   -0.0035480836406444937   -0.0011759822786905525
0.00023748435499708608   -0.003567682339639711   -0.0009399425342335906
0.0   0.0   0.0
0.0002815327157962575   -0.003630465370020232   -0.0009564229580366991
0.0   0.0   0.0
0.0   0.0   0.0
0.0002815327157962575   -0.003630465370020232   -0.0009564229580366991
0.0   0.0   0.0
0.0   0.0   0.0
0.0002815327157962575   -0.003630465370020232   -0.0009564229580366991
-0.0017513602979145387   -0.0036691332569494194   -0.0010575689211671756
-0.00182061016835711   -0.0035480836406444937   -0.0011759822786905525
0.0   0.0   0.0
0.0002815327157962575   -0.003630465370020232   -0.0009564229580366991
-0.00182061016835711   -0.0035480836406444937   -0.0011759822786905525
0.0   0.0   0.0
0.0   0.0   0.0
-0.0017513602979145387   -0.0036691332569494194   -0.0010575689211671756
0.0   0.0   0.0
0.0   0.0   0.0
-0.0017513602979145387   -0.0036691332569494194   -0.0010575689211671756
0.0002815327157962575   -0.003630465370020232   -0.0009564229580366991
0.0   0.0   0.0
0.0003162546446430784   -0.0036252969067414455   -0.000971277498196733
0.0   0.0   0.0
0.0   0.0   0.0
0.0003162546446430784   -0.0036252969067414455   -0.000971277498196733
0.0   0.0   0.0
0.0   0.0   0.0
0.0003162546446430784   -0.0036252969067414455   -0.000971277498196733
-0.0017126029901398776   -0.003715259354468186   -0.0009422106242232257
-0.0017513602979145387   -0.0036691332569494194   -0.0010575689211671756
0.0   0.0   0.0
0.0003162546446430784   -0.0036252969067414455   -0.000971277498196733
-0.0017513602979145387   -0.0036691332569494194   -0.0010575689211671756
0.0   0.0   0.0
0.0   0.0   0.0
-0.0017126029901398776   -0.003715259354468186   -0.0009422106242232257
0.0   0.0   0.0
0.0   0.0   0.0
-0.0017126029901398776   -0.003715259354468186   -0.0009422106242232257
0.0003162546446430784   -0.0036252969067414455   -0.000971277498196733
0.0   0.0   0.0
0.0003630832439904739   -0.0035465979479008536   -0.000986505793211721
0.0   0.0   0.0
0.0   0.0   0.0
0.0003630832439904739   -0.0035465979479008536   -0.000986505793211721
0.0   0.0   0.0
0.0   0.0   0.0
0.0003630832439904739   -0.0035465979479008536   -0.000986505793211721
-0.0016773662048458116   -0.0036959843996202113   -0.0008229122367393371
-0.0017126029901398776   -0.003715259354468186   -0.0009422106242232257
0.0   0.0   0.0
0.0003630832439904739   -0.0035465979479008536   -0.000986505793211721
-0.0017126029901398776   -0.003715259354468186   -0.0009422106242232257
0.0   0.0   0.0
0.0   0.0   0.0
0.00023748435499708608   -0.003567682339639711   -0.0009399425342335906
0.0   0.0   0.0
0.0   0.0   0.0
0.00023748435499708608   -0.003567682339639711   -0.0009399425342335906
0.0024712326984882307   -0.003741591503802178   -0.0008231076275051355
0.0   0.0   0.0
0.0024751726407190224   -0.003761625947849119   -0.0009815234977756796
0.0   0.0   0.0
0.0   0.0   0.0
0.0024751726407190224   -0.003761625947849119   -0.0009815234977756796
0.0   0.0   0.0
0.0   0.0   0.0
0.0024751726407190224   -0.003761625947849119   -0.0009815234977756796
0.0002815327157962575   -0.003630465370020232   -0.0009564229580366991
0.00023748435499708608   -0.003567682339639711   -0.0009399425342335906
0.0   0.0   0.0
0.0024751726407190224   -0.003761625947849119   -0.0009815234977756796
0.00023748435499708608   -0.003567682339639711   -0.0009399425342335906
0.0   0.0   0.0
0.0   0.0   0.0
0.0002815327157962575   -0.003630465370020232   -0.0009564229580366991
0.0   0.0   0.0
0.0   0.0   0.0
0.0002815327157962575   -0.003630465370020232   -0.0009564229580366991
0.0024751726407190224   -0.003761625947849119   -0.0009815234977756796
0.0   0.0   0.0
0.002464180306374149   -0.003707908094729564   -0.0011334550364600713
0.0   0.0   0.0
0.0   0.0   0.0
0.002464180306374149   -0.003707908094729564   -0.0011334550364600713
0.0   0.0   0.0
0.0   0.0   0.0
0.002464180306374149   -0.003707908094729564   -0.0011334550364600713
0.0003162546446430784   -0.0036252969067414455   -0.000971277498196733
0.0002815327157962575   -0.003630465370020232   -0.0009564229580366991
0.0   0.0   0.0
0.002464180306374149   -0.003707908094729564   -0.0011334550364600713
0.0002815327157962575   -0.003630465370020232   -0.0009564229580366991
0.0   0.0   0.0
0.0   0.0   0.0
0.0003162546446430784   -0.0036252969067414455   -0.000971277498196733
0.0   0.0   0.0
0.0   0.0   0.0
0.0003162546446430784   -0.0036252969067414455   -0.000971277498196733
0.002464180306374149   -0.003707908094729564   -0.0011334550364600713
0.0   0.0   0.0
0.0025115278568157606   -0.003563955280619882   -0.0012824619227767016
0.0   0.0   0.0
0.0   0.0   0.0
0.0025115278568157606   -0.003563955280619882   -0.0012824619227767016
0.0   0.0   0.0
0.0   0.0   0.0
0.0025115278568157606   -0.003563955280619882   -0.0012824619227767016
0.0003630832439904739   -0.0035465979479008536   -0.000986505793211721
0.0003162546446430784   -0.0036252969067414455   -0.000971277498196733
0.0   0.0   0.0
0.0025115278568157606   -0.003563955280619882   -0.0012824619227767016
0.0003162546446430784   -0.0036252969067414455   -0.000971277498196733
0.0   0.0   0.0
0.0   0.0   0.0
0.0024712326984882307   -0.003741591503802178   -0.0008231076275051355
0.0   0.0   0.0
0.0   0.0   0.0
0.0024712326984882307   -0.003741591503802178   -0.0008231076275051355
0.005576758508882711   -0.004182267046973053   -0.0007763962944613312
0.0   0.0   0.0
0.005236886073537156   -0.004136714689427996   -0.0011354401688837877
0.0   0.0   0.0
0.0   0.0   0.0
0.005236886073537156   -0.004136714689427996   -0.0011354401688837877
0.0   0.0   0.0
0.0   0.0   0.0
0.005236886073537156   -0.004136714689427996   -0.0011354401688837877
0.0024751726407190224   -0.003761625947849119   -0.0009815234977756796
0.0024712326984882307   -0.003741591503802178   -0.0008231076275051355
0.0   0.0   0.0
0.005236886073537156   -0.004136714689427996   -0.0011354401688837877
0.0024712326984882307   -0.003741591503802178   -0.0008231076275051355
0.0   0.0   0.0
0.0   0.0   0.0
0.0024751726407190224   -0.003761625947849119   -0.0009815234977756796
0.0   0.0   0.0
0.0   0.0   0.0
0.0024751726407190224   -0.003761625947849119   -0.0009815234977756796
0.005236886073537156   -0.004136714689427996   -0.0011354401688837877
0.0   0.0   0.0
0.005079980454314875   -0.00405070583523386   -0.0014390263842115982
0.0   0.0   0.0
0.0   0.0   0.0
0.005079980454314875   -0.00405070583523386   -0.0014390263842115982
0.0   0.0   0.0
0.0   0.0   0.0
0.005079980454314875   -0.00405070583523386   -0.0014390263842115982
0.002464180306374149   -0.003707908094729564   -0.0011334550364600713
0.0024751726407190224   -0.003761625947849119   -0.0009815234977756796
0.0   0.0   0.0
0.005079980454314875   -0.00405070583523386   -0.0014390263842115982
0.0024751726407190224   -0.003761625947849119   -0.0009815234977756796
0.0   0.0   0.0
0.0   0.0   0.0
0.002464180306374149   -0.003707908094729564   -0.0011334550364600713
0.0   0.0   0.0
0.0   0.0   0.0
0.002464180306374149   -0.003707908094729564   -0.0011334550364600713
0.005079980454314875   -0.00405070583523386   -0.0014390263842115982
0.0   0.0   0.0
0.0048466657783377744   -0.0038305551769417024   -0.0017602173512787098
0.0   0.0   0.0
0.0   0.0   0.0
0.0048466657783377744   -0.0038305551769417024   -0.0017602173512787098
0.0   0.0   0.0
0.0   0.0   0.0
0.0048466657783377744   -0.0038305551769417024   -0.0017602173512787098
0.0025115278568157606   -0.003563955280619882   -0.0012824619227767016
0.002464180306374149   -0.003707908094729564   -0.0011334550364600713
0.0   0.0   0.0
0.0048466657783377744   -0.0038305551769417024   -0.0017602173512787098
0.002464180306374149   -0.003707908094729564   -0.0011334550364600713
0.0   0.0   0.0
-0.006283313862668806   -0.0041194364926828335   -0.0021046589055699304
-0.01173817495186619   -0.011503482726856711   -0.0028354177589979086
-0.003998621041038921   -0.003701450665894343   -0.0015462695827692097
-0.0065761645463503   -0.004388807695126475   -0.0016896178275340099
-0.01173817495186619   -0.011503482726856711   -0.0028354177589979086
-0.007492127915141109   -0.011127479239734938   -0.002333647175633295
-0.003998621041038921   -0.003701450665894343   -0.0015462695827692097
-0.007501444880027759   -0.01131774386046588   -0.0021015185417740056
-0.0065761645463503   -0.004388807695126475   -0.0016896178275340099
-0.003919847921212152   -0.003887367262656779   -0.0012953571749368111
-0.007501444880027759   -0.01131774386046588   -0.0021015185417740056
-0.003998621041038921   -0.003701450665894343   -0.0015462695827692097
-0.0065761645463503   -0.004388807695126475   -0.0016896178275340099
-0.007501444880027759   -0.01131774386046588   -0.0021015185417740056
-0.012090477128264793   -0.011768927961810713   -0.002458408196649447
-0.01173817495186619   -0.011503482726856711   -0.0028354177589979086
-0.0065761645463503   -0.004388807695126475   -0.0016896178275340099
-0.007501444880027759   -0.01131774386046588   -0.0021015185417740056
-0.01173817495186619   -0.011503482726856711   -0.0028354177589979086
-0.003998621041038921   -0.003701450665894343   -0.0015462695827692097
-0.0065761645463503   -0.004388807695126475   -0.0016896178275340099
-0.012090477128264793   -0.011768927961810713   -0.002458408196649447
-0.003919847921212152   -0.003887367262656779   -0.0012953571749368111
-0.006781982945178347   -0.004519778807406503   -0.0012918721919029767
-0.012090477128264793   -0.011768927961810713   -0.002458408196649447
-0.007501444880027759   -0.01131774386046588   -0.0021015185417740056
-0.003919847921212152   -0.003887367262656779   -0.0012953571749368111
-0.007531488929063209   -0.011433688536513066   -0.0018784223020600177
-0.006781982945178347   -0.004519778807406503   -0.0012918721919029767
-0.003931234190646444   -0.003982605609614965   -0.001044768396369997
-0.007531488929063209   -0.011433688536513066   -0.0018784223020600177
-0.003919847921212152   -0.003887367262656779   -0.0012953571749368111
-0.006781982945178347   -0.004519778807406503   -0.0012918721919029767
-0.007531488929063209   -0.011433688536513066   -0.0018784223020600177
-0.0123354504019379   -0.011918799628590477   -0.002089209821620638
-0.012090477128264793   -0.011768927961810713   -0.002458408196649447
-0.006781982945178347   -0.004519778807406503   -0.0012918721919029767
-0.007531488929063209   -0.011433688536513066   -0.0018784223020600177
-0.012090477128264793   -0.011768927961810713   -0.002458408196649447
-0.003919847921212152   -0.003887367262656779   -0.0012953571749368111
-0.006781982945178347   -0.004519778807406503   -0.0012918721919029767
-0.0123354504019379   -0.011918799628590477   -0.002089209821620638
-0.003931234190646444   -0.003982605609614965   -0.001044768396369997
-0.007225043396320168   -0.004618836715819556   -0.0008303839878926479
-0.0123354504019379   -0.011918799628590477   -0.002089209821620638
-0.007531488929063209   -0.011433688536513066   -0.0018784223020600177
-0.003931234190646444   -0.003982605609614965   -0.001044768396369997
-0.007509569581949371   -0.011493786076910244   -0.001669566530195705
-0.007225043396320168   -0.004618836715819556   -0.0008303839878926479
-0.003929541658195217   -0.004007025775844019   -0.0007856091420165753
-0.007509569581949371   -0.011493786076910244   -0.001669566530195705
-0.003931234190646444   -0.003982605609614965   -0.001044768396369997
-0.007225043396320168   -0.004618836715819556   -0.0008303839878926479
-0.007509569581949371   -0.011493786076910244   -0.001669566530195705
-0.012625020389782403   -0.012005818285153647   -0.0017532411588707367
-0.0123354504019379   -0.011918799628590477   -0.002089209821620638
-0.007225043396320168   -0.004618836715819556   -0.0008303839878926479
-0.007509569581949371   -0.011493786076910244   -0.001669566530195705
-0.0123354504019379   -0.011918799628590477   -0.002089209821620638
-0.003931234190646444   -0.003982605609614965   -0.001044768396369997
-0.003998621041038921   -0.003701450665894343   -0.0015462695827692097
-0.007492127915141109   -0.011127479239734938   -0.002333647175633295
-0.00182061016835711   -0.0035480836406444937   -0.0011759822786905525
-0.003919847921212152   -0.003887367262656779   -0.0012953571749368111
-0.007492127915141109   -0.011127479239734938   -0.002333647175633295
-0.003475519364845996   -0.01095252266622157   -0.0019910804079237908
-0.00182061016835711   -0.0035480836406444937   -0.0011759822786905525
-0.0034460129258848983   -0.01107365134648657   -0.0018721703820609506
-0.003919847921212152   -0.003887367262656779   -0.0012953571749368111
-0.0017513602979145387   -0.0036691332569494194   -0.0010575689211671756
-0.0034460129258848983   -0.01107365134648657   -0.0018721703820609506
-0.00182061016835711   -0.0035480836406444937   -0.0011759822786905525
-0.003919847921212152   -0.003887367262656779   -0.0012953571749368111
-0.0034460129258848983   -0.01107365134648657   -0.0018721703820609506
-0.007501444880027759   -0.01131774386046588   -0.0021015185417740056
-0.007492127915141109   -0.011127479239734938   -0.002333647175633295
-0.003919847921212152   -0.003887367262656779   -0.0012953571749368111
-0.0034460129258848983   -0.01107365134648657   -0.0018721703820609506
-0.007492127915141109   -0.011127479239734938   -0.002333647175633295
-0.00182061016835711   -0.0035480836406444937   -0.0011759822786905525
-0.003919847921212152   -0.003887367262656779   -0.0012953571749368111
-0.007501444880027759   -0.01131774386046588   -0.0021015185417740056
-0.0017513602979145387   -0.0036691332569494194   -0.0010575689211671756
-0.003931234190646444   -0.003982605609614965   -0.001044768396369997
-0.007501444880027759   -0.01131774386046588   -0.0021015185417740056
-0.0034460129258848983   -0.01107365134648657   -0.0018721703820609506
-0.0017513602979145387   -0.0036691332569494194   -0.0010575689211671756
-0.003419919302754026   -0.011132383235493221   -0.001764356146499243
-0.003931234190646444   -0.003982605609614965   -0.001044768396369997
-0.0017126029901398776   -0.003715259354468186   -0.0009422106242232257
-0.003419919302754026   -0.011132383235493221   -0.001764356146499243
-0.0017513602979145387   -0.0036691332569494194   -0.0010575689211671756
-0.003931234190646444   -0.003982605609614965   -0.001044768396369997
-0.003419919302754026   -0.011132383235493221   -0.001764356146499243
-0.007531488929063209   -0.011433688536513066   -0.0018784223020600177
-0.007501444880027759   -0.01131774386046588   -0.0021015185417740056
-0.003931234190646444   -0.003982605609614965   -0.001044768396369997
-0.003419919302754026   -0.011132383235493221   -0.001764356146499243
-0.007501444880027759   -0.01131774386046588   -0.0021015185417740056
-0.0017513602979145387   -0.0036691332569494194   -0.0010575689211671756
-0.003931234190646444   -0.003982605609614965   -0.001044768396369997
-0.007531488929063209   -0.011433688536513066   -0.0018784223020600177
-0.0017126029901398776   -0.003715259354468186   -0.0009422106242232257
-0.003929541658195217   -0.004007025775844019   -0.0007856091420165753
-0.007531488929063209   -0.011433688536513066   -0.0018784223020600177
-0.003419919302754026   -0.011132383235493221   -0.001764356146499243
-0.0017126029901398776   -0.003715259354468186   -0.0009422106242232257
-0.003380756804644615   -0.011130933408956614   -0.0016704674922524195
-0.003929541658195217   -0.004007025775844019   -0.0007856091420165753
-0.0016773662048458116   -0.0036959843996202113   -0.0008229122367393371
-0.003380756804644615   -0.011130933408956614   -0.0016704674922524195
-0.0017126029901398776   -0.003715259354468186   -0.0009422106242232257
-0.003929541658195217   -0.004007025775844019   -0.0007856091420165753
-0.003380756804644615   -0.011130933408956614   -0.0016704674922524195
-0.007509569581949371   -0.011493786076910244   -0.001669566530195705
-0.007531488929063209   -0.011433688536513066   -0.0018784223020600177
-0.003929541658195217   -0.004007025775844019   -0.0007856091420165753
-0.003380756804644615   -0.011130933408956614   -0.0016704674922524195
-0.007531488929063209   -0.011433688536513066   -0.0018784223020600177
-0.0017126029901398776   -0.003715259354468186   -0.0009422106242232257
-0.00182061016835711   -0.0035480836406444937   -0.0011759822786905525
-0.003475519364845996   -0.01095252266622157   -0.0019910804079237908
0.00023748435499708608   -0.003567682339639711   -0.0009399425342335906
-0.0017513602979145387   -0.0036691332569494194   -0.0010575689211671756
-0.003475519364845996   -0.01095252266622157   -0.0019910804079237908
0.00039801525240991696   -0.010957703114181457   -0.0017744166526302344
0.00023748435499708608   -0.003567682339639711   -0.0009399425342335906
0.0004343659441215255   -0.0110151389961806   -0.0017666314908515615
-0.0017513602979145387   -0.0036691332569494194   -0.0010575689211671756
0.0002815327157962575   -0.003630465370020232   -0.0009564229580366991
0.0004343659441215255   -0.0110151389961806   -0.0017666314908515615
0.00023748435499708608   -0.003567682339639711   -0.0009399425342335906
-0.0017513602979145387   -0.0036691332569494194   -0.0010575689211671756
0.0004343659441215255   -0.0110151389961806   -0.0017666314908515615
-0.0034460129258848983   -0.01107365134648657   -0.0018721703820609506
-0.003475519364845996   -0.01095252266622157   -0.0019910804079237908
-0.0017513602979145387   -0.0036691332569494194   -0.0010575689211671756
0.0004343659441215255   -0.0110151389961806   -0.0017666314908515615
-0.003475519364845996   -0.01095252266622157   -0.0019910804079237908
0.00023748435499708608   -0.003567682339639711   -0.0009399425342335906
-0.0017513602979145387   -0.0036691332569494194   -0.0010575689211671756
-0.0034460129258848983   -0.01107365134648657   -0.0018721703820609506
0.0002815327157962575   -0.003630465370020232   -0.0009564229580366991
-0.0017126029901398776   -0.003715259354468186   -0.0009422106242232257
-0.0034460129258848983   -0.01107365134648657   -0.0018721703820609506
0.0004343659441215255   -0.0110151389961806   -0.0017666314908515615
0.0002815327157962575   -0.003630465370020232   -0.0009564229580366991
0.00045867284454678697   -0.011011642433771757   -0.0017714416935145003
-0.0017126029901398776   -0.003715259354468186   -0.0009422106242232257
0.0003162546446430784   -0.0036252969067414455   -0.000971277498196733
0.00045867284454678697   -0.011011642433771757   -0.0017714416935145003
0.0002815327157962575   -0.003630465370020232   -0.0009564229580366991
-0.0017126029901398776   -0.003715259354468186   -0.0009422106242232257
0.00045867284454678697   -0.011011642433771757   -0.0017714416935145003
-0.003419919302754026   -0.011132383235493221   -0.001764356146499243
-0.0034460129258848983   -0.01107365134648657   -0.0018721703820609506
-0.0017126029901398776   -0.003715259354468186   -0.0009422106242232257
0.00045867284454678697   -0.011011642433771757   -0.0017714416935145003
-0.0034460129258848983   -0.01107365134648657   -0.0018721703820609506
0.0002815327157962575   -0.003630465370020232   -0.0009564229580366991
-0.0017126029901398776   -0.003715259354468186   -0.0009422106242232257
-0.003419919302754026   -0.011132383235493221   -0.001764356146499243
0.0003162546446430784   -0.0036252969067414455   -0.000971277498196733
-0.0016773662048458116   -0.0036959843996202113   -0.0008229122367393371
-0.003419919302754026   -0.011132383235493221   -0.001764356146499243
0.00045867284454678697   -0.011011642433771757   -0.0017714416935145003
0.0003162546446430784   -0.0036252969067414455   -0.000971277498196733
0.0004847861522391695   -0.010945351721982962   -0.0017890470233928196
-0.0016773662048458116   -0.0036959843996202113   -0.0008229122367393371
0.0003630832439904739   -0.0035465979479008536   -0.000986505793211721
0.0004847861522391695   -0.010945351721982962   -0.0017890470233928196
0.0003162546446430784   -0.0036252969067414455   -0.000971277498196733
-0.0016773662048458116   -0.0036959843996202113   -0.0008229122367393371
0.0004847861522391695   -0.010945351721982962   -0.0017890470233928196
-0.003380756804644615   -0.011130933408956614   -0.0016704674922524195
-0.003419919302754026   -0.011132383235493221   -0.001764356146499243
-0.0016773662048458116   -0.0036959843996202113   -0.0008229122367393371
0.0004847861522391695   -0.010945351721982962   -0.0017890470233928196
-0.003419919302754026   -0.011132383235493221   -0.001764356146499243
0.0003162546446430784   -0.0036252969067414455   -0.000971277498196733
0.00023748435499708608   -0.003567682339639711   -0.0009399425342335906
0.00039801525240991696   -0.010957703114181457   -0.0017744166526302344
0.0024712326984882307   -0.003741591503802178   -0.0008231076275051355
0.0002815327157962575   -0.003630465370020232   -0.0009564229580366991
0.00039801525240991696   -0.010957703114181457   -0.0017744166526302344
0.004502612190269289   -0.011136509061786256   -0.0016732205172406097
0.0024712326984882307   -0.003741591503802178   -0.0008231076275051355
0.00452292761129459   -0.011136094056628488   -0.0017801671377399156
0.0002815327157962575   -0.003630465370020232   -0.0009564229580366991
0.0024751726407190224   -0.003761625947849119   -0.0009815234977756796
0.00452292761129459   -0.011136094056628488   -0.0017801671377399156
0.0024712326984882307   -0.003741591503802178   -0.0008231076275051355
0.0002815327157962575   -0.003630465370020232   -0.0009564229580366991
0.00452292761129459   -0.011136094056628488   -0.0017801671377399156
0.0004343659441215255   -0.0110151389961806   -0.0017666314908515615
0.00039801525240991696   -0.010957703114181457   -0.0017744166526302344
0.0002815327157962575   -0.003630465370020232   -0.0009564229580366991
0.00452292761129459   -0.011136094056628488   -0.0017801671377399156
0.00039801525240991696   -0.010957703114181457   -0.0017744166526302344
0.0024712326984882307   -0.003741591503802178   -0.0008231076275051355
0.0002815327157962575   -0.003630465370020232   -0.0009564229580366991
0.0004343659441215255   -0.0110151389961806   -0.0017666314908515615
0.0024751726407190224   -0.003761625947849119   -0.0009815234977756796
0.0003162546446430784   -0.0036252969067414455   -0.000971277498196733
0.0004343659441215255   -0.0110151389961806   -0.0017666314908515615
0.00452292761129459   -0.011136094056628488   -0.0017801671377399156
0.0024751726407190224   -0.003761625947849119   -0.0009815234977756796
0.004501523036458986   -0.011075916989475144   -0.001901364422308838
0.0003162546446430784   -0.0036252969067414455   -0.000971277498196733
0.002464180306374149   -0.003707908094729564   -0.0011334550364600713
0.004501523036458986   -0.011075916989475144   -0.001901364422308838
0.0024751726407190224   -0.003761625947849119   -0.0009815234977756796
0.0003162546446430784   -0.0036252969067414455   -0.000971277498196733
0.004501523036458986   -0.011075916989475144   -0.001901364422308838
0.00045867284454678697   -0.011011642433771757   -0.0017714416935145003
0.0004343659441215255   -0.0110151389961806   -0.0017666314908515615
0.0003162546446430784   -0.0036252969067414455   -0.000971277498196733
0.004501523036458986   -0.011075916989475144   -0.001901364422308838
0.0004343659441215255   -0.0110151389961806   -0.0017666314908515615
0.0024751726407190224   -0.003761625947849119   -0.0009815234977756796
0.0003162546446430784   -0.0036252969067414455   -0.000971277498196733
0.00045867284454678697   -0.011011642433771757   -0.0017714416935145003
0.002464180306374149   -0.003707908094729564   -0.0011334550364600713
0.0003630832439904739   -0.0035465979479008536   -0.000986505793211721
0.00045867284454678697   -0.011011642433771757   -0.0017714416935145003
0.004501523036458986   -0.011075916989475144   -0.001901364422308838
0.002464180306374149   -0.003707908094729564   -0.0011334550364600713
0.004489074005990536   -0.010939503609826427   -0.0020323299946705775
0.0003630832439904739   -0.0035465979479008536   -0.000986505793211721
0.0025115278568157606   -0.003563955280619882   -0.0012824619227767016
0.004489074005990536   -0.010939503609826427   -0.0020323299946705775
0.002464180306374149   -0.003707908094729564   -0.0011334550364600713
0.0003630832439904739   -0.0035465979479008536   -0.000986505793211721
0.004489074005990536   -0.010939503609826427   -0.0020323299946705775
0.0004847861522391695   -0.010945351721982962   -0.0017890470233928196
0.00045867284454678697   -0.011011642433771757   -0.0017714416935145003
0.0003630832439904739   -0.0035465979479008536   -0.000986505793211721
0.004489074005990536   -0.010939503609826427   -0.0020323299946705775
0.00045867284454678697   -0.011011642433771757   -0.0017714416935145003
0.002464180306374149   -0.003707908094729564   -0.0011334550364600713
0.0024712326984882307   -0.003741591503802178   -0.0008231076275051355
0.004502612190269289   -0.011136509061786256   -0.0016732205172406097
0.005576758508882711   -0.004182267046973053   -0.0007763962944613312
0.0024751726407190224   -0.003761625947849119   -0.0009815234977756796
0.004502612190269289   -0.011136509061786256   -0.0016732205172406097
0.009455037094239865   -0.011468953909542064   -0.0016457685221536631
0.005576758508882711   -0.004182267046973053   -0.0007763962944613312
0.009261952664164205   -0.011437792522107519   -0.001886304428724869
0.0024751726407190224   -0.003761625947849119   -0.0009815234977756796
0.005236886073537156   -0.004136714689427996   -0.0011354401688837877
0.009261952664164205   -0.011437792522107519   -0.001886304428724869
0.005576758508882711   -0.004182267046973053   -0.0007763962944613312
0.0024751726407190224   -0.003761625947849119   -0.0009815234977756796
0.009261952664164205   -0.011437792522107519   -0.001886304428724869
0.00452292761129459   -0.011136094056628488   -0.0017801671377399156
0.004502612190269289   -0.011136509061786256   -0.0016732205172406097
0.0024751726407190224   -0.003761625947849119   -0.0009815234977756796
0.009261952664164205   -0.011437792522107519   -0.001886304428724869
0.004502612190269289   -0.011136509061786256   -0.0016732205172406097
0.005576758508882711   -0.004182267046973053   -0.0007763962944613312
0.0024751726407190224   -0.003761625947849119   -0.0009815234977756796
0.00452292761129459   -0.011136094056628488   -0.0017801671377399156
0.005236886073537156   -0.004136714689427996   -0.0011354401688837877
0.002464180306374149   -0.003707908094729564   -0.0011334550364600713
0.00452292761129459   -0.011136094056628488   -0.0017801671377399156
0.009261952664164205   -0.011437792522107519   -0.001886304428724869
0.005236886073537156   -0.004136714689427996   -0.0011354401688837877
0.009089458358342045   -0.011344994395079635   -0.0021568304931644236
0.002464180306374149   -0.003707908094729564   -0.0011334550364600713
0.005079980454314875   -0.00405070583523386   -0.0014390263842115982
0.009089458358342045   -0.011344994395079635   -0.0021568304931644236
0.005236886073537156   -0.004136714689427996   -0.0011354401688837877
0.002464180306374149   -0.003707908094729564   -0.0011334550364600713
0.009089458358342045   -0.011344994395079635   -0.0021568304931644236
0.004501523036458986   -0.011075916989475144   -0.001901364422308838
0.00452292761129459   -0.011136094056628488   -0.0017801671377399156
0.002464180306374149   -0.003707908094729564   -0.0011334550364600713
0.009089458358342045   -0.011344994395079635   -0.0021568304931644236
0.00452292761129459   -0.011136094056628488   -0.0017801671377399156
0.005236886073537156   -0.004136714689427996   -0.0011354401688837877
0.002464180306374149   -0.003707908094729564   -0.0011334550364600713
0.004501523036458986   -0.011075916989475144   -0.001901364422308838
0.005079980454314875   -0.00405070583523386   -0.0014390263842115982
0.0025115278568157606   -0.003563955280619882   -0.0012824619227767016
0.004501523036458986   -0.011075916989475144   -0.001901364422308838
0.009089458358342045   -0.011344994395079635   -0.0021568304931644236
0.005079980454314875   -0.00405070583523386   -0.0014390263842115982
0.008831290254139994   -0.01113837218382778   -0.002438394555981177
0.0025115278568157606   -0.003563955280619882   -0.0012824619227767016
0.0048466657783377744   -0.0038305551769417024   -0.0017602173512787098
0.008831290254139994   -0.01113837218382778   -0.002438394555981177
0.005079980454314875   -0.00405070583523386   -0.0014390263842115982
0.0025115278568157606   -0.003563955280619882   -0.0012824619227767016
0.008831290254139994   -0.01113837218382778   -0.002438394555981177
0.004489074005990536   -0.010939503609826427   -0.0020323299946705775
0.004501523036458986   -0.011075916989475144   -0.001901364422308838
0.0025115278568157606   -0.003563955280619882   -0.0012824619227767016
0.008831290254139994   -0.01113837218382778   -0.002438394555981177
0.004501523036458986   -0.011075916989475144   -0.001901364422308838
0.005079980454314875   -0.00405070583523386   -0.0014390263842115982
-0.01173817495186619   -0.011503482726856711   -0.0028354177589979086
-0.01608609271907804   -0.021579351437397032   -0.0032292131560497056
-0.007492127915141109   -0.011127479239734938   -0.002333647175633295
-0.012090477128264793   -0.011768927961810713   -0.002458408196649447
-0.01608609271907804   -0.021579351437397032   -0.0032292131560497056
-0.010341950933057368   -0.021291910589726265   -0.0028220807679449314
-0.007492127915141109   -0.011127479239734938   -0.002333647175633295
-0.010365172899553103   -0.02145619328778892   -0.002641927073121876
-0.012090477128264793   -0.011768927961810713   -0.002458408196649447
-0.007501444880027759   -0.01131774386046588   -0.0021015185417740056
-0.010365172899553103   -0.02145619328778892   -0.002641927073121876
-0.007492127915141109   -0.011127479239734938   -0.002333647175633295
-0.012090477128264793   -0.011768927961810713   -0.002458408196649447
-0.010365172899553103   -0.02145619328778892   -0.002641927073121876
-0.016372886730326934   -0.021803840553268443   -0.0029479189023978243
-0.01608609271907804   -0.021579351437397032   -0.0032292131560497056
-0.012090477128264793   -0.011768927961810713   -0.002458408196649447
-0.010365172899553103   -0.02145619328778892   -0.002641927073121876
-0.01608609271907804   -0.021579351437397032   -0.0032292131560497056
-0.007492127915141109   -0.011127479239734938   -0.002333647175633295
-0.012090477128264793   -0.011768927961810713   -0.002458408196649447
-0.016372886730326934   -0.021803840553268443   -0.0029479189023978243
-0.007501444880027759   -0.01131774386046588   -0.0021015185417740056
-0.0123354504019379   -0.011918799628590477   -0.002089209821620638
-0.016372886730326934   -0.021803840553268443   -0.0029479189023978243
-0.010365172899553103   -0.02145619328778892   -0.002641927073121876
-0.007501444880027759   -0.01131774386046588   -0.0021015185417740056
-0.01039245193760885   -0.021570482974012144   -0.002474791682597419
-0.0123354504019379   -0.011918799628590477   -0.002089209821620638
-0.007531488929063209   -0.011433688536513066   -0.0018784223020600177
-0.01039245193760885   -0.021570482974012144   -0.002474791682597419
-0.007501444880027759   -0.01131774386046588   -0.0021015185417740056
-0.0123354504019379   -0.011918799628590477   -0.002089209821620638
-0.01039245193760885   -0.021570482974012144   -0.002474791682597419
-0.01655393592878012   -0.02194456972821034   -0.00268570952413637
-0.016372886730326934   -0.021803840553268443   -0.0029479189023978243
-0.0123354504019379   -0.011918799628590477   -0.002089209821620638
-0.01039245193760885   -0.021570482974012144   -0.002474791682597419
-0.016372886730326934   -0.021803840553268443   -0.0029479189023978243
-0.007501444880027759   -0.01131774386046588   -0.0021015185417740056
-0.0123354504019379   -0.011918799628590477   -0.002089209821620638
-0.01655393592878012   -0.02194456972821034   -0.00268570952413637
-0.007531488929063209   -0.011433688536513066   -0.0018784223020600177
-0.012625020389782403   -0.012005818285153647   -0.0017532411588707367
-0.01655393592878012   -0.02194456972821034   -0.00268570952413637
-0.01039245193760885   -0.021570482974012144   -0.002474791682597419
-0.007531488929063209   -0.011433688536513066   -0.0018784223020600177
-0.01037354882462974   -0.02164561893204115   -0.002317902420203963
-0.012625020389782403   -0.012005818285153647   -0.0017532411588707367
-0.007509569581949371   -0.011493786076910244   -0.001669566530195705
-0.01037354882462974   -0.02164561893204115   -0.002317902420203963
-0.007531488929063209   -0.011433688536513066   -0.0018784223020600177
-0.012625020389782403   -0.012005818285153647   -0.0017532411588707367
-0.01037354882462974   -0.02164561893204115   -0.002317902420203963
-0.016759933654173144   -0.02204568854138567   -0.002444369312523664
-0.01655393592878012   -0.02194456972821034   -0.00268570952413637
-0.012625020389782403   -0.012005818285153647   -0.0017532411588707367
-0.01037354882462974   -0.02164561893204115   -0.002317902420203963
-0.01655393592878012   -0.02194456972821034   -0.00268570952413637
-0.007531488929063209   -0.011433688536513066   -0.0018784223020600177
-0.007492127915141109   -0.011127479239734938   -0.002333647175633295
-0.010341950933057368   -0.021291910589726265   -0.0028220807679449314
-0.003475519364845996   -0.01095252266622157   -0.0019910804079237908
-0.007501444880027759   -0.01131774386046588   -0.0021015185417740056
-0.010341950933057368   -0.021291910589726265   -0.0028220807679449314
-0.004925287601805609   -0.021148635133395738   -0.002539202622978411
-0.003475519364845996   -0.01095252266622157   -0.0019910804079237908
-0.004913498836423319   -0.021253716245567017   -0.002437437262848626
-0.007501444880027759   -0.01131774386046588   -0.0021015185417740056
-0.0034460129258848983   -0.01107365134648657   -0.0018721703820609506
-0.004913498836423319   -0.021253716245567017   -0.002437437262848626
-0.003475519364845996   -0.01095252266622157   -0.0019910804079237908
-0.007501444880027759   -0.01131774386046588   -0.0021015185417740056
-0.004913498836423319   -0.021253716245567017   -0.002437437262848626
-0.010365172899553103   -0.02145619328778892   -0.002641927073121876
-0.010341950933057368   -0.021291910589726265   -0.0028220807679449314
-0.007501444880027759   -0.01131774386046588   -0.0021015185417740056
-0.004913498836423319   -0.021253716245567017   -0.002437437262848626
-0.010341950933057368   -0.021291910589726265   -0.0028220807679449314
-0.003475519364845996   -0.01095252266622157   -0.0019910804079237908
-0.007501444880027759   -0.01131774386046588   -0.0021015185417740056
-0.010365172899553103   -0.02145619328778892   -0.002641927073121876
-0.0034460129258848983   -0.01107365134648657   -0.0018721703820609506
-0.007531488929063209   -0.011433688536513066   -0.0018784223020600177
-0.010365172899553103   -0.02145619328778892   -0.002641927073121876
-0.004913498836423319   -0.021253716245567017   -0.002437437262848626
-0.0034460129258848983   -0.01107365134648657   -0.0018721703820609506
-0.004898932418926376   -0.021315426208607244   -0.0023480715457511337
-0.007531488929063209   -0.011433688536513066   -0.0018784223020600177
-0.003419919302754026   -0.011132383235493221   -0.001764356146499243
-0.004898932418926376   -0.021315426208607244   -0.0023480715457511337
-0.0034460129258848983   -0.01107365134648657   -0.0018721703820609506
-0.007531488929063209   -0.011433688536513066   -0.0018784223020600177
-0.004898932418926376   -0.021315426208607244   -0.0023480715457511337
-0.01039245193760885   -0.021570482974012144   -0.002474791682597419
-0.010365172899553103   -0.02145619328778892   -0.002641927073121876
-0.007531488929063209   -0.011433688536513066   -0.0018784223020600177
-0.004898932418926376   -0.021315426208607244   -0.0023480715457511337
-0.010365172899553103   -0.02145619328778892   -0.002641927073121876
-0.0034460129258848983   -0.01107365134648657   -0.0018721703820609506
-0.007531488929063209   -0.011433688536513066   -0.0018784223020600177
-0.01039245193760885   -0.021570482974012144   -0.002474791682597419
-0.003419919302754026   -0.011132383235493221   -0.001764356146499243
-0.007509569581949371   -0.011493786076910244   -0.001669566530195705
-0.01039245193760885   -0.021570482974012144   -0.002474791682597419
-0.004898932418926376   -0.021315426208607244   -0.0023480715457511337
-0.003419919302754026   -0.011132383235493221   -0.001764356146499243
-0.004874645492486301   -0.02133464733694156   -0.0022710670403814663
-0.007509569581949371   -0.011493786076910244   -0.001669566530195705
-0.003380756804644615   -0.011130933408956614   -0.0016704674922524195
-0.004874645492486301   -0.02133464733694156   -0.0022710670403814663
-0.003419919302754026   -0.011132383235493221   -0.001764356146499243
-0.007509569581949371   -0.011493786076910244   -0.001669566530195705
-0.004874645492486301   -0.02133464733694156   -0.0022710670403814663
-0.01037354882462974   -0.02164561893204115   -0.002317902420203963
-0.01039245193760885   -0.021570482974012144   -0.002474791682597419
-0.007509569581949371   -0.011493786076910244   -0.001669566530195705
-0.004874645492486301   -0.02133464733694156   -0.0022710670403814663
-0.01039245193760885   -0.021570482974012144   -0.002474791682597419
-0.003419919302754026   -0.011132383235493221   -0.001764356146499243
-0.003475519364845996   -0.01095252266622157   -0.0019910804079237908
-0.004925287601805609   -0.021148635133395738   -0.002539202622978411
0.00039801525240991696   -0.010957703114181457   -0.0017744166526302344
-0.0034460129258848983   -0.01107365134648657   -0.0018721703820609506
-0.004925287601805609   -0.021148635133395738   -0.002539202622978411
0.00033252268596044483   -0.021141017213872355   -0.002363730623957712
0.00039801525240991696   -0.010957703114181457   -0.0017744166526302344
0.00035464350756969165   -0.02118783751688298   -0.0023399302660188854
-0.0034460129258848983   -0.01107365134648657   -0.0018721703820609506
0.0004343659441215255   -0.0110151389961806   -0.0017666314908515615
0.00035464350756969165   -0.02118783751688298   -0.0023399302660188854
0.00039801525240991696   -0.010957703114181457   -0.0017744166526302344
-0.0034460129258848983   -0.01107365134648657   -0.0018721703820609506
0.00035464350756969165   -0.02118783751688298   -0.0023399302660188854
-0.004913498836423319   -0.021253716245567017   -0.002437437262848626
-0.004925287601805609   -0.021148635133395738   -0.002539202622978411
-0.0034460129258848983   -0.01107365134648657   -0.0018721703820609506
0.00035464350756969165   -0.02118783751688298   -0.0023399302660188854
-0.004925287601805609   -0.021148635133395738   -0.002539202622978411
0.00039801525240991696   -0.010957703114181457   -0.0017744166526302344
-0.0034460129258848983   -0.01107365134648657   -0.0018721703820609506
-0.004913498836423319   -0.021253716245567017   -0.002437437262848626
0.0004343659441215255   -0.0110151389961806   -0.0017666314908515615
-0.003419919302754026   -0.011132383235493221   -0.001764356146499243
-0.004913498836423319   -0.021253716245567017   -0.002437437262848626
0.00035464350756969165   -0.02118783751688298   -0.0023399302660188854
0.0004343659441215255   -0.0110151389961806   -0.0017666314908515615
0.00036863012965339474   -0.021191461790621497   -0.0023282038809392435
-0.003419919302754026   -0.011132383235493221   -0.001764356146499243
0.00045867284454678697   -0.011011642433771757   -0.0017714416935145003
0.00036863012965339474   -0.021191461790621497   -0.0023282038809392435
0.0004343659441215255   -0.0110151389961806   -0.0017666314908515615
-0.003419919302754026   -0.011132383235493221   -0.001764356146499243
0.00036863012965339474   -0.021191461790621497   -0.0023282038809392435
-0.004898932418926376   -0.021315426208607244   -0.0023480715457511337
-0.004913498836423319   -0.021253716245567017   -0.002437437262848626
-0.003419919302754026   -0.011132383235493221   -0.001764356146499243
0.00036863012965339474   -0.021191461790621497   -0.0023282038809392435
-0.004913498836423319   -0.021253716245567017   -0.002437437262848626
0.0004343659441215255   -0.0110151389961806   -0.0017666314908515615
-0.003419919302754026   -0.011132383235493221   -0.001764356146499243
-0.004898932418926376   -0.021315426208607244   -0.0023480715457511337
0.00045867284454678697   -0.011011642433771757   -0.0017714416935145003
-0.003380756804644615   -0.011130933408956614   -0.0016704674922524195
-0.004898932418926376   -0.021315426208607244   -0.0023480715457511337
0.00036863012965339474   -0.021191461790621497   -0.0023282038809392435
0.00045867284454678697   -0.011011642433771757   -0.0017714416935145003
0.00037859041997577366   -0.021151245319944393   -0.0023292872051905887
-0.003380756804644615   -0.011130933408956614   -0.0016704674922524195
0.0004847861522391695   -0.010945351721982962   -0.0017890470233928196
0.00037859041997577366   -0.021151245319944393   -0.0023292872051905887
0.00045867284454678697   -0.011011642433771757   -0.0017714416935145003
-0.003380756804644615   -0.011130933408956614   -0.0016704674922524195
0.00037859041997577366   -0.021151245319944393   -0.0023292872051905887
-0.004874645492486301   -0.02133464733694156   -0.0022710670403814663
-0.004898932418926376   -0.021315426208607244   -0.0023480715457511337
-0.003380756804644615   -0.011130933408956614   -0.0016704674922524195
0.00037859041997577366   -0.021151245319944393   -0.0023292872051905887
-0.004898932418926376   -0.021315426208607244   -0.0023480715457511337
0.00045867284454678697   -0.011011642433771757   -0.0017714416935145003
0.00039801525240991696   -0.010957703114181457   -0.0017744166526302344
0.00033252268596044483   -0.021141017213872355   -0.002363730623957712
0.004502612190269289   -0.011136509061786256   -0.0016732205172406097
0.0004343659441215255   -0.0110151389961806   -0.0017666314908515615
0.00033252268596044483   -0.021141017213872355   -0.002363730623957712
0.005814588910567949   -0.02126099779984585   -0.0022926515667829376
0.004502612190269289   -0.011136509061786256   -0.0016732205172406097
0.005833789072641793   -0.021254434862753722   -0.002348439535174907
0.0004343659441215255   -0.0110151389961806   -0.0017666314908515615
0.00452292761129459   -0.011136094056628488   -0.0017801671377399156
0.005833789072641793   -0.021254434862753722   -0.002348439535174907
0.004502612190269289   -0.011136509061786256   -0.0016732205172406097
0.0004343659441215255   -0.0110151389961806   -0.0017666314908515615
0.005833789072641793   -0.021254434862753722   -0.002348439535174907
0.00035464350756969165   -0.02118783751688298   -0.0023399302660188854
0.00033252268596044483   -0.021141017213872355   -0.002363730623957712
0.0004343659441215255   -0.0110151389961806   -0.0017666314908515615
0.005833789072641793   -0.021254434862753722   -0.002348439535174907
0.00033252268596044483   -0.021141017213872355   -0.002363730623957712
0.004502612190269289   -0.011136509061786256   -0.0016732205172406097
0.0004343659441215255   -0.0110151389961806   -0.0017666314908515615
0.00035464350756969165   -0.02118783751688298   -0.0023399302660188854
0.00452292761129459   -0.011136094056628488   -0.0017801671377399156
0.00045867284454678697   -0.011011642433771757   -0.0017714416935145003
0.00035464350756969165   -0.02118783751688298   -0.0023399302660188854
0.005833789072641793   -0.021254434862753722   -0.002348439535174907
0.00452292761129459   -0.011136094056628488   -0.0017801671377399156
0.005818425318661526   -0.021205586090139984   -0.002415414279724602
0.00045867284454678697   -0.011011642433771757   -0.0017714416935145003
0.004501523036458986   -0.011075916989475144   -0.001901364422308838
0.005818425318661526   -0.021205586090139984   -0.002415414279724602
0.00452292761129459   -0.011136094056628488   -0.0017801671377399156
0.00045867284454678697   -0.011011642433771757   -0.0017714416935145003
0.005818425318661526   -0.021205586090139984   -0.002415414279724602
0.00036863012965339474   -0.021191461790621497   -0.0023282038809392435
0.00035464350756969165   -0.02118783751688298   -0.0023399302660188854
0.00045867284454678697   -0.011011642433771757   -0.0017714416935145003
0.005818425318661526   -0.021205586090139984   -0.002415414279724602
0.00035464350756969165   -0.02118783751688298   -0.0023399302660188854
0.00452292761129459   -0.011136094056628488   -0.0017801671377399156
0.00045867284454678697   -0.011011642433771757   -0.0017714416935145003
0.00036863012965339474   -0.021191461790621497   -0.0023282038809392435
0.004501523036458986   -0.011075916989475144   -0.001901364422308838
0.0004847861522391695   -0.010945351721982962   -0.0017890470233928196
0.00036863012965339474   -0.021191461790621497   -0.0023282038809392435
0.005818425318661526   -0.021205586090139984   -0.002415414279724602
0.004501523036458986   -0.011075916989475144   -0.001901364422308838
0.005795741982312321   -0.0211039987363479   -0.002494899599450152
0.0004847861522391695   -0.010945351721982962   -0.0017890470233928196
0.004489074005990536   -0.010939503609826427   -0.0020323299946705775
0.005795741982312321   -0.0211039987363479   -0.002494899599450152
0.004501523036458986   -0.011075916989475144   -0.001901364422308838
0.0004847861522391695   -0.010945351721982962   -0.0017890470233928196
0.005795741982312321   -0.0211039987363479   -0.002494899599450152
0.00037859041997577366   -0.021151245319944393   -0.0023292872051905887
0.00036863012965339474   -0.021191461790621497   -0.0023282038809392435
0.0004847861522391695   -0.010945351721982962   -0.0017890470233928196
0.005795741982312321   -0.0211039987363479   -0.002494899599450152
0.00036863012965339474   -0.021191461790621497   -0.0023282038809392435
0.004501523036458986   -0.011075916989475144   -0.001901364422308838
0.004502612190269289   -0.011136509061786256   -0.0016732205172406097
0.005814588910567949   -0.02126099779984585   -0.0022926515667829376
0.009455037094239865   -0.011468953909542064   -0.0016457685221536631
0.00452292761129459   -0.011136094056628488   -0.0017801671377399156
0.005814588910567949   -0.02126099779984585   -0.0022926515667829376
0.012057536517446756   -0.021478729588410534   -0.0022937140321157468
0.009455037094239865   -0.011468953909542064   -0.0016457685221536631
0.011951826821837763   -0.021441435387578447   -0.002439386595245004
0.00452292761129459   -0.011136094056628488   -0.0017801671377399156
0.009261952664164205   -0.011437792522107519   -0.001886304428724869
0.011951826821837763   -0.021441435387578447   -0.002439386595245004
0.009455037094239865   -0.011468953909542064   -0.0016457685221536631
0.00452292761129459   -0.011136094056628488   -0.0017801671377399156
0.011951826821837763   -0.021441435387578447   -0.002439386595245004
0.005833789072641793   -0.021254434862753722   -0.002348439535174907
0.005814588910567949   -0.02126099779984585   -0.0022926515667829376
0.00452292761129459   -0.011136094056628488   -0.0017801671377399156
0.011951826821837763   -0.021441435387578447   -0.002439386595245004
0.005814588910567949   -0.02126099779984585   -0.0022926515667829376
0.009455037094239865   -0.011468953909542064   -0.0016457685221536631
0.00452292761129459   -0.011136094056628488   -0.0017801671377399156
0.005833789072641793   -0.021254434862753722   -0.002348439535174907
0.009261952664164205   -0.011437792522107519   -0.001886304428724869
0.004501523036458986   -0.011075916989475144   -0.001901364422308838
0.005833789072641793   -0.021254434862753722   -0.002348439535174907
0.011951826821837763   -0.021441435387578447   -0.002439386595245004
0.009261952664164205   -0.011437792522107519   -0.001886304428724869
0.011846421421258647   -0.02136619474137285   -0.002605231296433033
0.004501523036458986   -0.011075916989475144   -0.001901364422308838
0.009089458358342045   -0.011344994395079635   -0.0021568304931644236
0.011846421421258647   -0.02136619474137285   -0.002605231296433033
0.009261952664164205   -0.011437792522107519   -0.001886304428724869
0.004501523036458986   -0.011075916989475144   -0.001901364422308838
0.011846421421258647   -0.02136619474137285   -0.002605231296433033
0.005818425318661526   -0.021205586090139984   -0.002415414279724602
0.005833789072641793   -0.021254434862753722   -0.002348439535174907
0.004501523036458986   -0.011075916989475144   -0.001901364422308838
0.011846421421258647   -0.02136619474137285   -0.002605231296433033
0.005833789072641793   -0.021254434862753722   -0.002348439535174907
0.009261952664164205   -0.011437792522107519   -0.001886304428724869
0.004501523036458986   -0.011075916989475144   -0.001901364422308838
0.005818425318661526   -0.021205586090139984   -0.002415414279724602
0.009089458358342045   -0.011344994395079635   -0.0021568304931644236
0.004489074005990536   -0.010939503609826427   -0.0020323299946705775
0.005818425318661526   -0.021205586090139984   -0.002415414279724602
0.011846421421258647   -0.02136619474137285   -0.002605231296433033
0.009089458358342045   -0.011344994395079635   -0.0021568304931644236
0.011659687416017118   -0.021208201928154306   -0.0027912694000120962
0.004489074005990536   -0.010939503609826427   -0.0020323299946705775
0.008831290254139994   -0.01113837218382778   -0.002438394555981177
0.011659687416017118   -0.021208201928154306   -0.0027912694000120962
0.009089458358342045   -0.011344994395079635   -0.0021568304931644236
0.004489074005990536   -0.010939503609826427   -0.0020323299946705775
0.011659687416017118   -0.021208201928154306   -0.0027912694000120962
0.005795741982312321   -0.0211039987363479   -0.002494899599450152
0.005818425318661526   -0.021205586090139984   -0.002415414279724602
0.004489074005990536   -0.010939503609826427   -0.0020323299946705775
0.011659687416017118   -0.021208201928154306   -0.0027912694000120962
0.005818425318661526   -0.021205586090139984   -0.002415414279724602
0.009089458358342045   -0.011344994395079635   -0.0021568304931644236
-0.01608609271907804   -0.021579351437397032   -0.0032292131560497056
-0.019212711513581407   -0.03353025167563714   -0.0034434476913506804
-0.010341950933057368   -0.021291910589726265   -0.0028220807679449314
-0.016372886730326934   -0.021803840553268443   -0.0029479189023978243
-0.019212711513581407   -0.03353025167563714   -0.0034434476913506804
-0.012470042383608418   -0.03334727754843073   -0.0031113573937228893
-0.010341950933057368   -0.021291910589726265   -0.0028220807679449314
-0.012485534012123834   -0.03348865046668299   -0.002982363902209019
-0.016372886730326934   -0.021803840553268443   -0.0029479189023978243
-0.010365172899553103   -0.02145619328778892   -0.002641927073121876
-0.012485534012123834   -0.03348865046668299   -0.002982363902209019
-0.010341950933057368   -0.021291910589726265   -0.0028220807679449314
-0.016372886730326934   -0.021803840553268443   -0.0029479189023978243
-0.012485534012123834   -0.03348865046668299   -0.002982363902209019
-0.019406183272878096   -0.033721487240005545   -0.0032565543455457587
-0.019212711513581407   -0.03353025167563714   -0.0034434476913506804
-0.016372886730326934   -0.021803840553268443   -0.0029479189023978243
-0.012485534012123834   -0.03348865046668299   -0.002982363902209019
-0.019212711513581407   -0.03353025167563714   -0.0034434476913506804
-0.010341950933057368   -0.021291910589726265   -0.0028220807679449314
-0.016372886730326934   -0.021803840553268443   -0.0029479189023978243
-0.019406183272878096   -0.033721487240005545   -0.0032565543455457587
-0.010365172899553103   -0.02145619328778892   -0.002641927073121876
-0.01655393592878012   -0.02194456972821034   -0.00268570952413637
-0.019406183272878096   -0.033721487240005545   -0.0032565543455457587
-0.012485534012123834   -0.03348865046668299   -0.002982363902209019
-0.010365172899553103   -0.02145619328778892   -0.002641927073121876
-0.012496743549194033   -0.03360069248628519   -0.00286621615306428
-0.01655393592878012   -0.02194456972821034   -0.00268570952413637
-0.01039245193760885   -0.021570482974012144   -0.002474791682597419
-0.012496743549194033   -0.03360069248628519   -0.00286621615306428
-0.010365172899553103   -0.02145619328778892   -0.002641927073121876
-0.01655393592878012   -0.02194456972821034   -0.00268570952413637
-0.012496743549194033   -0.03360069248628519   -0.00286621615306428
-0.019517437923712935   -0.033856745846935966   -0.0030875741909365804
-0.019406183272878096   -0.033721487240005545   -0.0032565543455457587
-0.01655393592878012   -0.02194456972821034   -0.00268570952413637
-0.012496743549194033   -0.03360069248628519   -0.00286621615306428
-0.019406183272878096   -0.033721487240005545   -0.0032565543455457587
-0.010365172899553103   -0.02145619328778892   -0.002641927073121876
-0.01655393592878012   -0.02194456972821034   -0.00268570952413637
-0.019517437923712935   -0.033856745846935966   -0.0030875741909365804
-0.01039245193760885   -0.021570482974012144   -0.002474791682597419
-0.016759933654173144   -0.02204568854138567   -0.002444369312523664
-0.019517437923712935   -0.033856745846935966   -0.0030875741909365804
-0.012496743549194033   -0.03360069248628519   -0.00286621615306428
-0.01039245193760885   -0.021570482974012144   -0.002474791682597419
-0.012471385787322894   -0.03369269115663192   -0.0027612095907343774
-0.016759933654173144   -0.02204568854138567   -0.002444369312523664
-0.01037354882462974   -0.02164561893204115   -0.002317902420203963
-0.012471385787322894   -0.03369269115663192   -0.0027612095907343774
-0.01039245193760885   -0.021570482974012144   -0.002474791682597419
-0.016759933654173144   -0.02204568854138567   -0.002444369312523664
-0.012471385787322894   -0.03369269115663192   -0.0027612095907343774
-0.019632076158831765   -0.03397791484190089   -0.0029386337087409634
-0.019517437923712935   -0.033856745846935966   -0.0030875741909365804
-0.016759933654173144   -0.02204568854138567   -0.002444369312523664
-0.012471385787322894   -0.03369269115663192   -0.0027612095907343774
-0.019517437923712935   -0.033856745846935966   -0.0030875741909365804
-0.01039245193760885   -0.021570482974012144   -0.002474791682597419
-0.010341950933057368   -0.021291910589726265   -0.0028220807679449314
-0.012470042383608418   -0.03334727754843073   -0.0031113573937228893
-0.004925287601805609   -0.021148635133395738   -0.002539202622978411
-0.010365172899553103   -0.02145619328778892   -0.002641927073121876
-0.012470042383608418   -0.03334727754843073   -0.0031113573937228893
-0.0061485591624125605   -0.03325275850458025   -0.0028813896980016194
-0.004925287601805609   -0.021148635133395738   -0.002539202622978411
-0.006137356768132596   -0.03334150079865888   -0.002796278213716652
-0.010365172899553103   -0.02145619328778892   -0.002641927073121876
-0.004913498836423319   -0.021253716245567017   -0.002437437262848626
-0.006137356768132596   -0.03334150079865888   -0.002796278213716652
-0.004925287601805609   -0.021148635133395738   -0.002539202622978411
-0.010365172899553103   -0.02145619328778892   -0.002641927073121876
-0.006137356768132596   -0.03334150079865888   -0.002796278213716652
-0.012485534012123834   -0.03348865046668299   -0.002982363902209019
-0.012470042383608418   -0.03334727754843073   -0.0031113573937228893
-0.010365172899553103   -0.02145619328778892   -0.002641927073121876
-0.006137356768132596   -0.03334150079865888   -0.002796278213716652
-0.012470042383608418   -0.03334727754843073   -0.0031113573937228893
-0.004925287601805609   -0.021148635133395738   -0.002539202622978411
-0.010365172899553103   -0.02145619328778892   -0.002641927073121876
-0.012485534012123834   -0.03348865046668299   -0.002982363902209019
-0.004913498836423319   -0.021253716245567017   -0.002437437262848626
-0.01039245193760885   -0.021570482974012144   -0.002474791682597419
-0.012485534012123834   -0.03348865046668299   -0.002982363902209019
-0.006137356768132596   -0.03334150079865888   -0.002796278213716652
-0.004913498836423319   -0.021253716245567017   -0.002437437262848626
-0.006121872571554427   -0.033405668176384025   -0.0027238217809613173
-0.01039245193760885   -0.021570482974012144   -0.002474791682597419
-0.004898932418926376   -0.021315426208607244   -0.0023480715457511337
-0.006121872571554427   -0.033405668176384025   -0.0027238217809613173
-0.004913498836423319   -0.021253716245567017   -0.002437437262848626
-0.01039245193760885   -0.021570482974012144   -0.002474791682597419
-0.006121872571554427   -0.033405668176384025   -0.0027238217809613173
-0.012496743549194033   -0.03360069248628519   -0.00286621615306428
-0.012485534012123834   -0.03348865046668299   -0.002982363902209019
-0.01039245193760885   -0.021570482974012144   -0.002474791682597419
-0.006121872571554427   -0.033405668176384025   -0.0027238217809613173
-0.012485534012123834   -0.03348865046668299   -0.002982363902209019
-0.004913498836423319   -0.021253716245567017   -0.002437437262848626
-0.01039245193760885   -0.021570482974012144   -0.002474791682597419
-0.012496743549194033   -0.03360069248628519   -0.00286621615306428
-0.004898932418926376   -0.021315426208607244   -0.0023480715457511337
-0.01037354882462974   -0.02164561893204115   -0.002317902420203963
-0.012496743549194033   -0.03360069248628519   -0.00286621615306428
-0.006121872571554427   -0.033405668176384025   -0.0027238217809613173
-0.004898932418926376   -0.021315426208607244   -0.0023480715457511337
-0.0060985449044717996   -0.033445680758730625   -0.0026642283781379904
-0.01037354882462974   -0.02164561893204115   -0.002317902420203963
-0.004874645492486301   -0.02133464733694156   -0.0022710670403814663
-0.0060985449044717996   -0.033445680758730625   -0.0026642283781379904
-0.004898932418926376   -0.021315426208607244   -0.0023480715457511337
-0.01037354882462974   -0.02164561893204115   -0.002317902420203963
-0.0060985449044717996   -0.033445680758730625   -0.0026642283781379904
-0.012471385787322894   -0.03369269115663192   -0.0027612095907343774
-0.012496743549194033   -0.03360069248628519   -0.00286621615306428
-0.01037354882462974   -0.02164561893204115   -0.002317902420203963
-0.0060985449044717996   -0.033445680758730625   -0.0026642283781379904
-0.012496743549194033   -0.03360069248628519   -0.00286621615306428
-0.004898932418926376   -0.021315426208607244   -0.0023480715457511337
-0.004925287601805609   -0.021148635133395738   -0.002539202622978411
-0.0061485591624125605   -0.03325275850458025   -0.0028813896980016194
0.00033252268596044483   -0.021141017213872355   -0.002363730623957712
-0.004913498836423319   -0.021253716245567017   -0.002437437262848626
-0.0061485591624125605   -0.03325275850458025   -0.0028813896980016194
1.3772403397781804e-06   -0.033236534966408215   -0.002747368705701602
0.00033252268596044483   -0.021141017213872355   -0.002363730623957712
2.2882610721965e-05   -0.033272377471653694   -0.0027064746200871556
-0.004913498836423319   -0.021253716245567017   -0.002437437262848626
0.00035464350756969165   -0.02118783751688298   -0.0023399302660188854
2.2882610721965e-05   -0.033272377471653694   -0.0027064746200871556
0.00033252268596044483   -0.021141017213872355   -0.002363730623957712
-0.004913498836423319   -0.021253716245567017   -0.002437437262848626
2.2882610721965e-05   -0.033272377471653694   -0.0027064746200871556
-0.006137356768132596   -0.03334150079865888   -0.002796278213716652
-0.0061485591624125605   -0.03325275850458025   -0.0028813896980016194
-0.004913498836423319   -0.021253716245567017   -0.002437437262848626
2.2882610721965e-05   -0.033272377471653694   -0.0027064746200871556
-0.0061485591624125605   -0.03325275850458025   -0.0028813896980016194
0.00033252268596044483   -0.021141017213872355   -0.002363730623957712
-0.004913498836423319   -0.021253716245567017   -0.002437437262848626
-0.006137356768132596   -0.03334150079865888   -0.002796278213716652
0.00035464350756969165   -0.02118783751688298   -0.0023399302660188854
-0.004898932418926376   -0.021315426208607244   -0.0023480715457511337
-0.006137356768132596   -0.03334150079865888   -0.002796278213716652
2.2882610721965e-05   -0.033272377471653694   -0.0027064746200871556
0.00035464350756969165   -0.02118783751688298   -0.0023399302660188854
3.8053195883509245e-05   -0.03328347620564786   -0.002678073522868939
-0.004898932418926376   -0.021315426208607244   -0.0023480715457511337
0.00036863012965339474   -0.021191461790621497   -0.0023282038809392435
3.8053195883509245e-05   -0.03328347620564786   -0.002678073522868939
0.00035464350756969165   -0.02118783751688298   -0.0023399302660188854
-0.004898932418926376   -0.021315426208607244   -0.0023480715457511337
3.8053195883509245e-05   -0.03328347620564786   -0.002678073522868939
-0.006121872571554427   -0.033405668176384025   -0.0027238217809613173
-0.006137356768132596   -0.03334150079865888   -0.002796278213716652
-0.004898932418926376   -0.021315426208607244   -0.0023480715457511337
3.8053195883509245e-05   -0.03328347620564786   -0.002678073522868939
-0.006137356768132596   -0.03334150079865888   -0.002796278213716652
0.00035464350756969165   -0.02118783751688298   -0.0023399302660188854
-0.004898932418926376   -0.021315426208607244   -0.0023480715457511337
-0.006121872571554427   -0.033405668176384025   -0.0027238217809613173
0.00036863012965339474   -0.021191461790621497   -0.0023282038809392435
-0.004874645492486301   -0.02133464733694156   -0.0022710670403814663
-0.006121872571554427   -0.033405668176384025   -0.0027238217809613173
3.8053195883509245e-05   -0.03328347620564786   -0.002678073522868939
0.00036863012965339474   -0.021191461790621497   -0.0023282038809392435
4.7499551556139716e-05   -0.033269492282460775   -0.002662719667567831
-0.004874645492486301   -0.02133464733694156   -0.0022710670403814663
0.00037859041997577366   -0.021151245319944393   -0.0023292872051905887
4.7499551556139716e-05   -0.033269492282460775   -0.002662719667567831
0.00036863012965339474   -0.021191461790621497   -0.0023282038809392435
-0.004874645492486301   -0.02133464733694156   -0.0022710670403814663
4.7499551556139716e-05   -0.033269492282460775   -0.002662719667567831
-0.0060985449044717996   -0.033445680758730625   -0.0026642283781379904
-0.006121872571554427   -0.033405668176384025   -0.0027238217809613173
-0.004874645492486301   -0.02133464733694156   -0.0022710670403814663
4.7499551556139716e-05   -0.033269492282460775   -0.002662719667567831
-0.006121872571554427   -0.033405668176384025   -0.0027238217809613173
0.00036863012965339474   -0.021191461790621497   -0.0023282038809392435
0.00033252268596044483   -0.021141017213872355   -0.002363730623957712
1.3772403397781804e-06   -0.033236534966408215   -0.002747368705701602
0.005814588910567949   -0.02126099779984585   -0.0022926515667829376
0.00035464350756969165   -0.02118783751688298   -0.0023399302660188854
1.3772403397781804e-06   -0.033236534966408215   -0.002747368705701602
0.006362770168692561   -0.03329193002643237   -0.002708736237228957
0.005814588910567949   -0.02126099779984585   -0.0022926515667829376
0.006389156583850627   -0.033277962889702896   -0.0027129952551411375
0.00035464350756969165   -0.02118783751688298   -0.0023399302660188854
0.005833789072641793   -0.021254434862753722   -0.002348439535174907
0.006389156583850627   -0.033277962889702896   -0.0027129952551411375
0.005814588910567949   -0.02126099779984585   -0.0022926515667829376
0.00035464350756969165   -0.02118783751688298   -0.0023399302660188854
0.006389156583850627   -0.033277962889702896   -0.0027129952551411375
2.2882610721965e-05   -0.033272377471653694   -0.0027064746200871556
1.3772403397781804e-06   -0.033236534966408215   -0.002747368705701602
0.00035464350756969165   -0.02118783751688298   -0.0023399302660188854
0.006389156583850627   -0.033277962889702896   -0.0027129952551411375
1.3772403397781804e-06   -0.033236534966408215   -0.002747368705701602
0.005814588910567949   -0.02126099779984585   -0.0022926515667829376
0.00035464350756969165   -0.02118783751688298   -0.0023399302660188854
2.2882610721965e-05   -0.033272377471653694   -0.0027064746200871556
0.005833789072641793   -0.021254434862753722   -0.002348439535174907
0.00036863012965339474   -0.021191461790621497   -0.0023282038809392435
2.2882610721965e-05   -0.033272377471653694   -0.0027064746200871556
0.006389156583850627   -0.033277962889702896   -0.0027129952551411375
0.005833789072641793   -0.021254434862753722   -0.002348439535174907
0.006390683979897899   -0.0332411275639356   -0.002729075984863876
0.00036863012965339474   -0.021191461790621497   -0.0023282038809392435
0.005818425318661526   -0.021205586090139984   -0.002415414279724602
0.006390683979897899   -0.0332411275639356   -0.002729075984863876
0.005833789072641793   -0.021254434862753722   -0.002348439535174907
0.00036863012965339474   -0.021191461790621497   -0.0023282038809392435
0.006390683979897899   -0.0332411275639356   -0.002729075984863876
3.8053195883509245e-05   -0.03328347620564786   -0.002678073522868939
2.2882610721965e-05   -0.033272377471653694   -0.0027064746200871556
0.00036863012965339474   -0.021191461790621497   -0.0023282038809392435
0.006390683979897899   -0.0332411275639356   -0.002729075984863876
2.2882610721965e-05   -0.033272377471653694   -0.0027064746200871556
0.005833789072641793   -0.021254434862753722   -0.002348439535174907
0.00036863012965339474   -0.021191461790621497   -0.0023282038809392435
3.8053195883509245e-05   -0.03328347620564786   -0.002678073522868939
0.005818425318661526   -0.021205586090139984   -0.002415414279724602
0.00037859041997577366   -0.021151245319944393   -0.0023292872051905887
3.8053195883509245e-05   -0.03328347620564786   -0.002678073522868939
0.006390683979897899   -0.0332411275639356   -0.002729075984863876
0.005818425318661526   -0.021205586090139984   -0.002415414279724602
0.00637625585672703   -0.03317218722407882   -0.002757426981077577
0.00037859041997577366   -0.021151245319944393   -0.0023292872051905887
0.005795741982312321   -0.0211039987363479   -0.002494899599450152
0.00637625585672703   -0.03317218722407882   -0.002757426981077577
0.005818425318661526   -0.021205586090139984   -0.002415414279724602
0.00037859041997577366   -0.021151245319944393   -0.0023292872051905887
0.00637625585672703   -0.03317218722407882   -0.002757426981077577
4.7499551556139716e-05   -0.033269492282460775   -0.002662719667567831
3.8053195883509245e-05   -0.03328347620564786   -0.002678073522868939
0.00037859041997577366   -0.021151245319944393   -0.0023292872051905887
0.00637625585672703   -0.03317218722407882   -0.002757426981077577
3.8053195883509245e-05   -0.03328347620564786   -0.002678073522868939
0.005818425318661526   -0.021205586090139984   -0.002415414279724602
0.005814588910567949   -0.02126099779984585   -0.0022926515667829376
0.006362770168692561   -0.03329193002643237   -0.002708736237228957
0.012057536517446756   -0.021478729588410534   -0.0022937140321157468
0.005833789072641793   -0.021254434862753722   -0.002348439535174907
0.006362770168692561   -0.03329193002643237   -0.002708736237228957
0.013387363724102751   -0.033393817599952136   -0.00274457610945489
0.012057536517446756   -0.021478729588410534   -0.0022937140321157468
0.013374252631416922   -0.03334613491218999   -0.0027976105033437706
0.005833789072641793   -0.021254434862753722   -0.002348439535174907
0.011951826821837763   -0.021441435387578447   -0.002439386595245004
0.013374252631416922   -0.03334613491218999   -0.0027976105033437706
0.012057536517446756   -0.021478729588410534   -0.0022937140321157468
0.005833789072641793   -0.021254434862753722   -0.002348439535174907
0.013374252631416922   -0.03334613491218999   -0.0027976105033437706
0.006389156583850627   -0.033277962889702896   -0.0027129952551411375
0.006362770168692561   -0.03329193002643237   -0.002708736237228957
0.005833789072641793   -0.021254434862753722   -0.002348439535174907
0.013374252631416922   -0.03334613491218999   -0.0027976105033437706
0.006362770168692561   -0.03329193002643237   -0.002708736237228957
0.012057536517446756   -0.021478729588410534   -0.0022937140321157468
0.005833789072641793   -0.021254434862753722   -0.002348439535174907
0.006389156583850627   -0.033277962889702896   -0.0027129952551411375
0.011951826821837763   -0.021441435387578447   -0.002439386595245004
0.005818425318661526   -0.021205586090139984   -0.002415414279724602
0.006389156583850627   -0.033277962889702896   -0.0027129952551411375
0.013374252631416922   -0.03334613491218999   -0.0027976105033437706
0.011951826821837763   -0.021441435387578447   -0.002439386595245004
0.013340093989983556   -0.03328600419623164   -0.0028698214280329574
0.005818425318661526   -0.021205586090139984   -0.002415414279724602
0.011846421421258647   -0.02136619474137285   -0.002605231296433033
0.013340093989983556   -0.03328600419623164   -0.0028698214280329574
0.011951826821837763   -0.021441435387578447   -0.002439386595245004
0.005818425318661526   -0.021205586090139984   -0.002415414279724602
0.013340093989983556   -0.03328600419623164   -0.0028698214280329574
0.006390683979897899   -0.0332411275639356   -0.002729075984863876
0.006389156583850627   -0.033277962889702896   -0.0027129952551411375
0.005818425318661526   -0.021205586090139984   -0.002415414279724602
0.013340093989983556   -0.03328600419623164   -0.0028698214280329574
0.006389156583850627   -0.033277962889702896   -0.0027129952551411375
0.011951826821837763   -0.021441435387578447   -0.002439386595245004
0.005818425318661526   -0.021205586090139984   -0.002415414279724602
0.006390683979897899   -0.0332411275639356   -0.002729075984863876
0.011846421421258647   -0.02136619474137285   -0.002605231296433033
0.005795741982312321   -0.0211039987363479   -0.002494899599450152
0.006390683979897899   -0.0332411275639356   -0.002729075984863876
0.013340093989983556   -0.03328600419623164   -0.0028698214280329574
0.011846421421258647   -0.02136619474137285   -0.002605231296433033
0.013248003640493479   -0.03317123211923599   -0.002961069904745265
0.005795741982312321   -0.0211039987363479   -0.002494899599450152
0.011659687416017118   -0.021208201928154306   -0.0027912694000120962
0.013248003640493479   -0.03317123211923599   -0.002961069904745265
0.011846421421258647   -0.02136619474137285   -0.002605231296433033
0.005795741982312321   -0.0211039987363479   -0.002494899599450152
0.013248003640493479   -0.03317123211923599   -0.002961069904745265
0.00637625585672703   -0.03317218722407882   -0.002757426981077577
0.006390683979897899   -0.0332411275639356   -0.002729075984863876
0.005795741982312321   -0.0211039987363479   -0.002494899599450152
0.013248003640493479   -0.03317123211923599   -0.002961069904745265
0.006390683979897899   -0.0332411275639356   -0.002729075984863876
0.011846421421258647   -0.02136619474137285   -0.002605231296433033
-0.019212711513581407   -0.03353025167563714   -0.0034434476913506804
-0.021107119786360578   -0.04654222575788285   -0.0035060427756963934
-0.012470042383608418   -0.03334727754843073   -0.0031113573937228893
-0.019406183272878096   -0.033721487240005545   -0.0032565543455457587
-0.021107119786360578   -0.04654222575788285   -0.0035060427756963934
-0.013867884583605015   -0.04646758089845936   -0.0032413956408131124
-0.012470042383608418   -0.03334727754843073   -0.0031113573937228893
-0.013862764179851786   -0.04658821796662638   -0.003162247823997229
-0.019406183272878096   -0.033721487240005545   -0.0032565543455457587
-0.012485534012123834   -0.03348865046668299   -0.002982363902209019
-0.013862764179851786   -0.04658821796662638   -0.003162247823997229
-0.012470042383608418   -0.03334727754843073   -0.0031113573937228893
-0.019406183272878096   -0.033721487240005545   -0.0032565543455457587
-0.013862764179851786   -0.04658821796662638   -0.003162247823997229
-0.021197771947691683   -0.04670437407577992   -0.003409572627953423
-0.021107119786360578   -0.04654222575788285   -0.0035060427756963934
-0.019406183272878096   -0.033721487240005545   -0.0032565543455457587
-0.013862764179851786   -0.04658821796662638   -0.003162247823997229
-0.021107119786360578   -0.04654222575788285   -0.0035060427756963934
-0.012470042383608418   -0.03334727754843073   -0.0031113573937228893
-0.019406183272878096   -0.033721487240005545   -0.0032565543455457587
-0.021197771947691683   -0.04670437407577992   -0.003409572627953423
-0.012485534012123834   -0.03348865046668299   -0.002982363902209019
-0.019517437923712935   -0.033856745846935966   -0.0030875741909365804
-0.021197771947691683   -0.04670437407577992   -0.003409572627953423
-0.013862764179851786   -0.04658821796662638   -0.003162247823997229
-0.012485534012123834   -0.03348865046668299   -0.002982363902209019
-0.013844571669197104   -0.04669946790484578   -0.0030962409698227227
-0.019517437923712935   -0.033856745846935966   -0.0030875741909365804
-0.012496743549194033   -0.03360069248628519   -0.00286621615306428
-0.013844571669197104   -0.04669946790484578   -0.0030962409698227227
-0.012485534012123834   -0.03348865046668299   -0.002982363902209019
-0.019517437923712935   -0.033856745846935966   -0.0030875741909365804
-0.013844571669197104   -0.04669946790484578   -0.0030962409698227227
-0.02122696407838229   -0.04683658024707741   -0.003332017794926642
-0.021197771947691683   -0.04670437407577992   -0.003409572627953423
-0.019517437923712935   -0.033856745846935966   -0.0030875741909365804
-0.013844571669197104   -0.04669946790484578   -0.0030962409698227227
-0.021197771947691683   -0.04670437407577992   -0.003409572627953423
-0.012485534012123834   -0.03348865046668299   -0.002982363902209019
-0.019517437923712935   -0.033856745846935966   -0.0030875741909365804
-0.02122696407838229   -0.04683658024707741   -0.003332017794926642
-0.012496743549194033   -0.03360069248628519   -0.00286621615306428
-0.019632076158831765   -0.03397791484190089   -0.0029386337087409634
-0.02122696407838229   -0.04683658024707741   -0.003332017794926642
-0.013844571669197104   -0.04669946790484578   -0.0030962409698227227
-0.012496743549194033   -0.03360069248628519   -0.00286621615306428
-0.013799140459816847   -0.0468098072914924   -0.003042457492327189
-0.019632076158831765   -0.03397791484190089   -0.0029386337087409634
-0.012471385787322894   -0.03369269115663192   -0.0027612095907343774
-0.013799140459816847   -0.0468098072914924   -0.003042457492327189
-0.012496743549194033   -0.03360069248628519   -0.00286621615306428
-0.019632076158831765   -0.03397791484190089   -0.0029386337087409634
-0.013799140459816847   -0.0468098072914924   -0.003042457492327189
-0.021237096000232134   -0.0469801067339026   -0.0032749992906279516
-0.02122696407838229   -0.04683658024707741   -0.003332017794926642
-0.019632076158831765   -0.03397791484190089   -0.0029386337087409634
-0.013799140459816847   -0.0468098072914924   -0.003042457492327189
-0.02122696407838229   -0.04683658024707741   -0.003332017794926642
-0.012496743549194033   -0.03360069248628519   -0.00286621615306428
-0.012470042383608418   -0.03334727754843073   -0.0031113573937228893
-0.013867884583605015   -0.04646758089845936   -0.0032413956408131124
-0.0061485591624125605   -0.03325275850458025   -0.0028813896980016194
-0.012485534012123834   -0.03348865046668299   -0.002982363902209019
-0.013867884583605015   -0.04646758089845936   -0.0032413956408131124
-0.007143049391400134   -0.046424819552748076   -0.0030612132093335545
-0.0061485591624125605   -0.03325275850458025   -0.0028813896980016194
-0.007118315074426631   -0.0464978669898623   -0.002992266452305585
-0.012485534012123834   -0.03348865046668299   -0.002982363902209019
-0.006137356768132596   -0.03334150079865888   -0.002796278213716652
-0.007118315074426631   -0.0464978669898623   -0.002992266452305585
-0.0061485591624125605   -0.03325275850458025   -0.0028813896980016194
-0.012485534012123834   -0.03348865046668299   -0.002982363902209019
-0.007118315074426631   -0.0464978669898623   -0.002992266452305585
-0.013862764179851786   -0.04658821796662638   -0.003162247823997229
-0.013867884583605015   -0.04646758089845936   -0.0032413956408131124
-0.012485534012123834   -0.03348865046668299   -0.002982363902209019
-0.007118315074426631   -0.0464978669898623   -0.002992266452305585
-0.013867884583605015   -0.04646758089845936   -0.0032413956408131124
-0.0061485591624125605   -0.03325275850458025   -0.0028813896980016194
-0.012485534012123834   -0.03348865046668299   -0.002982363902209019
-0.013862764179851786   -0.04658821796662638   -0.003162247823997229
-0.006137356768132596   -0.03334150079865888   -0.002796278213716652
-0.012496743549194033   -0.03360069248628519   -0.00286621615306428
-0.013862764179851786   -0.04658821796662638   -0.003162247823997229
-0.007118315074426631   -0.0464978669898623   -0.002992266452305585
-0.006137356768132596   -0.03334150079865888   -0.002796278213716652
-0.007087891014548084   -0.046564880611016726   -0.0029364732950027464
-0.012496743549194033   -0.03360069248628519   -0.00286621615306428
-0.006121872571554427   -0.033405668176384025   -0.0027238217809613173
-0.007087891014548084   -0.046564880611016726   -0.0029364732950027464
-0.006137356768132596   -0.03334150079865888   -0.002796278213716652
-0.012496743549194033   -0.03360069248628519   -0.00286621615306428
-0.007087891014548084   -0.046564880611016726   -0.0029364732950027464
-0.013844571669197104   -0.04669946790484578   -0.0030962409698227227
-0.013862764179851786   -0.04658821796662638   -0.003162247823997229
-0.012496743549194033   -0.03360069248628519   -0.00286621615306428
-0.007087891014548084   -0.046564880611016726   -0.0029364732950027464
-0.013862764179851786   -0.04658821796662638   -0.003162247823997229
-0.006137356768132596   -0.03334150079865888   -0.002796278213716652
-0.012496743549194033   -0.03360069248628519   -0.00286621615306428
-0.013844571669197104   -0.04669946790484578   -0.0030962409698227227
-0.006121872571554427   -0.033405668176384025   -0.0027238217809613173
-0.012471385787322894   -0.03369269115663192   -0.0027612095907343774
-0.013844571669197104   -0.04669946790484578   -0.0030962409698227227
-0.007087891014548084   -0.046564880611016726   -0.0029364732950027464
-0.006121872571554427   -0.033405668176384025   -0.0027238217809613173
-0.007051263079708005   -0.046626080101951996   -0.0028941482075628953
-0.012471385787322894   -0.03369269115663192   -0.0027612095907343774
-0.0060985449044717996   -0.033445680758730625   -0.0026642283781379904
-0.007051263079708005   -0.046626080101951996   -0.0028941482075628953
-0.006121872571554427   -0.033405668176384025   -0.0027238217809613173
-0.012471385787322894   -0.03369269115663192   -0.0027612095907343774
-0.007051263079708005   -0.046626080101951996   -0.0028941482075628953
-0.013799140459816847   -0.0468098072914924   -0.003042457492327189
-0.013844571669197104   -0.04669946790484578   -0.0030962409698227227
-0.012471385787322894   -0.03369269115663192   -0.0027612095907343774
-0.007051263079708005   -0.046626080101951996   -0.0028941482075628953
-0.013844571669197104   -0.04669946790484578   -0.0030962409698227227
-0.006121872571554427   -0.033405668176384025   -0.0027238217809613173
-0.0061485591624125605   -0.03325275850458025   -0.0028813896980016194
-0.007143049391400134   -0.046424819552748076   -0.0030612132093335545
1.3772403397781804e-06   -0.033236534966408215   -0.002747368705701602
-0.006137356768132596   -0.03334150079865888   -0.002796278213716652
-0.007143049391400134   -0.046424819552748076   -0.0030612132093335545
-0.0006001628599426198   -0.04640037415696423   -0.0029679233585667457
1.3772403397781804e-06   -0.033236534966408215   -0.002747368705701602
-0.0005654611022264646   -0.04642496703517239   -0.002909862544144975
-0.006137356768132596   -0.03334150079865888   -0.002796278213716652
2.2882610721965e-05   -0.033272377471653694   -0.0027064746200871556
-0.0005654611022264646   -0.04642496703517239   -0.002909862544144975
1.3772403397781804e-06   -0.033236534966408215   -0.002747368705701602
-0.006137356768132596   -0.03334150079865888   -0.002796278213716652
-0.0005654611022264646   -0.04642496703517239   -0.002909862544144975
-0.007118315074426631   -0.0464978669898623   -0.002992266452305585
-0.007143049391400134   -0.046424819552748076   -0.0030612132093335545
-0.006137356768132596   -0.03334150079865888   -0.002796278213716652
-0.0005654611022264646   -0.04642496703517239   -0.002909862544144975
-0.007143049391400134   -0.046424819552748076   -0.0030612132093335545
1.3772403397781804e-06   -0.033236534966408215   -0.002747368705701602
-0.006137356768132596   -0.03334150079865888   -0.002796278213716652
-0.007118315074426631   -0.0464978669898623   -0.002992266452305585
2.2882610721965e-05   -0.033272377471653694   -0.0027064746200871556
-0.006121872571554427   -0.033405668176384025   -0.0027238217809613173
-0.007118315074426631   -0.0464978669898623   -0.002992266452305585
-0.0005654611022264646   -0.04642496703517239   -0.002909862544144975
2.2882610721965e-05   -0.033272377471653694   -0.0027064746200871556
-0.0005354586968873298   -0.04644310086463353   -0.0028648403700896902
-0.006121872571554427   -0.033405668176384025   -0.0027238217809613173
3.8053195883509245e-05   -0.03328347620564786   -0.002678073522868939
-0.0005354586968873298   -0.04644310086463353   -0.0028648403700896902
2.2882610721965e-05   -0.033272377471653694   -0.0027064746200871556
-0.006121872571554427   -0.033405668176384025   -0.0027238217809613173
-0.0005354586968873298   -0.04644310086463353   -0.0028648403700896902
-0.007087891014548084   -0.046564880611016726   -0.0029364732950027464
-0.007118315074426631   -0.0464978669898623   -0.002992266452305585
-0.006121872571554427   -0.033405668176384025   -0.0027238217809613173
-0.0005354586968873298   -0.04644310086463353   -0.0028648403700896902
-0.007118315074426631   -0.0464978669898623   -0.002992266452305585
2.2882610721965e-05   -0.033272377471653694   -0.0027064746200871556
-0.006121872571554427   -0.033405668176384025   -0.0027238217809613173
-0.007087891014548084   -0.046564880611016726   -0.0029364732950027464
3.8053195883509245e-05   -0.03328347620564786   -0.002678073522868939
-0.0060985449044717996   -0.033445680758730625   -0.0026642283781379904
-0.007087891014548084   -0.046564880611016726   -0.0029364732950027464
-0.0005354586968873298   -0.04644310086463353   -0.0028648403700896902
3.8053195883509245e-05   -0.03328347620564786   -0.002678073522868939
-0.0005126827277208373   -0.04645468375802176   -0.0028333331575218106
-0.0060985449044717996   -0.033445680758730625   -0.0026642283781379904
4.7499551556139716e-05   -0.033269492282460775   -0.002662719667567831
-0.0005126827277208373   -0.04645468375802176   -0.0028333331575218106
3.8053195883509245e-05   -0.03328347620564786   -0.002678073522868939
-0.0060985449044717996   -0.033445680758730625   -0.0026642283781379904
-0.0005126827277208373   -0.04645468375802176   -0.0028333331575218106
-0.007051263079708005   -0.046626080101951996   -0.0028941482075628953
-0.007087891014548084   -0.046564880611016726   -0.0029364732950027464
-0.0060985449044717996   -0.033445680758730625   -0.0026642283781379904
-0.0005126827277208373   -0.04645468375802176   -0.0028333331575218106
-0.007087891014548084   -0.046564880611016726   -0.0029364732950027464
3.8053195883509245e-05   -0.03328347620564786   -0.002678073522868939
1.3772403397781804e-06   -0.033236534966408215   -0.002747368705701602
-0.0006001628599426198   -0.04640037415696423   -0.0029679233585667457
0.006362770168692561   -0.03329193002643237   -0.002708736237228957
2.2882610721965e-05   -0.033272377471653694   -0.0027064746200871556
-0.0006001628599426198   -0.04640037415696423   -0.0029679233585667457
0.006142501436150457   -0.04639003627459874   -0.002962330057140452
0.006362770168692561   -0.03329193002643237   -0.002708736237228957
0.006188568969855511   -0.0463677056365209   -0.00291570297241169
2.2882610721965e-05   -0.033272377471653694   -0.0027064746200871556
0.006389156583850627   -0.033277962889702896   -0.0027129952551411375
0.006188568969855511   -0.0463677056365209   -0.00291570297241169
0.006362770168692561   -0.03329193002643237   -0.002708736237228957
2.2882610721965e-05   -0.033272377471653694   -0.0027064746200871556
0.006188568969855511   -0.0463677056365209   -0.00291570297241169
-0.0005654611022264646   -0.04642496703517239   -0.002909862544144975
-0.0006001628599426198   -0.04640037415696423   -0.0029679233585667457
2.2882610721965e-05   -0.033272377471653694   -0.0027064746200871556
0.006188568969855511   -0.0463677056365209   -0.00291570297241169
-0.0006001628599426198   -0.04640037415696423   -0.0029679233585667457
0.006362770168692561   -0.03329193002643237   -0.002708736237228957
2.2882610721965e-05   -0.033272377471653694   -0.0027064746200871556
-0.0005654611022264646   -0.04642496703517239   -0.002909862544144975
0.006389156583850627   -0.033277962889702896   -0.0027129952551411375
3.8053195883509245e-05   -0.03328347620564786   -0.002678073522868939
-0.0005654611022264646   -0.04642496703517239   -0.002909862544144975
0.006188568969855511   -0.0463677056365209   -0.00291570297241169
0.006389156583850627   -0.033277962889702896   -0.0027129952551411375
0.006219258627381144   -0.046341608498370344   -0.0028817420163489375
3.8053195883509245e-05   -0.03328347620564786   -0.002678073522868939
0.006390683979897899   -0.0332411275639356   -0.002729075984863876
0.006219258627381144   -0.046341608498370344   -0.0028817420163489375
0.006389156583850627   -0.033277962889702896   -0.0027129952551411375
3.8053195883509245e-05   -0.03328347620564786   -0.002678073522868939
0.006219258627381144   -0.046341608498370344   -0.0028817420163489375
-0.0005354586968873298   -0.04644310086463353   -0.0028648403700896902
-0.0005654611022264646   -0.04642496703517239   -0.002909862544144975
3.8053195883509245e-05   -0.03328347620564786   -0.002678073522868939
0.006219258627381144   -0.046341608498370344   -0.0028817420163489375
-0.0005654611022264646   -0.04642496703517239   -0.002909862544144975
0.006389156583850627   -0.033277962889702896   -0.0027129952551411375
3.8053195883509245e-05   -0.03328347620564786   -0.002678073522868939
-0.0005354586968873298   -0.04644310086463353   -0.0028648403700896902
0.006390683979897899   -0.0332411275639356   -0.002729075984863876
4.7499551556139716e-05   -0.033269492282460775   -0.002662719667567831
-0.0005354586968873298   -0.04644310086463353   -0.0028648403700896902
0.006219258627381144   -0.046341608498370344   -0.0028817420163489375
0.006390683979897899   -0.0332411275639356   -0.002729075984863876
0.0062252014938992805   -0.04630316187594059   -0.002860186554957395
4.7499551556139716e-05   -0.033269492282460775   -0.002662719667567831
0.00637625585672703   -0.03317218722407882   -0.002757426981077577
0.0062252014938992805   -0.04630316187594059   -0.002860186554957395
0.006390683979897899   -0.0332411275639356   -0.002729075984863876
4.7499551556139716e-05   -0.033269492282460775   -0.002662719667567831
0.0062252014938992805   -0.04630316187594059   -0.002860186554957395
-0.0005126827277208373   -0.04645468375802176   -0.0028333331575218106
-0.0005354586968873298   -0.04644310086463353   -0.0028648403700896902
4.7499551556139716e-05   -0.033269492282460775   -0.002662719667567831
0.0062252014938992805   -0.04630316187594059   -0.002860186554957395
-0.0005354586968873298   -0.04644310086463353   -0.0028648403700896902
0.006390683979897899   -0.0332411275639356   -0.002729075984863876
0.006362770168692561   -0.03329193002643237   -0.002708736237228957
0.006142501436150457   -0.04639003627459874   -0.002962330057140452
0.013387363724102751   -0.033393817599952136   -0.00274457610945489
0.006389156583850627   -0.033277962889702896   -0.0027129952551411375
0.006142501436150457   -0.04639003627459874   -0.002962330057140452
0.013449860831173275   -0.046375825076560004   -0.0030355774009626236
0.013387363724102751   -0.033393817599952136   -0.00274457610945489
0.01354021734108711   -0.04631642251484916   -0.002997508313051157
0.006389156583850627   -0.033277962889702896   -0.0027129952551411375
0.013374252631416922   -0.03334613491218999   -0.0027976105033437706
0.01354021734108711   -0.04631642251484916   -0.002997508313051157
0.013387363724102751   -0.033393817599952136   -0.00274457610945489
0.006389156583850627   -0.033277962889702896   -0.0027129952551411375
0.01354021734108711   -0.04631642251484916   -0.002997508313051157
0.006188568969855511   -0.0463677056365209   -0.00291570297241169
0.006142501436150457   -0.04639003627459874   -0.002962330057140452
0.006389156583850627   -0.033277962889702896   -0.0027129952551411375
0.01354021734108711   -0.04631642251484916   -0.002997508313051157
0.006142501436150457   -0.04639003627459874   -0.002962330057140452
0.013387363724102751   -0.033393817599952136   -0.00274457610945489
0.006389156583850627   -0.033277962889702896   -0.0027129952551411375
0.006188568969855511   -0.0463677056365209   -0.00291570297241169
0.013374252631416922   -0.03334613491218999   -0.0027976105033437706
0.006390683979897899   -0.0332411275639356   -0.002729075984863876
0.006188568969855511   -0.0463677056365209   -0.00291570297241169
0.01354021734108711   -0.04631642251484916   -0.002997508313051157
0.013374252631416922   -0.03334613491218999   -0.0027976105033437706
0.013587747577086138   -0.046269467736516814   -0.0029786802636505277
0.006390683979897899   -0.0332411275639356   -0.002729075984863876
0.013340093989983556   -0.03328600419623164   -0.0028698214280329574
0.013587747577086138   -0.046269467736516814   -0.0029786802636505277
0.013374252631416922   -0.03334613491218999   -0.0027976105033437706
0.006390683979897899   -0.0332411275639356   -0.002729075984863876
0.013587747577086138   -0.046269467736516814   -0.0029786802636505277
0.006219258627381144   -0.046341608498370344   -0.0028817420163489375
0.006188568969855511   -0.0463677056365209   -0.00291570297241169
0.006390683979897899   -0.0332411275639356   -0.002729075984863876
0.013587747577086138   -0.046269467736516814   -0.0029786802636505277
0.006188568969855511   -0.0463677056365209   -0.00291570297241169
0.013374252631416922   -0.03334613491218999   -0.0027976105033437706
0.006390683979897899   -0.0332411275639356   -0.002729075984863876
0.006219258627381144   -0.046341608498370344   -0.0028817420163489375
0.013340093989983556   -0.03328600419623164   -0.0028698214280329574
0.00637625585672703   -0.03317218722407882   -0.002757426981077577
0.006219258627381144   -0.046341608498370344   -0.0028817420163489375
0.013587747577086138   -0.046269467736516814   -0.0029786802636505277
0.013340093989983556   -0.03328600419623164   -0.0028698214280329574
0.013598678122097864   -0.04619399321620989   -0.0029794209190049307
0.00637625585672703   -0.03317218722407882   -0.002757426981077577
0.013248003640493479   -0.03317123211923599   -0.002961069904745265
0.013598678122097864   -0.04619399321620989   -0.0029794209190049307
0.013340093989983556   -0.03328600419623164   -0.0028698214280329574
0.00637625585672703   -0.03317218722407882   -0.002757426981077577
0.013598678122097864   -0.04619399321620989   -0.0029794209190049307
0.0062252014938992805   -0.04630316187594059   -0.002860186554957395
0.006219258627381144   -0.046341608498370344   -0.0028817420163489375
0.00637625585672703   -0.03317218722407882   -0.002757426981077577
0.013598678122097864   -0.04619399321620989   -0.0029794209190049307
0.006219258627381144   -0.046341608498370344   -0.0028817420163489375
0.013340093989983556   -0.03328600419623164   -0.0028698214280329574
-0.021107119786360578   -0.04654222575788285   -0.0035060427756963934
-0.021768870304183698   -0.05979157488067011   -0.0034463883710183297
-0.013867884583605015   -0.04646758089845936   -0.0032413956408131124
-0.021197771947691683   -0.04670437407577992   -0.003409572627953423
-0.021768870304183698   -0.05979157488067011   -0.0034463883710183297
-0.014536818794775704   -0.05982613548109227   -0.0032506002903237075
-0.013867884583605015   -0.04646758089845936   -0.0032413956408131124
-0.01449809297948121   -0.059925602800508154   -0.0032205654965219736
-0.021197771947691683   -0.04670437407577992   -0.003409572627953423
-0.013862764179851786   -0.04658821796662638   -0.003162247823997229
-0.01449809297948121   -0.059925602800508154   -0.0032205654965219736
-0.013867884583605015   -0.04646758089845936   -0.0032413956408131124
-0.021197771947691683   -0.04670437407577992   -0.003409572627953423
-0.01449809297948121   -0.059925602800508154   -0.0032205654965219736
-0.021744218103497148   -0.05992464335923952   -0.0034400132564168344
-0.021768870304183698   -0.05979157488067011   -0.0034463883710183297
-0.021197771947691683   -0.04670437407577992   -0.003409572627953423
-0.01449809297948121   -0.059925602800508154   -0.0032205654965219736
-0.021768870304183698   -0.05979157488067011   -0.0034463883710183297
-0.013867884583605015   -0.04646758089845936   -0.0032413956408131124
-0.021197771947691683   -0.04670437407577992   -0.003409572627953423
-0.021744218103497148   -0.05992464335923952   -0.0034400132564168344
-0.013862764179851786   -0.04658821796662638   -0.003162247823997229
-0.02122696407838229   -0.04683658024707741   -0.003332017794926642
-0.021744218103497148   -0.05992464335923952   -0.0034400132564168344
-0.01449809297948121   -0.059925602800508154   -0.0032205654965219736
-0.013862764179851786   -0.04658821796662638   -0.003162247823997229
-0.014437529824937982   -0.0600357602212525   -0.0032040858936796426
-0.02122696407838229   -0.04683658024707741   -0.003332017794926642
-0.013844571669197104   -0.04669946790484578   -0.0030962409698227227
-0.014437529824937982   -0.0600357602212525   -0.0032040858936796426
-0.013862764179851786   -0.04658821796662638   -0.003162247823997229
-0.02122696407838229   -0.04683658024707741   -0.003332017794926642
-0.014437529824937982   -0.0600357602212525   -0.0032040858936796426
-0.021678001706838004   -0.06005378851092145   -0.0034538960168207762
-0.021744218103497148   -0.05992464335923952   -0.0034400132564168344
-0.02122696407838229   -0.04683658024707741   -0.003332017794926642
-0.014437529824937982   -0.0600357602212525   -0.0032040858936796426
-0.021744218103497148   -0.05992464335923952   -0.0034400132564168344
-0.013862764179851786   -0.04658821796662638   -0.003162247823997229
-0.02122696407838229   -0.04683658024707741   -0.003332017794926642
-0.021678001706838004   -0.06005378851092145   -0.0034538960168207762
-0.013844571669197104   -0.04669946790484578   -0.0030962409698227227
-0.021237096000232134   -0.0469801067339026   -0.0032749992906279516
-0.021678001706838004   -0.06005378851092145   -0.0034538960168207762
-0.014437529824937982   -0.0600357602212525   -0.0032040858936796426
-0.013844571669197104   -0.04669946790484578   -0.0030962409698227227
-0.0143590031629816   -0.06016418926688261   -0.0032009451732213047
-0.021237096000232134   -0.0469801067339026   -0.0032749992906279516
-0.013799140459816847   -0.0468098072914924   -0.003042457492327189
-0.0143590031629816   -0.06016418926688261   -0.0032009451732213047
-0.013844571669197104   -0.04669946790484578   -0.0030962409698227227
-0.021237096000232134   -0.0469801067339026   -0.0032749992906279516
-0.0143590031629816   -0.06016418926688261   -0.0032009451732213047
-0.021570334817759287   -0.060220094274356414   -0.0034890563605569185
-0.021678001706838004   -0.06005378851092145   -0.0034538960168207762
-0.021237096000232134   -0.0469801067339026   -0.0032749992906279516
-0.0143590031629816   -0.06016418926688261   -0.0032009451732213047
-0.021678001706838004   -0.06005378851092145   -0.0034538960168207762
-0.013844571669197104   -0.04669946790484578   -0.0030962409698227227
-0.013867884583605015   -0.04646758089845936   -0.0032413956408131124
-0.014536818794775704   -0.05982613548109227   -0.0032506002903237075
-0.007143049391400134   -0.046424819552748076   -0.0030612132093335545
-0.013862764179851786   -0.04658821796662638   -0.003162247823997229
-0.014536818794775704   -0.05982613548109227   -0.0032506002903237075
-0.007912472627860028   -0.05983368747840989   -0.00312045282398074
-0.007143049391400134   -0.046424819552748076   -0.0030612132093335545
-0.007860548462065575   -0.059890771679901506   -0.0030672069264497774
-0.013862764179851786   -0.04658821796662638   -0.003162247823997229
-0.007118315074426631   -0.0464978669898623   -0.002992266452305585
-0.007860548462065575   -0.059890771679901506   -0.0030672069264497774
-0.007143049391400134   -0.046424819552748076   -0.0030612132093335545
-0.013862764179851786   -0.04658821796662638   -0.003162247823997229
-0.007860548462065575   -0.059890771679901506   -0.0030672069264497774
-0.01449809297948121   -0.059925602800508154   -0.0032205654965219736
-0.014536818794775704   -0.05982613548109227   -0.0032506002903237075
-0.013862764179851786   -0.04658821796662638   -0.003162247823997229
-0.007860548462065575   -0.059890771679901506   -0.0030672069264497774
-0.014536818794775704   -0.05982613548109227   -0.0032506002903237075
-0.007143049391400134   -0.046424819552748076   -0.0030612132093335545
-0.013862764179851786   -0.04658821796662638   -0.003162247823997229
-0.01449809297948121   -0.059925602800508154   -0.0032205654965219736
-0.007118315074426631   -0.0464978669898623   -0.002992266452305585
-0.013844571669197104   -0.04669946790484578   -0.0030962409698227227
-0.01449809297948121   -0.059925602800508154   -0.0032205654965219736
-0.007860548462065575   -0.059890771679901506   -0.0030672069264497774
-0.007118315074426631   -0.0464978669898623   -0.002992266452305585
-0.007801849024647926   -0.05996013681281601   -0.003027568821871864
-0.013844571669197104   -0.04669946790484578   -0.0030962409698227227
-0.007087891014548084   -0.046564880611016726   -0.0029364732950027464
-0.007801849024647926   -0.05996013681281601   -0.003027568821871864
-0.007118315074426631   -0.0464978669898623   -0.002992266452305585
-0.013844571669197104   -0.04669946790484578   -0.0030962409698227227
-0.007801849024647926   -0.05996013681281601   -0.003027568821871864
-0.014437529824937982   -0.0600357602212525   -0.0032040858936796426
-0.01449809297948121   -0.059925602800508154   -0.0032205654965219736
-0.013844571669197104   -0.04669946790484578   -0.0030962409698227227
-0.007801849024647926   -0.05996013681281601   -0.003027568821871864
-0.01449809297948121   -0.059925602800508154   -0.0032205654965219736
-0.007118315074426631   -0.0464978669898623   -0.002992266452305585
-0.013844571669197104   -0.04669946790484578   -0.0030962409698227227
-0.014437529824937982   -0.0600357602212525   -0.0032040858936796426
-0.007087891014548084   -0.046564880611016726   -0.0029364732950027464
-0.013799140459816847   -0.0468098072914924   -0.003042457492327189
-0.014437529824937982   -0.0600357602212525   -0.0032040858936796426
-0.007801849024647926   -0.05996013681281601   -0.003027568821871864
-0.007087891014548084   -0.046564880611016726   -0.0029364732950027464
-0.007738577748278776   -0.0600419990268352   -0.00300197800494135
-0.013799140459816847   -0.0468098072914924   -0.003042457492327189
-0.007051263079708005   -0.046626080101951996   -0.0028941482075628953
-0.007738577748278776   -0.0600419990268352   -0.00300197800494135
-0.007087891014548084   -0.046564880611016726   -0.0029364732950027464
-0.013799140459816847   -0.0468098072914924   -0.003042457492327189
-0.007738577748278776   -0.0600419990268352   -0.00300197800494135
-0.0143590031629816   -0.06016418926688261   -0.0032009451732213047
-0.014437529824937982   -0.0600357602212525   -0.0032040858936796426
-0.013799140459816847   -0.0468098072914924   -0.003042457492327189
-0.007738577748278776   -0.0600419990268352   -0.00300197800494135
-0.014437529824937982   -0.0600357602212525   -0.0032040858936796426
-0.007087891014548084   -0.046564880611016726   -0.0029364732950027464
-0.007143049391400134   -0.046424819552748076   -0.0030612132093335545
-0.007912472627860028   -0.05983368747840989   -0.00312045282398074
-0.0006001628599426198   -0.04640037415696423   -0.0029679233585667457
-0.007118315074426631   -0.0464978669898623   -0.002992266452305585
-0.007912472627860028   -0.05983368747840989   -0.00312045282398074
-0.0014755820769346698   -0.05979863063340971   -0.0030671443977539686
-0.0006001628599426198   -0.04640037415696423   -0.0029679233585667457
-0.0014141503853094804   -0.059811925407972796   -0.002991842028952351
-0.007118315074426631   -0.0464978669898623   -0.002992266452305585
-0.0005654611022264646   -0.04642496703517239   -0.002909862544144975
-0.0014141503853094804   -0.059811925407972796   -0.002991842028952351
-0.0006001628599426198   -0.04640037415696423   -0.0029679233585667457
-0.007118315074426631   -0.0464978669898623   -0.002992266452305585
-0.0014141503853094804   -0.059811925407972796   -0.002991842028952351
-0.007860548462065575   -0.059890771679901506   -0.0030672069264497774
-0.007912472627860028   -0.05983368747840989   -0.00312045282398074
-0.007118315074426631   -0.0464978669898623   -0.002992266452305585
-0.0014141503853094804   -0.059811925407972796   -0.002991842028952351
-0.007912472627860028   -0.05983368747840989   -0.00312045282398074
-0.0006001628599426198   -0.04640037415696423   -0.0029679233585667457
-0.007118315074426631   -0.0464978669898623   -0.002992266452305585
-0.007860548462065575   -0.059890771679901506   -0.0030672069264497774
-0.0005654611022264646   -0.04642496703517239   -0.002909862544144975
-0.007087891014548084   -0.046564880611016726   -0.0029364732950027464
-0.007860548462065575   -0.059890771679901506   -0.0030672069264497774
-0.0014141503853094804   -0.059811925407972796   -0.002991842028952351
-0.0005654611022264646   -0.04642496703517239   -0.002909862544144975
-0.0013560472684728405   -0.059836535783589696   -0.002930049788930327
-0.007087891014548084   -0.046564880611016726   -0.0029364732950027464
-0.0005354586968873298   -0.04644310086463353   -0.0028648403700896902
-0.0013560472684728405   -0.059836535783589696   -0.002930049788930327
-0.0005654611022264646   -0.04642496703517239   -0.002909862544144975
-0.007087891014548084   -0.046564880611016726   -0.0029364732950027464
-0.0013560472684728405   -0.059836535783589696   -0.002930049788930327
-0.007801849024647926   -0.05996013681281601   -0.003027568821871864
-0.007860548462065575   -0.059890771679901506   -0.0030672069264497774
-0.007087891014548084   -0.046564880611016726   -0.0029364732950027464
-0.0013560472684728405   -0.059836535783589696   -0.002930049788930327
-0.007860548462065575   -0.059890771679901506   -0.0030672069264497774
-0.0005654611022264646   -0.04642496703517239   -0.002909862544144975
-0.007087891014548084   -0.046564880611016726   -0.0029364732950027464
-0.007801849024647926   -0.05996013681281601   -0.003027568821871864
-0.0005354586968873298   -0.04644310086463353   -0.0028648403700896902
-0.007051263079708005   -0.046626080101951996   -0.0028941482075628953
-0.007801849024647926   -0.05996013681281601   -0.003027568821871864
-0.0013560472684728405   -0.059836535783589696   -0.002930049788930327
-0.0005354586968873298   -0.04644310086463353   -0.0028648403700896902
-0.0013067650866952973   -0.05987302516570544   -0.0028822403002485156
-0.007051263079708005   -0.046626080101951996   -0.0028941482075628953
-0.0005126827277208373   -0.04645468375802176   -0.0028333331575218106
-0.0013067650866952973   -0.05987302516570544   -0.0028822403002485156
-0.0005354586968873298   -0.04644310086463353   -0.0028648403700896902
-0.007051263079708005   -0.046626080101951996   -0.0028941482075628953
-0.0013067650866952973   -0.05987302516570544   -0.0028822403002485156
-0.007738577748278776   -0.0600419990268352   -0.00300197800494135
-0.007801849024647926   -0.05996013681281601   -0.003027568821871864
-0.007051263079708005   -0.046626080101951996   -0.0028941482075628953
-0.0013067650866952973   -0.05987302516570544   -0.0028822403002485156
-0.007801849024647926   -0.05996013681281601   -0.003027568821871864
-0.0005354586968873298   -0.04644310086463353   -0.0028648403700896902
-0.0006001628599426198   -0.04640037415696423   -0.0029679233585667457
-0.0014755820769346698   -0.05979863063340971   -0.0030671443977539686
0.006142501436150457   -0.04639003627459874   -0.002962330057140452
-0.0005654611022264646   -0.04642496703517239   -0.002909862544144975
-0.0014755820769346698   -0.05979863063340971   -0.0030671443977539686
0.005155282683449597   -0.059720676105470404   -0.0030932053342123066
0.006142501436150457   -0.04639003627459874   -0.002962330057140452
0.0052336672719315745   -0.059690042630993256   -0.002996243227680478
-0.0005654611022264646   -0.04642496703517239   -0.002909862544144975
0.006188568969855511   -0.0463677056365209   -0.00291570297241169
0.0052336672719315745   -0.059690042630993256   -0.002996243227680478
0.006142501436150457   -0.04639003627459874   -0.002962330057140452
-0.0005654611022264646   -0.04642496703517239   -0.002909862544144975
0.0052336672719315745   -0.059690042630993256   -0.002996243227680478
-0.0014141503853094804   -0.059811925407972796   -0.002991842028952351
-0.0014755820769346698   -0.05979863063340971   -0.0030671443977539686
-0.0005654611022264646   -0.04642496703517239   -0.002909862544144975
0.0052336672719315745   -0.059690042630993256   -0.002996243227680478
-0.0014755820769346698   -0.05979863063340971   -0.0030671443977539686
0.006142501436150457   -0.04639003627459874   -0.002962330057140452
-0.0005654611022264646   -0.04642496703517239   -0.002909862544144975
-0.0014141503853094804   -0.059811925407972796   -0.002991842028952351
0.006188568969855511   -0.0463677056365209   -0.00291570297241169
-0.0005354586968873298   -0.04644310086463353   -0.0028648403700896902
-0.0014141503853094804   -0.059811925407972796   -0.002991842028952351
0.0052336672719315745   -0.059690042630993256   -0.002996243227680478
0.006188568969855511   -0.0463677056365209   -0.00291570297241169
0.005306061885182883   -0.059674117528652176   -0.002912751709248502
-0.0005354586968873298   -0.04644310086463353   -0.0028648403700896902
0.006219258627381144   -0.046341608498370344   -0.0028817420163489375
0.005306061885182883   -0.059674117528652176   -0.002912751709248502
0.006188568969855511   -0.0463677056365209   -0.00291570297241169
-0.0005354586968873298   -0.04644310086463353   -0.0028648403700896902
0.005306061885182883   -0.059674117528652176   -0.002912751709248502
-0.0013560472684728405   -0.059836535783589696   -0.002930049788930327
-0.0014141503853094804   -0.059811925407972796   -0.002991842028952351
-0.0005354586968873298   -0.04644310086463353   -0.0028648403700896902
0.005306061885182883   -0.059674117528652176   -0.002912751709248502
-0.0014141503853094804   -0.059811925407972796   -0.002991842028952351
0.006188568969855511   -0.0463677056365209   -0.00291570297241169
-0.0005354586968873298   -0.04644310086463353   -0.0028648403700896902
-0.0013560472684728405   -0.059836535783589696   -0.002930049788930327
0.006219258627381144   -0.046341608498370344   -0.0028817420163489375
-0.0005126827277208373   -0.04645468375802176   -0.0028333331575218106
-0.0013560472684728405   -0.059836535783589696   -0.002930049788930327
0.005306061885182883   -0.059674117528652176   -0.002912751709248502
0.006219258627381144   -0.046341608498370344   -0.0028817420163489375
0.00534478273485521   -0.059665161816700986   -0.0028418513745360626
-0.0005126827277208373   -0.04645468375802176   -0.0028333331575218106
0.0062252014938992805   -0.04630316187594059   -0.002860186554957395
0.00534478273485521   -0.059665161816700986   -0.0028418513745360626
0.006219258627381144   -0.046341608498370344   -0.0028817420163489375
-0.0005126827277208373   -0.04645468375802176   -0.0028333331575218106
0.00534478273485521   -0.059665161816700986   -0.0028418513745360626
-0.0013067650866952973   -0.05987302516570544   -0.0028822403002485156
-0.0013560472684728405   -0.059836535783589696   -0.002930049788930327
-0.0005126827277208373   -0.04645468375802176   -0.0028333331575218106
0.00534478273485521   -0.059665161816700986   -0.0028418513745360626
-0.0013560472684728405   -0.059836535783589696   -0.002930049788930327
0.006219258627381144   -0.046341608498370344   -0.0028817420163489375
0.006142501436150457   -0.04639003627459874   -0.002962330057140452
0.005155282683449597   -0.059720676105470404   -0.0030932053342123066
0.013449860831173275   -0.046375825076560004   -0.0030355774009626236
0.006188568969855511   -0.0463677056365209   -0.00291570297241169
0.005155282683449597   -0.059720676105470404   -0.0030932053342123066
0.012255328534352027   -0.05958974644320787   -0.0032027473909123742
0.013449860831173275   -0.046375825076560004   -0.0030355774009626236
0.012460090587094009   -0.05951930302195019   -0.0030755364289852933
0.006188568969855511   -0.0463677056365209   -0.00291570297241169
0.01354021734108711   -0.04631642251484916   -0.002997508313051157
0.012460090587094009   -0.05951930302195019   -0.0030755364289852933
0.013449860831173275   -0.046375825076560004   -0.0030355774009626236
0.006188568969855511   -0.0463677056365209   -0.00291570297241169
0.012460090587094009   -0.05951930302195019   -0.0030755364289852933
0.0052336672719315745   -0.059690042630993256   -0.002996243227680478
0.005155282683449597   -0.059720676105470404   -0.0030932053342123066
0.006188568969855511   -0.0463677056365209   -0.00291570297241169
0.012460090587094009   -0.05951930302195019   -0.0030755364289852933
0.005155282683449597   -0.059720676105470404   -0.0030932053342123066
0.013449860831173275   -0.046375825076560004   -0.0030355774009626236
0.006188568969855511   -0.0463677056365209   -0.00291570297241169
0.0052336672719315745   -0.059690042630993256   -0.002996243227680478
0.01354021734108711   -0.04631642251484916   -0.002997508313051157
0.006219258627381144   -0.046341608498370344   -0.0028817420163489375
0.0052336672719315745   -0.059690042630993256   -0.002996243227680478
0.012460090587094009   -0.05951930302195019   -0.0030755364289852933
0.01354021734108711   -0.04631642251484916   -0.002997508313051157
0.012600673767837774   -0.05948514871356174   -0.0029675046979564424
0.006219258627381144   -0.046341608498370344   -0.0028817420163489375
0.013587747577086138   -0.046269467736516814   -0.0029786802636505277
0.012600673767837774   -0.05948514871356174   -0.0029675046979564424
0.01354021734108711   -0.04631642251484916   -0.002997508313051157
0.006219258627381144   -0.046341608498370344   -0.0028817420163489375
0.012600673767837774   -0.05948514871356174   -0.0029675046979564424
0.005306061885182883   -0.059674117528652176   -0.002912751709248502
0.0052336672719315745   -0.059690042630993256   -0.002996243227680478
0.006219258627381144   -0.046341608498370344   -0.0028817420163489375
0.012600673767837774   -0.05948514871356174   -0.0029675046979564424
0.0052336672719315745   -0.059690042630993256   -0.002996243227680478
0.01354021734108711   -0.04631642251484916   -0.002997508313051157
0.006219258627381144   -0.046341608498370344   -0.0028817420163489375
0.005306061885182883   -0.059674117528652176   -0.002912751709248502
0.013587747577086138   -0.046269467736516814   -0.0029786802636505277
0.0062252014938992805   -0.04630316187594059   -0.002860186554957395
0.005306061885182883   -0.059674117528652176   -0.002912751709248502
0.012600673767837774   -0.05948514871356174   -0.0029675046979564424
0.013587747577086138   -0.046269467736516814   -0.0029786802636505277
0.012725349882244894   -0.05944790429950414   -0.002879447235816683
0.0062252014938992805   -0.04630316187594059   -0.002860186554957395
0.013598678122097864   -0.04619399321620989   -0.0029794209190049307
0.012725349882244894   -0.05944790429950414   -0.002879447235816683
0.013587747577086138   -0.046269467736516814   -0.0029786802636505277
0.0062252014938992805   -0.04630316187594059   -0.002860186554957395
0.012725349882244894   -0.05944790429950414   -0.002879447235816683
0.00534478273485521   -0.059665161816700986   -0.0028418513745360626
0.005306061885182883   -0.059674117528652176   -0.002912751709248502
0.0062252014938992805   -0.04630316187594059   -0.002860186554957395
0.012725349882244894   -0.05944790429950414   -0.002879447235816683
0.005306061885182883   -0.059674117528652176   -0.002912751709248502
0.013587747577086138   -0.046269467736516814   -0.0029786802636505277
-0.021768870304183698   -0.05979157488067011   -0.0034463883710183297
-0.02118698096942967   -0.07244605024792954   -0.0032947178123402315
-0.014536818794775704   -0.05982613548109227   -0.0032506002903237075
-0.021744218103497148   -0.05992464335923952   -0.0034400132564168344
-0.02118698096942967   -0.07244605024792954   -0.0032947178123402315
-0.014477429967499034   -0.0725918573503901   -0.003176710859831294
-0.014536818794775704   -0.05982613548109227   -0.0032506002903237075
-0.014392608345314747   -0.07266614393119997   -0.0031945126992121123
-0.021744218103497148   -0.05992464335923952   -0.0034400132564168344
-0.01449809297948121   -0.059925602800508154   -0.0032205654965219736
-0.014392608345314747   -0.07266614393119997   -0.0031945126992121123
-0.014536818794775704   -0.05982613548109227   -0.0032506002903237075
-0.021744218103497148   -0.05992464335923952   -0.0034400132564168344
-0.014392608345314747   -0.07266614393119997   -0.0031945126992121123
-0.021033881263561347   -0.07254634717712027   -0.003378686828790746
-0.02118698096942967   -0.07244605024792954   -0.0032947178123402315
-0.021744218103497148   -0.05992464335923952   -0.0034400132564168344
-0.014392608345314747   -0.07266614393119997   -0.0031945126992121123
-0.02118698096942967   -0.07244605024792954   -0.0032947178123402315
-0.014536818794775704   -0.05982613548109227   -0.0032506002903237075
-0.021744218103497148   -0.05992464335923952   -0.0034400132564168344
-0.021033881263561347   -0.07254634717712027   -0.003378686828790746
-0.01449809297948121   -0.059925602800508154   -0.0032205654965219736
-0.021678001706838004   -0.06005378851092145   -0.0034538960168207762
-0.021033881263561347   -0.07254634717712027   -0.003378686828790746
-0.014392608345314747   -0.07266614393119997   -0.0031945126992121123
-0.01449809297948121   -0.059925602800508154   -0.0032205654965219736
-0.01427772396019144   -0.07277184015389514   -0.003226223170128449
-0.021678001706838004   -0.06005378851092145   -0.0034538960168207762
-0.014437529824937982   -0.0600357602212525   -0.0032040858936796426
-0.01427772396019144   -0.07277184015389514   -0.003226223170128449
-0.01449809297948121   -0.059925602800508154   -0.0032205654965219736
-0.021678001706838004   -0.06005378851092145   -0.0034538960168207762
-0.01427772396019144   -0.07277184015389514   -0.003226223170128449
-0.020859033259486685   -0.07266936046522975   -0.003484532052470708
-0.021033881263561347   -0.07254634717712027   -0.003378686828790746
-0.021678001706838004   -0.06005378851092145   -0.0034538960168207762
-0.01427772396019144   -0.07277184015389514   -0.003226223170128449
-0.021033881263561347   -0.07254634717712027   -0.003378686828790746
-0.01449809297948121   -0.059925602800508154   -0.0032205654965219736
-0.021678001706838004   -0.06005378851092145   -0.0034538960168207762
-0.020859033259486685   -0.07266936046522975   -0.003484532052470708
-0.014437529824937982   -0.0600357602212525   -0.0032040858936796426
-0.021570334817759287   -0.060220094274356414   -0.0034890563605569185
-0.020859033259486685   -0.07266936046522975   -0.003484532052470708
-0.01427772396019144   -0.07277184015389514   -0.003226223170128449
-0.014437529824937982   -0.0600357602212525   -0.0032040858936796426
-0.01415443409910575   -0.07291539049314348   -0.003272255580878935
-0.021570334817759287   -0.060220094274356414   -0.0034890563605569185
-0.0143590031629816   -0.06016418926688261   -0.0032009451732213047
-0.01415443409910575   -0.07291539049314348   -0.003272255580878935
-0.014437529824937982   -0.0600357602212525   -0.0032040858936796426
-0.021570334817759287   -0.060220094274356414   -0.0034890563605569185
-0.01415443409910575   -0.07291539049314348   -0.003272255580878935
-0.020620877698225633   -0.07285656849633333   -0.003612652416121311
-0.020859033259486685   -0.07266936046522975   -0.003484532052470708
-0.021570334817759287   -0.060220094274356414   -0.0034890563605569185
-0.01415443409910575   -0.07291539049314348   -0.003272255580878935
-0.020859033259486685   -0.07266936046522975   -0.003484532052470708
-0.014437529824937982   -0.0600357602212525   -0.0032040858936796426
-0.014536818794775704   -0.05982613548109227   -0.0032506002903237075
-0.014477429967499034   -0.0725918573503901   -0.003176710859831294
-0.007912472627860028   -0.05983368747840989   -0.00312045282398074
-0.01449809297948121   -0.059925602800508154   -0.0032205654965219736
-0.014477429967499034   -0.0725918573503901   -0.003176710859831294
-0.00846357076170431   -0.07264962826308956   -0.0031011620661865785
-0.007912472627860028   -0.05983368747840989   -0.00312045282398074
-0.00837117814243161   -0.0726882797330752   -0.0030623955296972733
-0.01449809297948121   -0.059925602800508154   -0.0032205654965219736
-0.007860548462065575   -0.059890771679901506   -0.0030672069264497774
-0.00837117814243161   -0.0726882797330752   -0.0030623955296972733
-0.007912472627860028   -0.05983368747840989   -0.00312045282398074
-0.01449809297948121   -0.059925602800508154   -0.0032205654965219736
-0.00837117814243161   -0.0726882797330752   -0.0030623955296972733
-0.014392608345314747   -0.07266614393119997   -0.0031945126992121123
-0.014477429967499034   -0.0725918573503901   -0.003176710859831294
-0.01449809297948121   -0.059925602800508154   -0.0032205654965219736
-0.00837117814243161   -0.0726882797330752   -0.0030623955296972733
-0.014477429967499034   -0.0725918573503901   -0.003176710859831294
-0.007912472627860028   -0.05983368747840989   -0.00312045282398074
-0.01449809297948121   -0.059925602800508154   -0.0032205654965219736
-0.014392608345314747   -0.07266614393119997   -0.0031945126992121123
-0.007860548462065575   -0.059890771679901506   -0.0030672069264497774
-0.014437529824937982   -0.0600357602212525   -0.0032040858936796426
-0.014392608345314747   -0.07266614393119997   -0.0031945126992121123
-0.00837117814243161   -0.0726882797330752   -0.0030623955296972733
-0.007860548462065575   -0.059890771679901506   -0.0030672069264497774
-0.008271780884237603   -0.07275713674542077   -0.003037368751026561
-0.014437529824937982   -0.0600357602212525   -0.0032040858936796426
-0.007801849024647926   -0.05996013681281601   -0.003027568821871864
-0.008271780884237603   -0.07275713674542077   -0.003037368751026561
-0.007860548462065575   -0.059890771679901506   -0.0030672069264497774
-0.014437529824937982   -0.0600357602212525   -0.0032040858936796426
-0.008271780884237603   -0.07275713674542077   -0.003037368751026561
-0.01427772396019144   -0.07277184015389514   -0.003226223170128449
-0.014392608345314747   -0.07266614393119997   -0.0031945126992121123
-0.014437529824937982   -0.0600357602212525   -0.0032040858936796426
-0.008271780884237603   -0.07275713674542077   -0.003037368751026561
-0.014392608345314747   -0.07266614393119997   -0.0031945126992121123
-0.007860548462065575   -0.059890771679901506   -0.0030672069264497774
-0.014437529824937982   -0.0600357602212525   -0.0032040858936796426
-0.01427772396019144   -0.07277184015389514   -0.003226223170128449
-0.007801849024647926   -0.05996013681281601   -0.003027568821871864
-0.0143590031629816   -0.06016418926688261   -0.0032009451732213047
-0.01427772396019144   -0.07277184015389514   -0.003226223170128449
-0.008271780884237603   -0.07275713674542077   -0.003037368751026561
-0.007801849024647926   -0.05996013681281601   -0.003027568821871864
-0.008169611795061827   -0.07285707282860208   -0.003026751774351811
-0.0143590031629816   -0.06016418926688261   -0.0032009451732213047
-0.007738577748278776   -0.0600419990268352   -0.00300197800494135
-0.008169611795061827   -0.07285707282860208   -0.003026751774351811
-0.007801849024647926   -0.05996013681281601   -0.003027568821871864
-0.0143590031629816   -0.06016418926688261   -0.0032009451732213047
-0.008169611795061827   -0.07285707282860208   -0.003026751774351811
-0.01415443409910575   -0.07291539049314348   -0.003272255580878935
-0.01427772396019144   -0.07277184015389514   -0.003226223170128449
-0.0143590031629816   -0.06016418926688261   -0.0032009451732213047
-0.008169611795061827   -0.07285707282860208   -0.003026751774351811
-0.01427772396019144   -0.07277184015389514   -0.003226223170128449
-0.007801849024647926   -0.05996013681281601   -0.003027568821871864
-0.007912472627860028   -0.05983368747840989   -0.00312045282398074
-0.00846357076170431   -0.07264962826308956   -0.0031011620661865785
-0.0014755820769346698   -0.05979863063340971   -0.0030671443977539686
-0.007860548462065575   -0.059890771679901506   -0.0030672069264497774
-0.00846357076170431   -0.07264962826308956   -0.0031011620661865785
-0.00263192934609976   -0.07260543053747263   -0.0030885226641391822
-0.0014755820769346698   -0.05979863063340971   -0.0030671443977539686
-0.002529734037514379   -0.07260639586009124   -0.0029951281180055672
-0.007860548462065575   -0.059890771679901506   -0.0030672069264497774
-0.0014141503853094804   -0.059811925407972796   -0.002991842028952351
-0.002529734037514379   -0.07260639586009124   -0.0029951281180055672
-0.0014755820769346698   -0.05979863063340971   -0.0030671443977539686
-0.007860548462065575   -0.059890771679901506   -0.0030672069264497774
-0.002529734037514379   -0.07260639586009124   -0.0029951281180055672
-0.00837117814243161   -0.0726882797330752   -0.0030623955296972733
-0.00846357076170431   -0.07264962826308956   -0.0031011620661865785
-0.007860548462065575   -0.059890771679901506   -0.0030672069264497774
-0.002529734037514379   -0.07260639586009124   -0.0029951281180055672
-0.00846357076170431   -0.07264962826308956   -0.0031011620661865785
-0.0014755820769346698   -0.05979863063340971   -0.0030671443977539686
-0.007860548462065575   -0.059890771679901506   -0.0030672069264497774
-0.00837117814243161   -0.0726882797330752   -0.0030623955296972733
-0.0014141503853094804   -0.059811925407972796   -0.002991842028952351
-0.007801849024647926   -0.05996013681281601   -0.003027568821871864
-0.00837117814243161   -0.0726882797330752   -0.0030623955296972733
-0.002529734037514379   -0.07260639586009124   -0.0029951281180055672
-0.0014141503853094804   -0.059811925407972796   -0.002991842028952351
-0.0024302231140905313   -0.0726353461032133   -0.0029155060357932286
-0.007801849024647926   -0.05996013681281601   -0.003027568821871864
-0.0013560472684728405   -0.059836535783589696   -0.002930049788930327
-0.0024302231140905313   -0.0726353461032133   -0.0029155060357932286
-0.0014141503853094804   -0.059811925407972796   -0.002991842028952351
-0.007801849024647926   -0.05996013681281601   -0.003027568821871864
-0.0024302231140905313   -0.0726353461032133   -0.0029155060357932286
-0.008271780884237603   -0.07275713674542077   -0.003037368751026561
-0.00837117814243161   -0.0726882797330752   -0.0030623955296972733
-0.007801849024647926   -0.05996013681281601   -0.003027568821871864
-0.0024302231140905313   -0.0726353461032133   -0.0029155060357932286
-0.00837117814243161   -0.0726882797330752   -0.0030623955296972733
-0.0014141503853094804   -0.059811925407972796   -0.002991842028952351
-0.007801849024647926   -0.05996013681281601   -0.003027568821871864
-0.008271780884237603   -0.07275713674542077   -0.003037368751026561
-0.0013560472684728405   -0.059836535783589696   -0.002930049788930327
-0.007738577748278776   -0.0600419990268352   -0.00300197800494135
-0.008271780884237603   -0.07275713674542077   -0.003037368751026561
-0.0024302231140905313   -0.0726353461032133   -0.0029155060357932286
-0.0013560472684728405   -0.059836535783589696   -0.002930049788930327
-0.002341454070866044   -0.0726946864913727   -0.002850135790669297
-0.007738577748278776   -0.0600419990268352   -0.00300197800494135
-0.0013067650866952973   -0.05987302516570544   -0.0028822403002485156
-0.002341454070866044   -0.0726946864913727   -0.002850135790669297
-0.0013560472684728405   -0.059836535783589696   -0.002930049788930327
-0.007738577748278776   -0.0600419990268352   -0.00300197800494135
-0.002341454070866044   -0.0726946864913727   -0.002850135790669297
-0.008169611795061827   -0.07285707282860208   -0.003026751774351811
-0.008271780884237603   -0.07275713674542077   -0.003037368751026561
-0.007738577748278776   -0.0600419990268352   -0.00300197800494135
-0.002341454070866044   -0.0726946864913727   -0.002850135790669297
-0.008271780884237603   -0.07275713674542077   -0.003037368751026561
-0.0013560472684728405   -0.059836535783589696   -0.002930049788930327
-0.0014755820769346698   -0.05979863063340971   -0.0030671443977539686
-0.00263192934609976   -0.07260543053747263   -0.0030885226641391822
0.005155282683449597   -0.059720676105470404   -0.0030932053342123066
-0.0014141503853094804   -0.059811925407972796   -0.002991842028952351
-0.00263192934609976   -0.07260543053747263   -0.0030885226641391822
0.0034011307191479817   -0.07246230504301349   -0.0031437335455170683
0.005155282683449597   -0.059720676105470404   -0.0030932053342123066
0.0035260729444592568   -0.07242304538200248   -0.0029962328120009285
-0.0014141503853094804   -0.059811925407972796   -0.002991842028952351
0.0052336672719315745   -0.059690042630993256   -0.002996243227680478
0.0035260729444592568   -0.07242304538200248   -0.0029962328120009285
0.005155282683449597   -0.059720676105470404   -0.0030932053342123066
-0.0014141503853094804   -0.059811925407972796   -0.002991842028952351
0.0035260729444592568   -0.07242304538200248   -0.0029962328120009285
-0.002529734037514379   -0.07260639586009124   -0.0029951281180055672
-0.00263192934609976   -0.07260543053747263   -0.0030885226641391822
-0.0014141503853094804   -0.059811925407972796   -0.002991842028952351
0.0035260729444592568   -0.07242304538200248   -0.0029962328120009285
-0.00263192934609976   -0.07260543053747263   -0.0030885226641391822
0.005155282683449597   -0.059720676105470404   -0.0030932053342123066
-0.0014141503853094804   -0.059811925407972796   -0.002991842028952351
-0.002529734037514379   -0.07260639586009124   -0.0029951281180055672
0.0052336672719315745   -0.059690042630993256   -0.002996243227680478
-0.0013560472684728405   -0.059836535783589696   -0.002930049788930327
-0.002529734037514379   -0.07260639586009124   -0.0029951281180055672
0.0035260729444592568   -0.07242304538200248   -0.0029962328120009285
0.0052336672719315745   -0.059690042630993256   -0.002996243227680478
0.0036541586044456123   -0.07241575387672772   -0.0028633885936730293
-0.0013560472684728405   -0.059836535783589696   -0.002930049788930327
0.005306061885182883   -0.059674117528652176   -0.002912751709248502
0.0036541586044456123   -0.07241575387672772   -0.0028633885936730293
0.0052336672719315745   -0.059690042630993256   -0.002996243227680478
-0.0013560472684728405   -0.059836535783589696   -0.002930049788930327
0.0036541586044456123   -0.07241575387672772   -0.0028633885936730293
-0.0024302231140905313   -0.0726353461032133   -0.0029155060357932286
-0.002529734037514379   -0.07260639586009124   -0.0029951281180055672
-0.0013560472684728405   -0.059836535783589696   -0.002930049788930327
0.0036541586044456123   -0.07241575387672772   -0.0028633885936730293
-0.002529734037514379   -0.07260639586009124   -0.0029951281180055672
0.0052336672719315745   -0.059690042630993256   -0.002996243227680478
-0.0013560472684728405   -0.059836535783589696   -0.002930049788930327
-0.0024302231140905313   -0.0726353461032133   -0.0029155060357932286
0.005306061885182883   -0.059674117528652176   -0.002912751709248502
-0.0013067650866952973   -0.05987302516570544   -0.0028822403002485156
-0.0024302231140905313   -0.0726353461032133   -0.0029155060357932286
0.0036541586044456123   -0.07241575387672772   -0.0028633885936730293
0.005306061885182883   -0.059674117528652176   -0.002912751709248502
0.0037392907109621816   -0.07243452601109834   -0.0027432687361041725
-0.0013067650866952973   -0.05987302516570544   -0.0028822403002485156
0.00534478273485521   -0.059665161816700986   -0.0028418513745360626
0.0037392907109621816   -0.07243452601109834   -0.0027432687361041725
0.005306061885182883   -0.059674117528652176   -0.002912751709248502
-0.0013067650866952973   -0.05987302516570544   -0.0028822403002485156
0.0037392907109621816   -0.07243452601109834   -0.0027432687361041725
-0.002341454070866044   -0.0726946864913727   -0.002850135790669297
-0.0024302231140905313   -0.0726353461032133   -0.0029155060357932286
-0.0013067650866952973   -0.05987302516570544   -0.0028822403002485156
0.0037392907109621816   -0.07243452601109834   -0.0027432687361041725
-0.0024302231140905313   -0.0726353461032133   -0.0029155060357932286
0.005306061885182883   -0.059674117528652176   -0.002912751709248502
0.005155282683449597   -0.059720676105470404   -0.0030932053342123066
0.0034011307191479817   -0.07246230504301349   -0.0031437335455170683
0.012255328534352027   -0.05958974644320787   -0.0032027473909123742
0.0052336672719315745   -0.059690042630993256   -0.002996243227680478
0.0034011307191479817   -0.07246230504301349   -0.0031437335455170683
0.009820122919980245   -0.0722162648914864   -0.0032865049343629277
0.012255328534352027   -0.05958974644320787   -0.0032027473909123742
0.010152503409970213   -0.07213525881951424   -0.003071921871615871
0.0052336672719315745   -0.059690042630993256   -0.002996243227680478
0.012460090587094009   -0.05951930302195019   -0.0030755364289852933
0.010152503409970213   -0.07213525881951424   -0.003071921871615871
0.012255328534352027   -0.05958974644320787   -0.0032027473909123742
0.0052336672719315745   -0.059690042630993256   -0.002996243227680478
0.010152503409970213   -0.07213525881951424   -0.003071921871615871
0.0035260729444592568   -0.07242304538200248   -0.0029962328120009285
0.0034011307191479817   -0.07246230504301349   -0.0031437335455170683
0.0052336672719315745   -0.059690042630993256   -0.002996243227680478
0.010152503409970213   -0.07213525881951424   -0.003071921871615871
0.0034011307191479817   -0.07246230504301349   -0.0031437335455170683
0.012255328534352027   -0.05958974644320787   -0.0032027473909123742
0.0052336672719315745   -0.059690042630993256   -0.002996243227680478
0.0035260729444592568   -0.07242304538200248   -0.0029962328120009285
0.012460090587094009   -0.05951930302195019   -0.0030755364289852933
0.005306061885182883   -0.059674117528652176   -0.002912751709248502
0.0035260729444592568   -0.07242304538200248   -0.0029962328120009285
0.010152503409970213   -0.07213525881951424   -0.003071921871615871
0.012460090587094009   -0.05951930302195019   -0.0030755364289852933
0.01039856650701382   -0.07211301425072236   -0.002876825781655988
0.005306061885182883   -0.059674117528652176   -0.002912751709248502
0.012600673767837774   -0.05948514871356174   -0.0029675046979564424
0.01039856650701382   -0.07211301425072236   -0.002876825781655988
0.012460090587094009   -0.05951930302195019   -0.0030755364289852933
0.005306061885182883   -0.059674117528652176   -0.002912751709248502
0.01039856650701382   -0.07211301425072236   -0.002876825781655988
0.0036541586044456123   -0.07241575387672772   -0.0028633885936730293
0.0035260729444592568   -0.07242304538200248   -0.0029962328120009285
0.005306061885182883   -0.059674117528652176   -0.002912751709248502
0.01039856650701382   -0.07211301425072236   -0.002876825781655988
0.0035260729444592568   -0.07242304538200248   -0.0029962328120009285
0.012460090587094009   -0.05951930302195019   -0.0030755364289852933
0.005306061885182883   -0.059674117528652176   -0.002912751709248502
0.0036541586044456123   -0.07241575387672772   -0.0028633885936730293
0.012600673767837774   -0.05948514871356174   -0.0029675046979564424
0.00534478273485521   -0.059665161816700986   -0.0028418513745360626
0.0036541586044456123   -0.07241575387672772   -0.0028633885936730293
0.01039856650701382   -0.07211301425072236   -0.002876825781655988
0.012600673767837774   -0.05948514871356174   -0.0029675046979564424
0.010647914716064194   -0.07211277732513735   -0.002702101541483906
0.00534478273485521   -0.059665161816700986   -0.0028418513745360626
0.012725349882244894   -0.05944790429950414   -0.002879447235816683
0.010647914716064194   -0.07211277732513735   -0.002702101541483906
0.012600673767837774   -0.05948514871356174   -0.0029675046979564424
0.00534478273485521   -0.059665161816700986   -0.0028418513745360626
0.010647914716064194   -0.07211277732513735   -0.002702101541483906
0.0037392907109621816   -0.07243452601109834   -0.0027432687361041725
0.0036541586044456123   -0.07241575387672772   -0.0028633885936730293
0.00534478273485521   -0.059665161816700986   -0.0028418513745360626
0.010647914716064194   -0.07211277732513735   -0.002702101541483906
0.0036541586044456123   -0.07241575387672772   -0.0028633885936730293
0.012600673767837774   -0.05948514871356174   -0.0029675046979564424
-0.02118698096942967   -0.07244605024792954   -0.0032947178123402315
-0.019335285125662707   -0.08364545638091085   -0.0030721750665555617
-0.014477429967499034   -0.0725918573503901   -0.003176710859831294
-0.021033881263561347   -0.07254634717712027   -0.003378686828790746
-0.019335285125662707   -0.08364545638091085   -0.0030721750665555617
-0.013687774018713678   -0.08390869994709699   -0.0030530858131055335
-0.014477429967499034   -0.0725918573503901   -0.003176710859831294
-0.013546712029690633   -0.08394678851072063   -0.0031153048074543197
-0.021033881263561347   -0.07254634717712027   -0.003378686828790746
-0.014392608345314747   -0.07266614393119997   -0.0031945126992121123
-0.013546712029690633   -0.08394678851072063   -0.0031153048074543197
-0.014477429967499034   -0.0725918573503901   -0.003176710859831294
-0.021033881263561347   -0.07254634717712027   -0.003378686828790746
-0.013546712029690633   -0.08394678851072063   -0.0031153048074543197
-0.019041625863507185   -0.08370199694612465   -0.0032462885898742392
-0.019335285125662707   -0.08364545638091085   -0.0030721750665555617
-0.021033881263561347   -0.07254634717712027   -0.003378686828790746
-0.013546712029690633   -0.08394678851072063   -0.0031153048074543197
-0.019335285125662707   -0.08364545638091085   -0.0030721750665555617
-0.014477429967499034   -0.0725918573503901   -0.003176710859831294
-0.021033881263561347   -0.07254634717712027   -0.003378686828790746
-0.019041625863507185   -0.08370199694612465   -0.0032462885898742392
-0.014392608345314747   -0.07266614393119997   -0.0031945126992121123
-0.020859033259486685   -0.07266936046522975   -0.003484532052470708
-0.019041625863507185   -0.08370199694612465   -0.0032462885898742392
-0.013546712029690633   -0.08394678851072063   -0.0031153048074543197
-0.014392608345314747   -0.07266614393119997   -0.0031945126992121123
-0.013369540968471512   -0.08403797311497102   -0.0031916488541798185
-0.020859033259486685   -0.07266936046522975   -0.003484532052470708
-0.01427772396019144   -0.07277184015389514   -0.003226223170128449
-0.013369540968471512   -0.08403797311497102   -0.0031916488541798185
-0.014392608345314747   -0.07266614393119997   -0.0031945126992121123
-0.020859033259486685   -0.07266936046522975   -0.003484532052470708
-0.013369540968471512   -0.08403797311497102   -0.0031916488541798185
-0.018748636926365924   -0.08380900547386094   -0.003443402868786952
-0.019041625863507185   -0.08370199694612465   -0.0032462885898742392
-0.020859033259486685   -0.07266936046522975   -0.003484532052470708
-0.013369540968471512   -0.08403797311497102   -0.0031916488541798185
-0.019041625863507185   -0.08370199694612465   -0.0032462885898742392
-0.014392608345314747   -0.07266614393119997   -0.0031945126992121123
-0.020859033259486685   -0.07266936046522975   -0.003484532052470708
-0.018748636926365924   -0.08380900547386094   -0.003443402868786952
-0.01427772396019144   -0.07277184015389514   -0.003226223170128449
-0.020620877698225633   -0.07285656849633333   -0.003612652416121311
-0.018748636926365924   -0.08380900547386094   -0.003443402868786952
-0.013369540968471512   -0.08403797311497102   -0.0031916488541798185
-0.01427772396019144   -0.07277184015389514   -0.003226223170128449
-0.013194715160822816   -0.08418743160332912   -0.0032819855589444175
-0.020620877698225633   -0.07285656849633333   -0.003612652416121311
-0.01415443409910575   -0.07291539049314348   -0.003272255580878935
-0.013194715160822816   -0.08418743160332912   -0.0032819855589444175
-0.01427772396019144   -0.07277184015389514   -0.003226223170128449
-0.020620877698225633   -0.07285656849633333   -0.003612652416121311
-0.013194715160822816   -0.08418743160332912   -0.0032819855589444175
-0.018373315488379137   -0.08400854382110869   -0.003663088023330812
-0.018748636926365924   -0.08380900547386094   -0.003443402868786952
-0.020620877698225633   -0.07285656849633333   -0.003612652416121311
-0.013194715160822816   -0.08418743160332912   -0.0032819855589444175
-0.018748636926365924   -0.08380900547386094   -0.003443402868786952
-0.01427772396019144   -0.07277184015389514   -0.003226223170128449
-0.014477429967499034   -0.0725918573503901   -0.003176710859831294
-0.013687774018713678   -0.08390869994709699   -0.0030530858131055335
-0.00846357076170431   -0.07264962826308956   -0.0031011620661865785
-0.014392608345314747   -0.07266614393119997   -0.0031945126992121123
-0.013687774018713678   -0.08390869994709699   -0.0030530858131055335
-0.008798669638733577   -0.08403215530779674   -0.0030454664293669627
-0.00846357076170431   -0.07264962826308956   -0.0031011620661865785
-0.00865391450098518   -0.08404466847154012   -0.003017660007762776
-0.014392608345314747   -0.07266614393119997   -0.0031945126992121123
-0.00837117814243161   -0.0726882797330752   -0.0030623955296972733
-0.00865391450098518   -0.08404466847154012   -0.003017660007762776
-0.00846357076170431   -0.07264962826308956   -0.0031011620661865785
-0.014392608345314747   -0.07266614393119997   -0.0031945126992121123
-0.00865391450098518   -0.08404466847154012   -0.003017660007762776
-0.013546712029690633   -0.08394678851072063   -0.0031153048074543197
-0.013687774018713678   -0.08390869994709699   -0.0030530858131055335
-0.014392608345314747   -0.07266614393119997   -0.0031945126992121123
-0.00865391450098518   -0.08404466847154012   -0.003017660007762776
-0.013687774018713678   -0.08390869994709699   -0.0030530858131055335
-0.00846357076170431   -0.07264962826308956   -0.0031011620661865785
-0.014392608345314747   -0.07266614393119997   -0.0031945126992121123
-0.013546712029690633   -0.08394678851072063   -0.0031153048074543197
-0.00837117814243161   -0.0726882797330752   -0.0030623955296972733
-0.01427772396019144   -0.07277184015389514   -0.003226223170128449
-0.013546712029690633   -0.08394678851072063   -0.0031153048074543197
-0.00865391450098518   -0.08404466847154012   -0.003017660007762776
-0.00837117814243161   -0.0726882797330752   -0.0030623955296972733
-0.008504520567828997   -0.08410458565729557   -0.003003560591158879
-0.01427772396019144   -0.07277184015389514   -0.003226223170128449
-0.008271780884237603   -0.07275713674542077   -0.003037368751026561
-0.008504520567828997   -0.08410458565729557   -0.003003560591158879
-0.00837117814243161   -0.0726882797330752   -0.0030623955296972733
-0.01427772396019144   -0.07277184015389514   -0.003226223170128449
-0.008504520567828997   -0.08410458565729557   -0.003003560591158879
-0.013369540968471512   -0.08403797311497102   -0.0031916488541798185
-0.013546712029690633   -0.08394678851072063   -0.0031153048074543197
-0.01427772396019144   -0.07277184015389514   -0.003226223170128449
-0.008504520567828997   -0.08410458565729557   -0.003003560591158879
-0.013546712029690633   -0.08394678851072063   -0.0031153048074543197
-0.00837117814243161   -0.0726882797330752   -0.0030623955296972733
-0.01427772396019144   -0.07277184015389514   -0.003226223170128449
-0.013369540968471512   -0.08403797311497102   -0.0031916488541798185
-0.008271780884237603   -0.07275713674542077   -0.003037368751026561
-0.01415443409910575   -0.07291539049314348   -0.003272255580878935
-0.013369540968471512   -0.08403797311497102   -0.0031916488541798185
-0.008504520567828997   -0.08410458565729557   -0.003003560591158879
-0.008271780884237603   -0.07275713674542077   -0.003037368751026561
-0.008355376706371036   -0.08421471406533573   -0.0030029880213991752
-0.01415443409910575   -0.07291539049314348   -0.003272255580878935
-0.008169611795061827   -0.07285707282860208   -0.003026751774351811
-0.008355376706371036   -0.08421471406533573   -0.0030029880213991752
-0.008271780884237603   -0.07275713674542077   -0.003037368751026561
-0.01415443409910575   -0.07291539049314348   -0.003272255580878935
-0.008355376706371036   -0.08421471406533573   -0.0030029880213991752
-0.013194715160822816   -0.08418743160332912   -0.0032819855589444175
-0.013369540968471512   -0.08403797311497102   -0.0031916488541798185
-0.01415443409910575   -0.07291539049314348   -0.003272255580878935
-0.008355376706371036   -0.08421471406533573   -0.0030029880213991752
-0.013369540968471512   -0.08403797311497102   -0.0031916488541798185
-0.008271780884237603   -0.07275713674542077   -0.003037368751026561
-0.00846357076170431   -0.07264962826308956   -0.0031011620661865785
-0.008798669638733577   -0.08403215530779674   -0.0030454664293669627
-0.00263192934609976   -0.07260543053747263   -0.0030885226641391822
-0.00837117814243161   -0.0726882797330752   -0.0030623955296972733
-0.008798669638733577   -0.08403215530779674   -0.0030454664293669627
-0.004071974102933677   -0.08401003332787337   -0.0030804233017278316
-0.00263192934609976   -0.07260543053747263   -0.0030885226641391822
-0.003913413837734468   -0.08399383388264861   -0.002965753134860794
-0.00837117814243161   -0.0726882797330752   -0.0030623955296972733
-0.002529734037514379   -0.07260639586009124   -0.0029951281180055672
-0.003913413837734468   -0.08399383388264861   -0.002965753134860794
-0.00263192934609976   -0.07260543053747263   -0.0030885226641391822
-0.00837117814243161   -0.0726882797330752   -0.0030623955296972733
-0.003913413837734468   -0.08399383388264861   -0.002965753134860794
-0.00865391450098518   -0.08404466847154012   -0.003017660007762776
-0.008798669638733577   -0.08403215530779674   -0.0030454664293669627
-0.00837117814243161   -0.0726882797330752   -0.0030623955296972733
-0.003913413837734468   -0.08399383388264861   -0.002965753134860794
-0.008798669638733577   -0.08403215530779674   -0.0030454664293669627
-0.00263192934609976   -0.07260543053747263   -0.0030885226641391822
-0.00837117814243161   -0.0726882797330752   -0.0030623955296972733
-0.00865391450098518   -0.08404466847154012   -0.003017660007762776
-0.002529734037514379   -0.07260639586009124   -0.0029951281180055672
-0.008271780884237603   -0.07275713674542077   -0.003037368751026561
-0.00865391450098518   -0.08404466847154012   -0.003017660007762776
-0.003913413837734468   -0.08399383388264861   -0.002965753134860794
-0.002529734037514379   -0.07260639586009124   -0.0029951281180055672
-0.003759545423780821   -0.08402048311909932   -0.0028656933581581875
-0.008271780884237603   -0.07275713674542077   -0.003037368751026561
-0.0024302231140905313   -0.0726353461032133   -0.0029155060357932286
-0.003759545423780821   -0.08402048311909932   -0.0028656933581581875
-0.002529734037514379   -0.07260639586009124   -0.0029951281180055672
-0.008271780884237603   -0.07275713674542077   -0.003037368751026561
-0.003759545423780821   -0.08402048311909932   -0.0028656933581581875
-0.008504520567828997   -0.08410458565729557   -0.003003560591158879
-0.00865391450098518   -0.08404466847154012   -0.003017660007762776
-0.008271780884237603   -0.07275713674542077   -0.003037368751026561
-0.003759545423780821   -0.08402048311909932   -0.0028656933581581875
-0.00865391450098518   -0.08404466847154012   -0.003017660007762776
-0.002529734037514379   -0.07260639586009124   -0.0029951281180055672
-0.008271780884237603   -0.07275713674542077   -0.003037368751026561
-0.008504520567828997   -0.08410458565729557   -0.003003560591158879
-0.0024302231140905313   -0.0726353461032133   -0.0029155060357932286
-0.008169611795061827   -0.07285707282860208   -0.003026751774351811
-0.008504520567828997   -0.08410458565729557   -0.003003560591158879
-0.003759545423780821   -0.08402048311909932   -0.0028656933581581875
-0.0024302231140905313   -0.0726353461032133   -0.0029155060357932286
-0.0036205458419260594   -0.0840962267631179   -0.002778976388018665
-0.008169611795061827   -0.07285707282860208   -0.003026751774351811
-0.002341454070866044   -0.0726946864913727   -0.002850135790669297
-0.0036205458419260594   -0.0840962267631179   -0.002778976388018665
-0.0024302231140905313   -0.0726353461032133   -0.0029155060357932286
-0.008169611795061827   -0.07285707282860208   -0.003026751774351811
-0.0036205458419260594   -0.0840962267631179   -0.002778976388018665
-0.008355376706371036   -0.08421471406533573   -0.0030029880213991752
-0.008504520567828997   -0.08410458565729557   -0.003003560591158879
-0.008169611795061827   -0.07285707282860208   -0.003026751774351811
-0.0036205458419260594   -0.0840962267631179   -0.002778976388018665
-0.008504520567828997   -0.08410458565729557   -0.003003560591158879
-0.0024302231140905313   -0.0726353461032133   -0.0029155060357932286
-0.00263192934609976   -0.07260543053747263   -0.0030885226641391822
-0.004071974102933677   -0.08401003332787337   -0.0030804233017278316
0.0034011307191479817   -0.07246230504301349   -0.0031437335455170683
-0.002529734037514379   -0.07260639586009124   -0.0029951281180055672
-0.004071974102933677   -0.08401003332787337   -0.0030804233017278316
0.0008769380350044203   -0.08383713198753094   -0.003165676133483958
0.0034011307191479817   -0.07246230504301349   -0.0031437335455170683
0.0010697968969302688   -0.08378444794733117   -0.0029644491294020868
-0.002529734037514379   -0.07260639586009124   -0.0029951281180055672
0.0035260729444592568   -0.07242304538200248   -0.0029962328120009285
0.0010697968969302688   -0.08378444794733117   -0.0029644491294020868
0.0034011307191479817   -0.07246230504301349   -0.0031437335455170683
-0.002529734037514379   -0.07260639586009124   -0.0029951281180055672
0.0010697968969302688   -0.08378444794733117   -0.0029644491294020868
-0.003913413837734468   -0.08399383388264861   -0.002965753134860794
-0.004071974102933677   -0.08401003332787337   -0.0030804233017278316
-0.002529734037514379   -0.07260639586009124   -0.0029951281180055672
0.0010697968969302688   -0.08378444794733117   -0.0029644491294020868
-0.004071974102933677   -0.08401003332787337   -0.0030804233017278316
0.0034011307191479817   -0.07246230504301349   -0.0031437335455170683
-0.002529734037514379   -0.07260639586009124   -0.0029951281180055672
-0.003913413837734468   -0.08399383388264861   -0.002965753134860794
0.0035260729444592568   -0.07242304538200248   -0.0029962328120009285
-0.0024302231140905313   -0.0726353461032133   -0.0029155060357932286
-0.003913413837734468   -0.08399383388264861   -0.002965753134860794
0.0010697968969302688   -0.08378444794733117   -0.0029644491294020868
0.0035260729444592568   -0.07242304538200248   -0.0029962328120009285
0.0012729896771143127   -0.08377967323418764   -0.002781746761864177
-0.0024302231140905313   -0.0726353461032133   -0.0029155060357932286
0.0036541586044456123   -0.07241575387672772   -0.0028633885936730293
0.0012729896771143127   -0.08377967323418764   -0.002781746761864177
0.0035260729444592568   -0.07242304538200248   -0.0029962328120009285
-0.0024302231140905313   -0.0726353461032133   -0.0029155060357932286
0.0012729896771143127   -0.08377967323418764   -0.002781746761864177
-0.003759545423780821   -0.08402048311909932   -0.0028656933581581875
-0.003913413837734468   -0.08399383388264861   -0.002965753134860794
-0.0024302231140905313   -0.0726353461032133   -0.0029155060357932286
0.0012729896771143127   -0.08377967323418764   -0.002781746761864177
-0.003913413837734468   -0.08399383388264861   -0.002965753134860794
0.0035260729444592568   -0.07242304538200248   -0.0029962328120009285
-0.0024302231140905313   -0.0726353461032133   -0.0029155060357932286
-0.003759545423780821   -0.08402048311909932   -0.0028656933581581875
0.0036541586044456123   -0.07241575387672772   -0.0028633885936730293
-0.002341454070866044   -0.0726946864913727   -0.002850135790669297
-0.003759545423780821   -0.08402048311909932   -0.0028656933581581875
0.0012729896771143127   -0.08377967323418764   -0.002781746761864177
0.0036541586044456123   -0.07241575387672772   -0.0028633885936730293
0.0014215992091395303   -0.08382063516864964   -0.00261180153804232
-0.002341454070866044   -0.0726946864913727   -0.002850135790669297
0.0037392907109621816   -0.07243452601109834   -0.0027432687361041725
0.0014215992091395303   -0.08382063516864964   -0.00261180153804232
0.0036541586044456123   -0.07241575387672772   -0.0028633885936730293
-0.002341454070866044   -0.0726946864913727   -0.002850135790669297
0.0014215992091395303   -0.08382063516864964   -0.00261180153804232
-0.0036205458419260594   -0.0840962267631179   -0.002778976388018665
-0.003759545423780821   -0.08402048311909932   -0.0028656933581581875
-0.002341454070866044   -0.0726946864913727   -0.002850135790669297
0.0014215992091395303   -0.08382063516864964   -0.00261180153804232
-0.003759545423780821   -0.08402048311909932   -0.0028656933581581875
0.0036541586044456123   -0.07241575387672772   -0.0028633885936730293
0.0034011307191479817   -0.07246230504301349   -0.0031437335455170683
0.0008769380350044203   -0.08383713198753094   -0.003165676133483958
0.009820122919980245   -0.0722162648914864   -0.0032865049343629277
0.0035260729444592568   -0.07242304538200248   -0.0029962328120009285
0.0008769380350044203   -0.08383713198753094   -0.003165676133483958
0.006154429664492536   -0.08349703522620137   -0.003348198456117346
0.009820122919980245   -0.0722162648914864   -0.0032865049343629277
0.006642487436633655   -0.0833958782884724   -0.0030402498333879408
0.0035260729444592568   -0.07242304538200248   -0.0029962328120009285
0.010152503409970213   -0.07213525881951424   -0.003071921871615871
0.006642487436633655   -0.0833958782884724   -0.0030402498333879408
0.009820122919980245   -0.0722162648914864   -0.0032865049343629277
0.0035260729444592568   -0.07242304538200248   -0.0029962328120009285
0.006642487436633655   -0.0833958782884724   -0.0030402498333879408
0.0010697968969302688   -0.08378444794733117   -0.0029644491294020868
0.0008769380350044203   -0.08383713198753094   -0.003165676133483958
0.0035260729444592568   -0.07242304538200248   -0.0029962328120009285
0.006642487436633655   -0.0833958782884724   -0.0030402498333879408
0.0008769380350044203   -0.08383713198753094   -0.003165676133483958
0.009820122919980245   -0.0722162648914864   -0.0032865049343629277
0.0035260729444592568   -0.07242304538200248   -0.0029962328120009285
0.0010697968969302688   -0.08378444794733117   -0.0029644491294020868
0.010152503409970213   -0.07213525881951424   -0.003071921871615871
0.0036541586044456123   -0.07241575387672772   -0.0028633885936730293
0.0010697968969302688   -0.08378444794733117   -0.0029644491294020868
0.006642487436633655   -0.0833958782884724   -0.0030402498333879408
0.010152503409970213   -0.07213525881951424   -0.003071921871615871
0.007016662414421097   -0.08337836391654688   -0.002755271792976345
0.0036541586044456123   -0.07241575387672772   -0.0028633885936730293
0.01039856650701382   -0.07211301425072236   -0.002876825781655988
0.007016662414421097   -0.08337836391654688   -0.002755271792976345
0.010152503409970213   -0.07213525881951424   -0.003071921871615871
0.0036541586044456123   -0.07241575387672772   -0.0028633885936730293
0.007016662414421097   -0.08337836391654688   -0.002755271792976345
0.0012729896771143127   -0.08377967323418764   -0.002781746761864177
0.0010697968969302688   -0.08378444794733117   -0.0029644491294020868
0.0036541586044456123   -0.07241575387672772   -0.0028633885936730293
0.007016662414421097   -0.08337836391654688   -0.002755271792976345
0.0010697968969302688   -0.08378444794733117   -0.0029644491294020868
0.010152503409970213   -0.07213525881951424   -0.003071921871615871
0.0036541586044456123   -0.07241575387672772   -0.0028633885936730293
0.0012729896771143127   -0.08377967323418764   -0.002781746761864177
0.01039856650701382   -0.07211301425072236   -0.002876825781655988
0.0037392907109621816   -0.07243452601109834   -0.0027432687361041725
0.0012729896771143127   -0.08377967323418764   -0.002781746761864177
0.007016662414421097   -0.08337836391654688   -0.002755271792976345
0.01039856650701382   -0.07211301425072236   -0.002876825781655988
0.0074041418701807854   -0.08340829689102783   -0.0024955959361105027
0.0037392907109621816   -0.07243452601109834   -0.0027432687361041725
0.010647914716064194   -0.07211277732513735   -0.002702101541483906
0.0074041418701807854   -0.08340829689102783   -0.0024955959361105027
0.01039856650701382   -0.07211301425072236   -0.002876825781655988
0.0037392907109621816   -0.07243452601109834   -0.0027432687361041725
0.0074041418701807854   -0.08340829689102783   -0.0024955959361105027
0.0014215992091395303   -0.08382063516864964   -0.00261180153804232
0.0012729896771143127   -0.08377967323418764   -0.002781746761864177
0.0037392907109621816   -0.07243452601109834   -0.0027432687361041725
0.0074041418701807854   -0.08340829689102783   -0.0024955959361105027
0.0012729896771143127   -0.08377967323418764   -0.002781746761864177
0.01039856650701382   -0.07211301425072236   -0.002876825781655988
-0.019335285125662707   -0.08364545638091085   -0.0030721750665555617
-0.01619010782531479   -0.09243734439365067   -0.002787080914019211
-0.013687774018713678   -0.08390869994709699   -0.0030530858131055335
-0.019041625863507185   -0.08370199694612465   -0.0032462885898742392
-0.01619010782531479   -0.09243734439365067   -0.002787080914019211
-0.012171411643820301   -0.09282739660734524   -0.002904125279922026
-0.013687774018713678   -0.08390869994709699   -0.0030530858131055335
-0.011968002797389144   -0.09280722265282916   -0.0029998917333514618
-0.019041625863507185   -0.08370199694612465   -0.0032462885898742392
-0.013546712029690633   -0.08394678851072063   -0.0031153048074543197
-0.011968002797389144   -0.09280722265282916   -0.0029998917333514618
-0.013687774018713678   -0.08390869994709699   -0.0030530858131055335
-0.019041625863507185   -0.08370199694612465   -0.0032462885898742392
-0.011968002797389144   -0.09280722265282916   -0.0029998917333514618
-0.0157519672846352   -0.09242631090023026   -0.0030453060868428105
-0.01619010782531479   -0.09243734439365067   -0.002787080914019211
-0.019041625863507185   -0.08370199694612465   -0.0032462885898742392
-0.011968002797389144   -0.09280722265282916   -0.0029998917333514618
-0.01619010782531479   -0.09243734439365067   -0.002787080914019211
-0.013687774018713678   -0.08390869994709699   -0.0030530858131055335
-0.019041625863507185   -0.08370199694612465   -0.0032462885898742392
-0.0157519672846352   -0.09242631090023026   -0.0030453060868428105
-0.013546712029690633   -0.08394678851072063   -0.0031153048074543197
-0.018748636926365924   -0.08380900547386094   -0.003443402868786952
-0.0157519672846352   -0.09242631090023026   -0.0030453060868428105
-0.011968002797389144   -0.09280722265282916   -0.0029998917333514618
-0.013546712029690633   -0.08394678851072063   -0.0031153048074543197
-0.011728817220175321   -0.09286321845070886   -0.0031100998027091408
-0.018748636926365924   -0.08380900547386094   -0.003443402868786952
-0.013369540968471512   -0.08403797311497102   -0.0031916488541798185
-0.011728817220175321   -0.09286321845070886   -0.0031100998027091408
-0.013546712029690633   -0.08394678851072063   -0.0031153048074543197
-0.018748636926365924   -0.08380900547386094   -0.003443402868786952
-0.011728817220175321   -0.09286321845070886   -0.0031100998027091408
-0.015348037815989158   -0.0924955203141896   -0.003323866113891948
-0.0157519672846352   -0.09242631090023026   -0.0030453060868428105
-0.018748636926365924   -0.08380900547386094   -0.003443402868786952
-0.011728817220175321   -0.09286321845070886   -0.0031100998027091408
-0.0157519672846352   -0.09242631090023026   -0.0030453060868428105
-0.013546712029690633   -0.08394678851072063   -0.0031153048074543197
-0.018748636926365924   -0.08380900547386094   -0.003443402868786952
-0.015348037815989158   -0.0924955203141896   -0.003323866113891948
-0.013369540968471512   -0.08403797311497102   -0.0031916488541798185
-0.018373315488379137   -0.08400854382110869   -0.003663088023330812
-0.015348037815989158   -0.0924955203141896   -0.003323866113891948
-0.011728817220175321   -0.09286321845070886   -0.0031100998027091408
-0.013369540968471512   -0.08403797311497102   -0.0031916488541798185
-0.011511825941902767   -0.09299665147652336   -0.0032338246518936495
-0.018373315488379137   -0.08400854382110869   -0.003663088023330812
-0.013194715160822816   -0.08418743160332912   -0.0032819855589444175
-0.011511825941902767   -0.09299665147652336   -0.0032338246518936495
-0.013369540968471512   -0.08403797311497102   -0.0031916488541798185
-0.018373315488379137   -0.08400854382110869   -0.003663088023330812
-0.011511825941902767   -0.09299665147652336   -0.0032338246518936495
-0.014855418826751102   -0.09268053097612972   -0.0036215567146982213
-0.015348037815989158   -0.0924955203141896   -0.003323866113891948
-0.018373315488379137   -0.08400854382110869   -0.003663088023330812
-0.011511825941902767   -0.09299665147652336   -0.0032338246518936495
-0.015348037815989158   -0.0924955203141896   -0.003323866113891948
-0.013369540968471512   -0.08403797311497102   -0.0031916488541798185
-0.013687774018713678   -0.08390869994709699   -0.0030530858131055335
-0.012171411643820301   -0.09282739660734524   -0.002904125279922026
-0.008798669638733577   -0.08403215530779674   -0.0030454664293669627
-0.013546712029690633   -0.08394678851072063   -0.0031153048074543197
-0.012171411643820301   -0.09282739660734524   -0.002904125279922026
-0.008889230640868093   -0.09308061303707743   -0.0029957102536730773
-0.008798669638733577   -0.08403215530779674   -0.0030454664293669627
-0.008680450306849871   -0.09304837882564654   -0.0029664061146398115
-0.013546712029690633   -0.08394678851072063   -0.0031153048074543197
-0.00865391450098518   -0.08404466847154012   -0.003017660007762776
-0.008680450306849871   -0.09304837882564654   -0.0029664061146398115
-0.008798669638733577   -0.08403215530779674   -0.0030454664293669627
-0.013546712029690633   -0.08394678851072063   -0.0031153048074543197
-0.008680450306849871   -0.09304837882564654   -0.0029664061146398115
-0.011968002797389144   -0.09280722265282916   -0.0029998917333514618
-0.012171411643820301   -0.09282739660734524   -0.002904125279922026
-0.013546712029690633   -0.08394678851072063   -0.0031153048074543197
-0.008680450306849871   -0.09304837882564654   -0.0029664061146398115
-0.012171411643820301   -0.09282739660734524   -0.002904125279922026
-0.008798669638733577   -0.08403215530779674   -0.0030454664293669627
-0.013546712029690633   -0.08394678851072063   -0.0031153048074543197
-0.011968002797389144   -0.09280722265282916   -0.0029998917333514618
-0.00865391450098518   -0.08404466847154012   -0.003017660007762776
-0.013369540968471512   -0.08403797311497102   -0.0031916488541798185
-0.011968002797389144   -0.09280722265282916   -0.0029998917333514618
-0.008680450306849871   -0.09304837882564654   -0.0029664061146398115
-0.00865391450098518   -0.08404466847154012   -0.003017660007762776
-0.008474638776525788   -0.09308187537029798   -0.002951124884526821
-0.013369540968471512   -0.08403797311497102   -0.0031916488541798185
-0.008504520567828997   -0.08410458565729557   -0.003003560591158879
-0.008474638776525788   -0.09308187537029798   -0.002951124884526821
-0.00865391450098518   -0.08404466847154012   -0.003017660007762776
-0.013369540968471512   -0.08403797311497102   -0.0031916488541798185
-0.008474638776525788   -0.09308187537029798   -0.002951124884526821
-0.011728817220175321   -0.09286321845070886   -0.0031100998027091408
-0.011968002797389144   -0.09280722265282916   -0.0029998917333514618
-0.013369540968471512   -0.08403797311497102   -0.0031916488541798185
-0.008474638776525788   -0.09308187537029798   -0.002951124884526821
-0.011968002797389144   -0.09280722265282916   -0.0029998917333514618
-0.00865391450098518   -0.08404466847154012   -0.003017660007762776
-0.013369540968471512   -0.08403797311497102   -0.0031916488541798185
-0.011728817220175321   -0.09286321845070886   -0.0031100998027091408
-0.008504520567828997   -0.08410458565729557   -0.003003560591158879
-0.013194715160822816   -0.08418743160332912   -0.0032819855589444175
-0.011728817220175321   -0.09286321845070886   -0.0031100998027091408
-0.008474638776525788   -0.09308187537029798   -0.002951124884526821
-0.008504520567828997   -0.08410458565729557   -0.003003560591158879
-0.008285302043855934   -0.09318330060206262   -0.0029528098662260473
-0.013194715160822816   -0.08418743160332912   -0.0032819855589444175
-0.008355376706371036   -0.08421471406533573   -0.0030029880213991752
-0.008285302043855934   -0.09318330060206262   -0.0029528098662260473
-0.008504520567828997   -0.08410458565729557   -0.003003560591158879
-0.013194715160822816   -0.08418743160332912   -0.0032819855589444175
-0.008285302043855934   -0.09318330060206262   -0.0029528098662260473
-0.011511825941902767   -0.09299665147652336   -0.0032338246518936495
-0.011728817220175321   -0.09286321845070886   -0.0031100998027091408
-0.013194715160822816   -0.08418743160332912   -0.0032819855589444175
-0.008285302043855934   -0.09318330060206262   -0.0029528098662260473
-0.011728817220175321   -0.09286321845070886   -0.0031100998027091408
-0.008504520567828997   -0.08410458565729557   -0.003003560591158879
-0.008798669638733577   -0.08403215530779674   -0.0030454664293669627
-0.008889230640868093   -0.09308061303707743   -0.0029957102536730773
-0.004071974102933677   -0.08401003332787337   -0.0030804233017278316
-0.00865391450098518   -0.08404466847154012   -0.003017660007762776
-0.008889230640868093   -0.09308061303707743   -0.0029957102536730773
-0.005745716925322089   -0.09321427344380628   -0.0031037994684465437
-0.004071974102933677   -0.08401003332787337   -0.0030804233017278316
-0.005510348412429498   -0.09316784876927248   -0.0029565699489417997
-0.00865391450098518   -0.08404466847154012   -0.003017660007762776
-0.003913413837734468   -0.08399383388264861   -0.002965753134860794
-0.005510348412429498   -0.09316784876927248   -0.0029565699489417997
-0.004071974102933677   -0.08401003332787337   -0.0030804233017278316
-0.00865391450098518   -0.08404466847154012   -0.003017660007762776
-0.005510348412429498   -0.09316784876927248   -0.0029565699489417997
-0.008680450306849871   -0.09304837882564654   -0.0029664061146398115
-0.008889230640868093   -0.09308061303707743   -0.0029957102536730773
-0.00865391450098518   -0.08404466847154012   -0.003017660007762776
-0.005510348412429498   -0.09316784876927248   -0.0029565699489417997
-0.008889230640868093   -0.09308061303707743   -0.0029957102536730773
-0.004071974102933677   -0.08401003332787337   -0.0030804233017278316
-0.00865391450098518   -0.08404466847154012   -0.003017660007762776
-0.008680450306849871   -0.09304837882564654   -0.0029664061146398115
-0.003913413837734468   -0.08399383388264861   -0.002965753134860794
-0.008504520567828997   -0.08410458565729557   -0.003003560591158879
-0.008680450306849871   -0.09304837882564654   -0.0029664061146398115
-0.005510348412429498   -0.09316784876927248   -0.0029565699489417997
-0.003913413837734468   -0.08399383388264861   -0.002965753134860794
-0.005286011148789124   -0.093179188306328   -0.0028217209233944557
-0.008504520567828997   -0.08410458565729557   -0.003003560591158879
-0.003759545423780821   -0.08402048311909932   -0.0028656933581581875
-0.005286011148789124   -0.093179188306328   -0.0028217209233944557
-0.003913413837734468   -0.08399383388264861   -0.002965753134860794
-0.008504520567828997   -0.08410458565729557   -0.003003560591158879
-0.005286011148789124   -0.093179188306328   -0.0028217209233944557
-0.008474638776525788   -0.09308187537029798   -0.002951124884526821
-0.008680450306849871   -0.09304837882564654   -0.0029664061146398115
-0.008504520567828997   -0.08410458565729557   -0.003003560591158879
-0.005286011148789124   -0.093179188306328   -0.0028217209233944557
-0.008680450306849871   -0.09304837882564654   -0.0029664061146398115
-0.003913413837734468   -0.08399383388264861   -0.002965753134860794
-0.008504520567828997   -0.08410458565729557   -0.003003560591158879
-0.008474638776525788   -0.09308187537029798   -0.002951124884526821
-0.003759545423780821   -0.08402048311909932   -0.0028656933581581875
-0.008355376706371036   -0.08421471406533573   -0.0030029880213991752
-0.008474638776525788   -0.09308187537029798   -0.002951124884526821
-0.005286011148789124   -0.093179188306328   -0.0028217209233944557
-0.003759545423780821   -0.08402048311909932   -0.0028656933581581875
-0.005099488317516542   -0.09325961154504733   -0.0027070223274304446
-0.008355376706371036   -0.08421471406533573   -0.0030029880213991752
-0.0036205458419260594   -0.0840962267631179   -0.002778976388018665
-0.005099488317516542   -0.09325961154504733   -0.0027070223274304446
-0.003759545423780821   -0.08402048311909932   -0.0028656933581581875
-0.008355376706371036   -0.08421471406533573   -0.0030029880213991752
-0.005099488317516542   -0.09325961154504733   -0.0027070223274304446
-0.008285302043855934   -0.09318330060206262   -0.0029528098662260473
-0.008474638776525788   -0.09308187537029798   -0.002951124884526821
-0.008355376706371036   -0.08421471406533573   -0.0030029880213991752
-0.005099488317516542   -0.09325961154504733   -0.0027070223274304446
-0.008474638776525788   -0.09308187537029798   -0.002951124884526821
-0.003759545423780821   -0.08402048311909932   -0.0028656933581581875
-0.004071974102933677   -0.08401003332787337   -0.0030804233017278316
-0.005745716925322089   -0.09321427344380628   -0.0031037994684465437
0.0008769380350044203   -0.08383713198753094   -0.003165676133483958
-0.003913413837734468   -0.08399383388264861   -0.002965753134860794
-0.005745716925322089   -0.09321427344380628   -0.0031037994684465437
-0.0024019072428964556   -0.09318184354529122   -0.003231005367513005
0.0008769380350044203   -0.08383713198753094   -0.003165676133483958
-0.0020997155160021614   -0.09310908577423153   -0.002970994216289886
-0.003913413837734468   -0.08399383388264861   -0.002965753134860794
0.0010697968969302688   -0.08378444794733117   -0.0029644491294020868
-0.0020997155160021614   -0.09310908577423153   -0.002970994216289886
0.0008769380350044203   -0.08383713198753094   -0.003165676133483958
-0.003913413837734468   -0.08399383388264861   -0.002965753134860794
-0.0020997155160021614   -0.09310908577423153   -0.002970994216289886
-0.005510348412429498   -0.09316784876927248   -0.0029565699489417997
-0.005745716925322089   -0.09321427344380628   -0.0031037994684465437
-0.003913413837734468   -0.08399383388264861   -0.002965753134860794
-0.0020997155160021614   -0.09310908577423153   -0.002970994216289886
-0.005745716925322089   -0.09321427344380628   -0.0031037994684465437
0.0008769380350044203   -0.08383713198753094   -0.003165676133483958
-0.003913413837734468   -0.08399383388264861   -0.002965753134860794
-0.005510348412429498   -0.09316784876927248   -0.0029565699489417997
0.0010697968969302688   -0.08378444794733117   -0.0029644491294020868
-0.003759545423780821   -0.08402048311909932   -0.0028656933581581875
-0.005510348412429498   -0.09316784876927248   -0.0029565699489417997
-0.0020997155160021614   -0.09310908577423153   -0.002970994216289886
0.0010697968969302688   -0.08378444794733117   -0.0029644491294020868
-0.00179088323698615   -0.09309617423139564   -0.0027242362637795395
-0.003759545423780821   -0.08402048311909932   -0.0028656933581581875
0.0012729896771143127   -0.08377967323418764   -0.002781746761864177
-0.00179088323698615   -0.09309617423139564   -0.0027242362637795395
0.0010697968969302688   -0.08378444794733117   -0.0029644491294020868
-0.003759545423780821   -0.08402048311909932   -0.0028656933581581875
-0.00179088323698615   -0.09309617423139564   -0.0027242362637795395
-0.005286011148789124   -0.093179188306328   -0.0028217209233944557
-0.005510348412429498   -0.09316784876927248   -0.0029565699489417997
-0.003759545423780821   -0.08402048311909932   -0.0028656933581581875
-0.00179088323698615   -0.09309617423139564   -0.0027242362637795395
-0.005510348412429498   -0.09316784876927248   -0.0029565699489417997
0.0010697968969302688   -0.08378444794733117   -0.0029644491294020868
-0.003759545423780821   -0.08402048311909932   -0.0028656933581581875
-0.005286011148789124   -0.093179188306328   -0.0028217209233944557
0.0012729896771143127   -0.08377967323418764   -0.002781746761864177
-0.0036205458419260594   -0.0840962267631179   -0.002778976388018665
-0.005286011148789124   -0.093179188306328   -0.0028217209233944557
-0.00179088323698615   -0.09309617423139564   -0.0027242362637795395
0.0012729896771143127   -0.08377967323418764   -0.002781746761864177
-0.001562063239024795   -0.0931560626091871   -0.0025001906855471497
-0.0036205458419260594   -0.0840962267631179   -0.002778976388018665
0.0014215992091395303   -0.08382063516864964   -0.00261180153804232
-0.001562063239024795   -0.0931560626091871   -0.0025001906855471497
0.0012729896771143127   -0.08377967323418764   -0.002781746761864177
-0.0036205458419260594   -0.0840962267631179   -0.002778976388018665
-0.001562063239024795   -0.0931560626091871   -0.0025001906855471497
-0.005099488317516542   -0.09325961154504733   -0.0027070223274304446
-0.005286011148789124   -0.093179188306328   -0.0028217209233944557
-0.0036205458419260594   -0.0840962267631179   -0.002778976388018665
-0.001562063239024795   -0.0931560626091871   -0.0025001906855471497
-0.005286011148789124   -0.093179188306328   -0.0028217209233944557
0.0012729896771143127   -0.08377967323418764   -0.002781746761864177
0.0008769380350044203   -0.08383713198753094   -0.003165676133483958
-0.0024019072428964556   -0.09318184354529122   -0.003231005367513005
0.006154429664492536   -0.08349703522620137   -0.003348198456117346
0.0010697968969302688   -0.08378444794733117   -0.0029644491294020868
-0.0024019072428964556   -0.09318184354529122   -0.003231005367513005
0.001199040397871693   -0.09286105525001455   -0.0034920942752685205
0.006154429664492536   -0.08349703522620137   -0.003348198456117346
0.0019023710642238135   -0.09270259841844736   -0.003066702290765118
0.0010697968969302688   -0.08378444794733117   -0.0029644491294020868
0.006642487436633655   -0.0833958782884724   -0.0030402498333879408
0.0019023710642238135   -0.09270259841844736   -0.003066702290765118
0.006154429664492536   -0.08349703522620137   -0.003348198456117346
0.0010697968969302688   -0.08378444794733117   -0.0029644491294020868
0.0019023710642238135   -0.09270259841844736   -0.003066702290765118
-0.0020997155160021614   -0.09310908577423153   -0.002970994216289886
-0.0024019072428964556   -0.09318184354529122   -0.003231005367513005
0.0010697968969302688   -0.08378444794733117   -0.0029644491294020868
0.0019023710642238135   -0.09270259841844736   -0.003066702290765118
-0.0024019072428964556   -0.09318184354529122   -0.003231005367513005
0.006154429664492536   -0.08349703522620137   -0.003348198456117346
0.0010697968969302688   -0.08378444794733117   -0.0029644491294020868
-0.0020997155160021614   -0.09310908577423153   -0.002970994216289886
0.006642487436633655   -0.0833958782884724   -0.0030402498333879408
0.0012729896771143127   -0.08377967323418764   -0.002781746761864177
-0.0020997155160021614   -0.09310908577423153   -0.002970994216289886
0.0019023710642238135   -0.09270259841844736   -0.003066702290765118
0.006642487436633655   -0.0833958782884724   -0.0030402498333879408
0.002455154404421907   -0.09267044466620798   -0.002667366979462118
0.0012729896771143127   -0.08377967323418764   -0.002781746761864177
0.007016662414421097   -0.08337836391654688   -0.002755271792976345
0.002455154404421907   -0.09267044466620798   -0.002667366979462118
0.006642487436633655   -0.0833958782884724   -0.0030402498333879408
0.0012729896771143127   -0.08377967323418764   -0.002781746761864177
0.002455154404421907   -0.09267044466620798   -0.002667366979462118
-0.00179088323698615   -0.09309617423139564   -0.0027242362637795395
-0.0020997155160021614   -0.09310908577423153   -0.002970994216289886
0.0012729896771143127   -0.08377967323418764   -0.002781746761864177
0.002455154404421907   -0.09267044466620798   -0.002667366979462118
-0.0020997155160021614   -0.09310908577423153   -0.002970994216289886
0.006642487436633655   -0.0833958782884724   -0.0030402498333879408
0.0012729896771143127   -0.08377967323418764   -0.002781746761864177
-0.00179088323698615   -0.09309617423139564   -0.0027242362637795395
0.007016662414421097   -0.08337836391654688   -0.002755271792976345
0.0014215992091395303   -0.08382063516864964   -0.00261180153804232
-0.00179088323698615   -0.09309617423139564   -0.0027242362637795395
0.002455154404421907   -0.09267044466620798   -0.002667366979462118
0.007016662414421097   -0.08337836391654688   -0.002755271792976345
0.003029366353290556   -0.09269716834758845   -0.0023027613176233885
0.0014215992091395303   -0.08382063516864964   -0.00261180153804232
0.0074041418701807854   -0.08340829689102783   -0.0024955959361105027
0.003029366353290556   -0.09269716834758845   -0.0023027613176233885
0.007016662414421097   -0.08337836391654688   -0.002755271792976345
0.0014215992091395303   -0.08382063516864964   -0.00261180153804232
0.003029366353290556   -0.09269716834758845   -0.0023027613176233885
-0.001562063239024795   -0.0931560626091871   -0.0025001906855471497
-0.00179088323698615   -0.09309617423139564   -0.0027242362637795395
0.0014215992091395303   -0.08382063516864964   -0.00261180153804232
0.003029366353290556   -0.09269716834758845   -0.0023027613176233885
-0.00179088323698615   -0.09309617423139564   -0.0027242362637795395
0.007016662414421097   -0.08337836391654688   -0.002755271792976345
-0.01619010782531479   -0.09243734439365067   -0.002787080914019211
-0.011864054594669009   -0.09766165523468594   -0.002452361944277616
-0.012171411643820301   -0.09282739660734524   -0.002904125279922026
-0.0157519672846352   -0.09242631090023026   -0.0030453060868428105
-0.011864054594669009   -0.09766165523468594   -0.002452361944277616
-0.009996166096146925   -0.09815514762451343   -0.002749184146058248
-0.012171411643820301   -0.09282739660734524   -0.002904125279922026
-0.009739372447410058   -0.09805744129336046   -0.0028510140138425823
-0.0157519672846352   -0.09242631090023026   -0.0030453060868428105
-0.011968002797389144   -0.09280722265282916   -0.0029998917333514618
-0.009739372447410058   -0.09805744129336046   -0.0028510140138425823
-0.012171411643820301   -0.09282739660734524   -0.002904125279922026
-0.0157519672846352   -0.09242631090023026   -0.0030453060868428105
-0.009739372447410058   -0.09805744129336046   -0.0028510140138425823
-0.011317806460287086   -0.09755160511406578   -0.0027622096849614234
-0.011864054594669009   -0.09766165523468594   -0.002452361944277616
-0.0157519672846352   -0.09242631090023026   -0.0030453060868428105
-0.009739372447410058   -0.09805744129336046   -0.0028510140138425823
-0.011864054594669009   -0.09766165523468594   -0.002452361944277616
-0.012171411643820301   -0.09282739660734524   -0.002904125279922026
-0.0157519672846352   -0.09242631090023026   -0.0030453060868428105
-0.011317806460287086   -0.09755160511406578   -0.0027622096849614234
-0.011968002797389144   -0.09280722265282916   -0.0029998917333514618
-0.015348037815989158   -0.0924955203141896   -0.003323866113891948
-0.011317806460287086   -0.09755160511406578   -0.0027622096849614234
-0.009739372447410058   -0.09805744129336046   -0.0028510140138425823
-0.011968002797389144   -0.09280722265282916   -0.0029998917333514618
-0.00945505797823891   -0.09806201258209778   -0.0029538714372827346
-0.015348037815989158   -0.0924955203141896   -0.003323866113891948
-0.011728817220175321   -0.09286321845070886   -0.0031100998027091408
-0.00945505797823891   -0.09806201258209778   -0.0029538714372827346
-0.011968002797389144   -0.09280722265282916   -0.0029998917333514618
-0.015348037815989158   -0.0924955203141896   -0.003323866113891948
-0.00945505797823891   -0.09806201258209778   -0.0029538714372827346
-0.010846479111713771   -0.09756073122009044   -0.0030708414266848853
-0.011317806460287086   -0.09755160511406578   -0.0027622096849614234
-0.015348037815989158   -0.0924955203141896   -0.003323866113891948
-0.00945505797823891   -0.09806201258209778   -0.0029538714372827346
-0.011317806460287086   -0.09755160511406578   -0.0027622096849614234
-0.011968002797389144   -0.09280722265282916   -0.0029998917333514618
-0.015348037815989158   -0.0924955203141896   -0.003323866113891948
-0.010846479111713771   -0.09756073122009044   -0.0030708414266848853
-0.011728817220175321   -0.09286321845070886   -0.0031100998027091408
-0.014855418826751102   -0.09268053097612972   -0.0036215567146982213
-0.010846479111713771   -0.09756073122009044   -0.0030708414266848853
-0.00945505797823891   -0.09806201258209778   -0.0029538714372827346
-0.011728817220175321   -0.09286321845070886   -0.0031100998027091408
-0.009190882532605422   -0.09816932444578134   -0.0030581876822331406
-0.014855418826751102   -0.09268053097612972   -0.0036215567146982213
-0.011511825941902767   -0.09299665147652336   -0.0032338246518936495
-0.009190882532605422   -0.09816932444578134   -0.0030581876822331406
-0.011728817220175321   -0.09286321845070886   -0.0031100998027091408
-0.014855418826751102   -0.09268053097612972   -0.0036215567146982213
-0.009190882532605422   -0.09816932444578134   -0.0030581876822331406
-0.010287499250013436   -0.09769584912527511   -0.0033861281910318865
-0.010846479111713771   -0.09756073122009044   -0.0030708414266848853
-0.014855418826751102   -0.09268053097612972   -0.0036215567146982213
-0.009190882532605422   -0.09816932444578134   -0.0030581876822331406
-0.010846479111713771   -0.09756073122009044   -0.0030708414266848853
-0.011728817220175321   -0.09286321845070886   -0.0031100998027091408
-0.012171411643820301   -0.09282739660734524   -0.002904125279922026
-0.009996166096146925   -0.09815514762451343   -0.002749184146058248
-0.008889230640868093   -0.09308061303707743   -0.0029957102536730773
-0.011968002797389144   -0.09280722265282916   -0.0029998917333514618
-0.009996166096146925   -0.09815514762451343   -0.002749184146058248
-0.008629211159268804   -0.09865133089382683   -0.003011579694647566
-0.008889230640868093   -0.09308061303707743   -0.0029957102536730773
-0.00835818826011479   -0.09855112906452247   -0.002939972140684105
-0.011968002797389144   -0.09280722265282916   -0.0029998917333514618
-0.008680450306849871   -0.09304837882564654   -0.0029664061146398115
-0.00835818826011479   -0.09855112906452247   -0.002939972140684105
-0.008889230640868093   -0.09308061303707743   -0.0029957102536730773
-0.011968002797389144   -0.09280722265282916   -0.0029998917333514618
-0.00835818826011479   -0.09855112906452247   -0.002939972140684105
-0.009739372447410058   -0.09805744129336046   -0.0028510140138425823
-0.009996166096146925   -0.09815514762451343   -0.002749184146058248
-0.011968002797389144   -0.09280722265282916   -0.0029998917333514618
-0.00835818826011479   -0.09855112906452247   -0.002939972140684105
-0.009996166096146925   -0.09815514762451343   -0.002749184146058248
-0.008889230640868093   -0.09308061303707743   -0.0029957102536730773
-0.011968002797389144   -0.09280722265282916   -0.0029998917333514618
-0.009739372447410058   -0.09805744129336046   -0.0028510140138425823
-0.008680450306849871   -0.09304837882564654   -0.0029664061146398115
-0.011728817220175321   -0.09286321845070886   -0.0031100998027091408
-0.009739372447410058   -0.09805744129336046   -0.0028510140138425823
-0.00835818826011479   -0.09855112906452247   -0.002939972140684105
-0.008680450306849871   -0.09304837882564654   -0.0029664061146398115
-0.008096189687345205   -0.0985491407980645   -0.002867467931960231
-0.011728817220175321   -0.09286321845070886   -0.0031100998027091408
-0.008474638776525788   -0.09308187537029798   -0.002951124884526821
-0.008096189687345205   -0.0985491407980645   -0.002867467931960231
-0.008680450306849871   -0.09304837882564654   -0.0029664061146398115
-0.011728817220175321   -0.09286321845070886   -0.0031100998027091408
-0.008096189687345205   -0.0985491407980645   -0.002867467931960231
-0.00945505797823891   -0.09806201258209778   -0.0029538714372827346
-0.009739372447410058   -0.09805744129336046   -0.0028510140138425823
-0.011728817220175321   -0.09286321845070886   -0.0031100998027091408
-0.008096189687345205   -0.0985491407980645   -0.002867467931960231
-0.009739372447410058   -0.09805744129336046   -0.0028510140138425823
-0.008680450306849871   -0.09304837882564654   -0.0029664061146398115
-0.011728817220175321   -0.09286321845070886   -0.0031100998027091408
-0.00945505797823891   -0.09806201258209778   -0.0029538714372827346
-0.008474638776525788   -0.09308187537029798   -0.002951124884526821
-0.011511825941902767   -0.09299665147652336   -0.0032338246518936495
-0.00945505797823891   -0.09806201258209778   -0.0029538714372827346
-0.008096189687345205   -0.0985491407980645   -0.002867467931960231
-0.008474638776525788   -0.09308187537029798   -0.002951124884526821
-0.007823014465194969   -0.09864330409499675   -0.002797812008662457
-0.011511825941902767   -0.09299665147652336   -0.0032338246518936495
-0.008285302043855934   -0.09318330060206262   -0.0029528098662260473
-0.007823014465194969   -0.09864330409499675   -0.002797812008662457
-0.008474638776525788   -0.09308187537029798   -0.002951124884526821
-0.011511825941902767   -0.09299665147652336   -0.0032338246518936495
-0.007823014465194969   -0.09864330409499675   -0.002797812008662457
-0.009190882532605422   -0.09816932444578134   -0.0030581876822331406
-0.00945505797823891   -0.09806201258209778   -0.0029538714372827346
-0.011511825941902767   -0.09299665147652336   -0.0032338246518936495
-0.007823014465194969   -0.09864330409499675   -0.002797812008662457
-0.00945505797823891   -0.09806201258209778   -0.0029538714372827346
-0.008474638776525788   -0.09308187537029798   -0.002951124884526821
-0.008889230640868093   -0.09308061303707743   -0.0029957102536730773
-0.008629211159268804   -0.09865133089382683   -0.003011579694647566
-0.005745716925322089   -0.09321427344380628   -0.0031037994684465437
-0.008680450306849871   -0.09304837882564654   -0.0029664061146398115
-0.008629211159268804   -0.09865133089382683   -0.003011579694647566
-0.007381200624275447   -0.09925107163766207   -0.003300405265809227
-0.005745716925322089   -0.09321427344380628   -0.0031037994684465437
-0.007048898287095692   -0.09916421278507409   -0.003045612119375083
-0.008680450306849871   -0.09304837882564654   -0.0029664061146398115
-0.005510348412429498   -0.09316784876927248   -0.0029565699489417997
-0.007048898287095692   -0.09916421278507409   -0.003045612119375083
-0.005745716925322089   -0.09321427344380628   -0.0031037994684465437
-0.008680450306849871   -0.09304837882564654   -0.0029664061146398115
-0.007048898287095692   -0.09916421278507409   -0.003045612119375083
-0.00835818826011479   -0.09855112906452247   -0.002939972140684105
-0.008629211159268804   -0.09865133089382683   -0.003011579694647566
-0.008680450306849871   -0.09304837882564654   -0.0029664061146398115
-0.007048898287095692   -0.09916421278507409   -0.003045612119375083
-0.008629211159268804   -0.09865133089382683   -0.003011579694647566
-0.005745716925322089   -0.09321427344380628   -0.0031037994684465437
-0.008680450306849871   -0.09304837882564654   -0.0029664061146398115
-0.00835818826011479   -0.09855112906452247   -0.002939972140684105
-0.005510348412429498   -0.09316784876927248   -0.0029565699489417997
-0.008474638776525788   -0.09308187537029798   -0.002951124884526821
-0.00835818826011479   -0.09855112906452247   -0.002939972140684105
-0.007048898287095692   -0.09916421278507409   -0.003045612119375083
-0.005510348412429498   -0.09316784876927248   -0.0029565699489417997
-0.0067410549220906345   -0.09915945234461437   -0.002791718368443818
-0.008474638776525788   -0.09308187537029798   -0.002951124884526821
-0.005286011148789124   -0.093179188306328   -0.0028217209233944557
-0.0067410549220906345   -0.09915945234461437   -0.002791718368443818
-0.005510348412429498   -0.09316784876927248   -0.0029565699489417997
-0.008474638776525788   -0.09308187537029798   -0.002951124884526821
-0.0067410549220906345   -0.09915945234461437   -0.002791718368443818
-0.008096189687345205   -0.0985491407980645   -0.002867467931960231
-0.00835818826011479   -0.09855112906452247   -0.002939972140684105
-0.008474638776525788   -0.09308187537029798   -0.002951124884526821
-0.0067410549220906345   -0.09915945234461437   -0.002791718368443818
-0.00835818826011479   -0.09855112906452247   -0.002939972140684105
-0.005510348412429498   -0.09316784876927248   -0.0029565699489417997
-0.008474638776525788   -0.09308187537029798   -0.002951124884526821
-0.008096189687345205   -0.0985491407980645   -0.002867467931960231
-0.005286011148789124   -0.093179188306328   -0.0028217209233944557
-0.008285302043855934   -0.09318330060206262   -0.0029528098662260473
-0.008096189687345205   -0.0985491407980645   -0.002867467931960231
-0.0067410549220906345   -0.09915945234461437   -0.002791718368443818
-0.005286011148789124   -0.093179188306328   -0.0028217209233944557
-0.0064104684148196915   -0.0992323272695335   -0.0025371936820843
-0.008285302043855934   -0.09318330060206262   -0.0029528098662260473
-0.005099488317516542   -0.09325961154504733   -0.0027070223274304446
-0.0064104684148196915   -0.0992323272695335   -0.0025371936820843
-0.005286011148789124   -0.093179188306328   -0.0028217209233944557
-0.008285302043855934   -0.09318330060206262   -0.0029528098662260473
-0.0064104684148196915   -0.0992323272695335   -0.0025371936820843
-0.007823014465194969   -0.09864330409499675   -0.002797812008662457
-0.008096189687345205   -0.0985491407980645   -0.002867467931960231
-0.008285302043855934   -0.09318330060206262   -0.0029528098662260473
-0.0064104684148196915   -0.0992323272695335   -0.0025371936820843
-0.008096189687345205   -0.0985491407980645   -0.002867467931960231
-0.005286011148789124   -0.093179188306328   -0.0028217209233944557
-0.005745716925322089   -0.09321427344380628   -0.0031037994684465437
-0.007381200624275447   -0.09925107163766207   -0.003300405265809227
-0.0024019072428964556   -0.09318184354529122   -0.003231005367513005
-0.005510348412429498   -0.09316784876927248   -0.0029565699489417997
-0.007381200624275447   -0.09925107163766207   -0.003300405265809227
-0.006152941450582249   -0.1   -0.0035217850809934827
-0.0024019072428964556   -0.09318184354529122   -0.003231005367513005
-0.005735135306632302   -0.1   -0.0031352001257390046
-0.005510348412429498   -0.09316784876927248   -0.0029565699489417997
-0.0020997155160021614   -0.09310908577423153   -0.002970994216289886
-0.005735135306632302   -0.1   -0.0031352001257390046
-0.0024019072428964556   -0.09318184354529122   -0.003231005367513005
-0.005510348412429498   -0.09316784876927248   -0.0029565699489417997
-0.005735135306632302   -0.1   -0.0031352001257390046
-0.007048898287095692   -0.09916421278507409   -0.003045612119375083
-0.007381200624275447   -0.09925107163766207   -0.003300405265809227
-0.005510348412429498   -0.09316784876927248   -0.0029565699489417997
-0.005735135306632302   -0.1   -0.0031352001257390046
-0.007381200624275447   -0.09925107163766207   -0.003300405265809227
-0.0024019072428964556   -0.09318184354529122   -0.003231005367513005
-0.005510348412429498   -0.09316784876927248   -0.0029565699489417997
-0.007048898287095692   -0.09916421278507409   -0.003045612119375083
-0.0020997155160021614   -0.09310908577423153   -0.002970994216289886
-0.005286011148789124   -0.093179188306328   -0.0028217209233944557
-0.007048898287095692   -0.09916421278507409   -0.003045612119375083
-0.005735135306632302   -0.1   -0.0031352001257390046
-0.0020997155160021614   -0.09310908577423153   -0.002970994216289886
-0.005315459444772669   -0.1   -0.002744026640941136
-0.005286011148789124   -0.093179188306328   -0.0028217209233944557
-0.00179088323698615   -0.09309617423139564   -0.0027242362637795395
-0.005315459444772669   -0.1   -0.002744026640941136
-0.0020997155160021614   -0.09310908577423153   -0.002970994216289886
-0.005286011148789124   -0.093179188306328   -0.0028217209233944557
-0.005315459444772669   -0.1   -0.002744026640941136
-0.0067410549220906345   -0.09915945234461437   -0.002791718368443818
-0.007048898287095692   -0.09916421278507409   -0.003045612119375083
-0.005286011148789124   -0.093179188306328   -0.0028217209233944557
-0.005315459444772669   -0.1   -0.002744026640941136
-0.007048898287095692   -0.09916421278507409   -0.003045612119375083
-0.0020997155160021614   -0.09310908577423153   -0.002970994216289886
-0.005286011148789124   -0.093179188306328   -0.0028217209233944557
-0.0067410549220906345   -0.09915945234461437   -0.002791718368443818
-0.00179088323698615   -0.09309617423139564   -0.0027242362637795395
-0.005099488317516542   -0.09325961154504733   -0.0027070223274304446
-0.0067410549220906345   -0.09915945234461437   -0.002791718368443818
-0.005315459444772669   -0.1   -0.002744026640941136
-0.00179088323698615   -0.09309617423139564   -0.0027242362637795395
-0.0049050706640074455   -0.1   -0.0023580146329791243
-0.005099488317516542   -0.09325961154504733   -0.0027070223274304446
-0.001562063239024795   -0.0931560626091871   -0.0025001906855471497
-0.0049050706640074455   -0.1   -0.0023580146329791243
-0.00179088323698615   -0.09309617423139564   -0.0027242362637795395
-0.005099488317516542   -0.09325961154504733   -0.0027070223274304446
-0.0049050706640074455   -0.1   -0.0023580146329791243
-0.0064104684148196915   -0.0992323272695335   -0.0025371936820843
-0.0067410549220906345   -0.09915945234461437   -0.002791718368443818
-0.005099488317516542   -0.09325961154504733   -0.0027070223274304446
-0.0049050706640074455   -0.1   -0.0023580146329791243
-0.0067410549220906345   -0.09915945234461437   -0.002791718368443818
-0.00179088323698615   -0.09309617423139564   -0.0027242362637795395
-0.0024019072428964556   -0.09318184354529122   -0.003231005367513005
-0.006152941450582249   -0.1   -0.0035217850809934827
0.001199040397871693   -0.09286105525001455   -0.0034920942752685205
-0.0020997155160021614   -0.09310908577423153   -0.002970994216289886
-0.006152941450582249   -0.1   -0.0035217850809934827
-0.005263253417689708   -0.1   -0.0037899016957314386
0.001199040397871693   -0.09286105525001455   -0.0034920942752685205
-0.004390626558328134   -0.1   -0.0032308427643979905
-0.0020997155160021614   -0.09310908577423153   -0.002970994216289886
0.0019023710642238135   -0.09270259841844736   -0.003066702290765118
-0.004390626558328134   -0.1   -0.0032308427643979905
0.001199040397871693   -0.09286105525001455   -0.0034920942752685205
-0.0020997155160021614   -0.09310908577423153   -0.002970994216289886
-0.004390626558328134   -0.1   -0.0032308427643979905
-0.005735135306632302   -0.1   -0.0031352001257390046
-0.006152941450582249   -0.1   -0.0035217850809934827
-0.0020997155160021614   -0.09310908577423153   -0.002970994216289886
-0.004390626558328134   -0.1   -0.0032308427643979905
-0.006152941450582249   -0.1   -0.0035217850809934827
0.001199040397871693   -0.09286105525001455   -0.0034920942752685205
-0.0020997155160021614   -0.09310908577423153   -0.002970994216289886
-0.005735135306632302   -0.1   -0.0031352001257390046
0.0019023710642238135   -0.09270259841844736   -0.003066702290765118
-0.00179088323698615   -0.09309617423139564   -0.0027242362637795395
-0.005735135306632302   -0.1   -0.0031352001257390046
-0.004390626558328134   -0.1   -0.0032308427643979905
0.0019023710642238135   -0.09270259841844736   -0.003066702290765118
-0.00369470993413889   -0.1   -0.0026960209898408308
-0.00179088323698615   -0.09309617423139564   -0.0027242362637795395
0.002455154404421907   -0.09267044466620798   -0.002667366979462118
-0.00369470993413889   -0.1   -0.0026960209898408308
0.0019023710642238135   -0.09270259841844736   -0.003066702290765118
-0.00179088323698615   -0.09309617423139564   -0.0027242362637795395
-0.00369470993413889   -0.1   -0.0026960209898408308
-0.005315459444772669   -0.1   -0.002744026640941136
-0.005735135306632302   -0.1   -0.0031352001257390046
-0.00179088323698615   -0.09309617423139564   -0.0027242362637795395
-0.00369470993413889   -0.1   -0.0026960209898408308
-0.005735135306632302   -0.1   -0.0031352001257390046
0.0019023710642238135   -0.09270259841844736   -0.003066702290765118
-0.00179088323698615   -0.09309617423139564   -0.0027242362637795395
-0.005315459444772669   -0.1   -0.002744026640941136
0.002455154404421907   -0.09267044466620798   -0.002667366979462118
-0.001562063239024795   -0.0931560626091871   -0.0025001906855471497
-0.005315459444772669   -0.1   -0.002744026640941136
-0.00369470993413889   -0.1   -0.0026960209898408308
0.002455154404421907   -0.09267044466620798   -0.002667366979462118
-0.002835002528099417   -0.1   -0.0021408264538206345
-0.001562063239024795   -0.0931560626091871   -0.0025001906855471497
0.003029366353290556   -0.09269716834758845   -0.0023027613176233885
-0.002835002528099417   -0.1   -0.0021408264538206345
0.002455154404421907   -0.09267044466620798   -0.002667366979462118
-0.001562063239024795   -0.0931560626091871   -0.0025001906855471497
-0.002835002528099417   -0.1   -0.0021408264538206345
-0.0049050706640074455   -0.1   -0.0023580146329791243
-0.005315459444772669   -0.1   -0.002744026640941136
-0.001562063239024795   -0.0931560626091871   -0.0025001906855471497
-0.002835002528099417   -0.1   -0.0021408264538206345
-0.005315459444772669   -0.1   -0.002744026640941136
0.002455154404421907   -0.09267044466620798   -0.002667366979462118
-0.011864054594669009   -0.09766165523468594   -0.002452361944277616
-0.007077913418855666   -0.09791667929618794   -0.002098823439603921
-0.009996166096146925   -0.09815514762451343   -0.002749184146058248
-0.011317806460287086   -0.09755160511406578   -0.0027622096849614234
-0.007077913418855666   -0.09791667929618794   -0.002098823439603921
-0.007512160621322483   -0.0982965904705922   -0.0024809798642934995
-0.009996166096146925   -0.09815514762451343   -0.002749184146058248
-0.007318020083041917   -0.09816320430582014   -0.002620048215798234
-0.011317806460287086   -0.09755160511406578   -0.0027622096849614234
-0.009739372447410058   -0.09805744129336046   -0.0028510140138425823
-0.007318020083041917   -0.09816320430582014   -0.002620048215798234
-0.009996166096146925   -0.09815514762451343   -0.002749184146058248
-0.011317806460287086   -0.09755160511406578   -0.0027622096849614234
-0.007318020083041917   -0.09816320430582014   -0.002620048215798234
-0.006583078486741489   -0.09774543792917285   -0.0024243434306021505
-0.007077913418855666   -0.09791667929618794   -0.002098823439603921
-0.011317806460287086   -0.09755160511406578   -0.0027622096849614234
-0.007318020083041917   -0.09816320430582014   -0.002620048215798234
-0.007077913418855666   -0.09791667929618794   -0.002098823439603921
-0.009996166096146925   -0.09815514762451343   -0.002749184146058248
-0.011317806460287086   -0.09755160511406578   -0.0027622096849614234
-0.006583078486741489   -0.09774543792917285   -0.0024243434306021505
-0.009739372447410058   -0.09805744129336046   -0.0028510140138425823
-0.010846479111713771   -0.09756073122009044   -0.0030708414266848853
-0.006583078486741489   -0.09774543792917285   -0.0024243434306021505
-0.007318020083041917   -0.09816320430582014   -0.002620048215798234
-0.009739372447410058   -0.09805744129336046   -0.0028510140138425823
-0.007090368122631152   -0.09811370203689411   -0.002748309199518065
-0.010846479111713771   -0.09756073122009044   -0.0030708414266848853
-0.00945505797823891   -0.09806201258209778   -0.0029538714372827346
-0.007090368122631152   -0.09811370203689411   -0.002748309199518065
-0.009739372447410058   -0.09805744129336046   -0.0028510140138425823
-0.010846479111713771   -0.09756073122009044   -0.0030708414266848853
-0.007090368122631152   -0.09811370203689411   -0.002748309199518065
-0.006171154308592153   -0.09769242563551923   -0.0027364497221160538
-0.006583078486741489   -0.09774543792917285   -0.0024243434306021505
-0.010846479111713771   -0.09756073122009044   -0.0030708414266848853
-0.007090368122631152   -0.09811370203689411   -0.002748309199518065
-0.006583078486741489   -0.09774543792917285   -0.0024243434306021505
-0.009739372447410058   -0.09805744129336046   -0.0028510140138425823
-0.010846479111713771   -0.09756073122009044   -0.0030708414266848853
-0.006171154308592153   -0.09769242563551923   -0.0027364497221160538
-0.00945505797823891   -0.09806201258209778   -0.0029538714372827346
-0.010287499250013436   -0.09769584912527511   -0.0033861281910318865
-0.006171154308592153   -0.09769242563551923   -0.0027364497221160538
-0.007090368122631152   -0.09811370203689411   -0.002748309199518065
-0.00945505797823891   -0.09806201258209778   -0.0029538714372827346
-0.006895314357908155   -0.09814878727001053   -0.002865087265389039
-0.010287499250013436   -0.09769584912527511   -0.0033861281910318865
-0.009190882532605422   -0.09816932444578134   -0.0030581876822331406
-0.006895314357908155   -0.09814878727001053   -0.002865087265389039
-0.00945505797823891   -0.09806201258209778   -0.0029538714372827346
-0.010287499250013436   -0.09769584912527511   -0.0033861281910318865
-0.006895314357908155   -0.09814878727001053   -0.002865087265389039
-0.005705243428105925   -0.0977362103113391   -0.003033745862765698
-0.006171154308592153   -0.09769242563551923   -0.0027364497221160538
-0.010287499250013436   -0.09769584912527511   -0.0033861281910318865
-0.006895314357908155   -0.09814878727001053   -0.002865087265389039
-0.006171154308592153   -0.09769242563551923   -0.0027364497221160538
-0.00945505797823891   -0.09806201258209778   -0.0029538714372827346
-0.009996166096146925   -0.09815514762451343   -0.002749184146058248
-0.007512160621322483   -0.0982965904705922   -0.0024809798642934995
-0.008629211159268804   -0.09865133089382683   -0.003011579694647566
-0.009739372447410058   -0.09805744129336046   -0.0028510140138425823
-0.007512160621322483   -0.0982965904705922   -0.0024809798642934995
-0.008097873422648925   -0.09853191452942883   -0.0027866009930153923
-0.008629211159268804   -0.09865133089382683   -0.003011579694647566
-0.007926011170074476   -0.09841282748357626   -0.002790306363787209
-0.009739372447410058   -0.09805744129336046   -0.0028510140138425823
-0.00835818826011479   -0.09855112906452247   -0.002939972140684105
-0.007926011170074476   -0.09841282748357626   -0.002790306363787209
-0.008629211159268804   -0.09865133089382683   -0.003011579694647566
-0.009739372447410058   -0.09805744129336046   -0.0028510140138425823
-0.007926011170074476   -0.09841282748357626   -0.002790306363787209
-0.007318020083041917   -0.09816320430582014   -0.002620048215798234
-0.007512160621322483   -0.0982965904705922   -0.0024809798642934995
-0.009739372447410058   -0.09805744129336046   -0.0028510140138425823
-0.007926011170074476   -0.09841282748357626   -0.002790306363787209
-0.007512160621322483   -0.0982965904705922   -0.0024809798642934995
-0.008629211159268804   -0.09865133089382683   -0.003011579694647566
-0.009739372447410058   -0.09805744129336046   -0.0028510140138425823
-0.007318020083041917   -0.09816320430582014   -0.002620048215798234
-0.00835818826011479   -0.09855112906452247   -0.002939972140684105
-0.00945505797823891   -0.09806201258209778   -0.0029538714372827346
-0.007318020083041917   -0.09816320430582014   -0.002620048215798234
-0.007926011170074476   -0.09841282748357626   -0.002790306363787209
-0.00835818826011479   -0.09855112906452247   -0.002939972140684105
-0.007734700701021243   -0.09836971847455368   -0.002779999648258211
-0.00945505797823891   -0.09806201258209778   -0.0029538714372827346
-0.008096189687345205   -0.0985491407980645   -0.002867467931960231
-0.007734700701021243   -0.09836971847455368   -0.002779999648258211
-0.00835818826011479   -0.09855112906452247   -0.002939972140684105
-0.00945505797823891   -0.09806201258209778   -0.0029538714372827346
-0.007734700701021243   -0.09836971847455368   -0.002779999648258211
-0.007090368122631152   -0.09811370203689411   -0.002748309199518065
-0.007318020083041917   -0.09816320430582014   -0.002620048215798234
-0.00945505797823891   -0.09806201258209778   -0.0029538714372827346
-0.007734700701021243   -0.09836971847455368   -0.002779999648258211
-0.007318020083041917   -0.09816320430582014   -0.002620048215798234
-0.00835818826011479   -0.09855112906452247   -0.002939972140684105
-0.00945505797823891   -0.09806201258209778   -0.0029538714372827346
-0.007090368122631152   -0.09811370203689411   -0.002748309199518065
-0.008096189687345205   -0.0985491407980645   -0.002867467931960231
-0.009190882532605422   -0.09816932444578134   -0.0030581876822331406
-0.007090368122631152   -0.09811370203689411   -0.002748309199518065
-0.007734700701021243   -0.09836971847455368   -0.002779999648258211
-0.008096189687345205   -0.0985491407980645   -0.002867467931960231
-0.0075401692529313506   -0.09839909304456289   -0.0027586988252860673
-0.009190882532605422   -0.09816932444578134   -0.0030581876822331406
-0.007823014465194969   -0.09864330409499675   -0.002797812008662457
-0.0075401692529313506   -0.09839909304456289   -0.0027586988252860673
-0.008096189687345205   -0.0985491407980645   -0.002867467931960231
-0.009190882532605422   -0.09816932444578134   -0.0030581876822331406
-0.0075401692529313506   -0.09839909304456289   -0.0027586988252860673
-0.006895314357908155   -0.09814878727001053   -0.002865087265389039
-0.007090368122631152   -0.09811370203689411   -0.002748309199518065
-0.009190882532605422   -0.09816932444578134   -0.0030581876822331406
-0.0075401692529313506   -0.09839909304456289   -0.0027586988252860673
-0.007090368122631152   -0.09811370203689411   -0.002748309199518065
-0.008096189687345205   -0.0985491407980645   -0.002867467931960231
-0.008629211159268804   -0.09865133089382683   -0.003011579694647566
-0.008097873422648925   -0.09853191452942883   -0.0027866009930153923
-0.007381200624275447   -0.09925107163766207   -0.003300405265809227
-0.00835818826011479   -0.09855112906452247   -0.002939972140684105
-0.008097873422648925   -0.09853191452942883   -0.0027866009930153923
-0.008725486789540143   -0.0986315114853917   -0.0030873306983745896
-0.007381200624275447   -0.09925107163766207   -0.003300405265809227
-0.00854745875219024   -0.09851801685253629   -0.0029608820530260915
-0.00835818826011479   -0.09855112906452247   -0.002939972140684105
-0.007048898287095692   -0.09916421278507409   -0.003045612119375083
-0.00854745875219024   -0.09851801685253629   -0.0029608820530260915
-0.007381200624275447   -0.09925107163766207   -0.003300405265809227
-0.00835818826011479   -0.09855112906452247   -0.002939972140684105
-0.00854745875219024   -0.09851801685253629   -0.0029608820530260915
-0.007926011170074476   -0.09841282748357626   -0.002790306363787209
-0.008097873422648925   -0.09853191452942883   -0.0027866009930153923
-0.00835818826011479   -0.09855112906452247   -0.002939972140684105
-0.00854745875219024   -0.09851801685253629   -0.0029608820530260915
-0.008097873422648925   -0.09853191452942883   -0.0027866009930153923
-0.007381200624275447   -0.09925107163766207   -0.003300405265809227
-0.00835818826011479   -0.09855112906452247   -0.002939972140684105
-0.007926011170074476   -0.09841282748357626   -0.002790306363787209
-0.007048898287095692   -0.09916421278507409   -0.003045612119375083
-0.008096189687345205   -0.0985491407980645   -0.002867467931960231
-0.007926011170074476   -0.09841282748357626   -0.002790306363787209
-0.00854745875219024   -0.09851801685253629   -0.0029608820530260915
-0.007048898287095692   -0.09916421278507409   -0.003045612119375083
-0.008333868591791587   -0.09848174808838944   -0.002817369721027625
-0.008096189687345205   -0.0985491407980645   -0.002867467931960231
-0.0067410549220906345   -0.09915945234461437   -0.002791718368443818
-0.008333868591791587   -0.09848174808838944   -0.002817369721027625
-0.007048898287095692   -0.09916421278507409   -0.003045612119375083
-0.008096189687345205   -0.0985491407980645   -0.002867467931960231
-0.008333868591791587   -0.09848174808838944   -0.002817369721027625
-0.007734700701021243   -0.09836971847455368   -0.002779999648258211
-0.007926011170074476   -0.09841282748357626   -0.002790306363787209
-0.008096189687345205   -0.0985491407980645   -0.002867467931960231
-0.008333868591791587   -0.09848174808838944   -0.002817369721027625
-0.007926011170074476   -0.09841282748357626   -0.002790306363787209
-0.007048898287095692   -0.09916421278507409   -0.003045612119375083
-0.008096189687345205   -0.0985491407980645   -0.002867467931960231
-0.007734700701021243   -0.09836971847455368   -0.002779999648258211
-0.0067410549220906345   -0.09915945234461437   -0.002791718368443818
-0.007823014465194969   -0.09864330409499675   -0.002797812008662457
-0.007734700701021243   -0.09836971847455368   -0.002779999648258211
-0.008333868591791587   -0.09848174808838944   -0.002817369721027625
-0.0067410549220906345   -0.09915945234461437   -0.002791718368443818
-0.0081141848549887   -0.09851051222098417   -0.0026644812053144306
-0.007823014465194969   -0.09864330409499675   -0.002797812008662457
-0.0064104684148196915   -0.0992323272695335   -0.0025371936820843
-0.0081141848549887   -0.09851051222098417   -0.0026644812053144306
-0.0067410549220906345   -0.09915945234461437   -0.002791718368443818
-0.007823014465194969   -0.09864330409499675   -0.002797812008662457
-0.0081141848549887   -0.09851051222098417   -0.0026644812053144306
-0.0075401692529313506   -0.09839909304456289   -0.0027586988252860673
-0.007734700701021243   -0.09836971847455368   -0.002779999648258211
-0.007823014465194969   -0.09864330409499675   -0.002797812008662457
-0.0081141848549887   -0.09851051222098417   -0.0026644812053144306
-0.007734700701021243   -0.09836971847455368   -0.002779999648258211
-0.0067410549220906345   -0.09915945234461437   -0.002791718368443818
-0.007381200624275447   -0.09925107163766207   -0.003300405265809227
-0.008725486789540143   -0.0986315114853917   -0.0030873306983745896
-0.006152941450582249   -0.1   -0.0035217850809934827
-0.007048898287095692   -0.09916421278507409   -0.003045612119375083
-0.008725486789540143   -0.0986315114853917   -0.0030873306983745896
-0.009634257798730303   -0.09852624403985946   -0.0033728637586486706
-0.006152941450582249   -0.1   -0.0035217850809934827
-0.009401691761894706   -0.09841920127020984   -0.003122541508893298
-0.007048898287095692   -0.09916421278507409   -0.003045612119375083
-0.005735135306632302   -0.1   -0.0031352001257390046
-0.009401691761894706   -0.09841920127020984   -0.003122541508893298
-0.006152941450582249   -0.1   -0.0035217850809934827
-0.007048898287095692   -0.09916421278507409   -0.003045612119375083
-0.009401691761894706   -0.09841920127020984   -0.003122541508893298
-0.00854745875219024   -0.09851801685253629   -0.0029608820530260915
-0.008725486789540143   -0.0986315114853917   -0.0030873306983745896
-0.007048898287095692   -0.09916421278507409   -0.003045612119375083
-0.009401691761894706   -0.09841920127020984   -0.003122541508893298
-0.008725486789540143   -0.0986315114853917   -0.0030873306983745896
-0.006152941450582249   -0.1   -0.0035217850809934827
-0.007048898287095692   -0.09916421278507409   -0.003045612119375083
-0.00854745875219024   -0.09851801685253629   -0.0029608820530260915
-0.005735135306632302   -0.1   -0.0031352001257390046
-0.0067410549220906345   -0.09915945234461437   -0.002791718368443818
-0.00854745875219024   -0.09851801685253629   -0.0029608820530260915
-0.009401691761894706   -0.09841920127020984   -0.003122541508893298
-0.005735135306632302   -0.1   -0.0031352001257390046
-0.009094951435551545   -0.098394709741267   -0.0028532364973921295
-0.0067410549220906345   -0.09915945234461437   -0.002791718368443818
-0.005315459444772669   -0.1   -0.002744026640941136
-0.009094951435551545   -0.098394709741267   -0.0028532364973921295
-0.005735135306632302   -0.1   -0.0031352001257390046
-0.0067410549220906345   -0.09915945234461437   -0.002791718368443818
-0.009094951435551545   -0.098394709741267   -0.0028532364973921295
-0.008333868591791587   -0.09848174808838944   -0.002817369721027625
-0.00854745875219024   -0.09851801685253629   -0.0029608820530260915
-0.0067410549220906345   -0.09915945234461437   -0.002791718368443818
-0.009094951435551545   -0.098394709741267   -0.0028532364973921295
-0.00854745875219024   -0.09851801685253629   -0.0029608820530260915
-0.005735135306632302   -0.1   -0.0031352001257390046
-0.0067410549220906345   -0.09915945234461437   -0.002791718368443818
-0.008333868591791587   -0.09848174808838944   -0.002817369721027625
-0.005315459444772669   -0.1   -0.002744026640941136
-0.0064104684148196915   -0.0992323272695335   -0.0025371936820843
-0.008333868591791587   -0.09848174808838944   -0.002817369721027625
-0.009094951435551545   -0.098394709741267   -0.0028532364973921295
-0.005315459444772669   -0.1   -0.002744026640941136
-0.008806211367014947   -0.09843679327209323   -0.002573491702980388
-0.0064104684148196915   -0.0992323272695335   -0.0025371936820843
-0.0049050706640074455   -0.1   -0.0023580146329791243
-0.008806211367014947   -0.09843679327209323   -0.002573491702980388
-0.005315459444772669   -0.1   -0.002744026640941136
-0.0064104684148196915   -0.0992323272695335   -0.0025371936820843
-0.008806211367014947   -0.09843679327209323   -0.002573491702980388
-0.0081141848549887   -0.09851051222098417   -0.0026644812053144306
-0.008333868591791587   -0.09848174808838944   -0.002817369721027625
-0.0064104684148196915   -0.0992323272695335   -0.0025371936820843
-0.008806211367014947   -0.09843679327209323   -0.002573491702980388
-0.008333868591791587   -0.09848174808838944   -0.002817369721027625
-0.005315459444772669   -0.1   -0.002744026640941136
-0.006152941450582249   -0.1   -0.0035217850809934827
-0.009634257798730303   -0.09852624403985946   -0.0033728637586486706
-0.005263253417689708   -0.1   -0.0037899016957314386
-0.005735135306632302   -0.1   -0.0031352001257390046
-0.009634257798730303   -0.09852624403985946   -0.0033728637586486706
-0.011398168059914268   -0.09804384312905616   -0.003675264335129563
-0.005263253417689708   -0.1   -0.0037899016957314386
-0.010781288631802503   -0.09795380723450751   -0.0032645498773064296
-0.005735135306632302   -0.1   -0.0031352001257390046
-0.004390626558328134   -0.1   -0.0032308427643979905
-0.010781288631802503   -0.09795380723450751   -0.0032645498773064296
-0.005263253417689708   -0.1   -0.0037899016957314386
-0.005735135306632302   -0.1   -0.0031352001257390046
-0.010781288631802503   -0.09795380723450751   -0.0032645498773064296
-0.009401691761894706   -0.09841920127020984   -0.003122541508893298
-0.009634257798730303   -0.09852624403985946   -0.0033728637586486706
-0.005735135306632302   -0.1   -0.0031352001257390046
-0.010781288631802503   -0.09795380723450751   -0.0032645498773064296
-0.009634257798730303   -0.09852624403985946   -0.0033728637586486706
-0.005263253417689708   -0.1   -0.0037899016957314386
-0.005735135306632302   -0.1   -0.0031352001257390046
-0.009401691761894706   -0.09841920127020984   -0.003122541508893298
-0.004390626558328134   -0.1   -0.0032308427643979905
-0.005315459444772669   -0.1   -0.002744026640941136
-0.009401691761894706   -0.09841920127020984   -0.003122541508893298
-0.010781288631802503   -0.09795380723450751   -0.0032645498773064296
-0.004390626558328134   -0.1   -0.0032308427643979905
-0.010214209248771885   -0.09794132496481328   -0.002826027016268714
-0.005315459444772669   -0.1   -0.002744026640941136
-0.00369470993413889   -0.1   -0.0026960209898408308
-0.010214209248771885   -0.09794132496481328   -0.002826027016268714
-0.004390626558328134   -0.1   -0.0032308427643979905
-0.005315459444772669   -0.1   -0.002744026640941136
-0.010214209248771885   -0.09794132496481328   -0.002826027016268714
-0.009094951435551545   -0.098394709741267   -0.0028532364973921295
-0.009401691761894706   -0.09841920127020984   -0.003122541508893298
-0.005315459444772669   -0.1   -0.002744026640941136
-0.010214209248771885   -0.09794132496481328   -0.002826027016268714
-0.009401691761894706   -0.09841920127020984   -0.003122541508893298
-0.004390626558328134   -0.1   -0.0032308427643979905
-0.005315459444772669   -0.1   -0.002744026640941136
-0.009094951435551545   -0.098394709741267   -0.0028532364973921295
-0.00369470993413889   -0.1   -0.0026960209898408308
-0.0049050706640074455   -0.1   -0.0023580146329791243
-0.009094951435551545   -0.098394709741267   -0.0028532364973921295
-0.010214209248771885   -0.09794132496481328   -0.002826027016268714
-0.00369470993413889   -0.1   -0.0026960209898408308
-0.009498102817817655   -0.09805953786087214   -0.0023672855432597673
-0.0049050706640074455   -0.1   -0.0023580146329791243
-0.002835002528099417   -0.1   -0.0021408264538206345
-0.009498102817817655   -0.09805953786087214   -0.0023672855432597673
-0.00369470993413889   -0.1   -0.0026960209898408308
-0.0049050706640074455   -0.1   -0.0023580146329791243
-0.009498102817817655   -0.09805953786087214   -0.0023672855432597673
-0.008806211367014947   -0.09843679327209323   -0.002573491702980388
-0.009094951435551545   -0.098394709741267   -0.0028532364973921295
-0.0049050706640074455   -0.1   -0.0023580146329791243
-0.009498102817817655   -0.09805953786087214   -0.0023672855432597673
-0.009094951435551545   -0.098394709741267   -0.0028532364973921295
-0.00369470993413889   -0.1   -0.0026960209898408308
-0.007077913418855666   -0.09791667929618794   -0.002098823439603921
-0.0028708924129763453   -0.09420380920993114   -0.0018140319654871952
-0.007512160621322483   -0.0982965904705922   -0.0024809798642934995
-0.006583078486741489   -0.09774543792917285   -0.0024243434306021505
-0.0028708924129763453   -0.09420380920993114   -0.0018140319654871952
-0.0053838704197990825   -0.09449004055241483   -0.002219854548746138
-0.007512160621322483   -0.0982965904705922   -0.0024809798642934995
-0.005246049526401972   -0.09432866234869104   -0.0023437631028861775
-0.006583078486741489   -0.09774543792917285   -0.0024243434306021505
-0.007318020083041917   -0.09816320430582014   -0.002620048215798234
-0.005246049526401972   -0.09432866234869104   -0.0023437631028861775
-0.007512160621322483   -0.0982965904705922   -0.0024809798642934995
-0.006583078486741489   -0.09774543792917285   -0.0024243434306021505
-0.005246049526401972   -0.09432866234869104   -0.0023437631028861775
-0.0024766759631076217   -0.09400417227263136   -0.00209514153839258
-0.0028708924129763453   -0.09420380920993114   -0.0018140319654871952
-0.006583078486741489   -0.09774543792917285   -0.0024243434306021505
-0.005246049526401972   -0.09432866234869104   -0.0023437631028861775
-0.0028708924129763453   -0.09420380920993114   -0.0018140319654871952
-0.007512160621322483   -0.0982965904705922   -0.0024809798642934995
-0.006583078486741489   -0.09774543792917285   -0.0024243434306021505
-0.0024766759631076217   -0.09400417227263136   -0.00209514153839258
-0.007318020083041917   -0.09816320430582014   -0.002620048215798234
-0.006171154308592153   -0.09769242563551923   -0.0027364497221160538
-0.0024766759631076217   -0.09400417227263136   -0.00209514153839258
-0.005246049526401972   -0.09432866234869104   -0.0023437631028861775
-0.007318020083041917   -0.09816320430582014   -0.002620048215798234
-0.0050909718597886506   -0.09423895539756474   -0.002456456579441021
-0.006171154308592153   -0.09769242563551923   -0.0027364497221160538
-0.007090368122631152   -0.09811370203689411   -0.002748309199518065
-0.0050909718597886506   -0.09423895539756474   -0.002456456579441021
-0.007318020083041917   -0.09816320430582014   -0.002620048215798234
-0.006171154308592153   -0.09769242563551923   -0.0027364497221160538
-0.0050909718597886506   -0.09423895539756474   -0.002456456579441021
-0.002166482367942283   -0.09390875894673631   -0.0023596247254325364
-0.0024766759631076217   -0.09400417227263136   -0.00209514153839258
-0.006171154308592153   -0.09769242563551923   -0.0027364497221160538
-0.0050909718597886506   -0.09423895539756474   -0.002456456579441021
-0.0024766759631076217   -0.09400417227263136   -0.00209514153839258
-0.007318020083041917   -0.09816320430582014   -0.002620048215798234
-0.006171154308592153   -0.09769242563551923   -0.0027364497221160538
-0.002166482367942283   -0.09390875894673631   -0.0023596247254325364
-0.007090368122631152   -0.09811370203689411   -0.002748309199518065
-0.005705243428105925   -0.0977362103113391   -0.003033745862765698
-0.002166482367942283   -0.09390875894673631   -0.0023596247254325364
-0.0050909718597886506   -0.09423895539756474   -0.002456456579441021
-0.007090368122631152   -0.09811370203689411   -0.002748309199518065
-0.004972049706078807   -0.09421841734335105   -0.002558290473794881
-0.005705243428105925   -0.0977362103113391   -0.003033745862765698
-0.006895314357908155   -0.09814878727001053   -0.002865087265389039
-0.004972049706078807   -0.09421841734335105   -0.002558290473794881
-0.007090368122631152   -0.09811370203689411   -0.002748309199518065
-0.005705243428105925   -0.0977362103113391   -0.003033745862765698
-0.004972049706078807   -0.09421841734335105   -0.002558290473794881
-0.001827906689587303   -0.09389022240718901   -0.0026067751315400436
-0.002166482367942283   -0.09390875894673631   -0.0023596247254325364
-0.005705243428105925   -0.0977362103113391   -0.003033745862765698
-0.004972049706078807   -0.09421841734335105   -0.002558290473794881
-0.002166482367942283   -0.09390875894673631   -0.0023596247254325364
-0.007090368122631152   -0.09811370203689411   -0.002748309199518065
-0.007512160621322483   -0.0982965904705922   -0.0024809798642934995
-0.0053838704197990825   -0.09449004055241483   -0.002219854548746138
-0.008097873422648925   -0.09853191452942883   -0.0027866009930153923
-0.007318020083041917   -0.09816320430582014   -0.002620048215798234
-0.0053838704197990825   -0.09449004055241483   -0.002219854548746138
-0.007863201693642493   -0.09459113923842771   -0.0025509995089269427
-0.008097873422648925   -0.09853191452942883   -0.0027866009930153923
-0.0077472708911407746   -0.09445033884042428   -0.002557896425130239
-0.007318020083041917   -0.09816320430582014   -0.002620048215798234
-0.007926011170074476   -0.09841282748357626   -0.002790306363787209
-0.0077472708911407746   -0.09445033884042428   -0.002557896425130239
-0.008097873422648925   -0.09853191452942883   -0.0027866009930153923
-0.007318020083041917   -0.09816320430582014   -0.002620048215798234
-0.0077472708911407746   -0.09445033884042428   -0.002557896425130239
-0.005246049526401972   -0.09432866234869104   -0.0023437631028861775
-0.0053838704197990825   -0.09449004055241483   -0.002219854548746138
-0.007318020083041917   -0.09816320430582014   -0.002620048215798234
-0.0077472708911407746   -0.09445033884042428   -0.002557896425130239
-0.0053838704197990825   -0.09449004055241483   -0.002219854548746138
-0.008097873422648925   -0.09853191452942883   -0.0027866009930153923
-0.007318020083041917   -0.09816320430582014   -0.002620048215798234
-0.005246049526401972   -0.09432866234869104   -0.0023437631028861775
-0.007926011170074476   -0.09841282748357626   -0.002790306363787209
-0.007090368122631152   -0.09811370203689411   -0.002748309199518065
-0.005246049526401972   -0.09432866234869104   -0.0023437631028861775
-0.0077472708911407746   -0.09445033884042428   -0.002557896425130239
-0.007926011170074476   -0.09841282748357626   -0.002790306363787209
-0.0076273755291723965   -0.09437415109546632   -0.0025544080904995924
-0.007090368122631152   -0.09811370203689411   -0.002748309199518065
-0.007734700701021243   -0.09836971847455368   -0.002779999648258211
-0.0076273755291723965   -0.09437415109546632   -0.0025544080904995924
-0.007926011170074476   -0.09841282748357626   -0.002790306363787209
-0.007090368122631152   -0.09811370203689411   -0.002748309199518065
-0.0076273755291723965   -0.09437415109546632   -0.0025544080904995924
-0.0050909718597886506   -0.09423895539756474   -0.002456456579441021
-0.005246049526401972   -0.09432866234869104   -0.0023437631028861775
-0.007090368122631152   -0.09811370203689411   -0.002748309199518065
-0.0076273755291723965   -0.09437415109546632   -0.0025544080904995924
-0.005246049526401972   -0.09432866234869104   -0.0023437631028861775
-0.007926011170074476   -0.09841282748357626   -0.002790306363787209
-0.007090368122631152   -0.09811370203689411   -0.002748309199518065
-0.0050909718597886506   -0.09423895539756474   -0.002456456579441021
-0.007734700701021243   -0.09836971847455368   -0.002779999648258211
-0.006895314357908155   -0.09814878727001053   -0.002865087265389039
-0.0050909718597886506   -0.09423895539756474   -0.002456456579441021
-0.0076273755291723965   -0.09437415109546632   -0.0025544080904995924
-0.007734700701021243   -0.09836971847455368   -0.002779999648258211
-0.007511737326985184   -0.09435944195955441   -0.0025404315713786637
-0.006895314357908155   -0.09814878727001053   -0.002865087265389039
-0.0075401692529313506   -0.09839909304456289   -0.0027586988252860673
-0.007511737326985184   -0.09435944195955441   -0.0025404315713786637
-0.007734700701021243   -0.09836971847455368   -0.002779999648258211
-0.006895314357908155   -0.09814878727001053   -0.002865087265389039
-0.007511737326985184   -0.09435944195955441   -0.0025404315713786637
-0.004972049706078807   -0.09421841734335105   -0.002558290473794881
-0.0050909718597886506   -0.09423895539756474   -0.002456456579441021
-0.006895314357908155   -0.09814878727001053   -0.002865087265389039
-0.007511737326985184   -0.09435944195955441   -0.0025404315713786637
-0.0050909718597886506   -0.09423895539756474   -0.002456456579441021
-0.007734700701021243   -0.09836971847455368   -0.002779999648258211
-0.008097873422648925   -0.09853191452942883   -0.0027866009930153923
-0.007863201693642493   -0.09459113923842771   -0.0025509995089269427
-0.008725486789540143   -0.0986315114853917   -0.0030873306983745896
-0.007926011170074476   -0.09841282748357626   -0.002790306363787209
-0.007863201693642493   -0.09459113923842771   -0.0025509995089269427
-0.010325188526695717   -0.09450151190300338   -0.002860885593097722
-0.008725486789540143   -0.0986315114853917   -0.0030873306983745896
-0.01021017308354265   -0.09437649294936595   -0.0027555966334721392
-0.007926011170074476   -0.09841282748357626   -0.002790306363787209
-0.00854745875219024   -0.09851801685253629   -0.0029608820530260915
-0.01021017308354265   -0.09437649294936595   -0.0027555966334721392
-0.008725486789540143   -0.0986315114853917   -0.0030873306983745896
-0.007926011170074476   -0.09841282748357626   -0.002790306363787209
-0.01021017308354265   -0.09437649294936595   -0.0027555966334721392
-0.0077472708911407746   -0.09445033884042428   -0.002557896425130239
-0.007863201693642493   -0.09459113923842771   -0.0025509995089269427
-0.007926011170074476   -0.09841282748357626   -0.002790306363787209
-0.01021017308354265   -0.09437649294936595   -0.0027555966334721392
-0.007863201693642493   -0.09459113923842771   -0.0025509995089269427
-0.008725486789540143   -0.0986315114853917   -0.0030873306983745896
-0.007926011170074476   -0.09841282748357626   -0.002790306363787209
-0.0077472708911407746   -0.09445033884042428   -0.002557896425130239
-0.00854745875219024   -0.09851801685253629   -0.0029608820530260915
-0.007734700701021243   -0.09836971847455368   -0.002779999648258211
-0.0077472708911407746   -0.09445033884042428   -0.002557896425130239
-0.01021017308354265   -0.09437649294936595   -0.0027555966334721392
-0.00854745875219024   -0.09851801685253629   -0.0029608820530260915
-0.010081097896424418   -0.09431499617968676   -0.0026400736779421587
-0.007734700701021243   -0.09836971847455368   -0.002779999648258211
-0.008333868591791587   -0.09848174808838944   -0.002817369721027625
-0.010081097896424418   -0.09431499617968676   -0.0026400736779421587
-0.00854745875219024   -0.09851801685253629   -0.0029608820530260915
-0.007734700701021243   -0.09836971847455368   -0.002779999648258211
-0.010081097896424418   -0.09431499617968676   -0.0026400736779421587
-0.0076273755291723965   -0.09437415109546632   -0.0025544080904995924
-0.0077472708911407746   -0.09445033884042428   -0.002557896425130239
-0.007734700701021243   -0.09836971847455368   -0.002779999648258211
-0.010081097896424418   -0.09431499617968676   -0.0026400736779421587
-0.0077472708911407746   -0.09445033884042428   -0.002557896425130239
-0.00854745875219024   -0.09851801685253629   -0.0029608820530260915
-0.007734700701021243   -0.09836971847455368   -0.002779999648258211
-0.0076273755291723965   -0.09437415109546632   -0.0025544080904995924
-0.008333868591791587   -0.09848174808838944   -0.002817369721027625
-0.0075401692529313506   -0.09839909304456289   -0.0027586988252860673
-0.0076273755291723965   -0.09437415109546632   -0.0025544080904995924
-0.010081097896424418   -0.09431499617968676   -0.0026400736779421587
-0.008333868591791587   -0.09848174808838944   -0.002817369721027625
-0.009951459707625808   -0.09431087669383967   -0.0025130693969224556
-0.0075401692529313506   -0.09839909304456289   -0.0027586988252860673
-0.0081141848549887   -0.09851051222098417   -0.0026644812053144306
-0.009951459707625808   -0.09431087669383967   -0.0025130693969224556
-0.008333868591791587   -0.09848174808838944   -0.002817369721027625
-0.0075401692529313506   -0.09839909304456289   -0.0027586988252860673
-0.009951459707625808   -0.09431087669383967   -0.0025130693969224556
-0.007511737326985184   -0.09435944195955441   -0.0025404315713786637
-0.0076273755291723965   -0.09437415109546632   -0.0025544080904995924
-0.0075401692529313506   -0.09839909304456289   -0.0027586988252860673
-0.009951459707625808   -0.09431087669383967   -0.0025130693969224556
-0.0076273755291723965   -0.09437415109546632   -0.0025544080904995924
-0.008333868591791587   -0.09848174808838944   -0.002817369721027625
-0.008725486789540143   -0.0986315114853917   -0.0030873306983745896
-0.010325188526695717   -0.09450151190300338   -0.002860885593097722
-0.009634257798730303   -0.09852624403985946   -0.0033728637586486706
-0.00854745875219024   -0.09851801685253629   -0.0029608820530260915
-0.010325188526695717   -0.09450151190300338   -0.002860885593097722
-0.013030616277283958   -0.09420924381607426   -0.003145415432871026
-0.009634257798730303   -0.09852624403985946   -0.0033728637586486706
-0.012889901676355797   -0.09410006353920795   -0.0029304698038073434
-0.00854745875219024   -0.09851801685253629   -0.0029608820530260915
-0.009401691761894706   -0.09841920127020984   -0.003122541508893298
-0.012889901676355797   -0.09410006353920795   -0.0029304698038073434
-0.009634257798730303   -0.09852624403985946   -0.0033728637586486706
-0.00854745875219024   -0.09851801685253629   -0.0029608820530260915
-0.012889901676355797   -0.09410006353920795   -0.0029304698038073434
-0.01021017308354265   -0.09437649294936595   -0.0027555966334721392
-0.010325188526695717   -0.09450151190300338   -0.002860885593097722
-0.00854745875219024   -0.09851801685253629   -0.0029608820530260915
-0.012889901676355797   -0.09410006353920795   -0.0029304698038073434
-0.010325188526695717   -0.09450151190300338   -0.002860885593097722
-0.009634257798730303   -0.09852624403985946   -0.0033728637586486706
-0.00854745875219024   -0.09851801685253629   -0.0029608820530260915
-0.01021017308354265   -0.09437649294936595   -0.0027555966334721392
-0.009401691761894706   -0.09841920127020984   -0.003122541508893298
-0.008333868591791587   -0.09848174808838944   -0.002817369721027625
-0.01021017308354265   -0.09437649294936595   -0.0027555966334721392
-0.012889901676355797   -0.09410006353920795   -0.0029304698038073434
-0.009401691761894706   -0.09841920127020984   -0.003122541508893298
-0.0126956989876189   -0.09405319900413343   -0.002706033290602823
-0.008333868591791587   -0.09848174808838944   -0.002817369721027625
-0.009094951435551545   -0.098394709741267   -0.0028532364973921295
-0.0126956989876189   -0.09405319900413343   -0.002706033290602823
-0.009401691761894706   -0.09841920127020984   -0.003122541508893298
-0.008333868591791587   -0.09848174808838944   -0.002817369721027625
-0.0126956989876189   -0.09405319900413343   -0.002706033290602823
-0.010081097896424418   -0.09431499617968676   -0.0026400736779421587
-0.01021017308354265   -0.09437649294936595   -0.0027555966334721392
-0.008333868591791587   -0.09848174808838944   -0.002817369721027625
-0.0126956989876189   -0.09405319900413343   -0.002706033290602823
-0.01021017308354265   -0.09437649294936595   -0.0027555966334721392
-0.009401691761894706   -0.09841920127020984   -0.003122541508893298
-0.008333868591791587   -0.09848174808838944   -0.002817369721027625
-0.010081097896424418   -0.09431499617968676   -0.0026400736779421587
-0.009094951435551545   -0.098394709741267   -0.0028532364973921295
-0.0081141848549887   -0.09851051222098417   -0.0026644812053144306
-0.010081097896424418   -0.09431499617968676   -0.0026400736779421587
-0.0126956989876189   -0.09405319900413343   -0.002706033290602823
-0.009094951435551545   -0.098394709741267   -0.0028532364973921295
-0.01252606319170279   -0.09406873133233022   -0.002465831012772635
-0.0081141848549887   -0.09851051222098417   -0.0026644812053144306
-0.008806211367014947   -0.09843679327209323   -0.002573491702980388
-0.01252606319170279   -0.09406873133233022   -0.002465831012772635
-0.009094951435551545   -0.098394709741267   -0.0028532364973921295
-0.0081141848549887   -0.09851051222098417   -0.0026644812053144306
-0.01252606319170279   -0.09406873133233022   -0.002465831012772635
-0.009951459707625808   -0.09431087669383967   -0.0025130693969224556
-0.010081097896424418   -0.09431499617968676   -0.0026400736779421587
-0.0081141848549887   -0.09851051222098417   -0.0026644812053144306
-0.01252606319170279   -0.09406873133233022   -0.002465831012772635
-0.010081097896424418   -0.09431499617968676   -0.0026400736779421587
-0.009094951435551545   -0.098394709741267   -0.0028532364973921295
-0.009634257798730303   -0.09852624403985946   -0.0033728637586486706
-0.013030616277283958   -0.09420924381607426   -0.003145415432871026
-0.011398168059914268   -0.09804384312905616   -0.003675264335129563
-0.009401691761894706   -0.09841920127020984   -0.003122541508893298
-0.013030616277283958   -0.09420924381607426   -0.003145415432871026
-0.01651467285324979   -0.09373392191522996   -0.0034181550478586116
-0.011398168059914268   -0.09804384312905616   -0.003675264335129563
-0.01606263244528797   -0.0936157050248459   -0.00307883056961301
-0.009401691761894706   -0.09841920127020984   -0.003122541508893298
-0.010781288631802503   -0.09795380723450751   -0.0032645498773064296
-0.01606263244528797   -0.0936157050248459   -0.00307883056961301
-0.011398168059914268   -0.09804384312905616   -0.003675264335129563
-0.009401691761894706   -0.09841920127020984   -0.003122541508893298
-0.01606263244528797   -0.0936157050248459   -0.00307883056961301
-0.012889901676355797   -0.09410006353920795   -0.0029304698038073434
-0.013030616277283958   -0.09420924381607426   -0.003145415432871026
-0.009401691761894706   -0.09841920127020984   -0.003122541508893298
-0.01606263244528797   -0.0936157050248459   -0.00307883056961301
-0.013030616277283958   -0.09420924381607426   -0.003145415432871026
-0.011398168059914268   -0.09804384312905616   -0.003675264335129563
-0.009401691761894706   -0.09841920127020984   -0.003122541508893298
-0.012889901676355797   -0.09410006353920795   -0.0029304698038073434
-0.010781288631802503   -0.09795380723450751   -0.0032645498773064296
-0.009094951435551545   -0.098394709741267   -0.0028532364973921295
-0.012889901676355797   -0.09410006353920795   -0.0029304698038073434
-0.01606263244528797   -0.0936157050248459   -0.00307883056961301
-0.010781288631802503   -0.09795380723450751   -0.0032645498773064296
-0.015657205615187287   -0.09357235671851657   -0.0027196207980427797
-0.009094951435551545   -0.098394709741267   -0.0028532364973921295
-0.010214209248771885   -0.09794132496481328   -0.002826027016268714
-0.015657205615187287   -0.09357235671851657   -0.0027196207980427797
-0.010781288631802503   -0.09795380723450751   -0.0032645498773064296
-0.009094951435551545   -0.098394709741267   -0.0028532364973921295
-0.015657205615187287   -0.09357235671851657   -0.0027196207980427797
-0.0126956989876189   -0.09405319900413343   -0.002706033290602823
-0.012889901676355797   -0.09410006353920795   -0.0029304698038073434
-0.009094951435551545   -0.098394709741267   -0.0028532364973921295
-0.015657205615187287   -0.09357235671851657   -0.0027196207980427797
-0.012889901676355797   -0.09410006353920795   -0.0029304698038073434
-0.010781288631802503   -0.09795380723450751   -0.0032645498773064296
-0.009094951435551545   -0.098394709741267   -0.0028532364973921295
-0.0126956989876189   -0.09405319900413343   -0.002706033290602823
-0.010214209248771885   -0.09794132496481328   -0.002826027016268714
-0.008806211367014947   -0.09843679327209323   -0.002573491702980388
-0.0126956989876189   -0.09405319900413343   -0.002706033290602823
-0.015657205615187287   -0.09357235671851657   -0.0027196207980427797
-0.010214209248771885   -0.09794132496481328   -0.002826027016268714
-0.015131721708811644   -0.09362616475755389   -0.002343948338331248
-0.008806211367014947   -0.09843679327209323   -0.002573491702980388
-0.009498102817817655   -0.09805953786087214   -0.0023672855432597673
-0.015131721708811644   -0.09362616475755389   -0.002343948338331248
-0.010214209248771885   -0.09794132496481328   -0.002826027016268714
-0.008806211367014947   -0.09843679327209323   -0.002573491702980388
-0.015131721708811644   -0.09362616475755389   -0.002343948338331248
-0.01252606319170279   -0.09406873133233022   -0.002465831012772635
-0.0126956989876189   -0.09405319900413343   -0.002706033290602823
-0.008806211367014947   -0.09843679327209323   -0.002573491702980388
-0.015131721708811644   -0.09362616475755389   -0.002343948338331248
-0.0126956989876189   -0.09405319900413343   -0.002706033290602823
-0.010214209248771885   -0.09794132496481328   -0.002826027016268714
-0.0028708924129763453   -0.09420380920993114   -0.0018140319654871952
0.0005381750449695056   -0.08738248988303071   -0.0015010152925711636
-0.0053838704197990825   -0.09449004055241483   -0.002219854548746138
-0.0024766759631076217   -0.09400417227263136   -0.00209514153839258
0.0005381750449695056   -0.08738248988303071   -0.0015010152925711636
-0.0036956102877369655   -0.08759211353798134   -0.001899346178046294
-0.0053838704197990825   -0.09449004055241483   -0.002219854548746138
-0.003622656484763619   -0.08742300980468393   -0.001997542657896832
-0.0024766759631076217   -0.09400417227263136   -0.00209514153839258
-0.005246049526401972   -0.09432866234869104   -0.0023437631028861775
-0.003622656484763619   -0.08742300980468393   -0.001997542657896832
-0.0053838704197990825   -0.09449004055241483   -0.002219854548746138
-0.0024766759631076217   -0.09400417227263136   -0.00209514153839258
-0.003622656484763619   -0.08742300980468393   -0.001997542657896832
0.0008130718623954015   -0.08717971514544677   -0.0017245996236478034
0.0005381750449695056   -0.08738248988303071   -0.0015010152925711636
-0.0024766759631076217   -0.09400417227263136   -0.00209514153839258
-0.003622656484763619   -0.08742300980468393   -0.001997542657896832
0.0005381750449695056   -0.08738248988303071   -0.0015010152925711636
-0.0053838704197990825   -0.09449004055241483   -0.002219854548746138
-0.0024766759631076217   -0.09400417227263136   -0.00209514153839258
0.0008130718623954015   -0.08717971514544677   -0.0017245996236478034
-0.005246049526401972   -0.09432866234869104   -0.0023437631028861775
-0.002166482367942283   -0.09390875894673631   -0.0023596247254325364
0.0008130718623954015   -0.08717971514544677   -0.0017245996236478034
-0.003622656484763619   -0.08742300980468393   -0.001997542657896832
-0.005246049526401972   -0.09432866234869104   -0.0023437631028861775
-0.003539645007990852   -0.08731228551553066   -0.0020842542656359037
-0.002166482367942283   -0.09390875894673631   -0.0023596247254325364
-0.0050909718597886506   -0.09423895539756474   -0.002456456579441021
-0.003539645007990852   -0.08731228551553066   -0.0020842542656359037
-0.005246049526401972   -0.09432866234869104   -0.0023437631028861775
-0.002166482367942283   -0.09390875894673631   -0.0023596247254325364
-0.003539645007990852   -0.08731228551553066   -0.0020842542656359037
0.0010152460057129627   -0.08706221277623041   -0.0019321092877250014
0.0008130718623954015   -0.08717971514544677   -0.0017245996236478034
-0.002166482367942283   -0.09390875894673631   -0.0023596247254325364
-0.003539645007990852   -0.08731228551553066   -0.0020842542656359037
0.0008130718623954015   -0.08717971514544677   -0.0017245996236478034
-0.005246049526401972   -0.09432866234869104   -0.0023437631028861775
-0.002166482367942283   -0.09390875894673631   -0.0023596247254325364
0.0010152460057129627   -0.08706221277623041   -0.0019321092877250014
-0.0050909718597886506   -0.09423895539756474   -0.002456456579441021
-0.001827906689587303   -0.09389022240718901   -0.0026067751315400436
0.0010152460057129627   -0.08706221277623041   -0.0019321092877250014
-0.003539645007990852   -0.08731228551553066   -0.0020842542656359037
-0.0050909718597886506   -0.09423895539756474   -0.002456456579441021
-0.0034900234928844443   -0.08725667395617255   -0.002160614507184195
-0.001827906689587303   -0.09389022240718901   -0.0026067751315400436
-0.004972049706078807   -0.09421841734335105   -0.002558290473794881
-0.0034900234928844443   -0.08725667395617255   -0.002160614507184195
-0.0050909718597886506   -0.09423895539756474   -0.002456456579441021
-0.001827906689587303   -0.09389022240718901   -0.0026067751315400436
-0.0034900234928844443   -0.08725667395617255   -0.002160614507184195
0.0012315072902157633   -0.08700379147816843   -0.002123462834366667
0.0010152460057129627   -0.08706221277623041   -0.0019321092877250014
-0.001827906689587303   -0.09389022240718901   -0.0026067751315400436
-0.0034900234928844443   -0.08725667395617255   -0.002160614507184195
0.0010152460057129627   -0.08706221277623041   -0.0019321092877250014
-0.0050909718597886506   -0.09423895539756474   -0.002456456579441021
-0.0053838704197990825   -0.09449004055241483   -0.002219854548746138
-0.0036956102877369655   -0.08759211353798134   -0.001899346178046294
-0.007863201693642493   -0.09459113923842771   -0.0025509995089269427
-0.005246049526401972   -0.09432866234869104   -0.0023437631028861775
-0.0036956102877369655   -0.08759211353798134   -0.001899346178046294
-0.007790156689543129   -0.08763218042650202   -0.0022277525978753507
-0.007863201693642493   -0.09459113923842771   -0.0025509995089269427
-0.0077364821212667165   -0.08748696996583318   -0.002230332859269356
-0.005246049526401972   -0.09432866234869104   -0.0023437631028861775
-0.0077472708911407746   -0.09445033884042428   -0.002557896425130239
-0.0077364821212667165   -0.08748696996583318   -0.002230332859269356
-0.007863201693642493   -0.09459113923842771   -0.0025509995089269427
-0.005246049526401972   -0.09432866234869104   -0.0023437631028861775
-0.0077364821212667165   -0.08748696996583318   -0.002230332859269356
-0.003622656484763619   -0.08742300980468393   -0.001997542657896832
-0.0036956102877369655   -0.08759211353798134   -0.001899346178046294
-0.005246049526401972   -0.09432866234869104   -0.0023437631028861775
-0.0077364821212667165   -0.08748696996583318   -0.002230332859269356
-0.0036956102877369655   -0.08759211353798134   -0.001899346178046294
-0.007863201693642493   -0.09459113923842771   -0.0025509995089269427
-0.005246049526401972   -0.09432866234869104   -0.0023437631028861775
-0.003622656484763619   -0.08742300980468393   -0.001997542657896832
-0.0077472708911407746   -0.09445033884042428   -0.002557896425130239
-0.0050909718597886506   -0.09423895539756474   -0.002456456579441021
-0.003622656484763619   -0.08742300980468393   -0.001997542657896832
-0.0077364821212667165   -0.08748696996583318   -0.002230332859269356
-0.0077472708911407746   -0.09445033884042428   -0.002557896425130239
-0.00768129709444085   -0.0873940167996975   -0.0022219123469576084
-0.0050909718597886506   -0.09423895539756474   -0.002456456579441021
-0.0076273755291723965   -0.09437415109546632   -0.0025544080904995924
-0.00768129709444085   -0.0873940167996975   -0.0022219123469576084
-0.0077472708911407746   -0.09445033884042428   -0.002557896425130239
-0.0050909718597886506   -0.09423895539756474   -0.002456456579441021
-0.00768129709444085   -0.0873940167996975   -0.0022219123469576084
-0.003539645007990852   -0.08731228551553066   -0.0020842542656359037
-0.003622656484763619   -0.08742300980468393   -0.001997542657896832
-0.0050909718597886506   -0.09423895539756474   -0.002456456579441021
-0.00768129709444085   -0.0873940167996975   -0.0022219123469576084
-0.003622656484763619   -0.08742300980468393   -0.001997542657896832
-0.0077472708911407746   -0.09445033884042428   -0.002557896425130239
-0.0050909718597886506   -0.09423895539756474   -0.002456456579441021
-0.003539645007990852   -0.08731228551553066   -0.0020842542656359037
-0.0076273755291723965   -0.09437415109546632   -0.0025544080904995924
-0.004972049706078807   -0.09421841734335105   -0.002558290473794881
-0.003539645007990852   -0.08731228551553066   -0.0020842542656359037
-0.00768129709444085   -0.0873940167996975   -0.0022219123469576084
-0.0076273755291723965   -0.09437415109546632   -0.0025544080904995924
-0.00763302648023803   -0.08735245054940678   -0.002203219102293313
-0.004972049706078807   -0.09421841734335105   -0.002558290473794881
-0.007511737326985184   -0.09435944195955441   -0.0025404315713786637
-0.00763302648023803   -0.08735245054940678   -0.002203219102293313
-0.0076273755291723965   -0.09437415109546632   -0.0025544080904995924
-0.004972049706078807   -0.09421841734335105   -0.002558290473794881
-0.00763302648023803   -0.08735245054940678   -0.002203219102293313
-0.0034900234928844443   -0.08725667395617255   -0.002160614507184195
-0.003539645007990852   -0.08731228551553066   -0.0020842542656359037
-0.004972049706078807   -0.09421841734335105   -0.002558290473794881
-0.00763302648023803   -0.08735245054940678   -0.002203219102293313
-0.003539645007990852   -0.08731228551553066   -0.0020842542656359037
-0.0076273755291723965   -0.09437415109546632   -0.0025544080904995924
-0.007863201693642493   -0.09459113923842771   -0.0025509995089269427
-0.007790156689543129   -0.08763218042650202   -0.0022277525978753507
-0.010325188526695717   -0.09450151190300338   -0.002860885593097722
-0.0077472708911407746   -0.09445033884042428   -0.002557896425130239
-0.007790156689543129   -0.08763218042650202   -0.0022277525978753507
-0.011820082204431474   -0.08750190700110827   -0.0025242145227568308
-0.010325188526695717   -0.09450151190300338   -0.002860885593097722
-0.011770106520527448   -0.0873766040989799   -0.0024334877897970826
-0.0077472708911407746   -0.09445033884042428   -0.002557896425130239
-0.01021017308354265   -0.09437649294936595   -0.0027555966334721392
-0.011770106520527448   -0.0873766040989799   -0.0024334877897970826
-0.010325188526695717   -0.09450151190300338   -0.002860885593097722
-0.0077472708911407746   -0.09445033884042428   -0.002557896425130239
-0.011770106520527448   -0.0873766040989799   -0.0024334877897970826
-0.0077364821212667165   -0.08748696996583318   -0.002230332859269356
-0.007790156689543129   -0.08763218042650202   -0.0022277525978753507
-0.0077472708911407746   -0.09445033884042428   -0.002557896425130239
-0.011770106520527448   -0.0873766040989799   -0.0024334877897970826
-0.007790156689543129   -0.08763218042650202   -0.0022277525978753507
-0.010325188526695717   -0.09450151190300338   -0.002860885593097722
-0.0077472708911407746   -0.09445033884042428   -0.002557896425130239
-0.0077364821212667165   -0.08748696996583318   -0.002230332859269356
-0.01021017308354265   -0.09437649294936595   -0.0027555966334721392
-0.0076273755291723965   -0.09437415109546632   -0.0025544080904995924
-0.0077364821212667165   -0.08748696996583318   -0.002230332859269356
-0.011770106520527448   -0.0873766040989799   -0.0024334877897970826
-0.01021017308354265   -0.09437649294936595   -0.0027555966334721392
-0.011709722695672529   -0.08730298230347125   -0.0023319964980850556
-0.0076273755291723965   -0.09437415109546632   -0.0025544080904995924
-0.010081097896424418   -0.09431499617968676   -0.0026400736779421587
-0.011709722695672529   -0.08730298230347125   -0.0023319964980850556
-0.01021017308354265   -0.09437649294936595   -0.0027555966334721392
-0.0076273755291723965   -0.09437415109546632   -0.0025544080904995924
-0.011709722695672529   -0.08730298230347125   -0.0023319964980850556
-0.00768129709444085   -0.0873940167996975   -0.0022219123469576084
-0.0077364821212667165   -0.08748696996583318   -0.002230332859269356
-0.0076273755291723965   -0.09437415109546632   -0.0025544080904995924
-0.011709722695672529   -0.08730298230347125   -0.0023319964980850556
-0.0077364821212667165   -0.08748696996583318   -0.002230332859269356
-0.01021017308354265   -0.09437649294936595   -0.0027555966334721392
-0.0076273755291723965   -0.09437415109546632   -0.0025544080904995924
-0.00768129709444085   -0.0873940167996975   -0.0022219123469576084
-0.010081097896424418   -0.09431499617968676   -0.0026400736779421587
-0.007511737326985184   -0.09435944195955441   -0.0025404315713786637
-0.00768129709444085   -0.0873940167996975   -0.0022219123469576084
-0.011709722695672529   -0.08730298230347125   -0.0023319964980850556
-0.010081097896424418   -0.09431499617968676   -0.0026400736779421587
-0.011650974530017393   -0.0872786248764812   -0.0022200727407292414
-0.007511737326985184   -0.09435944195955441   -0.0025404315713786637
-0.009951459707625808   -0.09431087669383967   -0.0025130693969224556
-0.011650974530017393   -0.0872786248764812   -0.0022200727407292414
-0.010081097896424418   -0.09431499617968676   -0.0026400736779421587
-0.007511737326985184   -0.09435944195955441   -0.0025404315713786637
-0.011650974530017393   -0.0872786248764812   -0.0022200727407292414
-0.00763302648023803   -0.08735245054940678   -0.002203219102293313
-0.00768129709444085   -0.0873940167996975   -0.0022219123469576084
-0.007511737326985184   -0.09435944195955441   -0.0025404315713786637
-0.011650974530017393   -0.0872786248764812   -0.0022200727407292414
-0.00768129709444085   -0.0873940167996975   -0.0022219123469576084
-0.010081097896424418   -0.09431499617968676   -0.0026400736779421587
-0.010325188526695717   -0.09450151190300338   -0.002860885593097722
-0.011820082204431474   -0.08750190700110827   -0.0025242145227568308
-0.013030616277283958   -0.09420924381607426   -0.003145415432871026
-0.01021017308354265   -0.09437649294936595   -0.0027555966334721392
-0.011820082204431474   -0.08750190700110827   -0.0025242145227568308
-0.016043633046312938   -0.08720594581671126   -0.0027875469197917303
-0.013030616277283958   -0.09420924381607426   -0.003145415432871026
-0.015978430739416443   -0.08709967605995488   -0.002603408765582609
-0.01021017308354265   -0.09437649294936595   -0.0027555966334721392
-0.012889901676355797   -0.09410006353920795   -0.0029304698038073434
-0.015978430739416443   -0.08709967605995488   -0.002603408765582609
-0.013030616277283958   -0.09420924381607426   -0.003145415432871026
-0.01021017308354265   -0.09437649294936595   -0.0027555966334721392
-0.015978430739416443   -0.08709967605995488   -0.002603408765582609
-0.011770106520527448   -0.0873766040989799   -0.0024334877897970826
-0.011820082204431474   -0.08750190700110827   -0.0025242145227568308
-0.01021017308354265   -0.09437649294936595   -0.0027555966334721392
-0.015978430739416443   -0.08709967605995488   -0.002603408765582609
-0.011820082204431474   -0.08750190700110827   -0.0025242145227568308
-0.013030616277283958   -0.09420924381607426   -0.003145415432871026
-0.01021017308354265   -0.09437649294936595   -0.0027555966334721392
-0.011770106520527448   -0.0873766040989799   -0.0024334877897970826
-0.012889901676355797   -0.09410006353920795   -0.0029304698038073434
-0.010081097896424418   -0.09431499617968676   -0.0026400736779421587
-0.011770106520527448   -0.0873766040989799   -0.0024334877897970826
-0.015978430739416443   -0.08709967605995488   -0.002603408765582609
-0.012889901676355797   -0.09410006353920795   -0.0029304698038073434
-0.015867940300157965   -0.08704358095547157   -0.0024101563779589997
-0.010081097896424418   -0.09431499617968676   -0.0026400736779421587
-0.0126956989876189   -0.09405319900413343   -0.002706033290602823
-0.015867940300157965   -0.08704358095547157   -0.0024101563779589997
-0.012889901676355797   -0.09410006353920795   -0.0029304698038073434
-0.010081097896424418   -0.09431499617968676   -0.0026400736779421587
-0.015867940300157965   -0.08704358095547157   -0.0024101563779589997
-0.011709722695672529   -0.08730298230347125   -0.0023319964980850556
-0.011770106520527448   -0.0873766040989799   -0.0024334877897970826
-0.010081097896424418   -0.09431499617968676   -0.0026400736779421587
-0.015867940300157965   -0.08704358095547157   -0.0024101563779589997
-0.011770106520527448   -0.0873766040989799   -0.0024334877897970826
-0.012889901676355797   -0.09410006353920795   -0.0029304698038073434
-0.010081097896424418   -0.09431499617968676   -0.0026400736779421587
-0.011709722695672529   -0.08730298230347125   -0.0023319964980850556
-0.0126956989876189   -0.09405319900413343   -0.002706033290602823
-0.009951459707625808   -0.09431087669383967   -0.0025130693969224556
-0.011709722695672529   -0.08730298230347125   -0.0023319964980850556
-0.015867940300157965   -0.08704358095547157   -0.0024101563779589997
-0.0126956989876189   -0.09405319900413343   -0.002706033290602823
-0.015778098327698248   -0.08704060978931193   -0.0022049559452665137
-0.009951459707625808   -0.09431087669383967   -0.0025130693969224556
-0.01252606319170279   -0.09406873133233022   -0.002465831012772635
-0.015778098327698248   -0.08704060978931193   -0.0022049559452665137
-0.0126956989876189   -0.09405319900413343   -0.002706033290602823
-0.009951459707625808   -0.09431087669383967   -0.0025130693969224556
-0.015778098327698248   -0.08704060978931193   -0.0022049559452665137
-0.011650974530017393   -0.0872786248764812   -0.0022200727407292414
-0.011709722695672529   -0.08730298230347125   -0.0023319964980850556
-0.009951459707625808   -0.09431087669383967   -0.0025130693969224556
-0.015778098327698248   -0.08704060978931193   -0.0022049559452665137
-0.011709722695672529   -0.08730298230347125   -0.0023319964980850556
-0.0126956989876189   -0.09405319900413343   -0.002706033290602823
-0.013030616277283958   -0.09420924381607426   -0.003145415432871026
-0.016043633046312938   -0.08720594581671126   -0.0027875469197917303
-0.01651467285324979   -0.09373392191522996   -0.0034181550478586116
-0.012889901676355797   -0.09410006353920795   -0.0029304698038073434
-0.016043633046312938   -0.08720594581671126   -0.0027875469197917303
-0.02096944487607633   -0.08678006244184887   -0.0030328175430679037
-0.01651467285324979   -0.09373392191522996   -0.0034181550478586116
-0.020636310110328134   -0.08666935016355343   -0.0027446546247130894
-0.012889901676355797   -0.09410006353920795   -0.0029304698038073434
-0.01606263244528797   -0.0936157050248459   -0.00307883056961301
-0.020636310110328134   -0.08666935016355343   -0.0027446546247130894
-0.01651467285324979   -0.09373392191522996   -0.0034181550478586116
-0.012889901676355797   -0.09410006353920795   -0.0029304698038073434
-0.020636310110328134   -0.08666935016355343   -0.0027446546247130894
-0.015978430739416443   -0.08709967605995488   -0.002603408765582609
-0.016043633046312938   -0.08720594581671126   -0.0027875469197917303
-0.012889901676355797   -0.09410006353920795   -0.0029304698038073434
-0.020636310110328134   -0.08666935016355343   -0.0027446546247130894
-0.016043633046312938   -0.08720594581671126   -0.0027875469197917303
-0.01651467285324979   -0.09373392191522996   -0.0034181550478586116
-0.012889901676355797   -0.09410006353920795   -0.0029304698038073434
-0.015978430739416443   -0.08709967605995488   -0.002603408765582609
-0.01606263244528797   -0.0936157050248459   -0.00307883056961301
-0.0126956989876189   -0.09405319900413343   -0.002706033290602823
-0.015978430739416443   -0.08709967605995488   -0.002603408765582609
-0.020636310110328134   -0.08666935016355343   -0.0027446546247130894
-0.01606263244528797   -0.0936157050248459   -0.00307883056961301
-0.020347019392088644   -0.08661801224454684   -0.0024414755685143305
-0.0126956989876189   -0.09405319900413343   -0.002706033290602823
-0.015657205615187287   -0.09357235671851657   -0.0027196207980427797
-0.020347019392088644   -0.08661801224454684   -0.0024414755685143305
-0.01606263244528797   -0.0936157050248459   -0.00307883056961301
-0.0126956989876189   -0.09405319900413343   -0.002706033290602823
-0.020347019392088644   -0.08661801224454684   -0.0024414755685143305
-0.015867940300157965   -0.08704358095547157   -0.0024101563779589997
-0.015978430739416443   -0.08709967605995488   -0.002603408765582609
-0.0126956989876189   -0.09405319900413343   -0.002706033290602823
-0.020347019392088644   -0.08661801224454684   -0.0024414755685143305
-0.015978430739416443   -0.08709967605995488   -0.002603408765582609
-0.01606263244528797   -0.0936157050248459   -0.00307883056961301
-0.0126956989876189   -0.09405319900413343   -0.002706033290602823
-0.015867940300157965   -0.08704358095547157   -0.0024101563779589997
-0.015657205615187287   -0.09357235671851657   -0.0027196207980427797
-0.01252606319170279   -0.09406873133233022   -0.002465831012772635
-0.015867940300157965   -0.08704358095547157   -0.0024101563779589997
-0.020347019392088644   -0.08661801224454684   -0.0024414755685143305
-0.015657205615187287   -0.09357235671851657   -0.0027196207980427797
-0.01995719954929504   -0.08664790901324983   -0.0021252144665924078
-0.01252606319170279   -0.09406873133233022   -0.002465831012772635
-0.015131721708811644   -0.09362616475755389   -0.002343948338331248
-0.01995719954929504   -0.08664790901324983   -0.0021252144665924078
-0.015657205615187287   -0.09357235671851657   -0.0027196207980427797
-0.01252606319170279   -0.09406873133233022   -0.002465831012772635
-0.01995719954929504   -0.08664790901324983   -0.0021252144665924078
-0.015778098327698248   -0.08704060978931193   -0.0022049559452665137
-0.015867940300157965   -0.08704358095547157   -0.0024101563779589997
-0.01252606319170279   -0.09406873133233022   -0.002465831012772635
-0.01995719954929504   -0.08664790901324983   -0.0021252144665924078
-0.015867940300157965   -0.08704358095547157   -0.0024101563779589997
-0.015657205615187287   -0.09357235671851657   -0.0027196207980427797
0.0005381750449695056   -0.08738248988303071   -0.0015010152925711636
0.003123195446098314   -0.07812992996394147   -0.001143996156437357
-0.0036956102877369655   -0.08759211353798134   -0.001899346178046294
0.0008130718623954015   -0.08717971514544677   -0.0017245996236478034
0.003123195446098314   -0.07812992996394147   -0.001143996156437357
-0.0024783806520935056   -0.0782682467765585   -0.001524163050677485
-0.0036956102877369655   -0.08759211353798134   -0.001899346178046294
-0.002463336415430825   -0.07810005282123032   -0.0015921290390434042
0.0008130718623954015   -0.08717971514544677   -0.0017245996236478034
-0.003622656484763619   -0.08742300980468393   -0.001997542657896832
-0.002463336415430825   -0.07810005282123032   -0.0015921290390434042
-0.0036956102877369655   -0.08759211353798134   -0.001899346178046294
0.0008130718623954015   -0.08717971514544677   -0.0017245996236478034
-0.002463336415430825   -0.07810005282123032   -0.0015921290390434042
0.0032860707863330146   -0.0779320921119081   -0.001309125872238357
0.003123195446098314   -0.07812992996394147   -0.001143996156437357
0.0008130718623954015   -0.08717971514544677   -0.0017245996236478034
-0.002463336415430825   -0.07810005282123032   -0.0015921290390434042
0.003123195446098314   -0.07812992996394147   -0.001143996156437357
-0.0036956102877369655   -0.08759211353798134   -0.001899346178046294
0.0008130718623954015   -0.08717971514544677   -0.0017245996236478034
0.0032860707863330146   -0.0779320921119081   -0.001309125872238357
-0.003622656484763619   -0.08742300980468393   -0.001997542657896832
0.0010152460057129627   -0.08706221277623041   -0.0019321092877250014
0.0032860707863330146   -0.0779320921119081   -0.001309125872238357
-0.002463336415430825   -0.07810005282123032   -0.0015921290390434042
-0.003622656484763619   -0.08742300980468393   -0.001997542657896832
-0.0024442214224456044   -0.07797785714143586   -0.001649611302787426
0.0010152460057129627   -0.08706221277623041   -0.0019321092877250014
-0.003539645007990852   -0.08731228551553066   -0.0020842542656359037
-0.0024442214224456044   -0.07797785714143586   -0.001649611302787426
-0.003622656484763619   -0.08742300980468393   -0.001997542657896832
0.0010152460057129627   -0.08706221277623041   -0.0019321092877250014
-0.0024442214224456044   -0.07797785714143586   -0.001649611302787426
0.003390097322498752   -0.07780196485791867   -0.0014594432092073484
0.0032860707863330146   -0.0779320921119081   -0.001309125872238357
0.0010152460057129627   -0.08706221277623041   -0.0019321092877250014
-0.0024442214224456044   -0.07797785714143586   -0.001649611302787426
0.0032860707863330146   -0.0779320921119081   -0.001309125872238357
-0.003622656484763619   -0.08742300980468393   -0.001997542657896832
0.0010152460057129627   -0.08706221277623041   -0.0019321092877250014
0.003390097322498752   -0.07780196485791867   -0.0014594432092073484
-0.003539645007990852   -0.08731228551553066   -0.0020842542656359037
0.0012315072902157633   -0.08700379147816843   -0.002123462834366667
0.003390097322498752   -0.07780196485791867   -0.0014594432092073484
-0.0024442214224456044   -0.07797785714143586   -0.001649611302787426
-0.003539645007990852   -0.08731228551553066   -0.0020842542656359037
-0.0024535875489883276   -0.07789776435782599   -0.0016973750231307073
0.0012315072902157633   -0.08700379147816843   -0.002123462834366667
-0.0034900234928844443   -0.08725667395617255   -0.002160614507184195
-0.0024535875489883276   -0.07789776435782599   -0.0016973750231307073
-0.003539645007990852   -0.08731228551553066   -0.0020842542656359037
0.0012315072902157633   -0.08700379147816843   -0.002123462834366667
-0.0024535875489883276   -0.07789776435782599   -0.0016973750231307073
0.003496738764411913   -0.07771440278515078   -0.001595256223858844
0.003390097322498752   -0.07780196485791867   -0.0014594432092073484
0.0012315072902157633   -0.08700379147816843   -0.002123462834366667
-0.0024535875489883276   -0.07789776435782599   -0.0016973750231307073
0.003390097322498752   -0.07780196485791867   -0.0014594432092073484
-0.003539645007990852   -0.08731228551553066   -0.0020842542656359037
-0.0036956102877369655   -0.08759211353798134   -0.001899346178046294
-0.0024783806520935056   -0.0782682467765585   -0.001524163050677485
-0.007790156689543129   -0.08763218042650202   -0.0022277525978753507
-0.003622656484763619   -0.08742300980468393   -0.001997542657896832
-0.0024783806520935056   -0.0782682467765585   -0.001524163050677485
-0.007867717839437554   -0.0782688398235442   -0.0018379522945800144
-0.007790156689543129   -0.08763218042650202   -0.0022277525978753507
-0.007868474273803237   -0.0781264525638703   -0.0018315443349066793
-0.003622656484763619   -0.08742300980468393   -0.001997542657896832
-0.0077364821212667165   -0.08748696996583318   -0.002230332859269356
-0.007868474273803237   -0.0781264525638703   -0.0018315443349066793
-0.007790156689543129   -0.08763218042650202   -0.0022277525978753507
-0.003622656484763619   -0.08742300980468393   -0.001997542657896832
-0.007868474273803237   -0.0781264525638703   -0.0018315443349066793
-0.002463336415430825   -0.07810005282123032   -0.0015921290390434042
-0.0024783806520935056   -0.0782682467765585   -0.001524163050677485
-0.003622656484763619   -0.08742300980468393   -0.001997542657896832
-0.007868474273803237   -0.0781264525638703   -0.0018315443349066793
-0.0024783806520935056   -0.0782682467765585   -0.001524163050677485
-0.007790156689543129   -0.08763218042650202   -0.0022277525978753507
-0.003622656484763619   -0.08742300980468393   -0.001997542657896832
-0.002463336415430825   -0.07810005282123032   -0.0015921290390434042
-0.0077364821212667165   -0.08748696996583318   -0.002230332859269356
-0.003539645007990852   -0.08731228551553066   -0.0020842542656359037
-0.002463336415430825   -0.07810005282123032   -0.0015921290390434042
-0.007868474273803237   -0.0781264525638703   -0.0018315443349066793
-0.0077364821212667165   -0.08748696996583318   -0.002230332859269356
-0.007868873392232086   -0.07802462026829218   -0.0018146966392423196
-0.003539645007990852   -0.08731228551553066   -0.0020842542656359037
-0.00768129709444085   -0.0873940167996975   -0.0022219123469576084
-0.007868873392232086   -0.07802462026829218   -0.0018146966392423196
-0.0077364821212667165   -0.08748696996583318   -0.002230332859269356
-0.003539645007990852   -0.08731228551553066   -0.0020842542656359037
-0.007868873392232086   -0.07802462026829218   -0.0018146966392423196
-0.0024442214224456044   -0.07797785714143586   -0.001649611302787426
-0.002463336415430825   -0.07810005282123032   -0.0015921290390434042
-0.003539645007990852   -0.08731228551553066   -0.0020842542656359037
-0.007868873392232086   -0.07802462026829218   -0.0018146966392423196
-0.002463336415430825   -0.07810005282123032   -0.0015921290390434042
-0.0077364821212667165   -0.08748696996583318   -0.002230332859269356
-0.003539645007990852   -0.08731228551553066   -0.0020842542656359037
-0.0024442214224456044   -0.07797785714143586   -0.001649611302787426
-0.00768129709444085   -0.0873940167996975   -0.0022219123469576084
-0.0034900234928844443   -0.08725667395617255   -0.002160614507184195
-0.0024442214224456044   -0.07797785714143586   -0.001649611302787426
-0.007868873392232086   -0.07802462026829218   -0.0018146966392423196
-0.00768129709444085   -0.0873940167996975   -0.0022219123469576084
-0.00787648545161739   -0.07796341327656944   -0.0017879466553611075
-0.0034900234928844443   -0.08725667395617255   -0.002160614507184195
-0.00763302648023803   -0.08735245054940678   -0.002203219102293313
-0.00787648545161739   -0.07796341327656944   -0.0017879466553611075
-0.00768129709444085   -0.0873940167996975   -0.0022219123469576084
-0.0034900234928844443   -0.08725667395617255   -0.002160614507184195
-0.00787648545161739   -0.07796341327656944   -0.0017879466553611075
-0.0024535875489883276   -0.07789776435782599   -0.0016973750231307073
-0.0024442214224456044   -0.07797785714143586   -0.001649611302787426
-0.0034900234928844443   -0.08725667395617255   -0.002160614507184195
-0.00787648545161739   -0.07796341327656944   -0.0017879466553611075
-0.0024442214224456044   -0.07797785714143586   -0.001649611302787426
-0.00768129709444085   -0.0873940167996975   -0.0022219123469576084
-0.007790156689543129   -0.08763218042650202   -0.0022277525978753507
-0.007867717839437554   -0.0782688398235442   -0.0018379522945800144
-0.011820082204431474   -0.08750190700110827   -0.0025242145227568308
-0.0077364821212667165   -0.08748696996583318   -0.002230332859269356
-0.007867717839437554   -0.0782688398235442   -0.0018379522945800144
-0.013165273828560432   -0.07813479709202086   -0.002112902931579842
-0.011820082204431474   -0.08750190700110827   -0.0025242145227568308
-0.013170010093273858   -0.0780151096530011   -0.0020330150095878713
-0.0077364821212667165   -0.08748696996583318   -0.002230332859269356
-0.011770106520527448   -0.0873766040989799   -0.0024334877897970826
-0.013170010093273858   -0.0780151096530011   -0.0020330150095878713
-0.011820082204431474   -0.08750190700110827   -0.0025242145227568308
-0.0077364821212667165   -0.08748696996583318   -0.002230332859269356
-0.013170010093273858   -0.0780151096530011   -0.0020330150095878713
-0.007868474273803237   -0.0781264525638703   -0.0018315443349066793
-0.007867717839437554   -0.0782688398235442   -0.0018379522945800144
-0.0077364821212667165   -0.08748696996583318   -0.002230332859269356
-0.013170010093273858   -0.0780151096530011   -0.0020330150095878713
-0.007867717839437554   -0.0782688398235442   -0.0018379522945800144
-0.011820082204431474   -0.08750190700110827   -0.0025242145227568308
-0.0077364821212667165   -0.08748696996583318   -0.002230332859269356
-0.007868474273803237   -0.0781264525638703   -0.0018315443349066793
-0.011770106520527448   -0.0873766040989799   -0.0024334877897970826
-0.00768129709444085   -0.0873940167996975   -0.0022219123469576084
-0.007868474273803237   -0.0781264525638703   -0.0018315443349066793
-0.013170010093273858   -0.0780151096530011   -0.0020330150095878713
-0.011770106520527448   -0.0873766040989799   -0.0024334877897970826
-0.013165711041261742   -0.07793561802123432   -0.0019428877873581241
-0.00768129709444085   -0.0873940167996975   -0.0022219123469576084
-0.011709722695672529   -0.08730298230347125   -0.0023319964980850556
-0.013165711041261742   -0.07793561802123432   -0.0019428877873581241
-0.011770106520527448   -0.0873766040989799   -0.0024334877897970826
-0.00768129709444085   -0.0873940167996975   -0.0022219123469576084
-0.013165711041261742   -0.07793561802123432   -0.0019428877873581241
-0.007868873392232086   -0.07802462026829218   -0.0018146966392423196
-0.007868474273803237   -0.0781264525638703   -0.0018315443349066793
-0.00768129709444085   -0.0873940167996975   -0.0022219123469576084
-0.013165711041261742   -0.07793561802123432   -0.0019428877873581241
-0.007868474273803237   -0.0781264525638703   -0.0018315443349066793
-0.011770106520527448   -0.0873766040989799   -0.0024334877897970826
-0.00768129709444085   -0.0873940167996975   -0.0022219123469576084
-0.007868873392232086   -0.07802462026829218   -0.0018146966392423196
-0.011709722695672529   -0.08730298230347125   -0.0023319964980850556
-0.00763302648023803   -0.08735245054940678   -0.002203219102293313
-0.007868873392232086   -0.07802462026829218   -0.0018146966392423196
-0.013165711041261742   -0.07793561802123432   -0.0019428877873581241
-0.011709722695672529   -0.08730298230347125   -0.0023319964980850556
-0.01316303132737744   -0.07789561230156264   -0.0018428209060478212
-0.00763302648023803   -0.08735245054940678   -0.002203219102293313
-0.011650974530017393   -0.0872786248764812   -0.0022200727407292414
-0.01316303132737744   -0.07789561230156264   -0.0018428209060478212
-0.011709722695672529   -0.08730298230347125   -0.0023319964980850556
-0.00763302648023803   -0.08735245054940678   -0.002203219102293313
-0.01316303132737744   -0.07789561230156264   -0.0018428209060478212
-0.00787648545161739   -0.07796341327656944   -0.0017879466553611075
-0.007868873392232086   -0.07802462026829218   -0.0018146966392423196
-0.00763302648023803   -0.08735245054940678   -0.002203219102293313
-0.01316303132737744   -0.07789561230156264   -0.0018428209060478212
-0.007868873392232086   -0.07802462026829218   -0.0018146966392423196
-0.011709722695672529   -0.08730298230347125   -0.0023319964980850556
-0.011820082204431474   -0.08750190700110827   -0.0025242145227568308
-0.013165273828560432   -0.07813479709202086   -0.002112902931579842
-0.016043633046312938   -0.08720594581671126   -0.0027875469197917303
-0.011770106520527448   -0.0873766040989799   -0.0024334877897970826
-0.013165273828560432   -0.07813479709202086   -0.002112902931579842
-0.018628114164432847   -0.07787122429659095   -0.002349493509790178
-0.016043633046312938   -0.08720594581671126   -0.0027875469197917303
-0.01862177280427188   -0.07777329743813238   -0.002195261778377319
-0.011770106520527448   -0.0873766040989799   -0.0024334877897970826
-0.015978430739416443   -0.08709967605995488   -0.002603408765582609
-0.01862177280427188   -0.07777329743813238   -0.002195261778377319
-0.016043633046312938   -0.08720594581671126   -0.0027875469197917303
-0.011770106520527448   -0.0873766040989799   -0.0024334877897970826
-0.01862177280427188   -0.07777329743813238   -0.002195261778377319
-0.013170010093273858   -0.0780151096530011   -0.0020330150095878713
-0.013165273828560432   -0.07813479709202086   -0.002112902931579842
-0.011770106520527448   -0.0873766040989799   -0.0024334877897970826
-0.01862177280427188   -0.07777329743813238   -0.002195261778377319
-0.013165273828560432   -0.07813479709202086   -0.002112902931579842
-0.016043633046312938   -0.08720594581671126   -0.0027875469197917303
-0.011770106520527448   -0.0873766040989799   -0.0024334877897970826
-0.013170010093273858   -0.0780151096530011   -0.0020330150095878713
-0.015978430739416443   -0.08709967605995488   -0.002603408765582609
-0.011709722695672529   -0.08730298230347125   -0.0023319964980850556
-0.013170010093273858   -0.0780151096530011   -0.0020330150095878713
-0.01862177280427188   -0.07777329743813238   -0.002195261778377319
-0.015978430739416443   -0.08709967605995488   -0.002603408765582609
-0.0185760959356929   -0.07771406144309388   -0.0020323327681270854
-0.011709722695672529   -0.08730298230347125   -0.0023319964980850556
-0.015867940300157965   -0.08704358095547157   -0.0024101563779589997
-0.0185760959356929   -0.07771406144309388   -0.0020323327681270854
-0.015978430739416443   -0.08709967605995488   -0.002603408765582609
-0.011709722695672529   -0.08730298230347125   -0.0023319964980850556
-0.0185760959356929   -0.07771406144309388   -0.0020323327681270854
-0.013165711041261742   -0.07793561802123432   -0.0019428877873581241
-0.013170010093273858   -0.0780151096530011   -0.0020330150095878713
-0.011709722695672529   -0.08730298230347125   -0.0023319964980850556
-0.0185760959356929   -0.07771406144309388   -0.0020323327681270854
-0.013170010093273858   -0.0780151096530011   -0.0020330150095878713
-0.015978430739416443   -0.08709967605995488   -0.002603408765582609
-0.011709722695672529   -0.08730298230347125   -0.0023319964980850556
-0.013165711041261742   -0.07793561802123432   -0.0019428877873581241
-0.015867940300157965   -0.08704358095547157   -0.0024101563779589997
-0.011650974530017393   -0.0872786248764812   -0.0022200727407292414
-0.013165711041261742   -0.07793561802123432   -0.0019428877873581241
-0.0185760959356929   -0.07771406144309388   -0.0020323327681270854
-0.015867940300157965   -0.08704358095547157   -0.0024101563779589997
-0.01854553658562585   -0.07769762534317735   -0.001858667737024771
-0.011650974530017393   -0.0872786248764812   -0.0022200727407292414
-0.015778098327698248   -0.08704060978931193   -0.0022049559452665137
-0.01854553658562585   -0.07769762534317735   -0.001858667737024771
-0.015867940300157965   -0.08704358095547157   -0.0024101563779589997
-0.011650974530017393   -0.0872786248764812   -0.0022200727407292414
-0.01854553658562585   -0.07769762534317735   -0.001858667737024771
-0.01316303132737744   -0.07789561230156264   -0.0018428209060478212
-0.013165711041261742   -0.07793561802123432   -0.0019428877873581241
-0.011650974530017393   -0.0872786248764812   -0.0022200727407292414
-0.01854553658562585   -0.07769762534317735   -0.001858667737024771
-0.013165711041261742   -0.07793561802123432   -0.0019428877873581241
-0.015867940300157965   -0.08704358095547157   -0.0024101563779589997
-0.016043633046312938   -0.08720594581671126   -0.0027875469197917303
-0.018628114164432847   -0.07787122429659095   -0.002349493509790178
-0.02096944487607633   -0.08678006244184887   -0.0030328175430679037
-0.015978430739416443   -0.08709967605995488   -0.002603408765582609
-0.018628114164432847   -0.07787122429659095   -0.002349493509790178
-0.024729960860743503   -0.0775082420402395   -0.0025626879303739707
-0.02096944487607633   -0.08678006244184887   -0.0030328175430679037
-0.024502569839098157   -0.07741220810255964   -0.002326833132404248
-0.015978430739416443   -0.08709967605995488   -0.002603408765582609
-0.020636310110328134   -0.08666935016355343   -0.0027446546247130894
-0.024502569839098157   -0.07741220810255964   -0.002326833132404248
-0.02096944487607633   -0.08678006244184887   -0.0030328175430679037
-0.015978430739416443   -0.08709967605995488   -0.002603408765582609
-0.024502569839098157   -0.07741220810255964   -0.002326833132404248
-0.01862177280427188   -0.07777329743813238   -0.002195261778377319
-0.018628114164432847   -0.07787122429659095   -0.002349493509790178
-0.015978430739416443   -0.08709967605995488   -0.002603408765582609
-0.024502569839098157   -0.07741220810255964   -0.002326833132404248
-0.018628114164432847   -0.07787122429659095   -0.002349493509790178
-0.02096944487607633   -0.08678006244184887   -0.0030328175430679037
-0.015978430739416443   -0.08709967605995488   -0.002603408765582609
-0.01862177280427188   -0.07777329743813238   -0.002195261778377319
-0.020636310110328134   -0.08666935016355343   -0.0027446546247130894
-0.015867940300157965   -0.08704358095547157   -0.0024101563779589997
-0.01862177280427188   -0.07777329743813238   -0.002195261778377319
-0.024502569839098157   -0.07741220810255964   -0.002326833132404248
-0.020636310110328134   -0.08666935016355343   -0.0027446546247130894
-0.024307994388312156   -0.07736035634241913   -0.0020763698045841612
-0.015867940300157965   -0.08704358095547157   -0.0024101563779589997
-0.020347019392088644   -0.08661801224454684   -0.0024414755685143305
-0.024307994388312156   -0.07736035634241913   -0.0020763698045841612
-0.020636310110328134   -0.08666935016355343   -0.0027446546247130894
-0.015867940300157965   -0.08704358095547157   -0.0024101563779589997
-0.024307994388312156   -0.07736035634241913   -0.0020763698045841612
-0.0185760959356929   -0.07771406144309388   -0.0020323327681270854
-0.01862177280427188   -0.07777329743813238   -0.002195261778377319
-0.015867940300157965   -0.08704358095547157   -0.0024101563779589997
-0.024307994388312156   -0.07736035634241913   -0.0020763698045841612
-0.01862177280427188   -0.07777329743813238   -0.002195261778377319
-0.020636310110328134   -0.08666935016355343   -0.0027446546247130894
-0.015867940300157965   -0.08704358095547157   -0.0024101563779589997
-0.0185760959356929   -0.07771406144309388   -0.0020323327681270854
-0.020347019392088644   -0.08661801224454684   -0.0024414755685143305
-0.015778098327698248   -0.08704060978931193   -0.0022049559452665137
-0.0185760959356929   -0.07771406144309388   -0.0020323327681270854
-0.024307994388312156   -0.07736035634241913   -0.0020763698045841612
-0.020347019392088644   -0.08661801224454684   -0.0024414755685143305
-0.02402704292942299   -0.07737643115968136   -0.0018132956825397707
-0.015778098327698248   -0.08704060978931193   -0.0022049559452665137
-0.01995719954929504   -0.08664790901324983   -0.0021252144665924078
-0.02402704292942299   -0.07737643115968136   -0.0018132956825397707
-0.020347019392088644   -0.08661801224454684   -0.0024414755685143305
-0.015778098327698248   -0.08704060978931193   -0.0022049559452665137
-0.02402704292942299   -0.07737643115968136   -0.0018132956825397707
-0.01854553658562585   -0.07769762534317735   -0.001858667737024771
-0.0185760959356929   -0.07771406144309388   -0.0020323327681270854
-0.015778098327698248   -0.08704060978931193   -0.0022049559452665137
-0.02402704292942299   -0.07737643115968136   -0.0018132956825397707
-0.0185760959356929   -0.07771406144309388   -0.0020323327681270854
-0.020347019392088644   -0.08661801224454684   -0.0024414755685143305
0.003123195446098314   -0.07812992996394147   -0.001143996156437357
0.004901376656776661   -0.0670079866168266   -0.0007619110359328143
-0.0024783806520935056   -0.0782682467765585   -0.001524163050677485
0.0032860707863330146   -0.0779320921119081   -0.001309125872238357
0.004901376656776661   -0.0670079866168266   -0.0007619110359328143
-0.0017407210869370049   -0.0670757358253851   -0.0011196065636933348
-0.0024783806520935056   -0.0782682467765585   -0.001524163050677485
-0.0017722160431087562   -0.06691162172910146   -0.001156115523398743
0.0032860707863330146   -0.0779320921119081   -0.001309125872238357
-0.002463336415430825   -0.07810005282123032   -0.0015921290390434042
-0.0017722160431087562   -0.06691162172910146   -0.001156115523398743
-0.0024783806520935056   -0.0782682467765585   -0.001524163050677485
0.0032860707863330146   -0.0779320921119081   -0.001309125872238357
-0.0017722160431087562   -0.06691162172910146   -0.001156115523398743
0.004965235888515305   -0.06681738608407946   -0.0008698605826340973
0.004901376656776661   -0.0670079866168266   -0.0007619110359328143
0.0032860707863330146   -0.0779320921119081   -0.001309125872238357
-0.0017722160431087562   -0.06691162172910146   -0.001156115523398743
0.004901376656776661   -0.0670079866168266   -0.0007619110359328143
-0.0024783806520935056   -0.0782682467765585   -0.001524163050677485
0.0032860707863330146   -0.0779320921119081   -0.001309125872238357
0.004965235888515305   -0.06681738608407946   -0.0008698605826340973
-0.002463336415430825   -0.07810005282123032   -0.0015921290390434042
0.003390097322498752   -0.07780196485791867   -0.0014594432092073484
0.004965235888515305   -0.06681738608407946   -0.0008698605826340973
-0.0017722160431087562   -0.06691162172910146   -0.001156115523398743
-0.002463336415430825   -0.07810005282123032   -0.0015921290390434042
-0.0018053466926569604   -0.0667815456566488   -0.001183278041067707
0.003390097322498752   -0.07780196485791867   -0.0014594432092073484
-0.0024442214224456044   -0.07797785714143586   -0.001649611302787426
-0.0018053466926569604   -0.0667815456566488   -0.001183278041067707
-0.002463336415430825   -0.07810005282123032   -0.0015921290390434042
0.003390097322498752   -0.07780196485791867   -0.0014594432092073484
-0.0018053466926569604   -0.0667815456566488   -0.001183278041067707
0.00498428915261584   -0.06667817604169235   -0.0009640243929975945
0.004965235888515305   -0.06681738608407946   -0.0008698605826340973
0.003390097322498752   -0.07780196485791867   -0.0014594432092073484
-0.0018053466926569604   -0.0667815456566488   -0.001183278041067707
0.004965235888515305   -0.06681738608407946   -0.0008698605826340973
-0.002463336415430825   -0.07810005282123032   -0.0015921290390434042
0.003390097322498752   -0.07780196485791867   -0.0014594432092073484
0.00498428915261584   -0.06667817604169235   -0.0009640243929975945
-0.0024442214224456044   -0.07797785714143586   -0.001649611302787426
0.003496738764411913   -0.07771440278515078   -0.001595256223858844
0.00498428915261584   -0.06667817604169235   -0.0009640243929975945
-0.0018053466926569604   -0.0667815456566488   -0.001183278041067707
-0.0024442214224456044   -0.07797785714143586   -0.001649611302787426
-0.0018615352017458803   -0.06668144080366467   -0.0012014108443245484
0.003496738764411913   -0.07771440278515078   -0.001595256223858844
-0.0024535875489883276   -0.07789776435782599   -0.0016973750231307073
-0.0018615352017458803   -0.06668144080366467   -0.0012014108443245484
-0.0024442214224456044   -0.07797785714143586   -0.001649611302787426
0.003496738764411913   -0.07771440278515078   -0.001595256223858844
-0.0018615352017458803   -0.06668144080366467   -0.0012014108443245484
0.004994595951107756   -0.06656594524718937   -0.0010450532840021337
0.00498428915261584   -0.06667817604169235   -0.0009640243929975945
0.003496738764411913   -0.07771440278515078   -0.001595256223858844
-0.0018615352017458803   -0.06668144080366467   -0.0012014108443245484
0.00498428915261584   -0.06667817604169235   -0.0009640243929975945
-0.0024442214224456044   -0.07797785714143586   -0.001649611302787426
-0.0024783806520935056   -0.0782682467765585   -0.001524163050677485
-0.0017407210869370049   -0.0670757358253851   -0.0011196065636933348
-0.007867717839437554   -0.0782688398235442   -0.0018379522945800144
-0.002463336415430825   -0.07810005282123032   -0.0015921290390434042
-0.0017407210869370049   -0.0670757358253851   -0.0011196065636933348
-0.008106700047482035   -0.06704054727323035   -0.001414461992156006
-0.007867717839437554   -0.0782688398235442   -0.0018379522945800144
-0.008150208740180125   -0.06690327541011888   -0.0013972881020517147
-0.002463336415430825   -0.07810005282123032   -0.0015921290390434042
-0.007868474273803237   -0.0781264525638703   -0.0018315443349066793
-0.008150208740180125   -0.06690327541011888   -0.0013972881020517147
-0.007867717839437554   -0.0782688398235442   -0.0018379522945800144
-0.002463336415430825   -0.07810005282123032   -0.0015921290390434042
-0.008150208740180125   -0.06690327541011888   -0.0013972881020517147
-0.0017722160431087562   -0.06691162172910146   -0.001156115523398743
-0.0017407210869370049   -0.0670757358253851   -0.0011196065636933348
-0.002463336415430825   -0.07810005282123032   -0.0015921290390434042
-0.008150208740180125   -0.06690327541011888   -0.0013972881020517147
-0.0017407210869370049   -0.0670757358253851   -0.0011196065636933348
-0.007867717839437554   -0.0782688398235442   -0.0018379522945800144
-0.002463336415430825   -0.07810005282123032   -0.0015921290390434042
-0.0017722160431087562   -0.06691162172910146   -0.001156115523398743
-0.007868474273803237   -0.0781264525638703   -0.0018315443349066793
-0.0024442214224456044   -0.07797785714143586   -0.001649611302787426
-0.0017722160431087562   -0.06691162172910146   -0.001156115523398743
-0.008150208740180125   -0.06690327541011888   -0.0013972881020517147
-0.007868474273803237   -0.0781264525638703   -0.0018315443349066793
-0.008194313317247959   -0.06679518435234995   -0.0013704953481715187
-0.0024442214224456044   -0.07797785714143586   -0.001649611302787426
-0.007868873392232086   -0.07802462026829218   -0.0018146966392423196
-0.008194313317247959   -0.06679518435234995   -0.0013704953481715187
-0.007868474273803237   -0.0781264525638703   -0.0018315443349066793
-0.0024442214224456044   -0.07797785714143586   -0.001649611302787426
-0.008194313317247959   -0.06679518435234995   -0.0013704953481715187
-0.0018053466926569604   -0.0667815456566488   -0.001183278041067707
-0.0017722160431087562   -0.06691162172910146   -0.001156115523398743
-0.0024442214224456044   -0.07797785714143586   -0.001649611302787426
-0.008194313317247959   -0.06679518435234995   -0.0013704953481715187
-0.0017722160431087562   -0.06691162172910146   -0.001156115523398743
-0.007868474273803237   -0.0781264525638703   -0.0018315443349066793
-0.0024442214224456044   -0.07797785714143586   -0.001649611302787426
-0.0018053466926569604   -0.0667815456566488   -0.001183278041067707
-0.007868873392232086   -0.07802462026829218   -0.0018146966392423196
-0.0024535875489883276   -0.07789776435782599   -0.0016973750231307073
-0.0018053466926569604   -0.0667815456566488   -0.001183278041067707
-0.008194313317247959   -0.06679518435234995   -0.0013704953481715187
-0.007868873392232086   -0.07802462026829218   -0.0018146966392423196
-0.008245259365966135   -0.06671677123915698   -0.0013345435868228402
-0.0024535875489883276   -0.07789776435782599   -0.0016973750231307073
-0.00787648545161739   -0.07796341327656944   -0.0017879466553611075
-0.008245259365966135   -0.06671677123915698   -0.0013345435868228402
-0.007868873392232086   -0.07802462026829218   -0.0018146966392423196
-0.0024535875489883276   -0.07789776435782599   -0.0016973750231307073
-0.008245259365966135   -0.06671677123915698   -0.0013345435868228402
-0.0018615352017458803   -0.06668144080366467   -0.0012014108443245484
-0.0018053466926569604   -0.0667815456566488   -0.001183278041067707
-0.0024535875489883276   -0.07789776435782599   -0.0016973750231307073
-0.008245259365966135   -0.06671677123915698   -0.0013345435868228402
-0.0018053466926569604   -0.0667815456566488   -0.001183278041067707
-0.007868873392232086   -0.07802462026829218   -0.0018146966392423196
-0.007867717839437554   -0.0782688398235442   -0.0018379522945800144
-0.008106700047482035   -0.06704054727323035   -0.001414461992156006
-0.013165273828560432   -0.07813479709202086   -0.002112902931579842
-0.007868474273803237   -0.0781264525638703   -0.0018315443349066793
-0.008106700047482035   -0.06704054727323035   -0.001414461992156006
-0.014364896850902812   -0.06690870887100196   -0.0016668968852017773
-0.013165273828560432   -0.07813479709202086   -0.002112902931579842
-0.0144117994072559   -0.06679585170991781   -0.001596291952515128
-0.007868474273803237   -0.0781264525638703   -0.0018315443349066793
-0.013170010093273858   -0.0780151096530011   -0.0020330150095878713
-0.0144117994072559   -0.06679585170991781   -0.001596291952515128
-0.013165273828560432   -0.07813479709202086   -0.002112902931579842
-0.007868474273803237   -0.0781264525638703   -0.0018315443349066793
-0.0144117994072559   -0.06679585170991781   -0.001596291952515128
-0.008150208740180125   -0.06690327541011888   -0.0013972881020517147
-0.008106700047482035   -0.06704054727323035   -0.001414461992156006
-0.007868474273803237   -0.0781264525638703   -0.0018315443349066793
-0.0144117994072559   -0.06679585170991781   -0.001596291952515128
-0.008106700047482035   -0.06704054727323035   -0.001414461992156006
-0.013165273828560432   -0.07813479709202086   -0.002112902931579842
-0.007868474273803237   -0.0781264525638703   -0.0018315443349066793
-0.008150208740180125   -0.06690327541011888   -0.0013972881020517147
-0.013170010093273858   -0.0780151096530011   -0.0020330150095878713
-0.007868873392232086   -0.07802462026829218   -0.0018146966392423196
-0.008150208740180125   -0.06690327541011888   -0.0013972881020517147
-0.0144117994072559   -0.06679585170991781   -0.001596291952515128
-0.013170010093273858   -0.0780151096530011   -0.0020330150095878713
-0.014450685885396433   -0.0667118960312889   -0.0015162364097298534
-0.007868873392232086   -0.07802462026829218   -0.0018146966392423196
-0.013165711041261742   -0.07793561802123432   -0.0019428877873581241
-0.014450685885396433   -0.0667118960312889   -0.0015162364097298534
-0.013170010093273858   -0.0780151096530011   -0.0020330150095878713
-0.007868873392232086   -0.07802462026829218   -0.0018146966392423196
-0.014450685885396433   -0.0667118960312889   -0.0015162364097298534
-0.008194313317247959   -0.06679518435234995   -0.0013704953481715187
-0.008150208740180125   -0.06690327541011888   -0.0013972881020517147
-0.007868873392232086   -0.07802462026829218   -0.0018146966392423196
-0.014450685885396433   -0.0667118960312889   -0.0015162364097298534
-0.008150208740180125   -0.06690327541011888   -0.0013972881020517147
-0.013170010093273858   -0.0780151096530011   -0.0020330150095878713
-0.007868873392232086   -0.07802462026829218   -0.0018146966392423196
-0.008194313317247959   -0.06679518435234995   -0.0013704953481715187
-0.013165711041261742   -0.07793561802123432   -0.0019428877873581241
-0.00787648545161739   -0.07796341327656944   -0.0017879466553611075
-0.008194313317247959   -0.06679518435234995   -0.0013704953481715187
-0.014450685885396433   -0.0667118960312889   -0.0015162364097298534
-0.013165711041261742   -0.07793561802123432   -0.0019428877873581241
-0.014490694060383523   -0.06665672217763353   -0.0014270097382303054
-0.00787648545161739   -0.07796341327656944   -0.0017879466553611075
-0.01316303132737744   -0.07789561230156264   -0.0018428209060478212
-0.014490694060383523   -0.06665672217763353   -0.0014270097382303054
-0.013165711041261742   -0.07793561802123432   -0.0019428877873581241
-0.00787648545161739   -0.07796341327656944   -0.0017879466553611075
-0.014490694060383523   -0.06665672217763353   -0.0014270097382303054
-0.008245259365966135   -0.06671677123915698   -0.0013345435868228402
-0.008194313317247959   -0.06679518435234995   -0.0013704953481715187
-0.00787648545161739   -0.07796341327656944   -0.0017879466553611075
-0.014490694060383523   -0.06665672217763353   -0.0014270097382303054
-0.008194313317247959   -0.06679518435234995   -0.0013704953481715187
-0.013165711041261742   -0.07793561802123432   -0.0019428877873581241
-0.013165273828560432   -0.07813479709202086   -0.002112902931579842
-0.014364896850902812   -0.06690870887100196   -0.0016668968852017773
-0.018628114164432847   -0.07787122429659095   -0.002349493509790178
-0.013170010093273858   -0.0780151096530011   -0.0020330150095878713
-0.014364896850902812   -0.06690870887100196   -0.0016668968852017773
-0.02077196644305508   -0.06668286393537287   -0.0018778401749570883
-0.018628114164432847   -0.07787122429659095   -0.002349493509790178
-0.020810840846932608   -0.06659387411722831   -0.001753080587748584
-0.013170010093273858   -0.0780151096530011   -0.0020330150095878713
-0.01862177280427188   -0.07777329743813238   -0.002195261778377319
-0.020810840846932608   -0.06659387411722831   -0.001753080587748584
-0.018628114164432847   -0.07787122429659095   -0.002349493509790178
-0.013170010093273858   -0.0780151096530011   -0.0020330150095878713
-0.020810840846932608   -0.06659387411722831   -0.001753080587748584
-0.0144117994072559   -0.06679585170991781   -0.001596291952515128
-0.014364896850902812   -0.06690870887100196   -0.0016668968852017773
-0.013170010093273858   -0.0780151096530011   -0.0020330150095878713
-0.020810840846932608   -0.06659387411722831   -0.001753080587748584
-0.014364896850902812   -0.06690870887100196   -0.0016668968852017773
-0.018628114164432847   -0.07787122429659095   -0.002349493509790178
-0.013170010093273858   -0.0780151096530011   -0.0020330150095878713
-0.0144117994072559   -0.06679585170991781   -0.001596291952515128
-0.01862177280427188   -0.07777329743813238   -0.002195261778377319
-0.013165711041261742   -0.07793561802123432   -0.0019428877873581241
-0.0144117994072559   -0.06679585170991781   -0.001596291952515128
-0.020810840846932608   -0.06659387411722831   -0.001753080587748584
-0.01862177280427188   -0.07777329743813238   -0.002195261778377319
-0.020816065109956285   -0.06653198466367853   -0.0016201787633962756
-0.013165711041261742   -0.07793561802123432   -0.0019428877873581241
-0.0185760959356929   -0.07771406144309388   -0.0020323327681270854
-0.020816065109956285   -0.06653198466367853   -0.0016201787633962756
-0.01862177280427188   -0.07777329743813238   -0.002195261778377319
-0.013165711041261742   -0.07793561802123432   -0.0019428877873581241
-0.020816065109956285   -0.06653198466367853   -0.0016201787633962756
-0.014450685885396433   -0.0667118960312889   -0.0015162364097298534
-0.0144117994072559   -0.06679585170991781   -0.001596291952515128
-0.013165711041261742   -0.07793561802123432   -0.0019428877873581241
-0.020816065109956285   -0.06653198466367853   -0.0016201787633962756
-0.0144117994072559   -0.06679585170991781   -0.001596291952515128
-0.01862177280427188   -0.07777329743813238   -0.002195261778377319
-0.013165711041261742   -0.07793561802123432   -0.0019428877873581241
-0.014450685885396433   -0.0667118960312889   -0.0015162364097298534
-0.0185760959356929   -0.07771406144309388   -0.0020323327681270854
-0.01316303132737744   -0.07789561230156264   -0.0018428209060478212
-0.014450685885396433   -0.0667118960312889   -0.0015162364097298534
-0.020816065109956285   -0.06653198466367853   -0.0016201787633962756
-0.0185760959356929   -0.07771406144309388   -0.0020323327681270854
-0.02083078392910173   -0.06650146008056228   -0.0014774122921547108
-0.01316303132737744   -0.07789561230156264   -0.0018428209060478212
-0.01854553658562585   -0.07769762534317735   -0.001858667737024771
-0.02083078392910173   -0.06650146008056228   -0.0014774122921547108
-0.0185760959356929   -0.07771406144309388   -0.0020323327681270854
-0.01316303132737744   -0.07789561230156264   -0.0018428209060478212
-0.02083078392910173   -0.06650146008056228   -0.0014774122921547108
-0.014490694060383523   -0.06665672217763353   -0.0014270097382303054
-0.014450685885396433   -0.0667118960312889   -0.0015162364097298534
-0.01316303132737744   -0.07789561230156264   -0.0018428209060478212
-0.02083078392910173   -0.06650146008056228   -0.0014774122921547108
-0.014450685885396433   -0.0667118960312889   -0.0015162364097298534
-0.0185760959356929   -0.07771406144309388   -0.0020323327681270854
-0.018628114164432847   -0.07787122429659095   -0.002349493509790178
-0.02077196644305508   -0.06668286393537287   -0.0018778401749570883
-0.024729960860743503   -0.0775082420402395   -0.0025626879303739707
-0.01862177280427188   -0.07777329743813238   -0.002195261778377319
-0.02077196644305508   -0.06668286393537287   -0.0018778401749570883
-0.027758353953834598   -0.06638689055889917   -0.002058020925073746
-0.024729960860743503   -0.0775082420402395   -0.0025626879303739707
-0.027625443271980465   -0.06630560494070013   -0.001876084965355172
-0.01862177280427188   -0.07777329743813238   -0.002195261778377319
-0.024502569839098157   -0.07741220810255964   -0.002326833132404248
-0.027625443271980465   -0.06630560494070013   -0.001876084965355172
-0.024729960860743503   -0.0775082420402395   -0.0025626879303739707
-0.01862177280427188   -0.07777329743813238   -0.002195261778377319
-0.027625443271980465   -0.06630560494070013   -0.001876084965355172
-0.020810840846932608   -0.06659387411722831   -0.001753080587748584
-0.02077196644305508   -0.06668286393537287   -0.0018778401749570883
-0.01862177280427188   -0.07777329743813238   -0.002195261778377319
-0.027625443271980465   -0.06630560494070013   -0.001876084965355172
-0.02077196644305508   -0.06668286393537287   -0.0018778401749570883
-0.024729960860743503   -0.0775082420402395   -0.0025626879303739707
-0.01862177280427188   -0.07777329743813238   -0.002195261778377319
-0.020810840846932608   -0.06659387411722831   -0.001753080587748584
-0.024502569839098157   -0.07741220810255964   -0.002326833132404248
-0.0185760959356929   -0.07771406144309388   -0.0020323327681270854
-0.020810840846932608   -0.06659387411722831   -0.001753080587748584
-0.027625443271980465   -0.06630560494070013   -0.001876084965355172
-0.024502569839098157   -0.07741220810255964   -0.002326833132404248
-0.027513339929685833   -0.06625306601122251   -0.0016799389495844488
-0.0185760959356929   -0.07771406144309388   -0.0020323327681270854
-0.024307994388312156   -0.07736035634241913   -0.0020763698045841612
-0.027513339929685833   -0.06625306601122251   -0.0016799389495844488
-0.024502569839098157   -0.07741220810255964   -0.002326833132404248
-0.0185760959356929   -0.07771406144309388   -0.0020323327681270854
-0.027513339929685833   -0.06625306601122251   -0.0016799389495844488
-0.020816065109956285   -0.06653198466367853   -0.0016201787633962756
-0.020810840846932608   -0.06659387411722831   -0.001753080587748584
-0.0185760959356929   -0.07771406144309388   -0.0020323327681270854
-0.027513339929685833   -0.06625306601122251   -0.0016799389495844488
-0.020810840846932608   -0.06659387411722831   -0.001753080587748584
-0.024502569839098157   -0.07741220810255964   -0.002326833132404248
-0.0185760959356929   -0.07771406144309388   -0.0020323327681270854
-0.020816065109956285   -0.06653198466367853   -0.0016201787633962756
-0.024307994388312156   -0.07736035634241913   -0.0020763698045841612
-0.01854553658562585   -0.07769762534317735   -0.001858667737024771
-0.020816065109956285   -0.06653198466367853   -0.0016201787633962756
-0.027513339929685833   -0.06625306601122251   -0.0016799389495844488
-0.024307994388312156   -0.07736035634241913   -0.0020763698045841612
-0.027328090549430594   -0.06625386761087053   -0.001471352535055045
-0.01854553658562585   -0.07769762534317735   -0.001858667737024771
-0.02402704292942299   -0.07737643115968136   -0.0018132956825397707
-0.027328090549430594   -0.06625386761087053   -0.001471352535055045
-0.024307994388312156   -0.07736035634241913   -0.0020763698045841612
-0.01854553658562585   -0.07769762534317735   -0.001858667737024771
-0.027328090549430594   -0.06625386761087053   -0.001471352535055045
-0.02083078392910173   -0.06650146008056228   -0.0014774122921547108
-0.020816065109956285   -0.06653198466367853   -0.0016201787633962756
-0.01854553658562585   -0.07769762534317735   -0.001858667737024771
-0.027328090549430594   -0.06625386761087053   -0.001471352535055045
-0.020816065109956285   -0.06653198466367853   -0.0016201787633962756
-0.024307994388312156   -0.07736035634241913   -0.0020763698045841612
0.004901376656776661   -0.0670079866168266   -0.0007619110359328143
0.005885689330482781   -0.05453438875650137   -0.0003876049106360911
-0.0017407210869370049   -0.0670757358253851   -0.0011196065636933348
0.004965235888515305   -0.06681738608407946   -0.0008698605826340973
0.005885689330482781   -0.05453438875650137   -0.0003876049106360911
-0.0014845817750415637   -0.054532383184658535   -0.0007194020656811818
-0.0017407210869370049   -0.0670757358253851   -0.0011196065636933348
-0.0015508358590123875   -0.05437359847711916   -0.0007240972556590528
0.004965235888515305   -0.06681738608407946   -0.0008698605826340973
-0.0017722160431087562   -0.06691162172910146   -0.001156115523398743
-0.0015508358590123875   -0.05437359847711916   -0.0007240972556590528
-0.0017407210869370049   -0.0670757358253851   -0.0011196065636933348
0.004965235888515305   -0.06681738608407946   -0.0008698605826340973
-0.0015508358590123875   -0.05437359847711916   -0.0007240972556590528
0.005863667594427438   -0.05435188885145019   -0.00043908974091594897
0.005885689330482781   -0.05453438875650137   -0.0003876049106360911
0.004965235888515305   -0.06681738608407946   -0.0008698605826340973
-0.0015508358590123875   -0.05437359847711916   -0.0007240972556590528
0.005885689330482781   -0.05453438875650137   -0.0003876049106360911
-0.0017407210869370049   -0.0670757358253851   -0.0011196065636933348
0.004965235888515305   -0.06681738608407946   -0.0008698605826340973
0.005863667594427438   -0.05435188885145019   -0.00043908974091594897
-0.0017722160431087562   -0.06691162172910146   -0.001156115523398743
0.00498428915261584   -0.06667817604169235   -0.0009640243929975945
0.005863667594427438   -0.05435188885145019   -0.00043908974091594897
-0.0015508358590123875   -0.05437359847711916   -0.0007240972556590528
-0.0017722160431087562   -0.06691162172910146   -0.001156115523398743
-0.001624449914009645   -0.054236701613964884   -0.0007205173453445846
0.00498428915261584   -0.06667817604169235   -0.0009640243929975945
-0.0018053466926569604   -0.0667815456566488   -0.001183278041067707
-0.001624449914009645   -0.054236701613964884   -0.0007205173453445846
-0.0017722160431087562   -0.06691162172910146   -0.001156115523398743
0.00498428915261584   -0.06667817604169235   -0.0009640243929975945
-0.001624449914009645   -0.054236701613964884   -0.0007205173453445846
0.005810036005261243   -0.05420474372978052   -0.0004773111379557386
0.005863667594427438   -0.05435188885145019   -0.00043908974091594897
0.00498428915261584   -0.06667817604169235   -0.0009640243929975945
-0.001624449914009645   -0.054236701613964884   -0.0007205173453445846
0.005863667594427438   -0.05435188885145019   -0.00043908974091594897
-0.0017722160431087562   -0.06691162172910146   -0.001156115523398743
0.00498428915261584   -0.06667817604169235   -0.0009640243929975945
0.005810036005261243   -0.05420474372978052   -0.0004773111379557386
-0.0018053466926569604   -0.0667815456566488   -0.001183278041067707
0.004994595951107756   -0.06656594524718937   -0.0010450532840021337
0.005810036005261243   -0.05420474372978052   -0.0004773111379557386
-0.001624449914009645   -0.054236701613964884   -0.0007205173453445846
-0.0018053466926569604   -0.0667815456566488   -0.001183278041067707
-0.0017157005013138985   -0.05411816485532077   -0.0007083361051340006
0.004994595951107756   -0.06656594524718937   -0.0010450532840021337
-0.0018615352017458803   -0.06668144080366467   -0.0012014108443245484
-0.0017157005013138985   -0.05411816485532077   -0.0007083361051340006
-0.0018053466926569604   -0.0667815456566488   -0.001183278041067707
0.004994595951107756   -0.06656594524718937   -0.0010450532840021337
-0.0017157005013138985   -0.05411816485532077   -0.0007083361051340006
0.0057352713755241674   -0.05406909231366039   -0.0005031952298327645
0.005810036005261243   -0.05420474372978052   -0.0004773111379557386
0.004994595951107756   -0.06656594524718937   -0.0010450532840021337
-0.0017157005013138985   -0.05411816485532077   -0.0007083361051340006
0.005810036005261243   -0.05420474372978052   -0.0004773111379557386
-0.0018053466926569604   -0.0667815456566488   -0.001183278041067707
-0.0017407210869370049   -0.0670757358253851   -0.0011196065636933348
-0.0014845817750415637   -0.054532383184658535   -0.0007194020656811818
-0.008106700047482035   -0.06704054727323035   -0.001414461992156006
-0.0017722160431087562   -0.06691162172910146   -0.001156115523398743
-0.0014845817750415637   -0.054532383184658535   -0.0007194020656811818
-0.00851416794167954   -0.05446565726557719   -0.000993587765176724
-0.008106700047482035   -0.06704054727323035   -0.001414461992156006
-0.008588197455067828   -0.05433370177093864   -0.0009647667383932023
-0.0017722160431087562   -0.06691162172910146   -0.001156115523398743
-0.008150208740180125   -0.06690327541011888   -0.0013972881020517147
-0.008588197455067828   -0.05433370177093864   -0.0009647667383932023
-0.008106700047482035   -0.06704054727323035   -0.001414461992156006
-0.0017722160431087562   -0.06691162172910146   -0.001156115523398743
-0.008588197455067828   -0.05433370177093864   -0.0009647667383932023
-0.0015508358590123875   -0.05437359847711916   -0.0007240972556590528
-0.0014845817750415637   -0.054532383184658535   -0.0007194020656811818
-0.0017722160431087562   -0.06691162172910146   -0.001156115523398743
-0.008588197455067828   -0.05433370177093864   -0.0009647667383932023
-0.0014845817750415637   -0.054532383184658535   -0.0007194020656811818
-0.008106700047482035   -0.06704054727323035   -0.001414461992156006
-0.0017722160431087562   -0.06691162172910146   -0.001156115523398743
-0.0015508358590123875   -0.05437359847711916   -0.0007240972556590528
-0.008150208740180125   -0.06690327541011888   -0.0013972881020517147
-0.0018053466926569604   -0.0667815456566488   -0.001183278041067707
-0.0015508358590123875   -0.05437359847711916   -0.0007240972556590528
-0.008588197455067828   -0.05433370177093864   -0.0009647667383932023
-0.008150208740180125   -0.06690327541011888   -0.0013972881020517147
-0.008663708119139045   -0.054219565376748845   -0.0009273292191832864
-0.0018053466926569604   -0.0667815456566488   -0.001183278041067707
-0.008194313317247959   -0.06679518435234995   -0.0013704953481715187
-0.008663708119139045   -0.054219565376748845   -0.0009273292191832864
-0.008150208740180125   -0.06690327541011888   -0.0013972881020517147
-0.0018053466926569604   -0.0667815456566488   -0.001183278041067707
-0.008663708119139045   -0.054219565376748845   -0.0009273292191832864
-0.001624449914009645   -0.054236701613964884   -0.0007205173453445846
-0.0015508358590123875   -0.05437359847711916   -0.0007240972556590528
-0.0018053466926569604   -0.0667815456566488   -0.001183278041067707
-0.008663708119139045   -0.054219565376748845   -0.0009273292191832864
-0.0015508358590123875   -0.05437359847711916   -0.0007240972556590528
-0.008150208740180125   -0.06690327541011888   -0.0013972881020517147
-0.0018053466926569604   -0.0667815456566488   -0.001183278041067707
-0.001624449914009645   -0.054236701613964884   -0.0007205173453445846
-0.008194313317247959   -0.06679518435234995   -0.0013704953481715187
-0.0018615352017458803   -0.06668144080366467   -0.0012014108443245484
-0.001624449914009645   -0.054236701613964884   -0.0007205173453445846
-0.008663708119139045   -0.054219565376748845   -0.0009273292191832864
-0.008194313317247959   -0.06679518435234995   -0.0013704953481715187
-0.008745584873558988   -0.05412431588828802   -0.0008816754137519438
-0.0018615352017458803   -0.06668144080366467   -0.0012014108443245484
-0.008245259365966135   -0.06671677123915698   -0.0013345435868228402
-0.008745584873558988   -0.05412431588828802   -0.0008816754137519438
-0.008194313317247959   -0.06679518435234995   -0.0013704953481715187
-0.0018615352017458803   -0.06668144080366467   -0.0012014108443245484
-0.008745584873558988   -0.05412431588828802   -0.0008816754137519438
-0.0017157005013138985   -0.05411816485532077   -0.0007083361051340006
-0.001624449914009645   -0.054236701613964884   -0.0007205173453445846
-0.0018615352017458803   -0.06668144080366467   -0.0012014108443245484
-0.008745584873558988   -0.05412431588828802   -0.0008816754137519438
-0.001624449914009645   -0.054236701613964884   -0.0007205173453445846
-0.008194313317247959   -0.06679518435234995   -0.0013704953481715187
-0.008106700047482035   -0.06704054727323035   -0.001414461992156006
-0.00851416794167954   -0.05446565726557719   -0.000993587765176724
-0.014364896850902812   -0.06690870887100196   -0.0016668968852017773
-0.008150208740180125   -0.06690327541011888   -0.0013972881020517147
-0.00851416794167954   -0.05446565726557719   -0.000993587765176724
-0.015424876839434375   -0.05434144929210973   -0.0012250966274983757
-0.014364896850902812   -0.06690870887100196   -0.0016668968852017773
-0.01550105099968748   -0.05423425169721237   -0.0011628085199591634
-0.008150208740180125   -0.06690327541011888   -0.0013972881020517147
-0.0144117994072559   -0.06679585170991781   -0.001596291952515128
-0.01550105099968748   -0.05423425169721237   -0.0011628085199591634
-0.014364896850902812   -0.06690870887100196   -0.0016668968852017773
-0.008150208740180125   -0.06690327541011888   -0.0013972881020517147
-0.01550105099968748   -0.05423425169721237   -0.0011628085199591634
-0.008588197455067828   -0.05433370177093864   -0.0009647667383932023
-0.00851416794167954   -0.05446565726557719   -0.000993587765176724
-0.008150208740180125   -0.06690327541011888   -0.0013972881020517147
-0.01550105099968748   -0.05423425169721237   -0.0011628085199591634
-0.00851416794167954   -0.05446565726557719   -0.000993587765176724
-0.014364896850902812   -0.06690870887100196   -0.0016668968852017773
-0.008150208740180125   -0.06690327541011888   -0.0013972881020517147
-0.008588197455067828   -0.05433370177093864   -0.0009647667383932023
-0.0144117994072559   -0.06679585170991781   -0.001596291952515128
-0.008194313317247959   -0.06679518435234995   -0.0013704953481715187
-0.008588197455067828   -0.05433370177093864   -0.0009647667383932023
-0.01550105099968748   -0.05423425169721237   -0.0011628085199591634
-0.0144117994072559   -0.06679585170991781   -0.001596291952515128
-0.015570173776447238   -0.054144747119973614   -0.0010921035155828647
-0.008194313317247959   -0.06679518435234995   -0.0013704953481715187
-0.014450685885396433   -0.0667118960312889   -0.0015162364097298534
-0.015570173776447238   -0.054144747119973614   -0.0010921035155828647
-0.0144117994072559   -0.06679585170991781   -0.001596291952515128
-0.008194313317247959   -0.06679518435234995   -0.0013704953481715187
-0.015570173776447238   -0.054144747119973614   -0.0010921035155828647
-0.008663708119139045   -0.054219565376748845   -0.0009273292191832864
-0.008588197455067828   -0.05433370177093864   -0.0009647667383932023
-0.008194313317247959   -0.06679518435234995   -0.0013704953481715187
-0.015570173776447238   -0.054144747119973614   -0.0010921035155828647
-0.008588197455067828   -0.05433370177093864   -0.0009647667383932023
-0.0144117994072559   -0.06679585170991781   -0.001596291952515128
-0.008194313317247959   -0.06679518435234995   -0.0013704953481715187
-0.008663708119139045   -0.054219565376748845   -0.0009273292191832864
-0.014450685885396433   -0.0667118960312889   -0.0015162364097298534
-0.008245259365966135   -0.06671677123915698   -0.0013345435868228402
-0.008663708119139045   -0.054219565376748845   -0.0009273292191832864
-0.015570173776447238   -0.054144747119973614   -0.0010921035155828647
-0.014450685885396433   -0.0667118960312889   -0.0015162364097298534
-0.015639949392307888   -0.05407308945031995   -0.0010133040076403936
-0.008245259365966135   -0.06671677123915698   -0.0013345435868228402
-0.014490694060383523   -0.06665672217763353   -0.0014270097382303054
-0.015639949392307888   -0.05407308945031995   -0.0010133040076403936
-0.014450685885396433   -0.0667118960312889   -0.0015162364097298534
-0.008245259365966135   -0.06671677123915698   -0.0013345435868228402
-0.015639949392307888   -0.05407308945031995   -0.0010133040076403936
-0.008745584873558988   -0.05412431588828802   -0.0008816754137519438
-0.008663708119139045   -0.054219565376748845   -0.0009273292191832864
-0.008245259365966135   -0.06671677123915698   -0.0013345435868228402
-0.015639949392307888   -0.05407308945031995   -0.0010133040076403936
-0.008663708119139045   -0.054219565376748845   -0.0009273292191832864
-0.014450685885396433   -0.0667118960312889   -0.0015162364097298534
-0.014364896850902812   -0.06690870887100196   -0.0016668968852017773
-0.015424876839434375   -0.05434144929210973   -0.0012250966274983757
-0.02077196644305508   -0.06668286393537287   -0.0018778401749570883
-0.0144117994072559   -0.06679585170991781   -0.001596291952515128
-0.015424876839434375   -0.05434144929210973   -0.0012250966274983757
-0.02247237374755681   -0.05415711106206584   -0.0014144256942385856
-0.02077196644305508   -0.06668286393537287   -0.0018778401749570883
-0.022543139170794053   -0.05407489247931045   -0.0013184167022948473
-0.0144117994072559   -0.06679585170991781   -0.001596291952515128
-0.020810840846932608   -0.06659387411722831   -0.001753080587748584
-0.022543139170794053   -0.05407489247931045   -0.0013184167022948473
-0.02077196644305508   -0.06668286393537287   -0.0018778401749570883
-0.0144117994072559   -0.06679585170991781   -0.001596291952515128
-0.022543139170794053   -0.05407489247931045   -0.0013184167022948473
-0.01550105099968748   -0.05423425169721237   -0.0011628085199591634
-0.015424876839434375   -0.05434144929210973   -0.0012250966274983757
-0.0144117994072559   -0.06679585170991781   -0.001596291952515128
-0.022543139170794053   -0.05407489247931045   -0.0013184167022948473
-0.015424876839434375   -0.05434144929210973   -0.0012250966274983757
-0.02077196644305508   -0.06668286393537287   -0.0018778401749570883
-0.0144117994072559   -0.06679585170991781   -0.001596291952515128
-0.01550105099968748   -0.05423425169721237   -0.0011628085199591634
-0.020810840846932608   -0.06659387411722831   -0.001753080587748584
-0.014450685885396433   -0.0667118960312889   -0.0015162364097298534
-0.01550105099968748   -0.05423425169721237   -0.0011628085199591634
-0.022543139170794053   -0.05407489247931045   -0.0013184167022948473
-0.020810840846932608   -0.06659387411722831   -0.001753080587748584
-0.02258614874584721   -0.05400808148089311   -0.0012151298465563813
-0.014450685885396433   -0.0667118960312889   -0.0015162364097298534
-0.020816065109956285   -0.06653198466367853   -0.0016201787633962756
-0.02258614874584721   -0.05400808148089311   -0.0012151298465563813
-0.020810840846932608   -0.06659387411722831   -0.001753080587748584
-0.014450685885396433   -0.0667118960312889   -0.0015162364097298534
-0.02258614874584721   -0.05400808148089311   -0.0012151298465563813
-0.015570173776447238   -0.054144747119973614   -0.0010921035155828647
-0.01550105099968748   -0.05423425169721237   -0.0011628085199591634
-0.014450685885396433   -0.0667118960312889   -0.0015162364097298534
-0.02258614874584721   -0.05400808148089311   -0.0012151298465563813
-0.01550105099968748   -0.05423425169721237   -0.0011628085199591634
-0.020810840846932608   -0.06659387411722831   -0.001753080587748584
-0.014450685885396433   -0.0667118960312889   -0.0015162364097298534
-0.015570173776447238   -0.054144747119973614   -0.0010921035155828647
-0.020816065109956285   -0.06653198466367853   -0.0016201787633962756
-0.014490694060383523   -0.06665672217763353   -0.0014270097382303054
-0.015570173776447238   -0.054144747119973614   -0.0010921035155828647
-0.02258614874584721   -0.05400808148089311   -0.0012151298465563813
-0.020816065109956285   -0.06653198466367853   -0.0016201787633962756
-0.022633313955584582   -0.05396065808646909   -0.0011030587670594891
-0.014490694060383523   -0.06665672217763353   -0.0014270097382303054
-0.02083078392910173   -0.06650146008056228   -0.0014774122921547108
-0.022633313955584582   -0.05396065808646909   -0.0011030587670594891
-0.020816065109956285   -0.06653198466367853   -0.0016201787633962756
-0.014490694060383523   -0.06665672217763353   -0.0014270097382303054
-0.022633313955584582   -0.05396065808646909   -0.0011030587670594891
-0.015639949392307888   -0.05407308945031995   -0.0010133040076403936
-0.015570173776447238   -0.054144747119973614   -0.0010921035155828647
-0.014490694060383523   -0.06665672217763353   -0.0014270097382303054
-0.022633313955584582   -0.05396065808646909   -0.0011030587670594891
-0.015570173776447238   -0.054144747119973614   -0.0010921035155828647
-0.020816065109956285   -0.06653198466367853   -0.0016201787633962756
-0.02077196644305508   -0.06668286393537287   -0.0018778401749570883
-0.02247237374755681   -0.05415711106206584   -0.0014144256942385856
-0.027758353953834598   -0.06638689055889917   -0.002058020925073746
-0.020810840846932608   -0.06659387411722831   -0.001753080587748584
-0.02247237374755681   -0.05415711106206584   -0.0014144256942385856
-0.030035441921427954   -0.05393059063645682   -0.0015650846097934109
-0.027758353953834598   -0.06638689055889917   -0.002058020925073746
-0.029984247955226886   -0.053861204729258025   -0.0014373364114582728
-0.020810840846932608   -0.06659387411722831   -0.001753080587748584
-0.027625443271980465   -0.06630560494070013   -0.001876084965355172
-0.029984247955226886   -0.053861204729258025   -0.0014373364114582728
-0.027758353953834598   -0.06638689055889917   -0.002058020925073746
-0.020810840846932608   -0.06659387411722831   -0.001753080587748584
-0.029984247955226886   -0.053861204729258025   -0.0014373364114582728
-0.022543139170794053   -0.05407489247931045   -0.0013184167022948473
-0.02247237374755681   -0.05415711106206584   -0.0014144256942385856
-0.020810840846932608   -0.06659387411722831   -0.001753080587748584
-0.029984247955226886   -0.053861204729258025   -0.0014373364114582728
-0.02247237374755681   -0.05415711106206584   -0.0014144256942385856
-0.027758353953834598   -0.06638689055889917   -0.002058020925073746
-0.020810840846932608   -0.06659387411722831   -0.001753080587748584
-0.022543139170794053   -0.05407489247931045   -0.0013184167022948473
-0.027625443271980465   -0.06630560494070013   -0.001876084965355172
-0.020816065109956285   -0.06653198466367853   -0.0016201787633962756
-0.022543139170794053   -0.05407489247931045   -0.0013184167022948473
-0.029984247955226886   -0.053861204729258025   -0.0014373364114582728
-0.027625443271980465   -0.06630560494070013   -0.001876084965355172
-0.02994254046121819   -0.0538050814400568   -0.0012962342947180944
-0.020816065109956285   -0.06653198466367853   -0.0016201787633962756
-0.027513339929685833   -0.06625306601122251   -0.0016799389495844488
-0.02994254046121819   -0.0538050814400568   -0.0012962342947180944
-0.027625443271980465   -0.06630560494070013   -0.001876084965355172
-0.020816065109956285   -0.06653198466367853   -0.0016201787633962756
-0.02994254046121819   -0.0538050814400568   -0.0012962342947180944
-0.02258614874584721   -0.05400808148089311   -0.0012151298465563813
-0.022543139170794053   -0.05407489247931045   -0.0013184167022948473
-0.020816065109956285   -0.06653198466367853   -0.0016201787633962756
-0.02994254046121819   -0.0538050814400568   -0.0012962342947180944
-0.022543139170794053   -0.05407489247931045   -0.0013184167022948473
-0.027625443271980465   -0.06630560494070013   -0.001876084965355172
-0.020816065109956285   -0.06653198466367853   -0.0016201787633962756
-0.02258614874584721   -0.05400808148089311   -0.0012151298465563813
-0.027513339929685833   -0.06625306601122251   -0.0016799389495844488
-0.02083078392910173   -0.06650146008056228   -0.0014774122921547108
-0.02258614874584721   -0.05400808148089311   -0.0012151298465563813
-0.02994254046121819   -0.0538050814400568   -0.0012962342947180944
-0.027513339929685833   -0.06625306601122251   -0.0016799389495844488
-0.029841586843033095   -0.05378667171304872   -0.0011433024191348459
-0.02083078392910173   -0.06650146008056228   -0.0014774122921547108
-0.027328090549430594   -0.06625386761087053   -0.001471352535055045
-0.029841586843033095   -0.05378667171304872   -0.0011433024191348459
-0.027513339929685833   -0.06625306601122251   -0.0016799389495844488
-0.02083078392910173   -0.06650146008056228   -0.0014774122921547108
-0.029841586843033095   -0.05378667171304872   -0.0011433024191348459
-0.022633313955584582   -0.05396065808646909   -0.0011030587670594891
-0.02258614874584721   -0.05400808148089311   -0.0012151298465563813
-0.02083078392910173   -0.06650146008056228   -0.0014774122921547108
-0.029841586843033095   -0.05378667171304872   -0.0011433024191348459
-0.02258614874584721   -0.05400808148089311   -0.0012151298465563813
-0.027513339929685833   -0.06625306601122251   -0.0016799389495844488
0.005885689330482781   -0.05453438875650137   -0.0003876049106360911
0.006077506864645204   -0.04120515392699326   -5.9691048730538154e-05
-0.0014845817750415637   -0.054532383184658535   -0.0007194020656811818
0.005863667594427438   -0.05435188885145019   -0.00043908974091594897
0.006077506864645204   -0.04120515392699326   -5.9691048730538154e-05
-0.0017078138826387623   -0.041136258528563875   -0.00035820102853782276
-0.0014845817750415637   -0.054532383184658535   -0.0007194020656811818
-0.0017986021399763925   -0.04098422542271077   -0.0003311369277563855
0.005863667594427438   -0.05435188885145019   -0.00043908974091594897
-0.0015508358590123875   -0.05437359847711916   -0.0007240972556590528
-0.0017986021399763925   -0.04098422542271077   -0.0003311369277563855
-0.0014845817750415637   -0.054532383184658535   -0.0007194020656811818
0.005863667594427438   -0.05435188885145019   -0.00043908974091594897
-0.0017986021399763925   -0.04098422542271077   -0.0003311369277563855
0.005980749610689555   -0.04103100095976958   -5.379657111025102e-05
0.006077506864645204   -0.04120515392699326   -5.9691048730538154e-05
0.005863667594427438   -0.05435188885145019   -0.00043908974091594897
-0.0017986021399763925   -0.04098422542271077   -0.0003311369277563855
0.006077506864645204   -0.04120515392699326   -5.9691048730538154e-05
-0.0014845817750415637   -0.054532383184658535   -0.0007194020656811818
0.005863667594427438   -0.05435188885145019   -0.00043908974091594897
0.005980749610689555   -0.04103100095976958   -5.379657111025102e-05
-0.0015508358590123875   -0.05437359847711916   -0.0007240972556590528
0.005810036005261243   -0.05420474372978052   -0.0004773111379557386
0.005980749610689555   -0.04103100095976958   -5.379657111025102e-05
-0.0017986021399763925   -0.04098422542271077   -0.0003311369277563855
-0.0015508358590123875   -0.05437359847711916   -0.0007240972556590528
-0.0019025097630298534   -0.040840567805470254   -0.0002965808199494382
0.005810036005261243   -0.05420474372978052   -0.0004773111379557386
-0.001624449914009645   -0.054236701613964884   -0.0007205173453445846
-0.0019025097630298534   -0.040840567805470254   -0.0002965808199494382
-0.0015508358590123875   -0.05437359847711916   -0.0007240972556590528
0.005810036005261243   -0.05420474372978052   -0.0004773111379557386
-0.0019025097630298534   -0.040840567805470254   -0.0002965808199494382
0.0058623032156085225   -0.040875133817269135   -3.25860466786117e-05
0.005980749610689555   -0.04103100095976958   -5.379657111025102e-05
0.005810036005261243   -0.05420474372978052   -0.0004773111379557386
-0.0019025097630298534   -0.040840567805470254   -0.0002965808199494382
0.005980749610689555   -0.04103100095976958   -5.379657111025102e-05
-0.0015508358590123875   -0.05437359847711916   -0.0007240972556590528
0.005810036005261243   -0.05420474372978052   -0.0004773111379557386
0.0058623032156085225   -0.040875133817269135   -3.25860466786117e-05
-0.001624449914009645   -0.054236701613964884   -0.0007205173453445846
0.0057352713755241674   -0.05406909231366039   -0.0005031952298327645
0.0058623032156085225   -0.040875133817269135   -3.25860466786117e-05
-0.0019025097630298534   -0.040840567805470254   -0.0002965808199494382
-0.001624449914009645   -0.054236701613964884   -0.0007205173453445846
-0.002019054858576336   -0.040703328056273795   -0.00025265312020904024
0.0057352713755241674   -0.05406909231366039   -0.0005031952298327645
-0.0017157005013138985   -0.05411816485532077   -0.0007083361051340006
-0.002019054858576336   -0.040703328056273795   -0.00025265312020904024
-0.001624449914009645   -0.054236701613964884   -0.0007205173453445846
0.0057352713755241674   -0.05406909231366039   -0.0005031952298327645
-0.002019054858576336   -0.040703328056273795   -0.00025265312020904024
0.005706252983800679   -0.0407119658892476   3.245030935538452e-06
0.0058623032156085225   -0.040875133817269135   -3.25860466786117e-05
0.0057352713755241674   -0.05406909231366039   -0.0005031952298327645
-0.002019054858576336   -0.040703328056273795   -0.00025265312020904024
0.0058623032156085225   -0.040875133817269135   -3.25860466786117e-05
-0.001624449914009645   -0.054236701613964884   -0.0007205173453445846
-0.0014845817750415637   -0.054532383184658535   -0.0007194020656811818
-0.0017078138826387623   -0.041136258528563875   -0.00035820102853782276
-0.00851416794167954   -0.05446565726557719   -0.000993587765176724
-0.0015508358590123875   -0.05437359847711916   -0.0007240972556590528
-0.0017078138826387623   -0.041136258528563875   -0.00035820102853782276
-0.009084911894229252   -0.0410563989725615   -0.0006111817548736111
-0.00851416794167954   -0.05446565726557719   -0.000993587765176724
-0.009177414586156264   -0.04092908607743205   -0.0005699982108469086
-0.0015508358590123875   -0.05437359847711916   -0.0007240972556590528
-0.008588197455067828   -0.05433370177093864   -0.0009647667383932023
-0.009177414586156264   -0.04092908607743205   -0.0005699982108469086
-0.00851416794167954   -0.05446565726557719   -0.000993587765176724
-0.0015508358590123875   -0.05437359847711916   -0.0007240972556590528
-0.009177414586156264   -0.04092908607743205   -0.0005699982108469086
-0.0017986021399763925   -0.04098422542271077   -0.0003311369277563855
-0.0017078138826387623   -0.041136258528563875   -0.00035820102853782276
-0.0015508358590123875   -0.05437359847711916   -0.0007240972556590528
-0.009177414586156264   -0.04092908607743205   -0.0005699982108469086
-0.0017078138826387623   -0.041136258528563875   -0.00035820102853782276
-0.00851416794167954   -0.05446565726557719   -0.000993587765176724
-0.0015508358590123875   -0.05437359847711916   -0.0007240972556590528
-0.0017986021399763925   -0.04098422542271077   -0.0003311369277563855
-0.008588197455067828   -0.05433370177093864   -0.0009647667383932023
-0.001624449914009645   -0.054236701613964884   -0.0007205173453445846
-0.0017986021399763925   -0.04098422542271077   -0.0003311369277563855
-0.009177414586156264   -0.04092908607743205   -0.0005699982108469086
-0.008588197455067828   -0.05433370177093864   -0.0009647667383932023
-0.009271975072165256   -0.04080827807508838   -0.0005216814495803347
-0.001624449914009645   -0.054236701613964884   -0.0007205173453445846
-0.008663708119139045   -0.054219565376748845   -0.0009273292191832864
-0.009271975072165256   -0.04080827807508838   -0.0005216814495803347
-0.008588197455067828   -0.05433370177093864   -0.0009647667383932023
-0.001624449914009645   -0.054236701613964884   -0.0007205173453445846
-0.009271975072165256   -0.04080827807508838   -0.0005216814495803347
-0.0019025097630298534   -0.040840567805470254   -0.0002965808199494382
-0.0017986021399763925   -0.04098422542271077   -0.0003311369277563855
-0.001624449914009645   -0.054236701613964884   -0.0007205173453445846
-0.009271975072165256   -0.04080827807508838   -0.0005216814495803347
-0.0017986021399763925   -0.04098422542271077   -0.0003311369277563855
-0.008588197455067828   -0.05433370177093864   -0.0009647667383932023
-0.001624449914009645   -0.054236701613964884   -0.0007205173453445846
-0.0019025097630298534   -0.040840567805470254   -0.0002965808199494382
-0.008663708119139045   -0.054219565376748845   -0.0009273292191832864
-0.0017157005013138985   -0.05411816485532077   -0.0007083361051340006
-0.0019025097630298534   -0.040840567805470254   -0.0002965808199494382
-0.009271975072165256   -0.04080827807508838   -0.0005216814495803347
-0.008663708119139045   -0.054219565376748845   -0.0009273292191832864
-0.009372527531561795   -0.04069582567279779   -0.0004661493337539023
-0.0017157005013138985   -0.05411816485532077   -0.0007083361051340006
-0.008745584873558988   -0.05412431588828802   -0.0008816754137519438
-0.009372527531561795   -0.04069582567279779   -0.0004661493337539023
-0.008663708119139045   -0.054219565376748845   -0.0009273292191832864
-0.0017157005013138985   -0.05411816485532077   -0.0007083361051340006
-0.009372527531561795   -0.04069582567279779   -0.0004661493337539023
-0.002019054858576336   -0.040703328056273795   -0.00025265312020904024
-0.0019025097630298534   -0.040840567805470254   -0.0002965808199494382
-0.0017157005013138985   -0.05411816485532077   -0.0007083361051340006
-0.009372527531561795   -0.04069582567279779   -0.0004661493337539023
-0.0019025097630298534   -0.040840567805470254   -0.0002965808199494382
-0.008663708119139045   -0.054219565376748845   -0.0009273292191832864
-0.00851416794167954   -0.05446565726557719   -0.000993587765176724
-0.009084911894229252   -0.0410563989725615   -0.0006111817548736111
-0.015424876839434375   -0.05434144929210973   -0.0012250966274983757
-0.008588197455067828   -0.05433370177093864   -0.0009647667383932023
-0.009084911894229252   -0.0410563989725615   -0.0006111817548736111
-0.01634222627161532   -0.04096083359261594   -0.0008262344595360006
-0.015424876839434375   -0.05434144929210973   -0.0012250966274983757
-0.016434015732628666   -0.04085645308510329   -0.0007709241206075586
-0.008588197455067828   -0.05433370177093864   -0.0009647667383932023
-0.01550105099968748   -0.05423425169721237   -0.0011628085199591634
-0.016434015732628666   -0.04085645308510329   -0.0007709241206075586
-0.015424876839434375   -0.05434144929210973   -0.0012250966274983757
-0.008588197455067828   -0.05433370177093864   -0.0009647667383932023
-0.016434015732628666   -0.04085645308510329   -0.0007709241206075586
-0.009177414586156264   -0.04092908607743205   -0.0005699982108469086
-0.009084911894229252   -0.0410563989725615   -0.0006111817548736111
-0.008588197455067828   -0.05433370177093864   -0.0009647667383932023
-0.016434015732628666   -0.04085645308510329   -0.0007709241206075586
-0.009084911894229252   -0.0410563989725615   -0.0006111817548736111
-0.015424876839434375   -0.05434144929210973   -0.0012250966274983757
-0.008588197455067828   -0.05433370177093864   -0.0009647667383932023
-0.009177414586156264   -0.04092908607743205   -0.0005699982108469086
-0.01550105099968748   -0.05423425169721237   -0.0011628085199591634
-0.008663708119139045   -0.054219565376748845   -0.0009273292191832864
-0.009177414586156264   -0.04092908607743205   -0.0005699982108469086
-0.016434015732628666   -0.04085645308510329   -0.0007709241206075586
-0.01550105099968748   -0.05423425169721237   -0.0011628085199591634
-0.01651987887129755   -0.040758954884187515   -0.0007087247669133089
-0.008663708119139045   -0.054219565376748845   -0.0009273292191832864
-0.015570173776447238   -0.054144747119973614   -0.0010921035155828647
-0.01651987887129755   -0.040758954884187515   -0.0007087247669133089
-0.01550105099968748   -0.05423425169721237   -0.0011628085199591634
-0.008663708119139045   -0.054219565376748845   -0.0009273292191832864
-0.01651987887129755   -0.040758954884187515   -0.0007087247669133089
-0.009271975072165256   -0.04080827807508838   -0.0005216814495803347
-0.009177414586156264   -0.04092908607743205   -0.0005699982108469086
-0.008663708119139045   -0.054219565376748845   -0.0009273292191832864
-0.01651987887129755   -0.040758954884187515   -0.0007087247669133089
-0.009177414586156264   -0.04092908607743205   -0.0005699982108469086
-0.01550105099968748   -0.05423425169721237   -0.0011628085199591634
-0.008663708119139045   -0.054219565376748845   -0.0009273292191832864
-0.009271975072165256   -0.04080827807508838   -0.0005216814495803347
-0.015570173776447238   -0.054144747119973614   -0.0010921035155828647
-0.008745584873558988   -0.05412431588828802   -0.0008816754137519438
-0.009271975072165256   -0.04080827807508838   -0.0005216814495803347
-0.01651987887129755   -0.040758954884187515   -0.0007087247669133089
-0.015570173776447238   -0.054144747119973614   -0.0010921035155828647
-0.016606048730083586   -0.04066861225038059   -0.0006399791226549543
-0.008745584873558988   -0.05412431588828802   -0.0008816754137519438
-0.015639949392307888   -0.05407308945031995   -0.0010133040076403936
-0.016606048730083586   -0.04066861225038059   -0.0006399791226549543
-0.015570173776447238   -0.054144747119973614   -0.0010921035155828647
-0.008745584873558988   -0.05412431588828802   -0.0008816754137519438
-0.016606048730083586   -0.04066861225038059   -0.0006399791226549543
-0.009372527531561795   -0.04069582567279779   -0.0004661493337539023
-0.009271975072165256   -0.04080827807508838   -0.0005216814495803347
-0.008745584873558988   -0.05412431588828802   -0.0008816754137519438
-0.016606048730083586   -0.04066861225038059   -0.0006399791226549543
-0.009271975072165256   -0.04080827807508838   -0.0005216814495803347
-0.015570173776447238   -0.054144747119973614   -0.0010921035155828647
-0.015424876839434375   -0.05434144929210973   -0.0012250966274983757
-0.01634222627161532   -0.04096083359261594   -0.0008262344595360006
-0.02247237374755681   -0.05415711106206584   -0.0014144256942385856
-0.01550105099968748   -0.05423425169721237   -0.0011628085199591634
-0.01634222627161532   -0.04096083359261594   -0.0008262344595360006
-0.02373048816597492   -0.04083176947531487   -0.0010015245535234213
-0.02247237374755681   -0.05415711106206584   -0.0014144256942385856
-0.023818404697781306   -0.040751518722675545   -0.0009322544237043449
-0.01550105099968748   -0.05423425169721237   -0.0011628085199591634
-0.022543139170794053   -0.05407489247931045   -0.0013184167022948473
-0.023818404697781306   -0.040751518722675545   -0.0009322544237043449
-0.02247237374755681   -0.05415711106206584   -0.0014144256942385856
-0.01550105099968748   -0.05423425169721237   -0.0011628085199591634
-0.023818404697781306   -0.040751518722675545   -0.0009322544237043449
-0.016434015732628666   -0.04085645308510329   -0.0007709241206075586
-0.01634222627161532   -0.04096083359261594   -0.0008262344595360006
-0.01550105099968748   -0.05423425169721237   -0.0011628085199591634
-0.023818404697781306   -0.040751518722675545   -0.0009322544237043449
-0.01634222627161532   -0.04096083359261594   -0.0008262344595360006
-0.02247237374755681   -0.05415711106206584   -0.0014144256942385856
-0.01550105099968748   -0.05423425169721237   -0.0011628085199591634
-0.016434015732628666   -0.04085645308510329   -0.0007709241206075586
-0.022543139170794053   -0.05407489247931045   -0.0013184167022948473
-0.015570173776447238   -0.054144747119973614   -0.0010921035155828647
-0.016434015732628666   -0.04085645308510329   -0.0007709241206075586
-0.023818404697781306   -0.040751518722675545   -0.0009322544237043449
-0.022543139170794053   -0.05407489247931045   -0.0013184167022948473
-0.023885155494171265   -0.0406754744000901   -0.0008572392588827098
-0.015570173776447238   -0.054144747119973614   -0.0010921035155828647
-0.02258614874584721   -0.05400808148089311   -0.0012151298465563813
-0.023885155494171265   -0.0406754744000901   -0.0008572392588827098
-0.022543139170794053   -0.05407489247931045   -0.0013184167022948473
-0.015570173776447238   -0.054144747119973614   -0.0010921035155828647
-0.023885155494171265   -0.0406754744000901   -0.0008572392588827098
-0.01651987887129755   -0.040758954884187515   -0.0007087247669133089
-0.016434015732628666   -0.04085645308510329   -0.0007709241206075586
-0.015570173776447238   -0.054144747119973614   -0.0010921035155828647
-0.023885155494171265   -0.0406754744000901   -0.0008572392588827098
-0.016434015732628666   -0.04085645308510329   -0.0007709241206075586
-0.022543139170794053   -0.05407489247931045   -0.0013184167022948473
-0.015570173776447238   -0.054144747119973614   -0.0010921035155828647
-0.01651987887129755   -0.040758954884187515   -0.0007087247669133089
-0.02258614874584721   -0.05400808148089311   -0.0012151298465563813
-0.015639949392307888   -0.05407308945031995   -0.0010133040076403936
-0.01651987887129755   -0.040758954884187515   -0.0007087247669133089
-0.023885155494171265   -0.0406754744000901   -0.0008572392588827098
-0.02258614874584721   -0.05400808148089311   -0.0012151298465563813
-0.02395136248814745   -0.040606973297010455   -0.0007749739707813893
-0.015639949392307888   -0.05407308945031995   -0.0010133040076403936
-0.022633313955584582   -0.05396065808646909   -0.0011030587670594891
-0.02395136248814745   -0.040606973297010455   -0.0007749739707813893
-0.02258614874584721   -0.05400808148089311   -0.0012151298465563813
-0.015639949392307888   -0.05407308945031995   -0.0010133040076403936
-0.02395136248814745   -0.040606973297010455   -0.0007749739707813893
-0.016606048730083586   -0.04066861225038059   -0.0006399791226549543
-0.01651987887129755   -0.040758954884187515   -0.0007087247669133089
-0.015639949392307888   -0.05407308945031995   -0.0010133040076403936
-0.02395136248814745   -0.040606973297010455   -0.0007749739707813893
-0.01651987887129755   -0.040758954884187515   -0.0007087247669133089
-0.02258614874584721   -0.05400808148089311   -0.0012151298465563813
-0.02247237374755681   -0.05415711106206584   -0.0014144256942385856
-0.02373048816597492   -0.04083176947531487   -0.0010015245535234213
-0.030035441921427954   -0.05393059063645682   -0.0015650846097934109
-0.022543139170794053   -0.05407489247931045   -0.0013184167022948473
-0.02373048816597492   -0.04083176947531487   -0.0010015245535234213
-0.0315600382905373   -0.04067951137223972   -0.0011318645687910243
-0.030035441921427954   -0.05393059063645682   -0.0015650846097934109
-0.03157405816414127   -0.040615320671684725   -0.001055519545857026
-0.022543139170794053   -0.05407489247931045   -0.0013184167022948473
-0.029984247955226886   -0.053861204729258025   -0.0014373364114582728
-0.03157405816414127   -0.040615320671684725   -0.001055519545857026
-0.030035441921427954   -0.05393059063645682   -0.0015650846097934109
-0.022543139170794053   -0.05407489247931045   -0.0013184167022948473
-0.03157405816414127   -0.040615320671684725   -0.001055519545857026
-0.023818404697781306   -0.040751518722675545   -0.0009322544237043449
-0.02373048816597492   -0.04083176947531487   -0.0010015245535234213
-0.022543139170794053   -0.05407489247931045   -0.0013184167022948473
-0.03157405816414127   -0.040615320671684725   -0.001055519545857026
-0.02373048816597492   -0.04083176947531487   -0.0010015245535234213
-0.030035441921427954   -0.05393059063645682   -0.0015650846097934109
-0.022543139170794053   -0.05407489247931045   -0.0013184167022948473
-0.023818404697781306   -0.040751518722675545   -0.0009322544237043449
-0.029984247955226886   -0.053861204729258025   -0.0014373364114582728
-0.02258614874584721   -0.05400808148089311   -0.0012151298465563813
-0.023818404697781306   -0.040751518722675545   -0.0009322544237043449
-0.03157405816414127   -0.040615320671684725   -0.001055519545857026
-0.029984247955226886   -0.053861204729258025   -0.0014373364114582728
-0.031588369171730864   -0.04055029295832068   -0.0009675992118663551
-0.02258614874584721   -0.05400808148089311   -0.0012151298465563813
-0.02994254046121819   -0.0538050814400568   -0.0012962342947180944
-0.031588369171730864   -0.04055029295832068   -0.0009675992118663551
-0.029984247955226886   -0.053861204729258025   -0.0014373364114582728
-0.02258614874584721   -0.05400808148089311   -0.0012151298465563813
-0.031588369171730864   -0.04055029295832068   -0.0009675992118663551
-0.023885155494171265   -0.0406754744000901   -0.0008572392588827098
-0.023818404697781306   -0.040751518722675545   -0.0009322544237043449
-0.02258614874584721   -0.05400808148089311   -0.0012151298465563813
-0.031588369171730864   -0.04055029295832068   -0.0009675992118663551
-0.023818404697781306   -0.040751518722675545   -0.0009322544237043449
-0.029984247955226886   -0.053861204729258025   -0.0014373364114582728
-0.02258614874584721   -0.05400808148089311   -0.0012151298465563813
-0.023885155494171265   -0.0406754744000901   -0.0008572392588827098
-0.02994254046121819   -0.0538050814400568   -0.0012962342947180944
-0.022633313955584582   -0.05396065808646909   -0.0011030587670594891
-0.023885155494171265   -0.0406754744000901   -0.0008572392588827098
-0.031588369171730864   -0.04055029295832068   -0.0009675992118663551
-0.02994254046121819   -0.0538050814400568   -0.0012962342947180944
-0.03155881139012069   -0.04050702514984039   -0.0008694814386275114
-0.022633313955584582   -0.05396065808646909   -0.0011030587670594891
-0.029841586843033095   -0.05378667171304872   -0.0011433024191348459
-0.03155881139012069   -0.04050702514984039   -0.0008694814386275114
-0.02994254046121819   -0.0538050814400568   -0.0012962342947180944
-0.022633313955584582   -0.05396065808646909   -0.0011030587670594891
-0.03155881139012069   -0.04050702514984039   -0.0008694814386275114
-0.02395136248814745   -0.040606973297010455   -0.0007749739707813893
-0.023885155494171265   -0.0406754744000901   -0.0008572392588827098
-0.022633313955584582   -0.05396065808646909   -0.0011030587670594891
-0.03155881139012069   -0.04050702514984039   -0.0008694814386275114
-0.023885155494171265   -0.0406754744000901   -0.0008572392588827098
-0.02994254046121819   -0.0538050814400568   -0.0012962342947180944
0.006077506864645204   -0.04120515392699326   -5.9691048730538154e-05
0.005443432770397557   -0.02748556727725803   0.00016657689135445708
-0.0017078138826387623   -0.041136258528563875   -0.00035820102853782276
0.005980749610689555   -0.04103100095976958   -5.379657111025102e-05
0.005443432770397557   -0.02748556727725803   0.00016657689135445708
-0.0023968935458060815   -0.027355912845775782   -7.103436466064018e-05
-0.0017078138826387623   -0.041136258528563875   -0.00035820102853782276
-0.002505185565048038   -0.027218175776549756   -1.4793944748442098e-05
0.005980749610689555   -0.04103100095976958   -5.379657111025102e-05
-0.0017986021399763925   -0.04098422542271077   -0.0003311369277563855
-0.002505185565048038   -0.027218175776549756   -1.4793944748442098e-05
-0.0017078138826387623   -0.041136258528563875   -0.00035820102853782276
0.005980749610689555   -0.04103100095976958   -5.379657111025102e-05
-0.002505185565048038   -0.027218175776549756   -1.4793944748442098e-05
0.005272583426016459   -0.02731956499941266   0.00023681831909758884
0.005443432770397557   -0.02748556727725803   0.00016657689135445708
0.005980749610689555   -0.04103100095976958   -5.379657111025102e-05
-0.002505185565048038   -0.027218175776549756   -1.4793944748442098e-05
0.005443432770397557   -0.02748556727725803   0.00016657689135445708
-0.0017078138826387623   -0.041136258528563875   -0.00035820102853782276
0.005980749610689555   -0.04103100095976958   -5.379657111025102e-05
0.005272583426016459   -0.02731956499941266   0.00023681831909758884
-0.0017986021399763925   -0.04098422542271077   -0.0003311369277563855
0.0058623032156085225   -0.040875133817269135   -3.25860466786117e-05
0.005272583426016459   -0.02731956499941266   0.00023681831909758884
-0.002505185565048038   -0.027218175776549756   -1.4793944748442098e-05
-0.0017986021399763925   -0.04098422542271077   -0.0003311369277563855
-0.0026318197147913716   -0.02707274455913372   5.1413904970997015e-05
0.0058623032156085225   -0.040875133817269135   -3.25860466786117e-05
-0.0019025097630298534   -0.040840567805470254   -0.0002965808199494382
-0.0026318197147913716   -0.02707274455913372   5.1413904970997015e-05
-0.0017986021399763925   -0.04098422542271077   -0.0003311369277563855
0.0058623032156085225   -0.040875133817269135   -3.25860466786117e-05
-0.0026318197147913716   -0.02707274455913372   5.1413904970997015e-05
0.005082125966073467   -0.027154556875766372   0.0003374891884929338
0.005272583426016459   -0.02731956499941266   0.00023681831909758884
0.0058623032156085225   -0.040875133817269135   -3.25860466786117e-05
-0.0026318197147913716   -0.02707274455913372   5.1413904970997015e-05
0.005272583426016459   -0.02731956499941266   0.00023681831909758884
-0.0017986021399763925   -0.04098422542271077   -0.0003311369277563855
0.0058623032156085225   -0.040875133817269135   -3.25860466786117e-05
0.005082125966073467   -0.027154556875766372   0.0003374891884929338
-0.0019025097630298534   -0.040840567805470254   -0.0002965808199494382
0.005706252983800679   -0.0407119658892476   3.245030935538452e-06
0.005082125966073467   -0.027154556875766372   0.0003374891884929338
-0.0026318197147913716   -0.02707274455913372   5.1413904970997015e-05
-0.0019025097630298534   -0.040840567805470254   -0.0002965808199494382
-0.0027627503184028323   -0.02691827186198116   0.00012744837440118505
0.005706252983800679   -0.0407119658892476   3.245030935538452e-06
-0.002019054858576336   -0.040703328056273795   -0.00025265312020904024
-0.0027627503184028323   -0.02691827186198116   0.00012744837440118505
-0.0019025097630298534   -0.040840567805470254   -0.0002965808199494382
0.005706252983800679   -0.0407119658892476   3.245030935538452e-06
-0.0027627503184028323   -0.02691827186198116   0.00012744837440118505
0.004849435600312692   -0.026951912397563955   0.00044822611057630373
0.005082125966073467   -0.027154556875766372   0.0003374891884929338
0.005706252983800679   -0.0407119658892476   3.245030935538452e-06
-0.0027627503184028323   -0.02691827186198116   0.00012744837440118505
0.005082125966073467   -0.027154556875766372   0.0003374891884929338
-0.0019025097630298534   -0.040840567805470254   -0.0002965808199494382
-0.0017078138826387623   -0.041136258528563875   -0.00035820102853782276
-0.0023968935458060815   -0.027355912845775782   -7.103436466064018e-05
-0.009084911894229252   -0.0410563989725615   -0.0006111817548736111
-0.0017986021399763925   -0.04098422542271077   -0.0003311369277563855
-0.0023968935458060815   -0.027355912845775782   -7.103436466064018e-05
-0.009780735211949852   -0.027322377197012464   -0.0003002333620638927
-0.009084911894229252   -0.0410563989725615   -0.0006111817548736111
-0.009878531377600329   -0.02720203195936236   -0.00024802365272597336
-0.0017986021399763925   -0.04098422542271077   -0.0003311369277563855
-0.009177414586156264   -0.04092908607743205   -0.0005699982108469086
-0.009878531377600329   -0.02720203195936236   -0.00024802365272597336
-0.009084911894229252   -0.0410563989725615   -0.0006111817548736111
-0.0017986021399763925   -0.04098422542271077   -0.0003311369277563855
-0.009878531377600329   -0.02720203195936236   -0.00024802365272597336
-0.002505185565048038   -0.027218175776549756   -1.4793944748442098e-05
-0.0023968935458060815   -0.027355912845775782   -7.103436466064018e-05
-0.0017986021399763925   -0.04098422542271077   -0.0003311369277563855
-0.009878531377600329   -0.02720203195936236   -0.00024802365272597336
-0.0023968935458060815   -0.027355912845775782   -7.103436466064018e-05
-0.009084911894229252   -0.0410563989725615   -0.0006111817548736111
-0.0017986021399763925   -0.04098422542271077   -0.0003311369277563855
-0.002505185565048038   -0.027218175776549756   -1.4793944748442098e-05
-0.009177414586156264   -0.04092908607743205   -0.0005699982108469086
-0.0019025097630298534   -0.040840567805470254   -0.0002965808199494382
-0.002505185565048038   -0.027218175776549756   -1.4793944748442098e-05
-0.009878531377600329   -0.02720203195936236   -0.00024802365272597336
-0.009177414586156264   -0.04092908607743205   -0.0005699982108469086
-0.00997967355693647   -0.02707682625859287   -0.00019065693603284798
-0.0019025097630298534   -0.040840567805470254   -0.0002965808199494382
-0.009271975072165256   -0.04080827807508838   -0.0005216814495803347
-0.00997967355693647   -0.02707682625859287   -0.00019065693603284798
-0.009177414586156264   -0.04092908607743205   -0.0005699982108469086
-0.0019025097630298534   -0.040840567805470254   -0.0002965808199494382
-0.00997967355693647   -0.02707682625859287   -0.00019065693603284798
-0.0026318197147913716   -0.02707274455913372   5.1413904970997015e-05
-0.002505185565048038   -0.027218175776549756   -1.4793944748442098e-05
-0.0019025097630298534   -0.040840567805470254   -0.0002965808199494382
-0.00997967355693647   -0.02707682625859287   -0.00019065693603284798
-0.002505185565048038   -0.027218175776549756   -1.4793944748442098e-05
-0.009177414586156264   -0.04092908607743205   -0.0005699982108469086
-0.0019025097630298534   -0.040840567805470254   -0.0002965808199494382
-0.0026318197147913716   -0.02707274455913372   5.1413904970997015e-05
-0.009271975072165256   -0.04080827807508838   -0.0005216814495803347
-0.002019054858576336   -0.040703328056273795   -0.00025265312020904024
-0.0026318197147913716   -0.02707274455913372   5.1413904970997015e-05
-0.00997967355693647   -0.02707682625859287   -0.00019065693603284798
-0.009271975072165256   -0.04080827807508838   -0.0005216814495803347
-0.010084947482242585   -0.026948967552380472   -0.00012709735685676886
-0.002019054858576336   -0.040703328056273795   -0.00025265312020904024
-0.009372527531561795   -0.04069582567279779   -0.0004661493337539023
-0.010084947482242585   -0.026948967552380472   -0.00012709735685676886
-0.009271975072165256   -0.04080827807508838   -0.0005216814495803347
-0.002019054858576336   -0.040703328056273795   -0.00025265312020904024
-0.010084947482242585   -0.026948967552380472   -0.00012709735685676886
-0.0027627503184028323   -0.02691827186198116   0.00012744837440118505
-0.0026318197147913716   -0.02707274455913372   5.1413904970997015e-05
-0.002019054858576336   -0.040703328056273795   -0.00025265312020904024
-0.010084947482242585   -0.026948967552380472   -0.00012709735685676886
-0.0026318197147913716   -0.02707274455913372   5.1413904970997015e-05
-0.009271975072165256   -0.04080827807508838   -0.0005216814495803347
-0.009084911894229252   -0.0410563989725615   -0.0006111817548736111
-0.009780735211949852   -0.027322377197012464   -0.0003002333620638927
-0.01634222627161532   -0.04096083359261594   -0.0008262344595360006
-0.009177414586156264   -0.04092908607743205   -0.0005699982108469086
-0.009780735211949852   -0.027322377197012464   -0.0003002333620638927
-0.01708942946187403   -0.0273130811114543   -0.0005075106927931336
-0.01634222627161532   -0.04096083359261594   -0.0008262344595360006
-0.017182877406926162   -0.027207463047382443   -0.00045780450820645584
-0.009177414586156264   -0.04092908607743205   -0.0005699982108469086
-0.016434015732628666   -0.04085645308510329   -0.0007709241206075586
-0.017182877406926162   -0.027207463047382443   -0.00045780450820645584
-0.01634222627161532   -0.04096083359261594   -0.0008262344595360006
-0.009177414586156264   -0.04092908607743205   -0.0005699982108469086
-0.017182877406926162   -0.027207463047382443   -0.00045780450820645584
-0.009878531377600329   -0.02720203195936236   -0.00024802365272597336
-0.009780735211949852   -0.027322377197012464   -0.0003002333620638927
-0.009177414586156264   -0.04092908607743205   -0.0005699982108469086
-0.017182877406926162   -0.027207463047382443   -0.00045780450820645584
-0.009780735211949852   -0.027322377197012464   -0.0003002333620638927
-0.01634222627161532   -0.04096083359261594   -0.0008262344595360006
-0.009177414586156264   -0.04092908607743205   -0.0005699982108469086
-0.009878531377600329   -0.02720203195936236   -0.00024802365272597336
-0.016434015732628666   -0.04085645308510329   -0.0007709241206075586
-0.009271975072165256   -0.04080827807508838   -0.0005216814495803347
-0.009878531377600329   -0.02720203195936236   -0.00024802365272597336
-0.017182877406926162   -0.027207463047382443   -0.00045780450820645584
-0.016434015732628666   -0.04085645308510329   -0.0007709241206075586
-0.017271893828313813   -0.027099895410827232   -0.00040359278718643554
-0.009271975072165256   -0.04080827807508838   -0.0005216814495803347
-0.01651987887129755   -0.040758954884187515   -0.0007087247669133089
-0.017271893828313813   -0.027099895410827232   -0.00040359278718643554
-0.016434015732628666   -0.04085645308510329   -0.0007709241206075586
-0.009271975072165256   -0.04080827807508838   -0.0005216814495803347
-0.017271893828313813   -0.027099895410827232   -0.00040359278718643554
-0.00997967355693647   -0.02707682625859287   -0.00019065693603284798
-0.009878531377600329   -0.02720203195936236   -0.00024802365272597336
-0.009271975072165256   -0.04080827807508838   -0.0005216814495803347
-0.017271893828313813   -0.027099895410827232   -0.00040359278718643554
-0.009878531377600329   -0.02720203195936236   -0.00024802365272597336
-0.016434015732628666   -0.04085645308510329   -0.0007709241206075586
-0.009271975072165256   -0.04080827807508838   -0.0005216814495803347
-0.00997967355693647   -0.02707682625859287   -0.00019065693603284798
-0.01651987887129755   -0.040758954884187515   -0.0007087247669133089
-0.009372527531561795   -0.04069582567279779   -0.0004661493337539023
-0.00997967355693647   -0.02707682625859287   -0.00019065693603284798
-0.017271893828313813   -0.027099895410827232   -0.00040359278718643554
-0.01651987887129755   -0.040758954884187515   -0.0007087247669133089
-0.01736001223475194   -0.02698977076194751   -0.0003451345908962383
-0.009372527531561795   -0.04069582567279779   -0.0004661493337539023
-0.016606048730083586   -0.04066861225038059   -0.0006399791226549543
-0.01736001223475194   -0.02698977076194751   -0.0003451345908962383
-0.01651987887129755   -0.040758954884187515   -0.0007087247669133089
-0.009372527531561795   -0.04069582567279779   -0.0004661493337539023
-0.01736001223475194   -0.02698977076194751   -0.0003451345908962383
-0.010084947482242585   -0.026948967552380472   -0.00012709735685676886
-0.00997967355693647   -0.02707682625859287   -0.00019065693603284798
-0.009372527531561795   -0.04069582567279779   -0.0004661493337539023
-0.01736001223475194   -0.02698977076194751   -0.0003451345908962383
-0.00997967355693647   -0.02707682625859287   -0.00019065693603284798
-0.01651987887129755   -0.040758954884187515   -0.0007087247669133089
-0.01634222627161532   -0.04096083359261594   -0.0008262344595360006
-0.01708942946187403   -0.0273130811114543   -0.0005075106927931336
-0.02373048816597492   -0.04083176947531487   -0.0010015245535234213
-0.016434015732628666   -0.04085645308510329   -0.0007709241206075586
-0.01708942946187403   -0.0273130811114543   -0.0005075106927931336
-0.024552866321897134   -0.027270761256421215   -0.0006818264272247613
-0.02373048816597492   -0.04083176947531487   -0.0010015245535234213
-0.024641953896632488   -0.027184533518680987   -0.0006348618370255547
-0.016434015732628666   -0.04085645308510329   -0.0007709241206075586
-0.023818404697781306   -0.040751518722675545   -0.0009322544237043449
-0.024641953896632488   -0.027184533518680987   -0.0006348618370255547
-0.02373048816597492   -0.04083176947531487   -0.0010015245535234213
-0.016434015732628666   -0.04085645308510329   -0.0007709241206075586
-0.024641953896632488   -0.027184533518680987   -0.0006348618370255547
-0.017182877406926162   -0.027207463047382443   -0.00045780450820645584
-0.01708942946187403   -0.0273130811114543   -0.0005075106927931336
-0.016434015732628666   -0.04085645308510329   -0.0007709241206075586
-0.024641953896632488   -0.027184533518680987   -0.0006348618370255547
-0.01708942946187403   -0.0273130811114543   -0.0005075106927931336
-0.02373048816597492   -0.04083176947531487   -0.0010015245535234213
-0.016434015732628666   -0.04085645308510329   -0.0007709241206075586
-0.017182877406926162   -0.027207463047382443   -0.00045780450820645584
-0.023818404697781306   -0.040751518722675545   -0.0009322544237043449
-0.01651987887129755   -0.040758954884187515   -0.0007087247669133089
-0.017182877406926162   -0.027207463047382443   -0.00045780450820645584
-0.024641953896632488   -0.027184533518680987   -0.0006348618370255547
-0.023818404697781306   -0.040751518722675545   -0.0009322544237043449
-0.02471748909108198   -0.0270935622801652   -0.0005847092324909545
-0.01651987887129755   -0.040758954884187515   -0.0007087247669133089
-0.023885155494171265   -0.0406754744000901   -0.0008572392588827098
-0.02471748909108198   -0.0270935622801652   -0.0005847092324909545
-0.023818404697781306   -0.040751518722675545   -0.0009322544237043449
-0.01651987887129755   -0.040758954884187515   -0.0007087247669133089
-0.02471748909108198   -0.0270935622801652   -0.0005847092324909545
-0.017271893828313813   -0.027099895410827232   -0.00040359278718643554
-0.017182877406926162   -0.027207463047382443   -0.00045780450820645584
-0.01651987887129755   -0.040758954884187515   -0.0007087247669133089
-0.02471748909108198   -0.0270935622801652   -0.0005847092324909545
-0.017182877406926162   -0.027207463047382443   -0.00045780450820645584
-0.023818404697781306   -0.040751518722675545   -0.0009322544237043449
-0.01651987887129755   -0.040758954884187515   -0.0007087247669133089
-0.017271893828313813   -0.027099895410827232   -0.00040359278718643554
-0.023885155494171265   -0.0406754744000901   -0.0008572392588827098
-0.016606048730083586   -0.04066861225038059   -0.0006399791226549543
-0.017271893828313813   -0.027099895410827232   -0.00040359278718643554
-0.02471748909108198   -0.0270935622801652   -0.0005847092324909545
-0.023885155494171265   -0.0406754744000901   -0.0008572392588827098
-0.02478888387419664   -0.027000163166339727   -0.0005299691317733357
-0.016606048730083586   -0.04066861225038059   -0.0006399791226549543
-0.02395136248814745   -0.040606973297010455   -0.0007749739707813893
-0.02478888387419664   -0.027000163166339727   -0.0005299691317733357
-0.023885155494171265   -0.0406754744000901   -0.0008572392588827098
-0.016606048730083586   -0.04066861225038059   -0.0006399791226549543
-0.02478888387419664   -0.027000163166339727   -0.0005299691317733357
-0.01736001223475194   -0.02698977076194751   -0.0003451345908962383
-0.017271893828313813   -0.027099895410827232   -0.00040359278718643554
-0.016606048730083586   -0.04066861225038059   -0.0006399791226549543
-0.02478888387419664   -0.027000163166339727   -0.0005299691317733357
-0.017271893828313813   -0.027099895410827232   -0.00040359278718643554
-0.023885155494171265   -0.0406754744000901   -0.0008572392588827098
-0.02373048816597492   -0.04083176947531487   -0.0010015245535234213
-0.024552866321897134   -0.027270761256421215   -0.0006818264272247613
-0.0315600382905373   -0.04067951137223972   -0.0011318645687910243
-0.023818404697781306   -0.040751518722675545   -0.0009322544237043449
-0.024552866321897134   -0.027270761256421215   -0.0006818264272247613
-0.03236972165089704   -0.027201188380325574   -0.0008111310288576975
-0.0315600382905373   -0.04067951137223972   -0.0011318645687910243
-0.03242536469472384   -0.027128660608866543   -0.0007760693042464609
-0.023818404697781306   -0.040751518722675545   -0.0009322544237043449
-0.03157405816414127   -0.040615320671684725   -0.001055519545857026
-0.03242536469472384   -0.027128660608866543   -0.0007760693042464609
-0.0315600382905373   -0.04067951137223972   -0.0011318645687910243
-0.023818404697781306   -0.040751518722675545   -0.0009322544237043449
-0.03242536469472384   -0.027128660608866543   -0.0007760693042464609
-0.024641953896632488   -0.027184533518680987   -0.0006348618370255547
-0.024552866321897134   -0.027270761256421215   -0.0006818264272247613
-0.023818404697781306   -0.040751518722675545   -0.0009322544237043449
-0.03242536469472384   -0.027128660608866543   -0.0007760693042464609
-0.024552866321897134   -0.027270761256421215   -0.0006818264272247613
-0.0315600382905373   -0.04067951137223972   -0.0011318645687910243
-0.023818404697781306   -0.040751518722675545   -0.0009322544237043449
-0.024641953896632488   -0.027184533518680987   -0.0006348618370255547
-0.03157405816414127   -0.040615320671684725   -0.001055519545857026
-0.023885155494171265   -0.0406754744000901   -0.0008572392588827098
-0.024641953896632488   -0.027184533518680987   -0.0006348618370255547
-0.03242536469472384   -0.027128660608866543   -0.0007760693042464609
-0.03157405816414127   -0.040615320671684725   -0.001055519545857026
-0.03247624366464165   -0.027046653118627466   -0.0007331633926986307
-0.023885155494171265   -0.0406754744000901   -0.0008572392588827098
-0.031588369171730864   -0.04055029295832068   -0.0009675992118663551
-0.03247624366464165   -0.027046653118627466   -0.0007331633926986307
-0.03157405816414127   -0.040615320671684725   -0.001055519545857026
-0.023885155494171265   -0.0406754744000901   -0.0008572392588827098
-0.03247624366464165   -0.027046653118627466   -0.0007331633926986307
-0.02471748909108198   -0.0270935622801652   -0.0005847092324909545
-0.024641953896632488   -0.027184533518680987   -0.0006348618370255547
-0.023885155494171265   -0.0406754744000901   -0.0008572392588827098
-0.03247624366464165   -0.027046653118627466   -0.0007331633926986307
-0.024641953896632488   -0.027184533518680987   -0.0006348618370255547
-0.03157405816414127   -0.040615320671684725   -0.001055519545857026
-0.023885155494171265   -0.0406754744000901   -0.0008572392588827098
-0.02471748909108198   -0.0270935622801652   -0.0005847092324909545
-0.031588369171730864   -0.04055029295832068   -0.0009675992118663551
-0.02395136248814745   -0.040606973297010455   -0.0007749739707813893
-0.02471748909108198   -0.0270935622801652   -0.0005847092324909545
-0.03247624366464165   -0.027046653118627466   -0.0007331633926986307
-0.031588369171730864   -0.04055029295832068   -0.0009675992118663551
-0.032501209976212884   -0.02697121688845895   -0.0006843872898037171
-0.02395136248814745   -0.040606973297010455   -0.0007749739707813893
-0.03155881139012069   -0.04050702514984039   -0.0008694814386275114
-0.032501209976212884   -0.02697121688845895   -0.0006843872898037171
-0.031588369171730864   -0.04055029295832068   -0.0009675992118663551
-0.02395136248814745   -0.040606973297010455   -0.0007749739707813893
-0.032501209976212884   -0.02697121688845895   -0.0006843872898037171
-0.02478888387419664   -0.027000163166339727   -0.0005299691317733357
-0.02471748909108198   -0.0270935622801652   -0.0005847092324909545
-0.02395136248814745   -0.040606973297010455   -0.0007749739707813893
-0.032501209976212884   -0.02697121688845895   -0.0006843872898037171
-0.02471748909108198   -0.0270935622801652   -0.0005847092324909545
-0.031588369171730864   -0.04055029295832068   -0.0009675992118663551
0.005443432770397557   -0.02748556727725803   0.00016657689135445708
0.003811120212724768   -0.013797603758863696   0.00017864543013823808
-0.0023968935458060815   -0.027355912845775782   -7.103436466064018e-05
0.005272583426016459   -0.02731956499941266   0.00023681831909758884
0.003811120212724768   -0.013797603758863696   0.00017864543013823808
-0.003496673068357017   -0.013617909851353733   8.955530836204386e-05
-0.0023968935458060815   -0.027355912845775782   -7.103436466064018e-05
-0.0036042829764975446   -0.013547970581000095   0.0001675234792795568
0.005272583426016459   -0.02731956499941266   0.00023681831909758884
-0.002505185565048038   -0.027218175776549756   -1.4793944748442098e-05
-0.0036042829764975446   -0.013547970581000095   0.0001675234792795568
-0.0023968935458060815   -0.027355912845775782   -7.103436466064018e-05
0.005272583426016459   -0.02731956499941266   0.00023681831909758884
-0.0036042829764975446   -0.013547970581000095   0.0001675234792795568
0.003475839582650012   -0.013621449986285594   0.00037181801378870824
0.003811120212724768   -0.013797603758863696   0.00017864543013823808
0.005272583426016459   -0.02731956499941266   0.00023681831909758884
-0.0036042829764975446   -0.013547970581000095   0.0001675234792795568
0.003811120212724768   -0.013797603758863696   0.00017864543013823808
-0.0023968935458060815   -0.027355912845775782   -7.103436466064018e-05
0.005272583426016459   -0.02731956499941266   0.00023681831909758884
0.003475839582650012   -0.013621449986285594   0.00037181801378870824
-0.002505185565048038   -0.027218175776549756   -1.4793944748442098e-05
0.005082125966073467   -0.027154556875766372   0.0003374891884929338
0.003475839582650012   -0.013621449986285594   0.00037181801378870824
-0.0036042829764975446   -0.013547970581000095   0.0001675234792795568
-0.002505185565048038   -0.027218175776549756   -1.4793944748442098e-05
-0.003745513044052056   -0.013424078876506951   0.0002621425082363878
0.005082125966073467   -0.027154556875766372   0.0003374891884929338
-0.0026318197147913716   -0.02707274455913372   5.1413904970997015e-05
-0.003745513044052056   -0.013424078876506951   0.0002621425082363878
-0.002505185565048038   -0.027218175776549756   -1.4793944748442098e-05
0.005082125966073467   -0.027154556875766372   0.0003374891884929338
-0.003745513044052056   -0.013424078876506951   0.0002621425082363878
0.00327941869739445   -0.013477049082491126   0.0005160852303081062
0.003475839582650012   -0.013621449986285594   0.00037181801378870824
0.005082125966073467   -0.027154556875766372   0.0003374891884929338
-0.003745513044052056   -0.013424078876506951   0.0002621425082363878
0.003475839582650012   -0.013621449986285594   0.00037181801378870824
-0.002505185565048038   -0.027218175776549756   -1.4793944748442098e-05
0.005082125966073467   -0.027154556875766372   0.0003374891884929338
0.00327941869739445   -0.013477049082491126   0.0005160852303081062
-0.0026318197147913716   -0.02707274455913372   5.1413904970997015e-05
0.004849435600312692   -0.026951912397563955   0.00044822611057630373
0.00327941869739445   -0.013477049082491126   0.0005160852303081062
-0.003745513044052056   -0.013424078876506951   0.0002621425082363878
-0.0026318197147913716   -0.02707274455913372   5.1413904970997015e-05
-0.0038641639251321804   -0.013290748254129488   0.0003454464088810503
0.004849435600312692   -0.026951912397563955   0.00044822611057630373
-0.0027627503184028323   -0.02691827186198116   0.00012744837440118505
-0.0038641639251321804   -0.013290748254129488   0.0003454464088810503
-0.0026318197147913716   -0.02707274455913372   5.1413904970997015e-05
0.004849435600312692   -0.026951912397563955   0.00044822611057630373
-0.0038641639251321804   -0.013290748254129488   0.0003454464088810503
0.0030278394359709447   -0.013256644073104383   0.0006812253735737897
0.00327941869739445   -0.013477049082491126   0.0005160852303081062
0.004849435600312692   -0.026951912397563955   0.00044822611057630373
-0.0038641639251321804   -0.013290748254129488   0.0003454464088810503
0.00327941869739445   -0.013477049082491126   0.0005160852303081062
-0.0026318197147913716   -0.02707274455913372   5.1413904970997015e-05
-0.0023968935458060815   -0.027355912845775782   -7.103436466064018e-05
-0.003496673068357017   -0.013617909851353733   8.955530836204386e-05
-0.009780735211949852   -0.027322377197012464   -0.0003002333620638927
-0.002505185565048038   -0.027218175776549756   -1.4793944748442098e-05
-0.003496673068357017   -0.013617909851353733   8.955530836204386e-05
-0.010454482497332874   -0.013818623036335782   -9.324354528398488e-05
-0.009780735211949852   -0.027322377197012464   -0.0003002333620638927
-0.010553393491984477   -0.013712139819697617   -3.808639779747672e-05
-0.002505185565048038   -0.027218175776549756   -1.4793944748442098e-05
-0.009878531377600329   -0.02720203195936236   -0.00024802365272597336
-0.010553393491984477   -0.013712139819697617   -3.808639779747672e-05
-0.009780735211949852   -0.027322377197012464   -0.0003002333620638927
-0.002505185565048038   -0.027218175776549756   -1.4793944748442098e-05
-0.010553393491984477   -0.013712139819697617   -3.808639779747672e-05
-0.0036042829764975446   -0.013547970581000095   0.0001675234792795568
-0.003496673068357017   -0.013617909851353733   8.955530836204386e-05
-0.002505185565048038   -0.027218175776549756   -1.4793944748442098e-05
-0.010553393491984477   -0.013712139819697617   -3.808639779747672e-05
-0.003496673068357017   -0.013617909851353733   8.955530836204386e-05
-0.009780735211949852   -0.027322377197012464   -0.0003002333620638927
-0.002505185565048038   -0.027218175776549756   -1.4793944748442098e-05
-0.0036042829764975446   -0.013547970581000095   0.0001675234792795568
-0.009878531377600329   -0.02720203195936236   -0.00024802365272597336
-0.0026318197147913716   -0.02707274455913372   5.1413904970997015e-05
-0.0036042829764975446   -0.013547970581000095   0.0001675234792795568
-0.010553393491984477   -0.013712139819697617   -3.808639779747672e-05
-0.009878531377600329   -0.02720203195936236   -0.00024802365272597336
-0.010656831610904657   -0.013592031354618544   2.0239650653445307e-05
-0.0026318197147913716   -0.02707274455913372   5.1413904970997015e-05
-0.00997967355693647   -0.02707682625859287   -0.00019065693603284798
-0.010656831610904657   -0.013592031354618544   2.0239650653445307e-05
-0.009878531377600329   -0.02720203195936236   -0.00024802365272597336
-0.0026318197147913716   -0.02707274455913372   5.1413904970997015e-05
-0.010656831610904657   -0.013592031354618544   2.0239650653445307e-05
-0.003745513044052056   -0.013424078876506951   0.0002621425082363878
-0.0036042829764975446   -0.013547970581000095   0.0001675234792795568
-0.0026318197147913716   -0.02707274455913372   5.1413904970997015e-05
-0.010656831610904657   -0.013592031354618544   2.0239650653445307e-05
-0.0036042829764975446   -0.013547970581000095   0.0001675234792795568
-0.009878531377600329   -0.02720203195936236   -0.00024802365272597336
-0.0026318197147913716   -0.02707274455913372   5.1413904970997015e-05
-0.003745513044052056   -0.013424078876506951   0.0002621425082363878
-0.00997967355693647   -0.02707682625859287   -0.00019065693603284798
-0.0027627503184028323   -0.02691827186198116   0.00012744837440118505
-0.003745513044052056   -0.013424078876506951   0.0002621425082363878
-0.010656831610904657   -0.013592031354618544   2.0239650653445307e-05
-0.00997967355693647   -0.02707682625859287   -0.00019065693603284798
-0.010755069865982972   -0.013460393971433796   8.453583116584934e-05
-0.0027627503184028323   -0.02691827186198116   0.00012744837440118505
-0.010084947482242585   -0.026948967552380472   -0.00012709735685676886
-0.010755069865982972   -0.013460393971433796   8.453583116584934e-05
-0.00997967355693647   -0.02707682625859287   -0.00019065693603284798
-0.0027627503184028323   -0.02691827186198116   0.00012744837440118505
-0.010755069865982972   -0.013460393971433796   8.453583116584934e-05
-0.0038641639251321804   -0.013290748254129488   0.0003454464088810503
-0.003745513044052056   -0.013424078876506951   0.0002621425082363878
-0.0027627503184028323   -0.02691827186198116   0.00012744837440118505
-0.010755069865982972   -0.013460393971433796   8.453583116584934e-05
-0.003745513044052056   -0.013424078876506951   0.0002621425082363878
-0.00997967355693647   -0.02707682625859287   -0.00019065693603284798
-0.009780735211949852   -0.027322377197012464   -0.0003002333620638927
-0.010454482497332874   -0.013818623036335782   -9.324354528398488e-05
-0.01708942946187403   -0.0273130811114543   -0.0005075106927931336
-0.009878531377600329   -0.02720203195936236   -0.00024802365272597336
-0.010454482497332874   -0.013818623036335782   -9.324354528398488e-05
-0.017584013696100194   -0.013975399508119714   -0.00029553870062493294
-0.01708942946187403   -0.0273130811114543   -0.0005075106927931336
-0.01767277330780845   -0.013866111778335617   -0.0002528583295510416
-0.009878531377600329   -0.02720203195936236   -0.00024802365272597336
-0.017182877406926162   -0.027207463047382443   -0.00045780450820645584
-0.01767277330780845   -0.013866111778335617   -0.0002528583295510416
-0.01708942946187403   -0.0273130811114543   -0.0005075106927931336
-0.009878531377600329   -0.02720203195936236   -0.00024802365272597336
-0.01767277330780845   -0.013866111778335617   -0.0002528583295510416
-0.010553393491984477   -0.013712139819697617   -3.808639779747672e-05
-0.010454482497332874   -0.013818623036335782   -9.324354528398488e-05
-0.009878531377600329   -0.02720203195936236   -0.00024802365272597336
-0.01767277330780845   -0.013866111778335617   -0.0002528583295510416
-0.010454482497332874   -0.013818623036335782   -9.324354528398488e-05
-0.01708942946187403   -0.0273130811114543   -0.0005075106927931336
-0.009878531377600329   -0.02720203195936236   -0.00024802365272597336
-0.010553393491984477   -0.013712139819697617   -3.808639779747672e-05
-0.017182877406926162   -0.027207463047382443   -0.00045780450820645584
-0.00997967355693647   -0.02707682625859287   -0.00019065693603284798
-0.010553393491984477   -0.013712139819697617   -3.808639779747672e-05
-0.01767277330780845   -0.013866111778335617   -0.0002528583295510416
-0.017182877406926162   -0.027207463047382443   -0.00045780450820645584
-0.017757677407272736   -0.013750739393922122   -0.0002103516238569163
-0.00997967355693647   -0.02707682625859287   -0.00019065693603284798
-0.017271893828313813   -0.027099895410827232   -0.00040359278718643554
-0.017757677407272736   -0.013750739393922122   -0.0002103516238569163
-0.017182877406926162   -0.027207463047382443   -0.00045780450820645584
-0.00997967355693647   -0.02707682625859287   -0.00019065693603284798
-0.017757677407272736   -0.013750739393922122   -0.0002103516238569163
-0.010656831610904657   -0.013592031354618544   2.0239650653445307e-05
-0.010553393491984477   -0.013712139819697617   -3.808639779747672e-05
-0.00997967355693647   -0.02707682625859287   -0.00019065693603284798
-0.017757677407272736   -0.013750739393922122   -0.0002103516238569163
-0.010553393491984477   -0.013712139819697617   -3.808639779747672e-05
-0.017182877406926162   -0.027207463047382443   -0.00045780450820645584
-0.00997967355693647   -0.02707682625859287   -0.00019065693603284798
-0.010656831610904657   -0.013592031354618544   2.0239650653445307e-05
-0.017271893828313813   -0.027099895410827232   -0.00040359278718643554
-0.010084947482242585   -0.026948967552380472   -0.00012709735685676886
-0.010656831610904657   -0.013592031354618544   2.0239650653445307e-05
-0.017757677407272736   -0.013750739393922122   -0.0002103516238569163
-0.017271893828313813   -0.027099895410827232   -0.00040359278718643554
-0.017835892646484032   -0.013625868011878284   -0.0001641116566764921
-0.010084947482242585   -0.026948967552380472   -0.00012709735685676886
-0.01736001223475194   -0.02698977076194751   -0.0003451345908962383
-0.017835892646484032   -0.013625868011878284   -0.0001641116566764921
-0.017271893828313813   -0.027099895410827232   -0.00040359278718643554
-0.010084947482242585   -0.026948967552380472   -0.00012709735685676886
-0.017835892646484032   -0.013625868011878284   -0.0001641116566764921
-0.010755069865982972   -0.013460393971433796   8.453583116584934e-05
-0.010656831610904657   -0.013592031354618544   2.0239650653445307e-05
-0.010084947482242585   -0.026948967552380472   -0.00012709735685676886
-0.017835892646484032   -0.013625868011878284   -0.0001641116566764921
-0.010656831610904657   -0.013592031354618544   2.0239650653445307e-05
-0.017271893828313813   -0.027099895410827232   -0.00040359278718643554
-0.01708942946187403   -0.0273130811114543   -0.0005075106927931336
-0.017584013696100194   -0.013975399508119714   -0.00029553870062493294
-0.024552866321897134   -0.027270761256421215   -0.0006818264272247613
-0.017182877406926162   -0.027207463047382443   -0.00045780450820645584
-0.017584013696100194   -0.013975399508119714   -0.00029553870062493294
-0.024963943262830565   -0.014039664292194397   -0.0004823682267068647
-0.024552866321897134   -0.027270761256421215   -0.0006818264272247613
-0.02504389130844175   -0.013941401525320099   -0.0004513081875515108
-0.017182877406926162   -0.027207463047382443   -0.00045780450820645584
-0.024641953896632488   -0.027184533518680987   -0.0006348618370255547
-0.02504389130844175   -0.013941401525320099   -0.0004513081875515108
-0.024552866321897134   -0.027270761256421215   -0.0006818264272247613
-0.017182877406926162   -0.027207463047382443   -0.00045780450820645584
-0.02504389130844175   -0.013941401525320099   -0.0004513081875515108
-0.01767277330780845   -0.013866111778335617   -0.0002528583295510416
-0.017584013696100194   -0.013975399508119714   -0.00029553870062493294
-0.017182877406926162   -0.027207463047382443   -0.00045780450820645584
-0.02504389130844175   -0.013941401525320099   -0.0004513081875515108
-0.017584013696100194   -0.013975399508119714   -0.00029553870062493294
-0.024552866321897134   -0.027270761256421215   -0.0006818264272247613
-0.017182877406926162   -0.027207463047382443   -0.00045780450820645584
-0.01767277330780845   -0.013866111778335617   -0.0002528583295510416
-0.024641953896632488   -0.027184533518680987   -0.0006348618370255547
-0.017271893828313813   -0.027099895410827232   -0.00040359278718643554
-0.01767277330780845   -0.013866111778335617   -0.0002528583295510416
-0.02504389130844175   -0.013941401525320099   -0.0004513081875515108
-0.024641953896632488   -0.027184533518680987   -0.0006348618370255547
-0.025115130190931343   -0.013834453698615941   -0.0004211663986095081
-0.017271893828313813   -0.027099895410827232   -0.00040359278718643554
-0.02471748909108198   -0.0270935622801652   -0.0005847092324909545
-0.025115130190931343   -0.013834453698615941   -0.0004211663986095081
-0.024641953896632488   -0.027184533518680987   -0.0006348618370255547
-0.017271893828313813   -0.027099895410827232   -0.00040359278718643554
-0.025115130190931343   -0.013834453698615941   -0.0004211663986095081
-0.017757677407272736   -0.013750739393922122   -0.0002103516238569163
-0.01767277330780845   -0.013866111778335617   -0.0002528583295510416
-0.017271893828313813   -0.027099895410827232   -0.00040359278718643554
-0.025115130190931343   -0.013834453698615941   -0.0004211663986095081
-0.01767277330780845   -0.013866111778335617   -0.0002528583295510416
-0.024641953896632488   -0.027184533518680987   -0.0006348618370255547
-0.017271893828313813   -0.027099895410827232   -0.00040359278718643554
-0.017757677407272736   -0.013750739393922122   -0.0002103516238569163
-0.02471748909108198   -0.0270935622801652   -0.0005847092324909545
-0.01736001223475194   -0.02698977076194751   -0.0003451345908962383
-0.017757677407272736   -0.013750739393922122   -0.0002103516238569163
-0.025115130190931343   -0.013834453698615941   -0.0004211663986095081
-0.02471748909108198   -0.0270935622801652   -0.0005847092324909545
-0.025179625040676074   -0.013720646724752981   -0.0003901679343760953
-0.01736001223475194   -0.02698977076194751   -0.0003451345908962383
-0.02478888387419664   -0.027000163166339727   -0.0005299691317733357
-0.025179625040676074   -0.013720646724752981   -0.0003901679343760953
-0.02471748909108198   -0.0270935622801652   -0.0005847092324909545
-0.01736001223475194   -0.02698977076194751   -0.0003451345908962383
-0.025179625040676074   -0.013720646724752981   -0.0003901679343760953
-0.017835892646484032   -0.013625868011878284   -0.0001641116566764921
-0.017757677407272736   -0.013750739393922122   -0.0002103516238569163
-0.01736001223475194   -0.02698977076194751   -0.0003451345908962383
-0.025179625040676074   -0.013720646724752981   -0.0003901679343760953
-0.017757677407272736   -0.013750739393922122   -0.0002103516238569163
-0.02471748909108198   -0.0270935622801652   -0.0005847092324909545
-0.024552866321897134   -0.027270761256421215   -0.0006818264272247613
-0.024963943262830565   -0.014039664292194397   -0.0004823682267068647
-0.03236972165089704   -0.027201188380325574   -0.0008111310288576975
-0.024641953896632488   -0.027184533518680987   -0.0006348618370255547
-0.024963943262830565   -0.014039664292194397   -0.0004823682267068647
-0.03260548190573914   -0.014046963666793425   -0.0006377271515077812
-0.03236972165089704   -0.027201188380325574   -0.0008111310288576975
-0.03267427250428665   -0.013951533431194032   -0.0006244961209774466
-0.024641953896632488   -0.027184533518680987   -0.0006348618370255547
-0.03242536469472384   -0.027128660608866543   -0.0007760693042464609
-0.03267427250428665   -0.013951533431194032   -0.0006244961209774466
-0.03236972165089704   -0.027201188380325574   -0.0008111310288576975
-0.024641953896632488   -0.027184533518680987   -0.0006348618370255547
-0.03267427250428665   -0.013951533431194032   -0.0006244961209774466
-0.02504389130844175   -0.013941401525320099   -0.0004513081875515108
-0.024963943262830565   -0.014039664292194397   -0.0004823682267068647
-0.024641953896632488   -0.027184533518680987   -0.0006348618370255547
-0.03267427250428665   -0.013951533431194032   -0.0006244961209774466
-0.024963943262830565   -0.014039664292194397   -0.0004823682267068647
-0.03236972165089704   -0.027201188380325574   -0.0008111310288576975
-0.024641953896632488   -0.027184533518680987   -0.0006348618370255547
-0.02504389130844175   -0.013941401525320099   -0.0004513081875515108
-0.03242536469472384   -0.027128660608866543   -0.0007760693042464609
-0.02471748909108198   -0.0270935622801652   -0.0005847092324909545
-0.02504389130844175   -0.013941401525320099   -0.0004513081875515108
-0.03267427250428665   -0.013951533431194032   -0.0006244961209774466
-0.03242536469472384   -0.027128660608866543   -0.0007760693042464609
-0.03273590273128906   -0.013848435133014926   -0.0006090409385227524
-0.02471748909108198   -0.0270935622801652   -0.0005847092324909545
-0.03247624366464165   -0.027046653118627466   -0.0007331633926986307
-0.03273590273128906   -0.013848435133014926   -0.0006090409385227524
-0.03242536469472384   -0.027128660608866543   -0.0007760693042464609
-0.02471748909108198   -0.0270935622801652   -0.0005847092324909545
-0.03273590273128906   -0.013848435133014926   -0.0006090409385227524
-0.025115130190931343   -0.013834453698615941   -0.0004211663986095081
-0.02504389130844175   -0.013941401525320099   -0.0004513081875515108
-0.02471748909108198   -0.0270935622801652   -0.0005847092324909545
-0.03273590273128906   -0.013848435133014926   -0.0006090409385227524
-0.02504389130844175   -0.013941401525320099   -0.0004513081875515108
-0.03242536469472384   -0.027128660608866543   -0.0007760693042464609
-0.02471748909108198   -0.0270935622801652   -0.0005847092324909545
-0.025115130190931343   -0.013834453698615941   -0.0004211663986095081
-0.03247624366464165   -0.027046653118627466   -0.0007331633926986307
-0.02478888387419664   -0.027000163166339727   -0.0005299691317733357
-0.025115130190931343   -0.013834453698615941   -0.0004211663986095081
-0.03273590273128906   -0.013848435133014926   -0.0006090409385227524
-0.03247624366464165   -0.027046653118627466   -0.0007331633926986307
-0.032787856721224494   -0.013739248534363613   -0.000594732997107913
-0.02478888387419664   -0.027000163166339727   -0.0005299691317733357
-0.032501209976212884   -0.02697121688845895   -0.0006843872898037171
-0.032787856721224494   -0.013739248534363613   -0.000594732997107913
-0.03247624366464165   -0.027046653118627466   -0.0007331633926986307
-0.02478888387419664   -0.027000163166339727   -0.0005299691317733357
-0.032787856721224494   -0.013739248534363613   -0.000594732997107913
-0.025179625040676074   -0.013720646724752981   -0.0003901679343760953
-0.025115130190931343   -0.013834453698615941   -0.0004211663986095081
-0.02478888387419664   -0.027000163166339727   -0.0005299691317733357
-0.032787856721224494   -0.013739248534363613   -0.000594732997107913
-0.025115130190931343   -0.013834453698615941   -0.0004211663986095081
-0.03247624366464165   -0.027046653118627466   -0.0007331633926986307
0.003811120212724768   -0.013797603758863696   0.00017864543013823808
0.0   0.0   0.0
-0.003496673068357017   -0.013617909851353733   8.955530836204386e-05
0.003475839582650012   -0.013621449986285594   0.00037181801378870824
0.0   0.0   0.0
-0.004394380192575484   -0.001106187690976871   -3.891984914080621e-05
-0.003496673068357017   -0.013617909851353733   8.955530836204386e-05
-0.004656762235991734   -0.0008580917393164715   0.00011164145516899295
0.003475839582650012   -0.013621449986285594   0.00037181801378870824
-0.0036042829764975446   -0.013547970581000095   0.0001675234792795568
-0.004656762235991734   -0.0008580917393164715   0.00011164145516899295
-0.003496673068357017   -0.013617909851353733   8.955530836204386e-05
0.003475839582650012   -0.013621449986285594   0.00037181801378870824
-0.004656762235991734   -0.0008580917393164715   0.00011164145516899295
0.0   0.0   0.0
0.0   0.0   0.0
0.003475839582650012   -0.013621449986285594   0.00037181801378870824
-0.004656762235991734   -0.0008580917393164715   0.00011164145516899295
0.0   0.0   0.0
-0.003496673068357017   -0.013617909851353733   8.955530836204386e-05
0.003475839582650012   -0.013621449986285594   0.00037181801378870824
0.0   0.0   0.0
-0.0036042829764975446   -0.013547970581000095   0.0001675234792795568
0.00327941869739445   -0.013477049082491126   0.0005160852303081062
0.0   0.0   0.0
-0.004656762235991734   -0.0008580917393164715   0.00011164145516899295
-0.0036042829764975446   -0.013547970581000095   0.0001675234792795568
-0.004821191285722878   -0.0007383196864948963   0.0001982868120880431
0.00327941869739445   -0.013477049082491126   0.0005160852303081062
-0.003745513044052056   -0.013424078876506951   0.0002621425082363878
-0.004821191285722878   -0.0007383196864948963   0.0001982868120880431
-0.0036042829764975446   -0.013547970581000095   0.0001675234792795568
0.00327941869739445   -0.013477049082491126   0.0005160852303081062
-0.004821191285722878   -0.0007383196864948963   0.0001982868120880431
0.0   0.0   0.0
0.0   0.0   0.0
0.00327941869739445   -0.013477049082491126   0.0005160852303081062
-0.004821191285722878   -0.0007383196864948963   0.0001982868120880431
0.0   0.0   0.0
-0.0036042829764975446   -0.013547970581000095   0.0001675234792795568
0.00327941869739445   -0.013477049082491126   0.0005160852303081062
0.0   0.0   0.0
-0.003745513044052056   -0.013424078876506951   0.0002621425082363878
0.0030278394359709447   -0.013256644073104383   0.0006812253735737897
0.0   0.0   0.0
-0.004821191285722878   -0.0007383196864948963   0.0001982868120880431
-0.003745513044052056   -0.013424078876506951   0.0002621425082363878
-0.005041226132521989   -0.0005794079333186714   0.000297690128498736
0.0030278394359709447   -0.013256644073104383   0.0006812253735737897
-0.0038641639251321804   -0.013290748254129488   0.0003454464088810503
-0.005041226132521989   -0.0005794079333186714   0.000297690128498736
-0.003745513044052056   -0.013424078876506951   0.0002621425082363878
0.0030278394359709447   -0.013256644073104383   0.0006812253735737897
-0.005041226132521989   -0.0005794079333186714   0.000297690128498736
0.0   0.0   0.0
0.0   0.0   0.0
0.0030278394359709447   -0.013256644073104383   0.0006812253735737897
-0.005041226132521989   -0.0005794079333186714   0.000297690128498736
0.0   0.0   0.0
-0.003745513044052056   -0.013424078876506951   0.0002621425082363878
-0.003496673068357017   -0.013617909851353733   8.955530836204386e-05
-0.004394380192575484   -0.001106187690976871   -3.891984914080621e-05
-0.010454482497332874   -0.013818623036335782   -9.324354528398488e-05
-0.0036042829764975446   -0.013547970581000095   0.0001675234792795568
-0.004394380192575484   -0.001106187690976871   -3.891984914080621e-05
-0.010767703939948877   -0.0014460093793989652   -3.95002135140713e-05
-0.010454482497332874   -0.013818623036335782   -9.324354528398488e-05
-0.010902588697971902   -0.001309929970553518   -1.2911144103612708e-06
-0.0036042829764975446   -0.013547970581000095   0.0001675234792795568
-0.010553393491984477   -0.013712139819697617   -3.808639779747672e-05
-0.010902588697971902   -0.001309929970553518   -1.2911144103612708e-06
-0.010454482497332874   -0.013818623036335782   -9.324354528398488e-05
-0.0036042829764975446   -0.013547970581000095   0.0001675234792795568
-0.010902588697971902   -0.001309929970553518   -1.2911144103612708e-06
-0.004656762235991734   -0.0008580917393164715   0.00011164145516899295
-0.004394380192575484   -0.001106187690976871   -3.891984914080621e-05
-0.0036042829764975446   -0.013547970581000095   0.0001675234792795568
-0.010902588697971902   -0.001309929970553518   -1.2911144103612708e-06
-0.004394380192575484   -0.001106187690976871   -3.891984914080621e-05
-0.010454482497332874   -0.013818623036335782   -9.324354528398488e-05
-0.0036042829764975446   -0.013547970581000095   0.0001675234792795568
-0.004656762235991734   -0.0008580917393164715   0.00011164145516899295
-0.010553393491984477   -0.013712139819697617   -3.808639779747672e-05
-0.003745513044052056   -0.013424078876506951   0.0002621425082363878
-0.004656762235991734   -0.0008580917393164715   0.00011164145516899295
-0.010902588697971902   -0.001309929970553518   -1.2911144103612708e-06
-0.010553393491984477   -0.013712139819697617   -3.808639779747672e-05
-0.011036793214910473   -0.0011508417264228569   6.744434038237653e-05
-0.003745513044052056   -0.013424078876506951   0.0002621425082363878
-0.010656831610904657   -0.013592031354618544   2.0239650653445307e-05
-0.011036793214910473   -0.0011508417264228569   6.744434038237653e-05
-0.010553393491984477   -0.013712139819697617   -3.808639779747672e-05
-0.003745513044052056   -0.013424078876506951   0.0002621425082363878
-0.011036793214910473   -0.0011508417264228569   6.744434038237653e-05
-0.004821191285722878   -0.0007383196864948963   0.0001982868120880431
-0.004656762235991734   -0.0008580917393164715   0.00011164145516899295
-0.003745513044052056   -0.013424078876506951   0.0002621425082363878
-0.011036793214910473   -0.0011508417264228569   6.744434038237653e-05
-0.004656762235991734   -0.0008580917393164715   0.00011164145516899295
-0.010553393491984477   -0.013712139819697617   -3.808639779747672e-05
-0.003745513044052056   -0.013424078876506951   0.0002621425082363878
-0.004821191285722878   -0.0007383196864948963   0.0001982868120880431
-0.010656831610904657   -0.013592031354618544   2.0239650653445307e-05
-0.0038641639251321804   -0.013290748254129488   0.0003454464088810503
-0.004821191285722878   -0.0007383196864948963   0.0001982868120880431
-0.011036793214910473   -0.0011508417264228569   6.744434038237653e-05
-0.010656831610904657   -0.013592031354618544   2.0239650653445307e-05
-0.011184960300037952   -0.0009672080423788869   0.00013307525213373506
-0.0038641639251321804   -0.013290748254129488   0.0003454464088810503
-0.010755069865982972   -0.013460393971433796   8.453583116584934e-05
-0.011184960300037952   -0.0009672080423788869   0.00013307525213373506
-0.010656831610904657   -0.013592031354618544   2.0239650653445307e-05
-0.0038641639251321804   -0.013290748254129488   0.0003454464088810503
-0.011184960300037952   -0.0009672080423788869   0.00013307525213373506
-0.005041226132521989   -0.0005794079333186714   0.000297690128498736
-0.004821191285722878   -0.0007383196864948963   0.0001982868120880431
-0.0038641639251321804   -0.013290748254129488   0.0003454464088810503
-0.011184960300037952   -0.0009672080423788869   0.00013307525213373506
-0.004821191285722878   -0.0007383196864948963   0.0001982868120880431
-0.010656831610904657   -0.013592031354618544   2.0239650653445307e-05
-0.010454482497332874   -0.013818623036335782   -9.324354528398488e-05
-0.010767703939948877   -0.0014460093793989652   -3.95002135140713e-05
-0.017584013696100194   -0.013975399508119714   -0.00029553870062493294
-0.010553393491984477   -0.013712139819697617   -3.808639779747672e-05
-0.010767703939948877   -0.0014460093793989652   -3.95002135140713e-05
-0.017758450434746473   -0.0015391995696665834   -0.00016861176475250963
-0.017584013696100194   -0.013975399508119714   -0.00029553870062493294
-0.017840078187785935   -0.001432486740845719   -0.00015824627036907128
-0.010553393491984477   -0.013712139819697617   -3.808639779747672e-05
-0.01767277330780845   -0.013866111778335617   -0.0002528583295510416
-0.017840078187785935   -0.001432486740845719   -0.00015824627036907128
-0.017584013696100194   -0.013975399508119714   -0.00029553870062493294
-0.010553393491984477   -0.013712139819697617   -3.808639779747672e-05
-0.017840078187785935   -0.001432486740845719   -0.00015824627036907128
-0.010902588697971902   -0.001309929970553518   -1.2911144103612708e-06
-0.010767703939948877   -0.0014460093793989652   -3.95002135140713e-05
-0.010553393491984477   -0.013712139819697617   -3.808639779747672e-05
-0.017840078187785935   -0.001432486740845719   -0.00015824627036907128
-0.010767703939948877   -0.0014460093793989652   -3.95002135140713e-05
-0.017584013696100194   -0.013975399508119714   -0.00029553870062493294
-0.010553393491984477   -0.013712139819697617   -3.808639779747672e-05
-0.010902588697971902   -0.001309929970553518   -1.2911144103612708e-06
-0.01767277330780845   -0.013866111778335617   -0.0002528583295510416
-0.010656831610904657   -0.013592031354618544   2.0239650653445307e-05
-0.010902588697971902   -0.001309929970553518   -1.2911144103612708e-06
-0.017840078187785935   -0.001432486740845719   -0.00015824627036907128
-0.01767277330780845   -0.013866111778335617   -0.0002528583295510416
-0.017924917337287676   -0.0013089293301007015   -0.00013992999569517332
-0.010656831610904657   -0.013592031354618544   2.0239650653445307e-05
-0.017757677407272736   -0.013750739393922122   -0.0002103516238569163
-0.017924917337287676   -0.0013089293301007015   -0.00013992999569517332
-0.01767277330780845   -0.013866111778335617   -0.0002528583295510416
-0.010656831610904657   -0.013592031354618544   2.0239650653445307e-05
-0.017924917337287676   -0.0013089293301007015   -0.00013992999569517332
-0.011036793214910473   -0.0011508417264228569   6.744434038237653e-05
-0.010902588697971902   -0.001309929970553518   -1.2911144103612708e-06
-0.010656831610904657   -0.013592031354618544   2.0239650653445307e-05
-0.017924917337287676   -0.0013089293301007015   -0.00013992999569517332
-0.010902588697971902   -0.001309929970553518   -1.2911144103612708e-06
-0.01767277330780845   -0.013866111778335617   -0.0002528583295510416
-0.010656831610904657   -0.013592031354618544   2.0239650653445307e-05
-0.011036793214910473   -0.0011508417264228569   6.744434038237653e-05
-0.017757677407272736   -0.013750739393922122   -0.0002103516238569163
-0.010755069865982972   -0.013460393971433796   8.453583116584934e-05
-0.011036793214910473   -0.0011508417264228569   6.744434038237653e-05
-0.017924917337287676   -0.0013089293301007015   -0.00013992999569517332
-0.017757677407272736   -0.013750739393922122   -0.0002103516238569163
-0.01800504869173978   -0.0011590944267174444   -0.00011569662627820547
-0.010755069865982972   -0.013460393971433796   8.453583116584934e-05
-0.017835892646484032   -0.013625868011878284   -0.0001641116566764921
-0.01800504869173978   -0.0011590944267174444   -0.00011569662627820547
-0.017757677407272736   -0.013750739393922122   -0.0002103516238569163
-0.010755069865982972   -0.013460393971433796   8.453583116584934e-05
-0.01800504869173978   -0.0011590944267174444   -0.00011569662627820547
-0.011184960300037952   -0.0009672080423788869   0.00013307525213373506
-0.011036793214910473   -0.0011508417264228569   6.744434038237653e-05
-0.010755069865982972   -0.013460393971433796   8.453583116584934e-05
-0.01800504869173978   -0.0011590944267174444   -0.00011569662627820547
-0.011036793214910473   -0.0011508417264228569   6.744434038237653e-05
-0.017757677407272736   -0.013750739393922122   -0.0002103516238569163
-0.017584013696100194   -0.013975399508119714   -0.00029553870062493294
-0.017758450434746473   -0.0015391995696665834   -0.00016861176475250963
-0.024963943262830565   -0.014039664292194397   -0.0004823682267068647
-0.01767277330780845   -0.013866111778335617   -0.0002528583295510416
-0.017758450434746473   -0.0015391995696665834   -0.00016861176475250963
-0.02509281488372062   -0.0015211658226665327   -0.000352770727684352
-0.024963943262830565   -0.014039664292194397   -0.0004823682267068647
-0.025147892600892844   -0.0014248247251406653   -0.00034836589190980394
-0.01767277330780845   -0.013866111778335617   -0.0002528583295510416
-0.02504389130844175   -0.013941401525320099   -0.0004513081875515108
-0.025147892600892844   -0.0014248247251406653   -0.00034836589190980394
-0.024963943262830565   -0.014039664292194397   -0.0004823682267068647
-0.01767277330780845   -0.013866111778335617   -0.0002528583295510416
-0.025147892600892844   -0.0014248247251406653   -0.00034836589190980394
-0.017840078187785935   -0.001432486740845719   -0.00015824627036907128
-0.017758450434746473   -0.0015391995696665834   -0.00016861176475250963
-0.01767277330780845   -0.013866111778335617   -0.0002528583295510416
-0.025147892600892844   -0.0014248247251406653   -0.00034836589190980394
-0.017758450434746473   -0.0015391995696665834   -0.00016861176475250963
-0.024963943262830565   -0.014039664292194397   -0.0004823682267068647
-0.01767277330780845   -0.013866111778335617   -0.0002528583295510416
-0.017840078187785935   -0.001432486740845719   -0.00015824627036907128
-0.02504389130844175   -0.013941401525320099   -0.0004513081875515108
-0.017757677407272736   -0.013750739393922122   -0.0002103516238569163
-0.017840078187785935   -0.001432486740845719   -0.00015824627036907128
-0.025147892600892844   -0.0014248247251406653   -0.00034836589190980394
-0.02504389130844175   -0.013941401525320099   -0.0004513081875515108
-0.02520536769096554   -0.0013178800052979403   -0.00034548597665230946
-0.017757677407272736   -0.013750739393922122   -0.0002103516238569163
-0.025115130190931343   -0.013834453698615941   -0.0004211663986095081
-0.02520536769096554   -0.0013178800052979403   -0.00034548597665230946
-0.02504389130844175   -0.013941401525320099   -0.0004513081875515108
-0.017757677407272736   -0.013750739393922122   -0.0002103516238569163
-0.02520536769096554   -0.0013178800052979403   -0.00034548597665230946
-0.017924917337287676   -0.0013089293301007015   -0.00013992999569517332
-0.017840078187785935   -0.001432486740845719   -0.00015824627036907128
-0.017757677407272736   -0.013750739393922122   -0.0002103516238569163
-0.02520536769096554   -0.0013178800052979403   -0.00034548597665230946
-0.017840078187785935   -0.001432486740845719   -0.00015824627036907128
-0.02504389130844175   -0.013941401525320099   -0.0004513081875515108
-0.017757677407272736   -0.013750739393922122   -0.0002103516238569163
-0.017924917337287676   -0.0013089293301007015   -0.00013992999569517332
-0.025115130190931343   -0.013834453698615941   -0.0004211663986095081
-0.017835892646484032   -0.013625868011878284   -0.0001641116566764921
-0.017924917337287676   -0.0013089293301007015   -0.00013992999569517332
-0.02520536769096554   -0.0013178800052979403   -0.00034548597665230946
-0.025115130190931343   -0.013834453698615941   -0.0004211663986095081
-0.025248733679526025   -0.0012023793667730015   -0.00034439305672300343
-0.017835892646484032   -0.013625868011878284   -0.0001641116566764921
-0.025179625040676074   -0.013720646724752981   -0.0003901679343760953
-0.025248733679526025   -0.0012023793667730015   -0.00034439305672300343
-0.025115130190931343   -0.013834453698615941   -0.0004211663986095081
-0.017835892646484032   -0.013625868011878284   -0.0001641116566764921
-0.025248733679526025   -0.0012023793667730015   -0.00034439305672300343
-0.01800504869173978   -0.0011590944267174444   -0.00011569662627820547
-0.017924917337287676   -0.0013089293301007015   -0.00013992999569517332
-0.017835892646484032   -0.013625868011878284   -0.0001641116566764921
-0.025248733679526025   -0.0012023793667730015   -0.00034439305672300343
-0.017924917337287676   -0.0013089293301007015   -0.00013992999569517332
-0.025115130190931343   -0.013834453698615941   -0.0004211663986095081
-0.024963943262830565   -0.014039664292194397   -0.0004823682267068647
-0.02509281488372062   -0.0015211658226665327   -0.000352770727684352
-0.03260548190573914   -0.014046963666793425   -0.0006377271515077812
-0.02504389130844175   -0.013941401525320099   -0.0004513081875515108
-0.02509281488372062   -0.0015211658226665327   -0.000352770727684352
-0.032628750576945184   -0.001509924547520408   -0.0005339234956260847
-0.03260548190573914   -0.014046963666793425   -0.0006377271515077812
-0.0326730932287803   -0.0014053099302355069   -0.0005339354506724271
-0.02504389130844175   -0.013941401525320099   -0.0004513081875515108
-0.03267427250428665   -0.013951533431194032   -0.0006244961209774466
-0.0326730932287803   -0.0014053099302355069   -0.0005339354506724271
-0.03260548190573914   -0.014046963666793425   -0.0006377271515077812
-0.02504389130844175   -0.013941401525320099   -0.0004513081875515108
-0.0326730932287803   -0.0014053099302355069   -0.0005339354506724271
-0.025147892600892844   -0.0014248247251406653   -0.00034836589190980394
-0.02509281488372062   -0.0015211658226665327   -0.000352770727684352
-0.02504389130844175   -0.013941401525320099   -0.0004513081875515108
-0.0326730932287803   -0.0014053099302355069   -0.0005339354506724271
-0.02509281488372062   -0.0015211658226665327   -0.000352770727684352
-0.03260548190573914   -0.014046963666793425   -0.0006377271515077812
-0.02504389130844175   -0.013941401525320099   -0.0004513081875515108
-0.025147892600892844   -0.0014248247251406653   -0.00034836589190980394
-0.03267427250428665   -0.013951533431194032   -0.0006244961209774466
-0.025115130190931343   -0.013834453698615941   -0.0004211663986095081
-0.025147892600892844   -0.0014248247251406653   -0.00034836589190980394
-0.0326730932287803   -0.0014053099302355069   -0.0005339354506724271
-0.03267427250428665   -0.013951533431194032   -0.0006244961209774466
-0.032721795153807416   -0.001300993170167066   -0.000542100148971275
-0.025115130190931343   -0.013834453698615941   -0.0004211663986095081
-0.03273590273128906   -0.013848435133014926   -0.0006090409385227524
-0.032721795153807416   -0.001300993170167066   -0.000542100148971275
-0.03267427250428665   -0.013951533431194032   -0.0006244961209774466
-0.025115130190931343   -0.013834453698615941   -0.0004211663986095081
-0.032721795153807416   -0.001300993170167066   -0.000542100148971275
-0.02520536769096554   -0.0013178800052979403   -0.00034548597665230946
-0.025147892600892844   -0.0014248247251406653   -0.00034836589190980394
-0.025115130190931343   -0.013834453698615941   -0.0004211663986095081
-0.032721795153807416   -0.001300993170167066   -0.000542100148971275
-0.025147892600892844   -0.0014248247251406653   -0.00034836589190980394
-0.03267427250428665   -0.013951533431194032   -0.0006244961209774466
-0.025115130190931343   -0.013834453698615941   -0.0004211663986095081
-0.02520536769096554   -0.0013178800052979403   -0.00034548597665230946
-0.03273590273128906   -0.013848435133014926   -0.0006090409385227524
-0.025179625040676074   -0.013720646724752981   -0.0003901679343760953
-0.02520536769096554   -0.0013178800052979403   -0.00034548597665230946
-0.032721795153807416   -0.001300993170167066   -0.000542100148971275
-0.03273590273128906   -0.013848435133014926   -0.0006090409385227524
-0.03275758109464504   -0.0011875577427909348   -0.000550827012790112
-0.025179625040676074   -0.013720646724752981   -0.0003901679343760953
-0.032787856721224494   -0.013739248534363613   -0.000594732997107913
-0.03275758109464504   -0.0011875577427909348   -0.000550827012790112
-0.03273590273128906   -0.013848435133014926   -0.0006090409385227524
-0.025179625040676074   -0.013720646724752981   -0.0003901679343760953
-0.03275758109464504   -0.0011875577427909348   -0.000550827012790112
-0.025248733679526025   -0.0012023793667730015   -0.00034439305672300343
-0.02520536769096554   -0.0013178800052979403   -0.00034548597665230946
-0.025179625040676074   -0.013720646724752981   -0.0003901679343760953
-0.03275758109464504   -0.0011875577427909348   -0.000550827012790112
-0.02520536769096554   -0.0013178800052979403   -0.00034548597665230946
-0.03273590273128906   -0.013848435133014926   -0.0006090409385227524
              </DataArray>   
          </PointData>  
       </Piece>  
   </UnstructuredGrid> 
</VTKFile> 
