<?xml version="1.0"?> 
<VTKFile type="UnstructuredGrid"> 
   <UnstructuredGrid> 
      <Piece NumberOfPoints="6000"  NumberOfCells="1500">  
          <Points>  
             <DataArray type="Float64" NumberOfComponents="3" format="ascii">   
-500.0   0.0   0.0
-450.0   0.0   0.0
-500.0   30.0   0.0
-500.0   0.0   16.666666666666668
-450.0   0.0   0.0
-450.0   30.0   0.0
-500.0   30.0   0.0
-450.0   30.0   16.666666666666668
-500.0   0.0   16.666666666666668
-500.0   30.0   16.666666666666668
-450.0   30.0   16.666666666666668
-500.0   30.0   0.0
-500.0   0.0   16.666666666666668
-450.0   30.0   16.666666666666668
-450.0   0.0   16.666666666666668
-450.0   0.0   0.0
-500.0   0.0   16.666666666666668
-450.0   30.0   16.666666666666668
-450.0   0.0   0.0
-500.0   30.0   0.0
-500.0   0.0   16.666666666666668
-450.0   0.0   16.666666666666668
-500.0   30.0   16.666666666666668
-500.0   0.0   33.333333333333336
-450.0   0.0   16.666666666666668
-450.0   30.0   16.666666666666668
-500.0   30.0   16.666666666666668
-450.0   30.0   33.333333333333336
-500.0   0.0   33.333333333333336
-500.0   30.0   33.333333333333336
-450.0   30.0   33.333333333333336
-500.0   30.0   16.666666666666668
-500.0   0.0   33.333333333333336
-450.0   30.0   33.333333333333336
-450.0   0.0   33.333333333333336
-450.0   0.0   16.666666666666668
-500.0   0.0   33.333333333333336
-450.0   30.0   33.333333333333336
-450.0   0.0   16.666666666666668
-500.0   30.0   16.666666666666668
-500.0   0.0   33.333333333333336
-450.0   0.0   33.333333333333336
-500.0   30.0   33.333333333333336
-500.0   0.0   50.0
-450.0   0.0   33.333333333333336
-450.0   30.0   33.333333333333336
-500.0   30.0   33.333333333333336
-450.0   30.0   50.0
-500.0   0.0   50.0
-500.0   30.0   50.0
-450.0   30.0   50.0
-500.0   30.0   33.333333333333336
-500.0   0.0   50.0
-450.0   30.0   50.0
-450.0   0.0   50.0
-450.0   0.0   33.333333333333336
-500.0   0.0   50.0
-450.0   30.0   50.0
-450.0   0.0   33.333333333333336
-500.0   30.0   33.333333333333336
-500.0   30.0   0.0
-450.0   30.0   0.0
-500.0   60.0   0.0
-500.0   30.0   16.666666666666668
-450.0   30.0   0.0
-450.0   60.0   0.0
-500.0   60.0   0.0
-450.0   60.0   16.666666666666668
-500.0   30.0   16.666666666666668
-500.0   60.0   16.666666666666668
-450.0   60.0   16.666666666666668
-500.0   60.0   0.0
-500.0   30.0   16.666666666666668
-450.0   60.0   16.666666666666668
-450.0   30.0   16.666666666666668
-450.0   30.0   0.0
-500.0   30.0   16.666666666666668
-450.0   60.0   16.666666666666668
-450.0   30.0   0.0
-500.0   60.0   0.0
-500.0   30.0   16.666666666666668
-450.0   30.0   16.666666666666668
-500.0   60.0   16.666666666666668
-500.0   30.0   33.333333333333336
-450.0   30.0   16.666666666666668
-450.0   60.0   16.666666666666668
-500.0   60.0   16.666666666666668
-450.0   60.0   33.333333333333336
-500.0   30.0   33.333333333333336
-500.0   60.0   33.333333333333336
-450.0   60.0   33.333333333333336
-500.0   60.0   16.666666666666668
-500.0   30.0   33.333333333333336
-450.0   60.0   33.333333333333336
-450.0   30.0   33.333333333333336
-450.0   30.0   16.666666666666668
-500.0   30.0   33.333333333333336
-450.0   60.0   33.333333333333336
-450.0   30.0   16.666666666666668
-500.0   60.0   16.666666666666668
-500.0   30.0   33.333333333333336
-450.0   30.0   33.333333333333336
-500.0   60.0   33.333333333333336
-500.0   30.0   50.0
-450.0   30.0   33.333333333333336
-450.0   60.0   33.333333333333336
-500.0   60.0   33.333333333333336
-450.0   60.0   50.0
-500.0   30.0   50.0
-500.0   60.0   50.0
-450.0   60.0   50.0
-500.0   60.0   33.333333333333336
-500.0   30.0   50.0
-450.0   60.0   50.0
-450.0   30.0   50.0
-450.0   30.0   33.333333333333336
-500.0   30.0   50.0
-450.0   60.0   50.0
-450.0   30.0   33.333333333333336
-500.0   60.0   33.333333333333336
-500.0   60.0   0.0
-450.0   60.0   0.0
-500.0   90.0   0.0
-500.0   60.0   16.666666666666668
-450.0   60.0   0.0
-450.0   90.0   0.0
-500.0   90.0   0.0
-450.0   90.0   16.666666666666668
-500.0   60.0   16.666666666666668
-500.0   90.0   16.666666666666668
-450.0   90.0   16.666666666666668
-500.0   90.0   0.0
-500.0   60.0   16.666666666666668
-450.0   90.0   16.666666666666668
-450.0   60.0   16.666666666666668
-450.0   60.0   0.0
-500.0   60.0   16.666666666666668
-450.0   90.0   16.666666666666668
-450.0   60.0   0.0
-500.0   90.0   0.0
-500.0   60.0   16.666666666666668
-450.0   60.0   16.666666666666668
-500.0   90.0   16.666666666666668
-500.0   60.0   33.333333333333336
-450.0   60.0   16.666666666666668
-450.0   90.0   16.666666666666668
-500.0   90.0   16.666666666666668
-450.0   90.0   33.333333333333336
-500.0   60.0   33.333333333333336
-500.0   90.0   33.333333333333336
-450.0   90.0   33.333333333333336
-500.0   90.0   16.666666666666668
-500.0   60.0   33.333333333333336
-450.0   90.0   33.333333333333336
-450.0   60.0   33.333333333333336
-450.0   60.0   16.666666666666668
-500.0   60.0   33.333333333333336
-450.0   90.0   33.333333333333336
-450.0   60.0   16.666666666666668
-500.0   90.0   16.666666666666668
-500.0   60.0   33.333333333333336
-450.0   60.0   33.333333333333336
-500.0   90.0   33.333333333333336
-500.0   60.0   50.0
-450.0   60.0   33.333333333333336
-450.0   90.0   33.333333333333336
-500.0   90.0   33.333333333333336
-450.0   90.0   50.0
-500.0   60.0   50.0
-500.0   90.0   50.0
-450.0   90.0   50.0
-500.0   90.0   33.333333333333336
-500.0   60.0   50.0
-450.0   90.0   50.0
-450.0   60.0   50.0
-450.0   60.0   33.333333333333336
-500.0   60.0   50.0
-450.0   90.0   50.0
-450.0   60.0   33.333333333333336
-500.0   90.0   33.333333333333336
-500.0   90.0   0.0
-450.0   90.0   0.0
-500.0   120.0   0.0
-500.0   90.0   16.666666666666668
-450.0   90.0   0.0
-450.0   120.0   0.0
-500.0   120.0   0.0
-450.0   120.0   16.666666666666668
-500.0   90.0   16.666666666666668
-500.0   120.0   16.666666666666668
-450.0   120.0   16.666666666666668
-500.0   120.0   0.0
-500.0   90.0   16.666666666666668
-450.0   120.0   16.666666666666668
-450.0   90.0   16.666666666666668
-450.0   90.0   0.0
-500.0   90.0   16.666666666666668
-450.0   120.0   16.666666666666668
-450.0   90.0   0.0
-500.0   120.0   0.0
-500.0   90.0   16.666666666666668
-450.0   90.0   16.666666666666668
-500.0   120.0   16.666666666666668
-500.0   90.0   33.333333333333336
-450.0   90.0   16.666666666666668
-450.0   120.0   16.666666666666668
-500.0   120.0   16.666666666666668
-450.0   120.0   33.333333333333336
-500.0   90.0   33.333333333333336
-500.0   120.0   33.333333333333336
-450.0   120.0   33.333333333333336
-500.0   120.0   16.666666666666668
-500.0   90.0   33.333333333333336
-450.0   120.0   33.333333333333336
-450.0   90.0   33.333333333333336
-450.0   90.0   16.666666666666668
-500.0   90.0   33.333333333333336
-450.0   120.0   33.333333333333336
-450.0   90.0   16.666666666666668
-500.0   120.0   16.666666666666668
-500.0   90.0   33.333333333333336
-450.0   90.0   33.333333333333336
-500.0   120.0   33.333333333333336
-500.0   90.0   50.0
-450.0   90.0   33.333333333333336
-450.0   120.0   33.333333333333336
-500.0   120.0   33.333333333333336
-450.0   120.0   50.0
-500.0   90.0   50.0
-500.0   120.0   50.0
-450.0   120.0   50.0
-500.0   120.0   33.333333333333336
-500.0   90.0   50.0
-450.0   120.0   50.0
-450.0   90.0   50.0
-450.0   90.0   33.333333333333336
-500.0   90.0   50.0
-450.0   120.0   50.0
-450.0   90.0   33.333333333333336
-500.0   120.0   33.333333333333336
-500.0   120.0   0.0
-450.0   120.0   0.0
-500.0   150.0   0.0
-500.0   120.0   16.666666666666668
-450.0   120.0   0.0
-450.0   150.0   0.0
-500.0   150.0   0.0
-450.0   150.0   16.666666666666668
-500.0   120.0   16.666666666666668
-500.0   150.0   16.666666666666668
-450.0   150.0   16.666666666666668
-500.0   150.0   0.0
-500.0   120.0   16.666666666666668
-450.0   150.0   16.666666666666668
-450.0   120.0   16.666666666666668
-450.0   120.0   0.0
-500.0   120.0   16.666666666666668
-450.0   150.0   16.666666666666668
-450.0   120.0   0.0
-500.0   150.0   0.0
-500.0   120.0   16.666666666666668
-450.0   120.0   16.666666666666668
-500.0   150.0   16.666666666666668
-500.0   120.0   33.333333333333336
-450.0   120.0   16.666666666666668
-450.0   150.0   16.666666666666668
-500.0   150.0   16.666666666666668
-450.0   150.0   33.333333333333336
-500.0   120.0   33.333333333333336
-500.0   150.0   33.333333333333336
-450.0   150.0   33.333333333333336
-500.0   150.0   16.666666666666668
-500.0   120.0   33.333333333333336
-450.0   150.0   33.333333333333336
-450.0   120.0   33.333333333333336
-450.0   120.0   16.666666666666668
-500.0   120.0   33.333333333333336
-450.0   150.0   33.333333333333336
-450.0   120.0   16.666666666666668
-500.0   150.0   16.666666666666668
-500.0   120.0   33.333333333333336
-450.0   120.0   33.333333333333336
-500.0   150.0   33.333333333333336
-500.0   120.0   50.0
-450.0   120.0   33.333333333333336
-450.0   150.0   33.333333333333336
-500.0   150.0   33.333333333333336
-450.0   150.0   50.0
-500.0   120.0   50.0
-500.0   150.0   50.0
-450.0   150.0   50.0
-500.0   150.0   33.333333333333336
-500.0   120.0   50.0
-450.0   150.0   50.0
-450.0   120.0   50.0
-450.0   120.0   33.333333333333336
-500.0   120.0   50.0
-450.0   150.0   50.0
-450.0   120.0   33.333333333333336
-500.0   150.0   33.333333333333336
-450.0   0.0   0.0
-400.0   0.0   0.0
-450.0   30.0   0.0
-450.0   0.0   16.666666666666668
-400.0   0.0   0.0
-400.0   30.0   0.0
-450.0   30.0   0.0
-400.0   30.0   16.666666666666668
-450.0   0.0   16.666666666666668
-450.0   30.0   16.666666666666668
-400.0   30.0   16.666666666666668
-450.0   30.0   0.0
-450.0   0.0   16.666666666666668
-400.0   30.0   16.666666666666668
-400.0   0.0   16.666666666666668
-400.0   0.0   0.0
-450.0   0.0   16.666666666666668
-400.0   30.0   16.666666666666668
-400.0   0.0   0.0
-450.0   30.0   0.0
-450.0   0.0   16.666666666666668
-400.0   0.0   16.666666666666668
-450.0   30.0   16.666666666666668
-450.0   0.0   33.333333333333336
-400.0   0.0   16.666666666666668
-400.0   30.0   16.666666666666668
-450.0   30.0   16.666666666666668
-400.0   30.0   33.333333333333336
-450.0   0.0   33.333333333333336
-450.0   30.0   33.333333333333336
-400.0   30.0   33.333333333333336
-450.0   30.0   16.666666666666668
-450.0   0.0   33.333333333333336
-400.0   30.0   33.333333333333336
-400.0   0.0   33.333333333333336
-400.0   0.0   16.666666666666668
-450.0   0.0   33.333333333333336
-400.0   30.0   33.333333333333336
-400.0   0.0   16.666666666666668
-450.0   30.0   16.666666666666668
-450.0   0.0   33.333333333333336
-400.0   0.0   33.333333333333336
-450.0   30.0   33.333333333333336
-450.0   0.0   50.0
-400.0   0.0   33.333333333333336
-400.0   30.0   33.333333333333336
-450.0   30.0   33.333333333333336
-400.0   30.0   50.0
-450.0   0.0   50.0
-450.0   30.0   50.0
-400.0   30.0   50.0
-450.0   30.0   33.333333333333336
-450.0   0.0   50.0
-400.0   30.0   50.0
-400.0   0.0   50.0
-400.0   0.0   33.333333333333336
-450.0   0.0   50.0
-400.0   30.0   50.0
-400.0   0.0   33.333333333333336
-450.0   30.0   33.333333333333336
-450.0   30.0   0.0
-400.0   30.0   0.0
-450.0   60.0   0.0
-450.0   30.0   16.666666666666668
-400.0   30.0   0.0
-400.0   60.0   0.0
-450.0   60.0   0.0
-400.0   60.0   16.666666666666668
-450.0   30.0   16.666666666666668
-450.0   60.0   16.666666666666668
-400.0   60.0   16.666666666666668
-450.0   60.0   0.0
-450.0   30.0   16.666666666666668
-400.0   60.0   16.666666666666668
-400.0   30.0   16.666666666666668
-400.0   30.0   0.0
-450.0   30.0   16.666666666666668
-400.0   60.0   16.666666666666668
-400.0   30.0   0.0
-450.0   60.0   0.0
-450.0   30.0   16.666666666666668
-400.0   30.0   16.666666666666668
-450.0   60.0   16.666666666666668
-450.0   30.0   33.333333333333336
-400.0   30.0   16.666666666666668
-400.0   60.0   16.666666666666668
-450.0   60.0   16.666666666666668
-400.0   60.0   33.333333333333336
-450.0   30.0   33.333333333333336
-450.0   60.0   33.333333333333336
-400.0   60.0   33.333333333333336
-450.0   60.0   16.666666666666668
-450.0   30.0   33.333333333333336
-400.0   60.0   33.333333333333336
-400.0   30.0   33.333333333333336
-400.0   30.0   16.666666666666668
-450.0   30.0   33.333333333333336
-400.0   60.0   33.333333333333336
-400.0   30.0   16.666666666666668
-450.0   60.0   16.666666666666668
-450.0   30.0   33.333333333333336
-400.0   30.0   33.333333333333336
-450.0   60.0   33.333333333333336
-450.0   30.0   50.0
-400.0   30.0   33.333333333333336
-400.0   60.0   33.333333333333336
-450.0   60.0   33.333333333333336
-400.0   60.0   50.0
-450.0   30.0   50.0
-450.0   60.0   50.0
-400.0   60.0   50.0
-450.0   60.0   33.333333333333336
-450.0   30.0   50.0
-400.0   60.0   50.0
-400.0   30.0   50.0
-400.0   30.0   33.333333333333336
-450.0   30.0   50.0
-400.0   60.0   50.0
-400.0   30.0   33.333333333333336
-450.0   60.0   33.333333333333336
-450.0   60.0   0.0
-400.0   60.0   0.0
-450.0   90.0   0.0
-450.0   60.0   16.666666666666668
-400.0   60.0   0.0
-400.0   90.0   0.0
-450.0   90.0   0.0
-400.0   90.0   16.666666666666668
-450.0   60.0   16.666666666666668
-450.0   90.0   16.666666666666668
-400.0   90.0   16.666666666666668
-450.0   90.0   0.0
-450.0   60.0   16.666666666666668
-400.0   90.0   16.666666666666668
-400.0   60.0   16.666666666666668
-400.0   60.0   0.0
-450.0   60.0   16.666666666666668
-400.0   90.0   16.666666666666668
-400.0   60.0   0.0
-450.0   90.0   0.0
-450.0   60.0   16.666666666666668
-400.0   60.0   16.666666666666668
-450.0   90.0   16.666666666666668
-450.0   60.0   33.333333333333336
-400.0   60.0   16.666666666666668
-400.0   90.0   16.666666666666668
-450.0   90.0   16.666666666666668
-400.0   90.0   33.333333333333336
-450.0   60.0   33.333333333333336
-450.0   90.0   33.333333333333336
-400.0   90.0   33.333333333333336
-450.0   90.0   16.666666666666668
-450.0   60.0   33.333333333333336
-400.0   90.0   33.333333333333336
-400.0   60.0   33.333333333333336
-400.0   60.0   16.666666666666668
-450.0   60.0   33.333333333333336
-400.0   90.0   33.333333333333336
-400.0   60.0   16.666666666666668
-450.0   90.0   16.666666666666668
-450.0   60.0   33.333333333333336
-400.0   60.0   33.333333333333336
-450.0   90.0   33.333333333333336
-450.0   60.0   50.0
-400.0   60.0   33.333333333333336
-400.0   90.0   33.333333333333336
-450.0   90.0   33.333333333333336
-400.0   90.0   50.0
-450.0   60.0   50.0
-450.0   90.0   50.0
-400.0   90.0   50.0
-450.0   90.0   33.333333333333336
-450.0   60.0   50.0
-400.0   90.0   50.0
-400.0   60.0   50.0
-400.0   60.0   33.333333333333336
-450.0   60.0   50.0
-400.0   90.0   50.0
-400.0   60.0   33.333333333333336
-450.0   90.0   33.333333333333336
-450.0   90.0   0.0
-400.0   90.0   0.0
-450.0   120.0   0.0
-450.0   90.0   16.666666666666668
-400.0   90.0   0.0
-400.0   120.0   0.0
-450.0   120.0   0.0
-400.0   120.0   16.666666666666668
-450.0   90.0   16.666666666666668
-450.0   120.0   16.666666666666668
-400.0   120.0   16.666666666666668
-450.0   120.0   0.0
-450.0   90.0   16.666666666666668
-400.0   120.0   16.666666666666668
-400.0   90.0   16.666666666666668
-400.0   90.0   0.0
-450.0   90.0   16.666666666666668
-400.0   120.0   16.666666666666668
-400.0   90.0   0.0
-450.0   120.0   0.0
-450.0   90.0   16.666666666666668
-400.0   90.0   16.666666666666668
-450.0   120.0   16.666666666666668
-450.0   90.0   33.333333333333336
-400.0   90.0   16.666666666666668
-400.0   120.0   16.666666666666668
-450.0   120.0   16.666666666666668
-400.0   120.0   33.333333333333336
-450.0   90.0   33.333333333333336
-450.0   120.0   33.333333333333336
-400.0   120.0   33.333333333333336
-450.0   120.0   16.666666666666668
-450.0   90.0   33.333333333333336
-400.0   120.0   33.333333333333336
-400.0   90.0   33.333333333333336
-400.0   90.0   16.666666666666668
-450.0   90.0   33.333333333333336
-400.0   120.0   33.333333333333336
-400.0   90.0   16.666666666666668
-450.0   120.0   16.666666666666668
-450.0   90.0   33.333333333333336
-400.0   90.0   33.333333333333336
-450.0   120.0   33.333333333333336
-450.0   90.0   50.0
-400.0   90.0   33.333333333333336
-400.0   120.0   33.333333333333336
-450.0   120.0   33.333333333333336
-400.0   120.0   50.0
-450.0   90.0   50.0
-450.0   120.0   50.0
-400.0   120.0   50.0
-450.0   120.0   33.333333333333336
-450.0   90.0   50.0
-400.0   120.0   50.0
-400.0   90.0   50.0
-400.0   90.0   33.333333333333336
-450.0   90.0   50.0
-400.0   120.0   50.0
-400.0   90.0   33.333333333333336
-450.0   120.0   33.333333333333336
-450.0   120.0   0.0
-400.0   120.0   0.0
-450.0   150.0   0.0
-450.0   120.0   16.666666666666668
-400.0   120.0   0.0
-400.0   150.0   0.0
-450.0   150.0   0.0
-400.0   150.0   16.666666666666668
-450.0   120.0   16.666666666666668
-450.0   150.0   16.666666666666668
-400.0   150.0   16.666666666666668
-450.0   150.0   0.0
-450.0   120.0   16.666666666666668
-400.0   150.0   16.666666666666668
-400.0   120.0   16.666666666666668
-400.0   120.0   0.0
-450.0   120.0   16.666666666666668
-400.0   150.0   16.666666666666668
-400.0   120.0   0.0
-450.0   150.0   0.0
-450.0   120.0   16.666666666666668
-400.0   120.0   16.666666666666668
-450.0   150.0   16.666666666666668
-450.0   120.0   33.333333333333336
-400.0   120.0   16.666666666666668
-400.0   150.0   16.666666666666668
-450.0   150.0   16.666666666666668
-400.0   150.0   33.333333333333336
-450.0   120.0   33.333333333333336
-450.0   150.0   33.333333333333336
-400.0   150.0   33.333333333333336
-450.0   150.0   16.666666666666668
-450.0   120.0   33.333333333333336
-400.0   150.0   33.333333333333336
-400.0   120.0   33.333333333333336
-400.0   120.0   16.666666666666668
-450.0   120.0   33.333333333333336
-400.0   150.0   33.333333333333336
-400.0   120.0   16.666666666666668
-450.0   150.0   16.666666666666668
-450.0   120.0   33.333333333333336
-400.0   120.0   33.333333333333336
-450.0   150.0   33.333333333333336
-450.0   120.0   50.0
-400.0   120.0   33.333333333333336
-400.0   150.0   33.333333333333336
-450.0   150.0   33.333333333333336
-400.0   150.0   50.0
-450.0   120.0   50.0
-450.0   150.0   50.0
-400.0   150.0   50.0
-450.0   150.0   33.333333333333336
-450.0   120.0   50.0
-400.0   150.0   50.0
-400.0   120.0   50.0
-400.0   120.0   33.333333333333336
-450.0   120.0   50.0
-400.0   150.0   50.0
-400.0   120.0   33.333333333333336
-450.0   150.0   33.333333333333336
-400.0   0.0   0.0
-350.0   0.0   0.0
-400.0   30.0   0.0
-400.0   0.0   16.666666666666668
-350.0   0.0   0.0
-350.0   30.0   0.0
-400.0   30.0   0.0
-350.0   30.0   16.666666666666668
-400.0   0.0   16.666666666666668
-400.0   30.0   16.666666666666668
-350.0   30.0   16.666666666666668
-400.0   30.0   0.0
-400.0   0.0   16.666666666666668
-350.0   30.0   16.666666666666668
-350.0   0.0   16.666666666666668
-350.0   0.0   0.0
-400.0   0.0   16.666666666666668
-350.0   30.0   16.666666666666668
-350.0   0.0   0.0
-400.0   30.0   0.0
-400.0   0.0   16.666666666666668
-350.0   0.0   16.666666666666668
-400.0   30.0   16.666666666666668
-400.0   0.0   33.333333333333336
-350.0   0.0   16.666666666666668
-350.0   30.0   16.666666666666668
-400.0   30.0   16.666666666666668
-350.0   30.0   33.333333333333336
-400.0   0.0   33.333333333333336
-400.0   30.0   33.333333333333336
-350.0   30.0   33.333333333333336
-400.0   30.0   16.666666666666668
-400.0   0.0   33.333333333333336
-350.0   30.0   33.333333333333336
-350.0   0.0   33.333333333333336
-350.0   0.0   16.666666666666668
-400.0   0.0   33.333333333333336
-350.0   30.0   33.333333333333336
-350.0   0.0   16.666666666666668
-400.0   30.0   16.666666666666668
-400.0   0.0   33.333333333333336
-350.0   0.0   33.333333333333336
-400.0   30.0   33.333333333333336
-400.0   0.0   50.0
-350.0   0.0   33.333333333333336
-350.0   30.0   33.333333333333336
-400.0   30.0   33.333333333333336
-350.0   30.0   50.0
-400.0   0.0   50.0
-400.0   30.0   50.0
-350.0   30.0   50.0
-400.0   30.0   33.333333333333336
-400.0   0.0   50.0
-350.0   30.0   50.0
-350.0   0.0   50.0
-350.0   0.0   33.333333333333336
-400.0   0.0   50.0
-350.0   30.0   50.0
-350.0   0.0   33.333333333333336
-400.0   30.0   33.333333333333336
-400.0   30.0   0.0
-350.0   30.0   0.0
-400.0   60.0   0.0
-400.0   30.0   16.666666666666668
-350.0   30.0   0.0
-350.0   60.0   0.0
-400.0   60.0   0.0
-350.0   60.0   16.666666666666668
-400.0   30.0   16.666666666666668
-400.0   60.0   16.666666666666668
-350.0   60.0   16.666666666666668
-400.0   60.0   0.0
-400.0   30.0   16.666666666666668
-350.0   60.0   16.666666666666668
-350.0   30.0   16.666666666666668
-350.0   30.0   0.0
-400.0   30.0   16.666666666666668
-350.0   60.0   16.666666666666668
-350.0   30.0   0.0
-400.0   60.0   0.0
-400.0   30.0   16.666666666666668
-350.0   30.0   16.666666666666668
-400.0   60.0   16.666666666666668
-400.0   30.0   33.333333333333336
-350.0   30.0   16.666666666666668
-350.0   60.0   16.666666666666668
-400.0   60.0   16.666666666666668
-350.0   60.0   33.333333333333336
-400.0   30.0   33.333333333333336
-400.0   60.0   33.333333333333336
-350.0   60.0   33.333333333333336
-400.0   60.0   16.666666666666668
-400.0   30.0   33.333333333333336
-350.0   60.0   33.333333333333336
-350.0   30.0   33.333333333333336
-350.0   30.0   16.666666666666668
-400.0   30.0   33.333333333333336
-350.0   60.0   33.333333333333336
-350.0   30.0   16.666666666666668
-400.0   60.0   16.666666666666668
-400.0   30.0   33.333333333333336
-350.0   30.0   33.333333333333336
-400.0   60.0   33.333333333333336
-400.0   30.0   50.0
-350.0   30.0   33.333333333333336
-350.0   60.0   33.333333333333336
-400.0   60.0   33.333333333333336
-350.0   60.0   50.0
-400.0   30.0   50.0
-400.0   60.0   50.0
-350.0   60.0   50.0
-400.0   60.0   33.333333333333336
-400.0   30.0   50.0
-350.0   60.0   50.0
-350.0   30.0   50.0
-350.0   30.0   33.333333333333336
-400.0   30.0   50.0
-350.0   60.0   50.0
-350.0   30.0   33.333333333333336
-400.0   60.0   33.333333333333336
-400.0   60.0   0.0
-350.0   60.0   0.0
-400.0   90.0   0.0
-400.0   60.0   16.666666666666668
-350.0   60.0   0.0
-350.0   90.0   0.0
-400.0   90.0   0.0
-350.0   90.0   16.666666666666668
-400.0   60.0   16.666666666666668
-400.0   90.0   16.666666666666668
-350.0   90.0   16.666666666666668
-400.0   90.0   0.0
-400.0   60.0   16.666666666666668
-350.0   90.0   16.666666666666668
-350.0   60.0   16.666666666666668
-350.0   60.0   0.0
-400.0   60.0   16.666666666666668
-350.0   90.0   16.666666666666668
-350.0   60.0   0.0
-400.0   90.0   0.0
-400.0   60.0   16.666666666666668
-350.0   60.0   16.666666666666668
-400.0   90.0   16.666666666666668
-400.0   60.0   33.333333333333336
-350.0   60.0   16.666666666666668
-350.0   90.0   16.666666666666668
-400.0   90.0   16.666666666666668
-350.0   90.0   33.333333333333336
-400.0   60.0   33.333333333333336
-400.0   90.0   33.333333333333336
-350.0   90.0   33.333333333333336
-400.0   90.0   16.666666666666668
-400.0   60.0   33.333333333333336
-350.0   90.0   33.333333333333336
-350.0   60.0   33.333333333333336
-350.0   60.0   16.666666666666668
-400.0   60.0   33.333333333333336
-350.0   90.0   33.333333333333336
-350.0   60.0   16.666666666666668
-400.0   90.0   16.666666666666668
-400.0   60.0   33.333333333333336
-350.0   60.0   33.333333333333336
-400.0   90.0   33.333333333333336
-400.0   60.0   50.0
-350.0   60.0   33.333333333333336
-350.0   90.0   33.333333333333336
-400.0   90.0   33.333333333333336
-350.0   90.0   50.0
-400.0   60.0   50.0
-400.0   90.0   50.0
-350.0   90.0   50.0
-400.0   90.0   33.333333333333336
-400.0   60.0   50.0
-350.0   90.0   50.0
-350.0   60.0   50.0
-350.0   60.0   33.333333333333336
-400.0   60.0   50.0
-350.0   90.0   50.0
-350.0   60.0   33.333333333333336
-400.0   90.0   33.333333333333336
-400.0   90.0   0.0
-350.0   90.0   0.0
-400.0   120.0   0.0
-400.0   90.0   16.666666666666668
-350.0   90.0   0.0
-350.0   120.0   0.0
-400.0   120.0   0.0
-350.0   120.0   16.666666666666668
-400.0   90.0   16.666666666666668
-400.0   120.0   16.666666666666668
-350.0   120.0   16.666666666666668
-400.0   120.0   0.0
-400.0   90.0   16.666666666666668
-350.0   120.0   16.666666666666668
-350.0   90.0   16.666666666666668
-350.0   90.0   0.0
-400.0   90.0   16.666666666666668
-350.0   120.0   16.666666666666668
-350.0   90.0   0.0
-400.0   120.0   0.0
-400.0   90.0   16.666666666666668
-350.0   90.0   16.666666666666668
-400.0   120.0   16.666666666666668
-400.0   90.0   33.333333333333336
-350.0   90.0   16.666666666666668
-350.0   120.0   16.666666666666668
-400.0   120.0   16.666666666666668
-350.0   120.0   33.333333333333336
-400.0   90.0   33.333333333333336
-400.0   120.0   33.333333333333336
-350.0   120.0   33.333333333333336
-400.0   120.0   16.666666666666668
-400.0   90.0   33.333333333333336
-350.0   120.0   33.333333333333336
-350.0   90.0   33.333333333333336
-350.0   90.0   16.666666666666668
-400.0   90.0   33.333333333333336
-350.0   120.0   33.333333333333336
-350.0   90.0   16.666666666666668
-400.0   120.0   16.666666666666668
-400.0   90.0   33.333333333333336
-350.0   90.0   33.333333333333336
-400.0   120.0   33.333333333333336
-400.0   90.0   50.0
-350.0   90.0   33.333333333333336
-350.0   120.0   33.333333333333336
-400.0   120.0   33.333333333333336
-350.0   120.0   50.0
-400.0   90.0   50.0
-400.0   120.0   50.0
-350.0   120.0   50.0
-400.0   120.0   33.333333333333336
-400.0   90.0   50.0
-350.0   120.0   50.0
-350.0   90.0   50.0
-350.0   90.0   33.333333333333336
-400.0   90.0   50.0
-350.0   120.0   50.0
-350.0   90.0   33.333333333333336
-400.0   120.0   33.333333333333336
-400.0   120.0   0.0
-350.0   120.0   0.0
-400.0   150.0   0.0
-400.0   120.0   16.666666666666668
-350.0   120.0   0.0
-350.0   150.0   0.0
-400.0   150.0   0.0
-350.0   150.0   16.666666666666668
-400.0   120.0   16.666666666666668
-400.0   150.0   16.666666666666668
-350.0   150.0   16.666666666666668
-400.0   150.0   0.0
-400.0   120.0   16.666666666666668
-350.0   150.0   16.666666666666668
-350.0   120.0   16.666666666666668
-350.0   120.0   0.0
-400.0   120.0   16.666666666666668
-350.0   150.0   16.666666666666668
-350.0   120.0   0.0
-400.0   150.0   0.0
-400.0   120.0   16.666666666666668
-350.0   120.0   16.666666666666668
-400.0   150.0   16.666666666666668
-400.0   120.0   33.333333333333336
-350.0   120.0   16.666666666666668
-350.0   150.0   16.666666666666668
-400.0   150.0   16.666666666666668
-350.0   150.0   33.333333333333336
-400.0   120.0   33.333333333333336
-400.0   150.0   33.333333333333336
-350.0   150.0   33.333333333333336
-400.0   150.0   16.666666666666668
-400.0   120.0   33.333333333333336
-350.0   150.0   33.333333333333336
-350.0   120.0   33.333333333333336
-350.0   120.0   16.666666666666668
-400.0   120.0   33.333333333333336
-350.0   150.0   33.333333333333336
-350.0   120.0   16.666666666666668
-400.0   150.0   16.666666666666668
-400.0   120.0   33.333333333333336
-350.0   120.0   33.333333333333336
-400.0   150.0   33.333333333333336
-400.0   120.0   50.0
-350.0   120.0   33.333333333333336
-350.0   150.0   33.333333333333336
-400.0   150.0   33.333333333333336
-350.0   150.0   50.0
-400.0   120.0   50.0
-400.0   150.0   50.0
-350.0   150.0   50.0
-400.0   150.0   33.333333333333336
-400.0   120.0   50.0
-350.0   150.0   50.0
-350.0   120.0   50.0
-350.0   120.0   33.333333333333336
-400.0   120.0   50.0
-350.0   150.0   50.0
-350.0   120.0   33.333333333333336
-400.0   150.0   33.333333333333336
-350.0   0.0   0.0
-300.0   0.0   0.0
-350.0   30.0   0.0
-350.0   0.0   16.666666666666668
-300.0   0.0   0.0
-300.0   30.0   0.0
-350.0   30.0   0.0
-300.0   30.0   16.666666666666668
-350.0   0.0   16.666666666666668
-350.0   30.0   16.666666666666668
-300.0   30.0   16.666666666666668
-350.0   30.0   0.0
-350.0   0.0   16.666666666666668
-300.0   30.0   16.666666666666668
-300.0   0.0   16.666666666666668
-300.0   0.0   0.0
-350.0   0.0   16.666666666666668
-300.0   30.0   16.666666666666668
-300.0   0.0   0.0
-350.0   30.0   0.0
-350.0   0.0   16.666666666666668
-300.0   0.0   16.666666666666668
-350.0   30.0   16.666666666666668
-350.0   0.0   33.333333333333336
-300.0   0.0   16.666666666666668
-300.0   30.0   16.666666666666668
-350.0   30.0   16.666666666666668
-300.0   30.0   33.333333333333336
-350.0   0.0   33.333333333333336
-350.0   30.0   33.333333333333336
-300.0   30.0   33.333333333333336
-350.0   30.0   16.666666666666668
-350.0   0.0   33.333333333333336
-300.0   30.0   33.333333333333336
-300.0   0.0   33.333333333333336
-300.0   0.0   16.666666666666668
-350.0   0.0   33.333333333333336
-300.0   30.0   33.333333333333336
-300.0   0.0   16.666666666666668
-350.0   30.0   16.666666666666668
-350.0   0.0   33.333333333333336
-300.0   0.0   33.333333333333336
-350.0   30.0   33.333333333333336
-350.0   0.0   50.0
-300.0   0.0   33.333333333333336
-300.0   30.0   33.333333333333336
-350.0   30.0   33.333333333333336
-300.0   30.0   50.0
-350.0   0.0   50.0
-350.0   30.0   50.0
-300.0   30.0   50.0
-350.0   30.0   33.333333333333336
-350.0   0.0   50.0
-300.0   30.0   50.0
-300.0   0.0   50.0
-300.0   0.0   33.333333333333336
-350.0   0.0   50.0
-300.0   30.0   50.0
-300.0   0.0   33.333333333333336
-350.0   30.0   33.333333333333336
-350.0   30.0   0.0
-300.0   30.0   0.0
-350.0   60.0   0.0
-350.0   30.0   16.666666666666668
-300.0   30.0   0.0
-300.0   60.0   0.0
-350.0   60.0   0.0
-300.0   60.0   16.666666666666668
-350.0   30.0   16.666666666666668
-350.0   60.0   16.666666666666668
-300.0   60.0   16.666666666666668
-350.0   60.0   0.0
-350.0   30.0   16.666666666666668
-300.0   60.0   16.666666666666668
-300.0   30.0   16.666666666666668
-300.0   30.0   0.0
-350.0   30.0   16.666666666666668
-300.0   60.0   16.666666666666668
-300.0   30.0   0.0
-350.0   60.0   0.0
-350.0   30.0   16.666666666666668
-300.0   30.0   16.666666666666668
-350.0   60.0   16.666666666666668
-350.0   30.0   33.333333333333336
-300.0   30.0   16.666666666666668
-300.0   60.0   16.666666666666668
-350.0   60.0   16.666666666666668
-300.0   60.0   33.333333333333336
-350.0   30.0   33.333333333333336
-350.0   60.0   33.333333333333336
-300.0   60.0   33.333333333333336
-350.0   60.0   16.666666666666668
-350.0   30.0   33.333333333333336
-300.0   60.0   33.333333333333336
-300.0   30.0   33.333333333333336
-300.0   30.0   16.666666666666668
-350.0   30.0   33.333333333333336
-300.0   60.0   33.333333333333336
-300.0   30.0   16.666666666666668
-350.0   60.0   16.666666666666668
-350.0   30.0   33.333333333333336
-300.0   30.0   33.333333333333336
-350.0   60.0   33.333333333333336
-350.0   30.0   50.0
-300.0   30.0   33.333333333333336
-300.0   60.0   33.333333333333336
-350.0   60.0   33.333333333333336
-300.0   60.0   50.0
-350.0   30.0   50.0
-350.0   60.0   50.0
-300.0   60.0   50.0
-350.0   60.0   33.333333333333336
-350.0   30.0   50.0
-300.0   60.0   50.0
-300.0   30.0   50.0
-300.0   30.0   33.333333333333336
-350.0   30.0   50.0
-300.0   60.0   50.0
-300.0   30.0   33.333333333333336
-350.0   60.0   33.333333333333336
-350.0   60.0   0.0
-300.0   60.0   0.0
-350.0   90.0   0.0
-350.0   60.0   16.666666666666668
-300.0   60.0   0.0
-300.0   90.0   0.0
-350.0   90.0   0.0
-300.0   90.0   16.666666666666668
-350.0   60.0   16.666666666666668
-350.0   90.0   16.666666666666668
-300.0   90.0   16.666666666666668
-350.0   90.0   0.0
-350.0   60.0   16.666666666666668
-300.0   90.0   16.666666666666668
-300.0   60.0   16.666666666666668
-300.0   60.0   0.0
-350.0   60.0   16.666666666666668
-300.0   90.0   16.666666666666668
-300.0   60.0   0.0
-350.0   90.0   0.0
-350.0   60.0   16.666666666666668
-300.0   60.0   16.666666666666668
-350.0   90.0   16.666666666666668
-350.0   60.0   33.333333333333336
-300.0   60.0   16.666666666666668
-300.0   90.0   16.666666666666668
-350.0   90.0   16.666666666666668
-300.0   90.0   33.333333333333336
-350.0   60.0   33.333333333333336
-350.0   90.0   33.333333333333336
-300.0   90.0   33.333333333333336
-350.0   90.0   16.666666666666668
-350.0   60.0   33.333333333333336
-300.0   90.0   33.333333333333336
-300.0   60.0   33.333333333333336
-300.0   60.0   16.666666666666668
-350.0   60.0   33.333333333333336
-300.0   90.0   33.333333333333336
-300.0   60.0   16.666666666666668
-350.0   90.0   16.666666666666668
-350.0   60.0   33.333333333333336
-300.0   60.0   33.333333333333336
-350.0   90.0   33.333333333333336
-350.0   60.0   50.0
-300.0   60.0   33.333333333333336
-300.0   90.0   33.333333333333336
-350.0   90.0   33.333333333333336
-300.0   90.0   50.0
-350.0   60.0   50.0
-350.0   90.0   50.0
-300.0   90.0   50.0
-350.0   90.0   33.333333333333336
-350.0   60.0   50.0
-300.0   90.0   50.0
-300.0   60.0   50.0
-300.0   60.0   33.333333333333336
-350.0   60.0   50.0
-300.0   90.0   50.0
-300.0   60.0   33.333333333333336
-350.0   90.0   33.333333333333336
-350.0   90.0   0.0
-300.0   90.0   0.0
-350.0   120.0   0.0
-350.0   90.0   16.666666666666668
-300.0   90.0   0.0
-300.0   120.0   0.0
-350.0   120.0   0.0
-300.0   120.0   16.666666666666668
-350.0   90.0   16.666666666666668
-350.0   120.0   16.666666666666668
-300.0   120.0   16.666666666666668
-350.0   120.0   0.0
-350.0   90.0   16.666666666666668
-300.0   120.0   16.666666666666668
-300.0   90.0   16.666666666666668
-300.0   90.0   0.0
-350.0   90.0   16.666666666666668
-300.0   120.0   16.666666666666668
-300.0   90.0   0.0
-350.0   120.0   0.0
-350.0   90.0   16.666666666666668
-300.0   90.0   16.666666666666668
-350.0   120.0   16.666666666666668
-350.0   90.0   33.333333333333336
-300.0   90.0   16.666666666666668
-300.0   120.0   16.666666666666668
-350.0   120.0   16.666666666666668
-300.0   120.0   33.333333333333336
-350.0   90.0   33.333333333333336
-350.0   120.0   33.333333333333336
-300.0   120.0   33.333333333333336
-350.0   120.0   16.666666666666668
-350.0   90.0   33.333333333333336
-300.0   120.0   33.333333333333336
-300.0   90.0   33.333333333333336
-300.0   90.0   16.666666666666668
-350.0   90.0   33.333333333333336
-300.0   120.0   33.333333333333336
-300.0   90.0   16.666666666666668
-350.0   120.0   16.666666666666668
-350.0   90.0   33.333333333333336
-300.0   90.0   33.333333333333336
-350.0   120.0   33.333333333333336
-350.0   90.0   50.0
-300.0   90.0   33.333333333333336
-300.0   120.0   33.333333333333336
-350.0   120.0   33.333333333333336
-300.0   120.0   50.0
-350.0   90.0   50.0
-350.0   120.0   50.0
-300.0   120.0   50.0
-350.0   120.0   33.333333333333336
-350.0   90.0   50.0
-300.0   120.0   50.0
-300.0   90.0   50.0
-300.0   90.0   33.333333333333336
-350.0   90.0   50.0
-300.0   120.0   50.0
-300.0   90.0   33.333333333333336
-350.0   120.0   33.333333333333336
-350.0   120.0   0.0
-300.0   120.0   0.0
-350.0   150.0   0.0
-350.0   120.0   16.666666666666668
-300.0   120.0   0.0
-300.0   150.0   0.0
-350.0   150.0   0.0
-300.0   150.0   16.666666666666668
-350.0   120.0   16.666666666666668
-350.0   150.0   16.666666666666668
-300.0   150.0   16.666666666666668
-350.0   150.0   0.0
-350.0   120.0   16.666666666666668
-300.0   150.0   16.666666666666668
-300.0   120.0   16.666666666666668
-300.0   120.0   0.0
-350.0   120.0   16.666666666666668
-300.0   150.0   16.666666666666668
-300.0   120.0   0.0
-350.0   150.0   0.0
-350.0   120.0   16.666666666666668
-300.0   120.0   16.666666666666668
-350.0   150.0   16.666666666666668
-350.0   120.0   33.333333333333336
-300.0   120.0   16.666666666666668
-300.0   150.0   16.666666666666668
-350.0   150.0   16.666666666666668
-300.0   150.0   33.333333333333336
-350.0   120.0   33.333333333333336
-350.0   150.0   33.333333333333336
-300.0   150.0   33.333333333333336
-350.0   150.0   16.666666666666668
-350.0   120.0   33.333333333333336
-300.0   150.0   33.333333333333336
-300.0   120.0   33.333333333333336
-300.0   120.0   16.666666666666668
-350.0   120.0   33.333333333333336
-300.0   150.0   33.333333333333336
-300.0   120.0   16.666666666666668
-350.0   150.0   16.666666666666668
-350.0   120.0   33.333333333333336
-300.0   120.0   33.333333333333336
-350.0   150.0   33.333333333333336
-350.0   120.0   50.0
-300.0   120.0   33.333333333333336
-300.0   150.0   33.333333333333336
-350.0   150.0   33.333333333333336
-300.0   150.0   50.0
-350.0   120.0   50.0
-350.0   150.0   50.0
-300.0   150.0   50.0
-350.0   150.0   33.333333333333336
-350.0   120.0   50.0
-300.0   150.0   50.0
-300.0   120.0   50.0
-300.0   120.0   33.333333333333336
-350.0   120.0   50.0
-300.0   150.0   50.0
-300.0   120.0   33.333333333333336
-350.0   150.0   33.333333333333336
-300.0   0.0   0.0
-250.0   0.0   0.0
-300.0   30.0   0.0
-300.0   0.0   16.666666666666668
-250.0   0.0   0.0
-250.0   30.0   0.0
-300.0   30.0   0.0
-250.0   30.0   16.666666666666668
-300.0   0.0   16.666666666666668
-300.0   30.0   16.666666666666668
-250.0   30.0   16.666666666666668
-300.0   30.0   0.0
-300.0   0.0   16.666666666666668
-250.0   30.0   16.666666666666668
-250.0   0.0   16.666666666666668
-250.0   0.0   0.0
-300.0   0.0   16.666666666666668
-250.0   30.0   16.666666666666668
-250.0   0.0   0.0
-300.0   30.0   0.0
-300.0   0.0   16.666666666666668
-250.0   0.0   16.666666666666668
-300.0   30.0   16.666666666666668
-300.0   0.0   33.333333333333336
-250.0   0.0   16.666666666666668
-250.0   30.0   16.666666666666668
-300.0   30.0   16.666666666666668
-250.0   30.0   33.333333333333336
-300.0   0.0   33.333333333333336
-300.0   30.0   33.333333333333336
-250.0   30.0   33.333333333333336
-300.0   30.0   16.666666666666668
-300.0   0.0   33.333333333333336
-250.0   30.0   33.333333333333336
-250.0   0.0   33.333333333333336
-250.0   0.0   16.666666666666668
-300.0   0.0   33.333333333333336
-250.0   30.0   33.333333333333336
-250.0   0.0   16.666666666666668
-300.0   30.0   16.666666666666668
-300.0   0.0   33.333333333333336
-250.0   0.0   33.333333333333336
-300.0   30.0   33.333333333333336
-300.0   0.0   50.0
-250.0   0.0   33.333333333333336
-250.0   30.0   33.333333333333336
-300.0   30.0   33.333333333333336
-250.0   30.0   50.0
-300.0   0.0   50.0
-300.0   30.0   50.0
-250.0   30.0   50.0
-300.0   30.0   33.333333333333336
-300.0   0.0   50.0
-250.0   30.0   50.0
-250.0   0.0   50.0
-250.0   0.0   33.333333333333336
-300.0   0.0   50.0
-250.0   30.0   50.0
-250.0   0.0   33.333333333333336
-300.0   30.0   33.333333333333336
-300.0   30.0   0.0
-250.0   30.0   0.0
-300.0   60.0   0.0
-300.0   30.0   16.666666666666668
-250.0   30.0   0.0
-250.0   60.0   0.0
-300.0   60.0   0.0
-250.0   60.0   16.666666666666668
-300.0   30.0   16.666666666666668
-300.0   60.0   16.666666666666668
-250.0   60.0   16.666666666666668
-300.0   60.0   0.0
-300.0   30.0   16.666666666666668
-250.0   60.0   16.666666666666668
-250.0   30.0   16.666666666666668
-250.0   30.0   0.0
-300.0   30.0   16.666666666666668
-250.0   60.0   16.666666666666668
-250.0   30.0   0.0
-300.0   60.0   0.0
-300.0   30.0   16.666666666666668
-250.0   30.0   16.666666666666668
-300.0   60.0   16.666666666666668
-300.0   30.0   33.333333333333336
-250.0   30.0   16.666666666666668
-250.0   60.0   16.666666666666668
-300.0   60.0   16.666666666666668
-250.0   60.0   33.333333333333336
-300.0   30.0   33.333333333333336
-300.0   60.0   33.333333333333336
-250.0   60.0   33.333333333333336
-300.0   60.0   16.666666666666668
-300.0   30.0   33.333333333333336
-250.0   60.0   33.333333333333336
-250.0   30.0   33.333333333333336
-250.0   30.0   16.666666666666668
-300.0   30.0   33.333333333333336
-250.0   60.0   33.333333333333336
-250.0   30.0   16.666666666666668
-300.0   60.0   16.666666666666668
-300.0   30.0   33.333333333333336
-250.0   30.0   33.333333333333336
-300.0   60.0   33.333333333333336
-300.0   30.0   50.0
-250.0   30.0   33.333333333333336
-250.0   60.0   33.333333333333336
-300.0   60.0   33.333333333333336
-250.0   60.0   50.0
-300.0   30.0   50.0
-300.0   60.0   50.0
-250.0   60.0   50.0
-300.0   60.0   33.333333333333336
-300.0   30.0   50.0
-250.0   60.0   50.0
-250.0   30.0   50.0
-250.0   30.0   33.333333333333336
-300.0   30.0   50.0
-250.0   60.0   50.0
-250.0   30.0   33.333333333333336
-300.0   60.0   33.333333333333336
-300.0   60.0   0.0
-250.0   60.0   0.0
-300.0   90.0   0.0
-300.0   60.0   16.666666666666668
-250.0   60.0   0.0
-250.0   90.0   0.0
-300.0   90.0   0.0
-250.0   90.0   16.666666666666668
-300.0   60.0   16.666666666666668
-300.0   90.0   16.666666666666668
-250.0   90.0   16.666666666666668
-300.0   90.0   0.0
-300.0   60.0   16.666666666666668
-250.0   90.0   16.666666666666668
-250.0   60.0   16.666666666666668
-250.0   60.0   0.0
-300.0   60.0   16.666666666666668
-250.0   90.0   16.666666666666668
-250.0   60.0   0.0
-300.0   90.0   0.0
-300.0   60.0   16.666666666666668
-250.0   60.0   16.666666666666668
-300.0   90.0   16.666666666666668
-300.0   60.0   33.333333333333336
-250.0   60.0   16.666666666666668
-250.0   90.0   16.666666666666668
-300.0   90.0   16.666666666666668
-250.0   90.0   33.333333333333336
-300.0   60.0   33.333333333333336
-300.0   90.0   33.333333333333336
-250.0   90.0   33.333333333333336
-300.0   90.0   16.666666666666668
-300.0   60.0   33.333333333333336
-250.0   90.0   33.333333333333336
-250.0   60.0   33.333333333333336
-250.0   60.0   16.666666666666668
-300.0   60.0   33.333333333333336
-250.0   90.0   33.333333333333336
-250.0   60.0   16.666666666666668
-300.0   90.0   16.666666666666668
-300.0   60.0   33.333333333333336
-250.0   60.0   33.333333333333336
-300.0   90.0   33.333333333333336
-300.0   60.0   50.0
-250.0   60.0   33.333333333333336
-250.0   90.0   33.333333333333336
-300.0   90.0   33.333333333333336
-250.0   90.0   50.0
-300.0   60.0   50.0
-300.0   90.0   50.0
-250.0   90.0   50.0
-300.0   90.0   33.333333333333336
-300.0   60.0   50.0
-250.0   90.0   50.0
-250.0   60.0   50.0
-250.0   60.0   33.333333333333336
-300.0   60.0   50.0
-250.0   90.0   50.0
-250.0   60.0   33.333333333333336
-300.0   90.0   33.333333333333336
-300.0   90.0   0.0
-250.0   90.0   0.0
-300.0   120.0   0.0
-300.0   90.0   16.666666666666668
-250.0   90.0   0.0
-250.0   120.0   0.0
-300.0   120.0   0.0
-250.0   120.0   16.666666666666668
-300.0   90.0   16.666666666666668
-300.0   120.0   16.666666666666668
-250.0   120.0   16.666666666666668
-300.0   120.0   0.0
-300.0   90.0   16.666666666666668
-250.0   120.0   16.666666666666668
-250.0   90.0   16.666666666666668
-250.0   90.0   0.0
-300.0   90.0   16.666666666666668
-250.0   120.0   16.666666666666668
-250.0   90.0   0.0
-300.0   120.0   0.0
-300.0   90.0   16.666666666666668
-250.0   90.0   16.666666666666668
-300.0   120.0   16.666666666666668
-300.0   90.0   33.333333333333336
-250.0   90.0   16.666666666666668
-250.0   120.0   16.666666666666668
-300.0   120.0   16.666666666666668
-250.0   120.0   33.333333333333336
-300.0   90.0   33.333333333333336
-300.0   120.0   33.333333333333336
-250.0   120.0   33.333333333333336
-300.0   120.0   16.666666666666668
-300.0   90.0   33.333333333333336
-250.0   120.0   33.333333333333336
-250.0   90.0   33.333333333333336
-250.0   90.0   16.666666666666668
-300.0   90.0   33.333333333333336
-250.0   120.0   33.333333333333336
-250.0   90.0   16.666666666666668
-300.0   120.0   16.666666666666668
-300.0   90.0   33.333333333333336
-250.0   90.0   33.333333333333336
-300.0   120.0   33.333333333333336
-300.0   90.0   50.0
-250.0   90.0   33.333333333333336
-250.0   120.0   33.333333333333336
-300.0   120.0   33.333333333333336
-250.0   120.0   50.0
-300.0   90.0   50.0
-300.0   120.0   50.0
-250.0   120.0   50.0
-300.0   120.0   33.333333333333336
-300.0   90.0   50.0
-250.0   120.0   50.0
-250.0   90.0   50.0
-250.0   90.0   33.333333333333336
-300.0   90.0   50.0
-250.0   120.0   50.0
-250.0   90.0   33.333333333333336
-300.0   120.0   33.333333333333336
-300.0   120.0   0.0
-250.0   120.0   0.0
-300.0   150.0   0.0
-300.0   120.0   16.666666666666668
-250.0   120.0   0.0
-250.0   150.0   0.0
-300.0   150.0   0.0
-250.0   150.0   16.666666666666668
-300.0   120.0   16.666666666666668
-300.0   150.0   16.666666666666668
-250.0   150.0   16.666666666666668
-300.0   150.0   0.0
-300.0   120.0   16.666666666666668
-250.0   150.0   16.666666666666668
-250.0   120.0   16.666666666666668
-250.0   120.0   0.0
-300.0   120.0   16.666666666666668
-250.0   150.0   16.666666666666668
-250.0   120.0   0.0
-300.0   150.0   0.0
-300.0   120.0   16.666666666666668
-250.0   120.0   16.666666666666668
-300.0   150.0   16.666666666666668
-300.0   120.0   33.333333333333336
-250.0   120.0   16.666666666666668
-250.0   150.0   16.666666666666668
-300.0   150.0   16.666666666666668
-250.0   150.0   33.333333333333336
-300.0   120.0   33.333333333333336
-300.0   150.0   33.333333333333336
-250.0   150.0   33.333333333333336
-300.0   150.0   16.666666666666668
-300.0   120.0   33.333333333333336
-250.0   150.0   33.333333333333336
-250.0   120.0   33.333333333333336
-250.0   120.0   16.666666666666668
-300.0   120.0   33.333333333333336
-250.0   150.0   33.333333333333336
-250.0   120.0   16.666666666666668
-300.0   150.0   16.666666666666668
-300.0   120.0   33.333333333333336
-250.0   120.0   33.333333333333336
-300.0   150.0   33.333333333333336
-300.0   120.0   50.0
-250.0   120.0   33.333333333333336
-250.0   150.0   33.333333333333336
-300.0   150.0   33.333333333333336
-250.0   150.0   50.0
-300.0   120.0   50.0
-300.0   150.0   50.0
-250.0   150.0   50.0
-300.0   150.0   33.333333333333336
-300.0   120.0   50.0
-250.0   150.0   50.0
-250.0   120.0   50.0
-250.0   120.0   33.333333333333336
-300.0   120.0   50.0
-250.0   150.0   50.0
-250.0   120.0   33.333333333333336
-300.0   150.0   33.333333333333336
-250.0   0.0   0.0
-200.0   0.0   0.0
-250.0   30.0   0.0
-250.0   0.0   16.666666666666668
-200.0   0.0   0.0
-200.0   30.0   0.0
-250.0   30.0   0.0
-200.0   30.0   16.666666666666668
-250.0   0.0   16.666666666666668
-250.0   30.0   16.666666666666668
-200.0   30.0   16.666666666666668
-250.0   30.0   0.0
-250.0   0.0   16.666666666666668
-200.0   30.0   16.666666666666668
-200.0   0.0   16.666666666666668
-200.0   0.0   0.0
-250.0   0.0   16.666666666666668
-200.0   30.0   16.666666666666668
-200.0   0.0   0.0
-250.0   30.0   0.0
-250.0   0.0   16.666666666666668
-200.0   0.0   16.666666666666668
-250.0   30.0   16.666666666666668
-250.0   0.0   33.333333333333336
-200.0   0.0   16.666666666666668
-200.0   30.0   16.666666666666668
-250.0   30.0   16.666666666666668
-200.0   30.0   33.333333333333336
-250.0   0.0   33.333333333333336
-250.0   30.0   33.333333333333336
-200.0   30.0   33.333333333333336
-250.0   30.0   16.666666666666668
-250.0   0.0   33.333333333333336
-200.0   30.0   33.333333333333336
-200.0   0.0   33.333333333333336
-200.0   0.0   16.666666666666668
-250.0   0.0   33.333333333333336
-200.0   30.0   33.333333333333336
-200.0   0.0   16.666666666666668
-250.0   30.0   16.666666666666668
-250.0   0.0   33.333333333333336
-200.0   0.0   33.333333333333336
-250.0   30.0   33.333333333333336
-250.0   0.0   50.0
-200.0   0.0   33.333333333333336
-200.0   30.0   33.333333333333336
-250.0   30.0   33.333333333333336
-200.0   30.0   50.0
-250.0   0.0   50.0
-250.0   30.0   50.0
-200.0   30.0   50.0
-250.0   30.0   33.333333333333336
-250.0   0.0   50.0
-200.0   30.0   50.0
-200.0   0.0   50.0
-200.0   0.0   33.333333333333336
-250.0   0.0   50.0
-200.0   30.0   50.0
-200.0   0.0   33.333333333333336
-250.0   30.0   33.333333333333336
-250.0   30.0   0.0
-200.0   30.0   0.0
-250.0   60.0   0.0
-250.0   30.0   16.666666666666668
-200.0   30.0   0.0
-200.0   60.0   0.0
-250.0   60.0   0.0
-200.0   60.0   16.666666666666668
-250.0   30.0   16.666666666666668
-250.0   60.0   16.666666666666668
-200.0   60.0   16.666666666666668
-250.0   60.0   0.0
-250.0   30.0   16.666666666666668
-200.0   60.0   16.666666666666668
-200.0   30.0   16.666666666666668
-200.0   30.0   0.0
-250.0   30.0   16.666666666666668
-200.0   60.0   16.666666666666668
-200.0   30.0   0.0
-250.0   60.0   0.0
-250.0   30.0   16.666666666666668
-200.0   30.0   16.666666666666668
-250.0   60.0   16.666666666666668
-250.0   30.0   33.333333333333336
-200.0   30.0   16.666666666666668
-200.0   60.0   16.666666666666668
-250.0   60.0   16.666666666666668
-200.0   60.0   33.333333333333336
-250.0   30.0   33.333333333333336
-250.0   60.0   33.333333333333336
-200.0   60.0   33.333333333333336
-250.0   60.0   16.666666666666668
-250.0   30.0   33.333333333333336
-200.0   60.0   33.333333333333336
-200.0   30.0   33.333333333333336
-200.0   30.0   16.666666666666668
-250.0   30.0   33.333333333333336
-200.0   60.0   33.333333333333336
-200.0   30.0   16.666666666666668
-250.0   60.0   16.666666666666668
-250.0   30.0   33.333333333333336
-200.0   30.0   33.333333333333336
-250.0   60.0   33.333333333333336
-250.0   30.0   50.0
-200.0   30.0   33.333333333333336
-200.0   60.0   33.333333333333336
-250.0   60.0   33.333333333333336
-200.0   60.0   50.0
-250.0   30.0   50.0
-250.0   60.0   50.0
-200.0   60.0   50.0
-250.0   60.0   33.333333333333336
-250.0   30.0   50.0
-200.0   60.0   50.0
-200.0   30.0   50.0
-200.0   30.0   33.333333333333336
-250.0   30.0   50.0
-200.0   60.0   50.0
-200.0   30.0   33.333333333333336
-250.0   60.0   33.333333333333336
-250.0   60.0   0.0
-200.0   60.0   0.0
-250.0   90.0   0.0
-250.0   60.0   16.666666666666668
-200.0   60.0   0.0
-200.0   90.0   0.0
-250.0   90.0   0.0
-200.0   90.0   16.666666666666668
-250.0   60.0   16.666666666666668
-250.0   90.0   16.666666666666668
-200.0   90.0   16.666666666666668
-250.0   90.0   0.0
-250.0   60.0   16.666666666666668
-200.0   90.0   16.666666666666668
-200.0   60.0   16.666666666666668
-200.0   60.0   0.0
-250.0   60.0   16.666666666666668
-200.0   90.0   16.666666666666668
-200.0   60.0   0.0
-250.0   90.0   0.0
-250.0   60.0   16.666666666666668
-200.0   60.0   16.666666666666668
-250.0   90.0   16.666666666666668
-250.0   60.0   33.333333333333336
-200.0   60.0   16.666666666666668
-200.0   90.0   16.666666666666668
-250.0   90.0   16.666666666666668
-200.0   90.0   33.333333333333336
-250.0   60.0   33.333333333333336
-250.0   90.0   33.333333333333336
-200.0   90.0   33.333333333333336
-250.0   90.0   16.666666666666668
-250.0   60.0   33.333333333333336
-200.0   90.0   33.333333333333336
-200.0   60.0   33.333333333333336
-200.0   60.0   16.666666666666668
-250.0   60.0   33.333333333333336
-200.0   90.0   33.333333333333336
-200.0   60.0   16.666666666666668
-250.0   90.0   16.666666666666668
-250.0   60.0   33.333333333333336
-200.0   60.0   33.333333333333336
-250.0   90.0   33.333333333333336
-250.0   60.0   50.0
-200.0   60.0   33.333333333333336
-200.0   90.0   33.333333333333336
-250.0   90.0   33.333333333333336
-200.0   90.0   50.0
-250.0   60.0   50.0
-250.0   90.0   50.0
-200.0   90.0   50.0
-250.0   90.0   33.333333333333336
-250.0   60.0   50.0
-200.0   90.0   50.0
-200.0   60.0   50.0
-200.0   60.0   33.333333333333336
-250.0   60.0   50.0
-200.0   90.0   50.0
-200.0   60.0   33.333333333333336
-250.0   90.0   33.333333333333336
-250.0   90.0   0.0
-200.0   90.0   0.0
-250.0   120.0   0.0
-250.0   90.0   16.666666666666668
-200.0   90.0   0.0
-200.0   120.0   0.0
-250.0   120.0   0.0
-200.0   120.0   16.666666666666668
-250.0   90.0   16.666666666666668
-250.0   120.0   16.666666666666668
-200.0   120.0   16.666666666666668
-250.0   120.0   0.0
-250.0   90.0   16.666666666666668
-200.0   120.0   16.666666666666668
-200.0   90.0   16.666666666666668
-200.0   90.0   0.0
-250.0   90.0   16.666666666666668
-200.0   120.0   16.666666666666668
-200.0   90.0   0.0
-250.0   120.0   0.0
-250.0   90.0   16.666666666666668
-200.0   90.0   16.666666666666668
-250.0   120.0   16.666666666666668
-250.0   90.0   33.333333333333336
-200.0   90.0   16.666666666666668
-200.0   120.0   16.666666666666668
-250.0   120.0   16.666666666666668
-200.0   120.0   33.333333333333336
-250.0   90.0   33.333333333333336
-250.0   120.0   33.333333333333336
-200.0   120.0   33.333333333333336
-250.0   120.0   16.666666666666668
-250.0   90.0   33.333333333333336
-200.0   120.0   33.333333333333336
-200.0   90.0   33.333333333333336
-200.0   90.0   16.666666666666668
-250.0   90.0   33.333333333333336
-200.0   120.0   33.333333333333336
-200.0   90.0   16.666666666666668
-250.0   120.0   16.666666666666668
-250.0   90.0   33.333333333333336
-200.0   90.0   33.333333333333336
-250.0   120.0   33.333333333333336
-250.0   90.0   50.0
-200.0   90.0   33.333333333333336
-200.0   120.0   33.333333333333336
-250.0   120.0   33.333333333333336
-200.0   120.0   50.0
-250.0   90.0   50.0
-250.0   120.0   50.0
-200.0   120.0   50.0
-250.0   120.0   33.333333333333336
-250.0   90.0   50.0
-200.0   120.0   50.0
-200.0   90.0   50.0
-200.0   90.0   33.333333333333336
-250.0   90.0   50.0
-200.0   120.0   50.0
-200.0   90.0   33.333333333333336
-250.0   120.0   33.333333333333336
-250.0   120.0   0.0
-200.0   120.0   0.0
-250.0   150.0   0.0
-250.0   120.0   16.666666666666668
-200.0   120.0   0.0
-200.0   150.0   0.0
-250.0   150.0   0.0
-200.0   150.0   16.666666666666668
-250.0   120.0   16.666666666666668
-250.0   150.0   16.666666666666668
-200.0   150.0   16.666666666666668
-250.0   150.0   0.0
-250.0   120.0   16.666666666666668
-200.0   150.0   16.666666666666668
-200.0   120.0   16.666666666666668
-200.0   120.0   0.0
-250.0   120.0   16.666666666666668
-200.0   150.0   16.666666666666668
-200.0   120.0   0.0
-250.0   150.0   0.0
-250.0   120.0   16.666666666666668
-200.0   120.0   16.666666666666668
-250.0   150.0   16.666666666666668
-250.0   120.0   33.333333333333336
-200.0   120.0   16.666666666666668
-200.0   150.0   16.666666666666668
-250.0   150.0   16.666666666666668
-200.0   150.0   33.333333333333336
-250.0   120.0   33.333333333333336
-250.0   150.0   33.333333333333336
-200.0   150.0   33.333333333333336
-250.0   150.0   16.666666666666668
-250.0   120.0   33.333333333333336
-200.0   150.0   33.333333333333336
-200.0   120.0   33.333333333333336
-200.0   120.0   16.666666666666668
-250.0   120.0   33.333333333333336
-200.0   150.0   33.333333333333336
-200.0   120.0   16.666666666666668
-250.0   150.0   16.666666666666668
-250.0   120.0   33.333333333333336
-200.0   120.0   33.333333333333336
-250.0   150.0   33.333333333333336
-250.0   120.0   50.0
-200.0   120.0   33.333333333333336
-200.0   150.0   33.333333333333336
-250.0   150.0   33.333333333333336
-200.0   150.0   50.0
-250.0   120.0   50.0
-250.0   150.0   50.0
-200.0   150.0   50.0
-250.0   150.0   33.333333333333336
-250.0   120.0   50.0
-200.0   150.0   50.0
-200.0   120.0   50.0
-200.0   120.0   33.333333333333336
-250.0   120.0   50.0
-200.0   150.0   50.0
-200.0   120.0   33.333333333333336
-250.0   150.0   33.333333333333336
-200.0   0.0   0.0
-150.0   0.0   0.0
-200.0   30.0   0.0
-200.0   0.0   16.666666666666668
-150.0   0.0   0.0
-150.0   30.0   0.0
-200.0   30.0   0.0
-150.0   30.0   16.666666666666668
-200.0   0.0   16.666666666666668
-200.0   30.0   16.666666666666668
-150.0   30.0   16.666666666666668
-200.0   30.0   0.0
-200.0   0.0   16.666666666666668
-150.0   30.0   16.666666666666668
-150.0   0.0   16.666666666666668
-150.0   0.0   0.0
-200.0   0.0   16.666666666666668
-150.0   30.0   16.666666666666668
-150.0   0.0   0.0
-200.0   30.0   0.0
-200.0   0.0   16.666666666666668
-150.0   0.0   16.666666666666668
-200.0   30.0   16.666666666666668
-200.0   0.0   33.333333333333336
-150.0   0.0   16.666666666666668
-150.0   30.0   16.666666666666668
-200.0   30.0   16.666666666666668
-150.0   30.0   33.333333333333336
-200.0   0.0   33.333333333333336
-200.0   30.0   33.333333333333336
-150.0   30.0   33.333333333333336
-200.0   30.0   16.666666666666668
-200.0   0.0   33.333333333333336
-150.0   30.0   33.333333333333336
-150.0   0.0   33.333333333333336
-150.0   0.0   16.666666666666668
-200.0   0.0   33.333333333333336
-150.0   30.0   33.333333333333336
-150.0   0.0   16.666666666666668
-200.0   30.0   16.666666666666668
-200.0   0.0   33.333333333333336
-150.0   0.0   33.333333333333336
-200.0   30.0   33.333333333333336
-200.0   0.0   50.0
-150.0   0.0   33.333333333333336
-150.0   30.0   33.333333333333336
-200.0   30.0   33.333333333333336
-150.0   30.0   50.0
-200.0   0.0   50.0
-200.0   30.0   50.0
-150.0   30.0   50.0
-200.0   30.0   33.333333333333336
-200.0   0.0   50.0
-150.0   30.0   50.0
-150.0   0.0   50.0
-150.0   0.0   33.333333333333336
-200.0   0.0   50.0
-150.0   30.0   50.0
-150.0   0.0   33.333333333333336
-200.0   30.0   33.333333333333336
-200.0   30.0   0.0
-150.0   30.0   0.0
-200.0   60.0   0.0
-200.0   30.0   16.666666666666668
-150.0   30.0   0.0
-150.0   60.0   0.0
-200.0   60.0   0.0
-150.0   60.0   16.666666666666668
-200.0   30.0   16.666666666666668
-200.0   60.0   16.666666666666668
-150.0   60.0   16.666666666666668
-200.0   60.0   0.0
-200.0   30.0   16.666666666666668
-150.0   60.0   16.666666666666668
-150.0   30.0   16.666666666666668
-150.0   30.0   0.0
-200.0   30.0   16.666666666666668
-150.0   60.0   16.666666666666668
-150.0   30.0   0.0
-200.0   60.0   0.0
-200.0   30.0   16.666666666666668
-150.0   30.0   16.666666666666668
-200.0   60.0   16.666666666666668
-200.0   30.0   33.333333333333336
-150.0   30.0   16.666666666666668
-150.0   60.0   16.666666666666668
-200.0   60.0   16.666666666666668
-150.0   60.0   33.333333333333336
-200.0   30.0   33.333333333333336
-200.0   60.0   33.333333333333336
-150.0   60.0   33.333333333333336
-200.0   60.0   16.666666666666668
-200.0   30.0   33.333333333333336
-150.0   60.0   33.333333333333336
-150.0   30.0   33.333333333333336
-150.0   30.0   16.666666666666668
-200.0   30.0   33.333333333333336
-150.0   60.0   33.333333333333336
-150.0   30.0   16.666666666666668
-200.0   60.0   16.666666666666668
-200.0   30.0   33.333333333333336
-150.0   30.0   33.333333333333336
-200.0   60.0   33.333333333333336
-200.0   30.0   50.0
-150.0   30.0   33.333333333333336
-150.0   60.0   33.333333333333336
-200.0   60.0   33.333333333333336
-150.0   60.0   50.0
-200.0   30.0   50.0
-200.0   60.0   50.0
-150.0   60.0   50.0
-200.0   60.0   33.333333333333336
-200.0   30.0   50.0
-150.0   60.0   50.0
-150.0   30.0   50.0
-150.0   30.0   33.333333333333336
-200.0   30.0   50.0
-150.0   60.0   50.0
-150.0   30.0   33.333333333333336
-200.0   60.0   33.333333333333336
-200.0   60.0   0.0
-150.0   60.0   0.0
-200.0   90.0   0.0
-200.0   60.0   16.666666666666668
-150.0   60.0   0.0
-150.0   90.0   0.0
-200.0   90.0   0.0
-150.0   90.0   16.666666666666668
-200.0   60.0   16.666666666666668
-200.0   90.0   16.666666666666668
-150.0   90.0   16.666666666666668
-200.0   90.0   0.0
-200.0   60.0   16.666666666666668
-150.0   90.0   16.666666666666668
-150.0   60.0   16.666666666666668
-150.0   60.0   0.0
-200.0   60.0   16.666666666666668
-150.0   90.0   16.666666666666668
-150.0   60.0   0.0
-200.0   90.0   0.0
-200.0   60.0   16.666666666666668
-150.0   60.0   16.666666666666668
-200.0   90.0   16.666666666666668
-200.0   60.0   33.333333333333336
-150.0   60.0   16.666666666666668
-150.0   90.0   16.666666666666668
-200.0   90.0   16.666666666666668
-150.0   90.0   33.333333333333336
-200.0   60.0   33.333333333333336
-200.0   90.0   33.333333333333336
-150.0   90.0   33.333333333333336
-200.0   90.0   16.666666666666668
-200.0   60.0   33.333333333333336
-150.0   90.0   33.333333333333336
-150.0   60.0   33.333333333333336
-150.0   60.0   16.666666666666668
-200.0   60.0   33.333333333333336
-150.0   90.0   33.333333333333336
-150.0   60.0   16.666666666666668
-200.0   90.0   16.666666666666668
-200.0   60.0   33.333333333333336
-150.0   60.0   33.333333333333336
-200.0   90.0   33.333333333333336
-200.0   60.0   50.0
-150.0   60.0   33.333333333333336
-150.0   90.0   33.333333333333336
-200.0   90.0   33.333333333333336
-150.0   90.0   50.0
-200.0   60.0   50.0
-200.0   90.0   50.0
-150.0   90.0   50.0
-200.0   90.0   33.333333333333336
-200.0   60.0   50.0
-150.0   90.0   50.0
-150.0   60.0   50.0
-150.0   60.0   33.333333333333336
-200.0   60.0   50.0
-150.0   90.0   50.0
-150.0   60.0   33.333333333333336
-200.0   90.0   33.333333333333336
-200.0   90.0   0.0
-150.0   90.0   0.0
-200.0   120.0   0.0
-200.0   90.0   16.666666666666668
-150.0   90.0   0.0
-150.0   120.0   0.0
-200.0   120.0   0.0
-150.0   120.0   16.666666666666668
-200.0   90.0   16.666666666666668
-200.0   120.0   16.666666666666668
-150.0   120.0   16.666666666666668
-200.0   120.0   0.0
-200.0   90.0   16.666666666666668
-150.0   120.0   16.666666666666668
-150.0   90.0   16.666666666666668
-150.0   90.0   0.0
-200.0   90.0   16.666666666666668
-150.0   120.0   16.666666666666668
-150.0   90.0   0.0
-200.0   120.0   0.0
-200.0   90.0   16.666666666666668
-150.0   90.0   16.666666666666668
-200.0   120.0   16.666666666666668
-200.0   90.0   33.333333333333336
-150.0   90.0   16.666666666666668
-150.0   120.0   16.666666666666668
-200.0   120.0   16.666666666666668
-150.0   120.0   33.333333333333336
-200.0   90.0   33.333333333333336
-200.0   120.0   33.333333333333336
-150.0   120.0   33.333333333333336
-200.0   120.0   16.666666666666668
-200.0   90.0   33.333333333333336
-150.0   120.0   33.333333333333336
-150.0   90.0   33.333333333333336
-150.0   90.0   16.666666666666668
-200.0   90.0   33.333333333333336
-150.0   120.0   33.333333333333336
-150.0   90.0   16.666666666666668
-200.0   120.0   16.666666666666668
-200.0   90.0   33.333333333333336
-150.0   90.0   33.333333333333336
-200.0   120.0   33.333333333333336
-200.0   90.0   50.0
-150.0   90.0   33.333333333333336
-150.0   120.0   33.333333333333336
-200.0   120.0   33.333333333333336
-150.0   120.0   50.0
-200.0   90.0   50.0
-200.0   120.0   50.0
-150.0   120.0   50.0
-200.0   120.0   33.333333333333336
-200.0   90.0   50.0
-150.0   120.0   50.0
-150.0   90.0   50.0
-150.0   90.0   33.333333333333336
-200.0   90.0   50.0
-150.0   120.0   50.0
-150.0   90.0   33.333333333333336
-200.0   120.0   33.333333333333336
-200.0   120.0   0.0
-150.0   120.0   0.0
-200.0   150.0   0.0
-200.0   120.0   16.666666666666668
-150.0   120.0   0.0
-150.0   150.0   0.0
-200.0   150.0   0.0
-150.0   150.0   16.666666666666668
-200.0   120.0   16.666666666666668
-200.0   150.0   16.666666666666668
-150.0   150.0   16.666666666666668
-200.0   150.0   0.0
-200.0   120.0   16.666666666666668
-150.0   150.0   16.666666666666668
-150.0   120.0   16.666666666666668
-150.0   120.0   0.0
-200.0   120.0   16.666666666666668
-150.0   150.0   16.666666666666668
-150.0   120.0   0.0
-200.0   150.0   0.0
-200.0   120.0   16.666666666666668
-150.0   120.0   16.666666666666668
-200.0   150.0   16.666666666666668
-200.0   120.0   33.333333333333336
-150.0   120.0   16.666666666666668
-150.0   150.0   16.666666666666668
-200.0   150.0   16.666666666666668
-150.0   150.0   33.333333333333336
-200.0   120.0   33.333333333333336
-200.0   150.0   33.333333333333336
-150.0   150.0   33.333333333333336
-200.0   150.0   16.666666666666668
-200.0   120.0   33.333333333333336
-150.0   150.0   33.333333333333336
-150.0   120.0   33.333333333333336
-150.0   120.0   16.666666666666668
-200.0   120.0   33.333333333333336
-150.0   150.0   33.333333333333336
-150.0   120.0   16.666666666666668
-200.0   150.0   16.666666666666668
-200.0   120.0   33.333333333333336
-150.0   120.0   33.333333333333336
-200.0   150.0   33.333333333333336
-200.0   120.0   50.0
-150.0   120.0   33.333333333333336
-150.0   150.0   33.333333333333336
-200.0   150.0   33.333333333333336
-150.0   150.0   50.0
-200.0   120.0   50.0
-200.0   150.0   50.0
-150.0   150.0   50.0
-200.0   150.0   33.333333333333336
-200.0   120.0   50.0
-150.0   150.0   50.0
-150.0   120.0   50.0
-150.0   120.0   33.333333333333336
-200.0   120.0   50.0
-150.0   150.0   50.0
-150.0   120.0   33.333333333333336
-200.0   150.0   33.333333333333336
-150.0   0.0   0.0
-100.0   0.0   0.0
-150.0   30.0   0.0
-150.0   0.0   16.666666666666668
-100.0   0.0   0.0
-100.0   30.0   0.0
-150.0   30.0   0.0
-100.0   30.0   16.666666666666668
-150.0   0.0   16.666666666666668
-150.0   30.0   16.666666666666668
-100.0   30.0   16.666666666666668
-150.0   30.0   0.0
-150.0   0.0   16.666666666666668
-100.0   30.0   16.666666666666668
-100.0   0.0   16.666666666666668
-100.0   0.0   0.0
-150.0   0.0   16.666666666666668
-100.0   30.0   16.666666666666668
-100.0   0.0   0.0
-150.0   30.0   0.0
-150.0   0.0   16.666666666666668
-100.0   0.0   16.666666666666668
-150.0   30.0   16.666666666666668
-150.0   0.0   33.333333333333336
-100.0   0.0   16.666666666666668
-100.0   30.0   16.666666666666668
-150.0   30.0   16.666666666666668
-100.0   30.0   33.333333333333336
-150.0   0.0   33.333333333333336
-150.0   30.0   33.333333333333336
-100.0   30.0   33.333333333333336
-150.0   30.0   16.666666666666668
-150.0   0.0   33.333333333333336
-100.0   30.0   33.333333333333336
-100.0   0.0   33.333333333333336
-100.0   0.0   16.666666666666668
-150.0   0.0   33.333333333333336
-100.0   30.0   33.333333333333336
-100.0   0.0   16.666666666666668
-150.0   30.0   16.666666666666668
-150.0   0.0   33.333333333333336
-100.0   0.0   33.333333333333336
-150.0   30.0   33.333333333333336
-150.0   0.0   50.0
-100.0   0.0   33.333333333333336
-100.0   30.0   33.333333333333336
-150.0   30.0   33.333333333333336
-100.0   30.0   50.0
-150.0   0.0   50.0
-150.0   30.0   50.0
-100.0   30.0   50.0
-150.0   30.0   33.333333333333336
-150.0   0.0   50.0
-100.0   30.0   50.0
-100.0   0.0   50.0
-100.0   0.0   33.333333333333336
-150.0   0.0   50.0
-100.0   30.0   50.0
-100.0   0.0   33.333333333333336
-150.0   30.0   33.333333333333336
-150.0   30.0   0.0
-100.0   30.0   0.0
-150.0   60.0   0.0
-150.0   30.0   16.666666666666668
-100.0   30.0   0.0
-100.0   60.0   0.0
-150.0   60.0   0.0
-100.0   60.0   16.666666666666668
-150.0   30.0   16.666666666666668
-150.0   60.0   16.666666666666668
-100.0   60.0   16.666666666666668
-150.0   60.0   0.0
-150.0   30.0   16.666666666666668
-100.0   60.0   16.666666666666668
-100.0   30.0   16.666666666666668
-100.0   30.0   0.0
-150.0   30.0   16.666666666666668
-100.0   60.0   16.666666666666668
-100.0   30.0   0.0
-150.0   60.0   0.0
-150.0   30.0   16.666666666666668
-100.0   30.0   16.666666666666668
-150.0   60.0   16.666666666666668
-150.0   30.0   33.333333333333336
-100.0   30.0   16.666666666666668
-100.0   60.0   16.666666666666668
-150.0   60.0   16.666666666666668
-100.0   60.0   33.333333333333336
-150.0   30.0   33.333333333333336
-150.0   60.0   33.333333333333336
-100.0   60.0   33.333333333333336
-150.0   60.0   16.666666666666668
-150.0   30.0   33.333333333333336
-100.0   60.0   33.333333333333336
-100.0   30.0   33.333333333333336
-100.0   30.0   16.666666666666668
-150.0   30.0   33.333333333333336
-100.0   60.0   33.333333333333336
-100.0   30.0   16.666666666666668
-150.0   60.0   16.666666666666668
-150.0   30.0   33.333333333333336
-100.0   30.0   33.333333333333336
-150.0   60.0   33.333333333333336
-150.0   30.0   50.0
-100.0   30.0   33.333333333333336
-100.0   60.0   33.333333333333336
-150.0   60.0   33.333333333333336
-100.0   60.0   50.0
-150.0   30.0   50.0
-150.0   60.0   50.0
-100.0   60.0   50.0
-150.0   60.0   33.333333333333336
-150.0   30.0   50.0
-100.0   60.0   50.0
-100.0   30.0   50.0
-100.0   30.0   33.333333333333336
-150.0   30.0   50.0
-100.0   60.0   50.0
-100.0   30.0   33.333333333333336
-150.0   60.0   33.333333333333336
-150.0   60.0   0.0
-100.0   60.0   0.0
-150.0   90.0   0.0
-150.0   60.0   16.666666666666668
-100.0   60.0   0.0
-100.0   90.0   0.0
-150.0   90.0   0.0
-100.0   90.0   16.666666666666668
-150.0   60.0   16.666666666666668
-150.0   90.0   16.666666666666668
-100.0   90.0   16.666666666666668
-150.0   90.0   0.0
-150.0   60.0   16.666666666666668
-100.0   90.0   16.666666666666668
-100.0   60.0   16.666666666666668
-100.0   60.0   0.0
-150.0   60.0   16.666666666666668
-100.0   90.0   16.666666666666668
-100.0   60.0   0.0
-150.0   90.0   0.0
-150.0   60.0   16.666666666666668
-100.0   60.0   16.666666666666668
-150.0   90.0   16.666666666666668
-150.0   60.0   33.333333333333336
-100.0   60.0   16.666666666666668
-100.0   90.0   16.666666666666668
-150.0   90.0   16.666666666666668
-100.0   90.0   33.333333333333336
-150.0   60.0   33.333333333333336
-150.0   90.0   33.333333333333336
-100.0   90.0   33.333333333333336
-150.0   90.0   16.666666666666668
-150.0   60.0   33.333333333333336
-100.0   90.0   33.333333333333336
-100.0   60.0   33.333333333333336
-100.0   60.0   16.666666666666668
-150.0   60.0   33.333333333333336
-100.0   90.0   33.333333333333336
-100.0   60.0   16.666666666666668
-150.0   90.0   16.666666666666668
-150.0   60.0   33.333333333333336
-100.0   60.0   33.333333333333336
-150.0   90.0   33.333333333333336
-150.0   60.0   50.0
-100.0   60.0   33.333333333333336
-100.0   90.0   33.333333333333336
-150.0   90.0   33.333333333333336
-100.0   90.0   50.0
-150.0   60.0   50.0
-150.0   90.0   50.0
-100.0   90.0   50.0
-150.0   90.0   33.333333333333336
-150.0   60.0   50.0
-100.0   90.0   50.0
-100.0   60.0   50.0
-100.0   60.0   33.333333333333336
-150.0   60.0   50.0
-100.0   90.0   50.0
-100.0   60.0   33.333333333333336
-150.0   90.0   33.333333333333336
-150.0   90.0   0.0
-100.0   90.0   0.0
-150.0   120.0   0.0
-150.0   90.0   16.666666666666668
-100.0   90.0   0.0
-100.0   120.0   0.0
-150.0   120.0   0.0
-100.0   120.0   16.666666666666668
-150.0   90.0   16.666666666666668
-150.0   120.0   16.666666666666668
-100.0   120.0   16.666666666666668
-150.0   120.0   0.0
-150.0   90.0   16.666666666666668
-100.0   120.0   16.666666666666668
-100.0   90.0   16.666666666666668
-100.0   90.0   0.0
-150.0   90.0   16.666666666666668
-100.0   120.0   16.666666666666668
-100.0   90.0   0.0
-150.0   120.0   0.0
-150.0   90.0   16.666666666666668
-100.0   90.0   16.666666666666668
-150.0   120.0   16.666666666666668
-150.0   90.0   33.333333333333336
-100.0   90.0   16.666666666666668
-100.0   120.0   16.666666666666668
-150.0   120.0   16.666666666666668
-100.0   120.0   33.333333333333336
-150.0   90.0   33.333333333333336
-150.0   120.0   33.333333333333336
-100.0   120.0   33.333333333333336
-150.0   120.0   16.666666666666668
-150.0   90.0   33.333333333333336
-100.0   120.0   33.333333333333336
-100.0   90.0   33.333333333333336
-100.0   90.0   16.666666666666668
-150.0   90.0   33.333333333333336
-100.0   120.0   33.333333333333336
-100.0   90.0   16.666666666666668
-150.0   120.0   16.666666666666668
-150.0   90.0   33.333333333333336
-100.0   90.0   33.333333333333336
-150.0   120.0   33.333333333333336
-150.0   90.0   50.0
-100.0   90.0   33.333333333333336
-100.0   120.0   33.333333333333336
-150.0   120.0   33.333333333333336
-100.0   120.0   50.0
-150.0   90.0   50.0
-150.0   120.0   50.0
-100.0   120.0   50.0
-150.0   120.0   33.333333333333336
-150.0   90.0   50.0
-100.0   120.0   50.0
-100.0   90.0   50.0
-100.0   90.0   33.333333333333336
-150.0   90.0   50.0
-100.0   120.0   50.0
-100.0   90.0   33.333333333333336
-150.0   120.0   33.333333333333336
-150.0   120.0   0.0
-100.0   120.0   0.0
-150.0   150.0   0.0
-150.0   120.0   16.666666666666668
-100.0   120.0   0.0
-100.0   150.0   0.0
-150.0   150.0   0.0
-100.0   150.0   16.666666666666668
-150.0   120.0   16.666666666666668
-150.0   150.0   16.666666666666668
-100.0   150.0   16.666666666666668
-150.0   150.0   0.0
-150.0   120.0   16.666666666666668
-100.0   150.0   16.666666666666668
-100.0   120.0   16.666666666666668
-100.0   120.0   0.0
-150.0   120.0   16.666666666666668
-100.0   150.0   16.666666666666668
-100.0   120.0   0.0
-150.0   150.0   0.0
-150.0   120.0   16.666666666666668
-100.0   120.0   16.666666666666668
-150.0   150.0   16.666666666666668
-150.0   120.0   33.333333333333336
-100.0   120.0   16.666666666666668
-100.0   150.0   16.666666666666668
-150.0   150.0   16.666666666666668
-100.0   150.0   33.333333333333336
-150.0   120.0   33.333333333333336
-150.0   150.0   33.333333333333336
-100.0   150.0   33.333333333333336
-150.0   150.0   16.666666666666668
-150.0   120.0   33.333333333333336
-100.0   150.0   33.333333333333336
-100.0   120.0   33.333333333333336
-100.0   120.0   16.666666666666668
-150.0   120.0   33.333333333333336
-100.0   150.0   33.333333333333336
-100.0   120.0   16.666666666666668
-150.0   150.0   16.666666666666668
-150.0   120.0   33.333333333333336
-100.0   120.0   33.333333333333336
-150.0   150.0   33.333333333333336
-150.0   120.0   50.0
-100.0   120.0   33.333333333333336
-100.0   150.0   33.333333333333336
-150.0   150.0   33.333333333333336
-100.0   150.0   50.0
-150.0   120.0   50.0
-150.0   150.0   50.0
-100.0   150.0   50.0
-150.0   150.0   33.333333333333336
-150.0   120.0   50.0
-100.0   150.0   50.0
-100.0   120.0   50.0
-100.0   120.0   33.333333333333336
-150.0   120.0   50.0
-100.0   150.0   50.0
-100.0   120.0   33.333333333333336
-150.0   150.0   33.333333333333336
-100.0   0.0   0.0
-50.0   0.0   0.0
-100.0   30.0   0.0
-100.0   0.0   16.666666666666668
-50.0   0.0   0.0
-50.0   30.0   0.0
-100.0   30.0   0.0
-50.0   30.0   16.666666666666668
-100.0   0.0   16.666666666666668
-100.0   30.0   16.666666666666668
-50.0   30.0   16.666666666666668
-100.0   30.0   0.0
-100.0   0.0   16.666666666666668
-50.0   30.0   16.666666666666668
-50.0   0.0   16.666666666666668
-50.0   0.0   0.0
-100.0   0.0   16.666666666666668
-50.0   30.0   16.666666666666668
-50.0   0.0   0.0
-100.0   30.0   0.0
-100.0   0.0   16.666666666666668
-50.0   0.0   16.666666666666668
-100.0   30.0   16.666666666666668
-100.0   0.0   33.333333333333336
-50.0   0.0   16.666666666666668
-50.0   30.0   16.666666666666668
-100.0   30.0   16.666666666666668
-50.0   30.0   33.333333333333336
-100.0   0.0   33.333333333333336
-100.0   30.0   33.333333333333336
-50.0   30.0   33.333333333333336
-100.0   30.0   16.666666666666668
-100.0   0.0   33.333333333333336
-50.0   30.0   33.333333333333336
-50.0   0.0   33.333333333333336
-50.0   0.0   16.666666666666668
-100.0   0.0   33.333333333333336
-50.0   30.0   33.333333333333336
-50.0   0.0   16.666666666666668
-100.0   30.0   16.666666666666668
-100.0   0.0   33.333333333333336
-50.0   0.0   33.333333333333336
-100.0   30.0   33.333333333333336
-100.0   0.0   50.0
-50.0   0.0   33.333333333333336
-50.0   30.0   33.333333333333336
-100.0   30.0   33.333333333333336
-50.0   30.0   50.0
-100.0   0.0   50.0
-100.0   30.0   50.0
-50.0   30.0   50.0
-100.0   30.0   33.333333333333336
-100.0   0.0   50.0
-50.0   30.0   50.0
-50.0   0.0   50.0
-50.0   0.0   33.333333333333336
-100.0   0.0   50.0
-50.0   30.0   50.0
-50.0   0.0   33.333333333333336
-100.0   30.0   33.333333333333336
-100.0   30.0   0.0
-50.0   30.0   0.0
-100.0   60.0   0.0
-100.0   30.0   16.666666666666668
-50.0   30.0   0.0
-50.0   60.0   0.0
-100.0   60.0   0.0
-50.0   60.0   16.666666666666668
-100.0   30.0   16.666666666666668
-100.0   60.0   16.666666666666668
-50.0   60.0   16.666666666666668
-100.0   60.0   0.0
-100.0   30.0   16.666666666666668
-50.0   60.0   16.666666666666668
-50.0   30.0   16.666666666666668
-50.0   30.0   0.0
-100.0   30.0   16.666666666666668
-50.0   60.0   16.666666666666668
-50.0   30.0   0.0
-100.0   60.0   0.0
-100.0   30.0   16.666666666666668
-50.0   30.0   16.666666666666668
-100.0   60.0   16.666666666666668
-100.0   30.0   33.333333333333336
-50.0   30.0   16.666666666666668
-50.0   60.0   16.666666666666668
-100.0   60.0   16.666666666666668
-50.0   60.0   33.333333333333336
-100.0   30.0   33.333333333333336
-100.0   60.0   33.333333333333336
-50.0   60.0   33.333333333333336
-100.0   60.0   16.666666666666668
-100.0   30.0   33.333333333333336
-50.0   60.0   33.333333333333336
-50.0   30.0   33.333333333333336
-50.0   30.0   16.666666666666668
-100.0   30.0   33.333333333333336
-50.0   60.0   33.333333333333336
-50.0   30.0   16.666666666666668
-100.0   60.0   16.666666666666668
-100.0   30.0   33.333333333333336
-50.0   30.0   33.333333333333336
-100.0   60.0   33.333333333333336
-100.0   30.0   50.0
-50.0   30.0   33.333333333333336
-50.0   60.0   33.333333333333336
-100.0   60.0   33.333333333333336
-50.0   60.0   50.0
-100.0   30.0   50.0
-100.0   60.0   50.0
-50.0   60.0   50.0
-100.0   60.0   33.333333333333336
-100.0   30.0   50.0
-50.0   60.0   50.0
-50.0   30.0   50.0
-50.0   30.0   33.333333333333336
-100.0   30.0   50.0
-50.0   60.0   50.0
-50.0   30.0   33.333333333333336
-100.0   60.0   33.333333333333336
-100.0   60.0   0.0
-50.0   60.0   0.0
-100.0   90.0   0.0
-100.0   60.0   16.666666666666668
-50.0   60.0   0.0
-50.0   90.0   0.0
-100.0   90.0   0.0
-50.0   90.0   16.666666666666668
-100.0   60.0   16.666666666666668
-100.0   90.0   16.666666666666668
-50.0   90.0   16.666666666666668
-100.0   90.0   0.0
-100.0   60.0   16.666666666666668
-50.0   90.0   16.666666666666668
-50.0   60.0   16.666666666666668
-50.0   60.0   0.0
-100.0   60.0   16.666666666666668
-50.0   90.0   16.666666666666668
-50.0   60.0   0.0
-100.0   90.0   0.0
-100.0   60.0   16.666666666666668
-50.0   60.0   16.666666666666668
-100.0   90.0   16.666666666666668
-100.0   60.0   33.333333333333336
-50.0   60.0   16.666666666666668
-50.0   90.0   16.666666666666668
-100.0   90.0   16.666666666666668
-50.0   90.0   33.333333333333336
-100.0   60.0   33.333333333333336
-100.0   90.0   33.333333333333336
-50.0   90.0   33.333333333333336
-100.0   90.0   16.666666666666668
-100.0   60.0   33.333333333333336
-50.0   90.0   33.333333333333336
-50.0   60.0   33.333333333333336
-50.0   60.0   16.666666666666668
-100.0   60.0   33.333333333333336
-50.0   90.0   33.333333333333336
-50.0   60.0   16.666666666666668
-100.0   90.0   16.666666666666668
-100.0   60.0   33.333333333333336
-50.0   60.0   33.333333333333336
-100.0   90.0   33.333333333333336
-100.0   60.0   50.0
-50.0   60.0   33.333333333333336
-50.0   90.0   33.333333333333336
-100.0   90.0   33.333333333333336
-50.0   90.0   50.0
-100.0   60.0   50.0
-100.0   90.0   50.0
-50.0   90.0   50.0
-100.0   90.0   33.333333333333336
-100.0   60.0   50.0
-50.0   90.0   50.0
-50.0   60.0   50.0
-50.0   60.0   33.333333333333336
-100.0   60.0   50.0
-50.0   90.0   50.0
-50.0   60.0   33.333333333333336
-100.0   90.0   33.333333333333336
-100.0   90.0   0.0
-50.0   90.0   0.0
-100.0   120.0   0.0
-100.0   90.0   16.666666666666668
-50.0   90.0   0.0
-50.0   120.0   0.0
-100.0   120.0   0.0
-50.0   120.0   16.666666666666668
-100.0   90.0   16.666666666666668
-100.0   120.0   16.666666666666668
-50.0   120.0   16.666666666666668
-100.0   120.0   0.0
-100.0   90.0   16.666666666666668
-50.0   120.0   16.666666666666668
-50.0   90.0   16.666666666666668
-50.0   90.0   0.0
-100.0   90.0   16.666666666666668
-50.0   120.0   16.666666666666668
-50.0   90.0   0.0
-100.0   120.0   0.0
-100.0   90.0   16.666666666666668
-50.0   90.0   16.666666666666668
-100.0   120.0   16.666666666666668
-100.0   90.0   33.333333333333336
-50.0   90.0   16.666666666666668
-50.0   120.0   16.666666666666668
-100.0   120.0   16.666666666666668
-50.0   120.0   33.333333333333336
-100.0   90.0   33.333333333333336
-100.0   120.0   33.333333333333336
-50.0   120.0   33.333333333333336
-100.0   120.0   16.666666666666668
-100.0   90.0   33.333333333333336
-50.0   120.0   33.333333333333336
-50.0   90.0   33.333333333333336
-50.0   90.0   16.666666666666668
-100.0   90.0   33.333333333333336
-50.0   120.0   33.333333333333336
-50.0   90.0   16.666666666666668
-100.0   120.0   16.666666666666668
-100.0   90.0   33.333333333333336
-50.0   90.0   33.333333333333336
-100.0   120.0   33.333333333333336
-100.0   90.0   50.0
-50.0   90.0   33.333333333333336
-50.0   120.0   33.333333333333336
-100.0   120.0   33.333333333333336
-50.0   120.0   50.0
-100.0   90.0   50.0
-100.0   120.0   50.0
-50.0   120.0   50.0
-100.0   120.0   33.333333333333336
-100.0   90.0   50.0
-50.0   120.0   50.0
-50.0   90.0   50.0
-50.0   90.0   33.333333333333336
-100.0   90.0   50.0
-50.0   120.0   50.0
-50.0   90.0   33.333333333333336
-100.0   120.0   33.333333333333336
-100.0   120.0   0.0
-50.0   120.0   0.0
-100.0   150.0   0.0
-100.0   120.0   16.666666666666668
-50.0   120.0   0.0
-50.0   150.0   0.0
-100.0   150.0   0.0
-50.0   150.0   16.666666666666668
-100.0   120.0   16.666666666666668
-100.0   150.0   16.666666666666668
-50.0   150.0   16.666666666666668
-100.0   150.0   0.0
-100.0   120.0   16.666666666666668
-50.0   150.0   16.666666666666668
-50.0   120.0   16.666666666666668
-50.0   120.0   0.0
-100.0   120.0   16.666666666666668
-50.0   150.0   16.666666666666668
-50.0   120.0   0.0
-100.0   150.0   0.0
-100.0   120.0   16.666666666666668
-50.0   120.0   16.666666666666668
-100.0   150.0   16.666666666666668
-100.0   120.0   33.333333333333336
-50.0   120.0   16.666666666666668
-50.0   150.0   16.666666666666668
-100.0   150.0   16.666666666666668
-50.0   150.0   33.333333333333336
-100.0   120.0   33.333333333333336
-100.0   150.0   33.333333333333336
-50.0   150.0   33.333333333333336
-100.0   150.0   16.666666666666668
-100.0   120.0   33.333333333333336
-50.0   150.0   33.333333333333336
-50.0   120.0   33.333333333333336
-50.0   120.0   16.666666666666668
-100.0   120.0   33.333333333333336
-50.0   150.0   33.333333333333336
-50.0   120.0   16.666666666666668
-100.0   150.0   16.666666666666668
-100.0   120.0   33.333333333333336
-50.0   120.0   33.333333333333336
-100.0   150.0   33.333333333333336
-100.0   120.0   50.0
-50.0   120.0   33.333333333333336
-50.0   150.0   33.333333333333336
-100.0   150.0   33.333333333333336
-50.0   150.0   50.0
-100.0   120.0   50.0
-100.0   150.0   50.0
-50.0   150.0   50.0
-100.0   150.0   33.333333333333336
-100.0   120.0   50.0
-50.0   150.0   50.0
-50.0   120.0   50.0
-50.0   120.0   33.333333333333336
-100.0   120.0   50.0
-50.0   150.0   50.0
-50.0   120.0   33.333333333333336
-100.0   150.0   33.333333333333336
-50.0   0.0   0.0
0.0   0.0   0.0
-50.0   30.0   0.0
-50.0   0.0   16.666666666666668
0.0   0.0   0.0
0.0   30.0   0.0
-50.0   30.0   0.0
0.0   30.0   16.666666666666668
-50.0   0.0   16.666666666666668
-50.0   30.0   16.666666666666668
0.0   30.0   16.666666666666668
-50.0   30.0   0.0
-50.0   0.0   16.666666666666668
0.0   30.0   16.666666666666668
0.0   0.0   16.666666666666668
0.0   0.0   0.0
-50.0   0.0   16.666666666666668
0.0   30.0   16.666666666666668
0.0   0.0   0.0
-50.0   30.0   0.0
-50.0   0.0   16.666666666666668
0.0   0.0   16.666666666666668
-50.0   30.0   16.666666666666668
-50.0   0.0   33.333333333333336
0.0   0.0   16.666666666666668
0.0   30.0   16.666666666666668
-50.0   30.0   16.666666666666668
0.0   30.0   33.333333333333336
-50.0   0.0   33.333333333333336
-50.0   30.0   33.333333333333336
0.0   30.0   33.333333333333336
-50.0   30.0   16.666666666666668
-50.0   0.0   33.333333333333336
0.0   30.0   33.333333333333336
0.0   0.0   33.333333333333336
0.0   0.0   16.666666666666668
-50.0   0.0   33.333333333333336
0.0   30.0   33.333333333333336
0.0   0.0   16.666666666666668
-50.0   30.0   16.666666666666668
-50.0   0.0   33.333333333333336
0.0   0.0   33.333333333333336
-50.0   30.0   33.333333333333336
-50.0   0.0   50.0
0.0   0.0   33.333333333333336
0.0   30.0   33.333333333333336
-50.0   30.0   33.333333333333336
0.0   30.0   50.0
-50.0   0.0   50.0
-50.0   30.0   50.0
0.0   30.0   50.0
-50.0   30.0   33.333333333333336
-50.0   0.0   50.0
0.0   30.0   50.0
0.0   0.0   50.0
0.0   0.0   33.333333333333336
-50.0   0.0   50.0
0.0   30.0   50.0
0.0   0.0   33.333333333333336
-50.0   30.0   33.333333333333336
-50.0   30.0   0.0
0.0   30.0   0.0
-50.0   60.0   0.0
-50.0   30.0   16.666666666666668
0.0   30.0   0.0
0.0   60.0   0.0
-50.0   60.0   0.0
0.0   60.0   16.666666666666668
-50.0   30.0   16.666666666666668
-50.0   60.0   16.666666666666668
0.0   60.0   16.666666666666668
-50.0   60.0   0.0
-50.0   30.0   16.666666666666668
0.0   60.0   16.666666666666668
0.0   30.0   16.666666666666668
0.0   30.0   0.0
-50.0   30.0   16.666666666666668
0.0   60.0   16.666666666666668
0.0   30.0   0.0
-50.0   60.0   0.0
-50.0   30.0   16.666666666666668
0.0   30.0   16.666666666666668
-50.0   60.0   16.666666666666668
-50.0   30.0   33.333333333333336
0.0   30.0   16.666666666666668
0.0   60.0   16.666666666666668
-50.0   60.0   16.666666666666668
0.0   60.0   33.333333333333336
-50.0   30.0   33.333333333333336
-50.0   60.0   33.333333333333336
0.0   60.0   33.333333333333336
-50.0   60.0   16.666666666666668
-50.0   30.0   33.333333333333336
0.0   60.0   33.333333333333336
0.0   30.0   33.333333333333336
0.0   30.0   16.666666666666668
-50.0   30.0   33.333333333333336
0.0   60.0   33.333333333333336
0.0   30.0   16.666666666666668
-50.0   60.0   16.666666666666668
-50.0   30.0   33.333333333333336
0.0   30.0   33.333333333333336
-50.0   60.0   33.333333333333336
-50.0   30.0   50.0
0.0   30.0   33.333333333333336
0.0   60.0   33.333333333333336
-50.0   60.0   33.333333333333336
0.0   60.0   50.0
-50.0   30.0   50.0
-50.0   60.0   50.0
0.0   60.0   50.0
-50.0   60.0   33.333333333333336
-50.0   30.0   50.0
0.0   60.0   50.0
0.0   30.0   50.0
0.0   30.0   33.333333333333336
-50.0   30.0   50.0
0.0   60.0   50.0
0.0   30.0   33.333333333333336
-50.0   60.0   33.333333333333336
-50.0   60.0   0.0
0.0   60.0   0.0
-50.0   90.0   0.0
-50.0   60.0   16.666666666666668
0.0   60.0   0.0
0.0   90.0   0.0
-50.0   90.0   0.0
0.0   90.0   16.666666666666668
-50.0   60.0   16.666666666666668
-50.0   90.0   16.666666666666668
0.0   90.0   16.666666666666668
-50.0   90.0   0.0
-50.0   60.0   16.666666666666668
0.0   90.0   16.666666666666668
0.0   60.0   16.666666666666668
0.0   60.0   0.0
-50.0   60.0   16.666666666666668
0.0   90.0   16.666666666666668
0.0   60.0   0.0
-50.0   90.0   0.0
-50.0   60.0   16.666666666666668
0.0   60.0   16.666666666666668
-50.0   90.0   16.666666666666668
-50.0   60.0   33.333333333333336
0.0   60.0   16.666666666666668
0.0   90.0   16.666666666666668
-50.0   90.0   16.666666666666668
0.0   90.0   33.333333333333336
-50.0   60.0   33.333333333333336
-50.0   90.0   33.333333333333336
0.0   90.0   33.333333333333336
-50.0   90.0   16.666666666666668
-50.0   60.0   33.333333333333336
0.0   90.0   33.333333333333336
0.0   60.0   33.333333333333336
0.0   60.0   16.666666666666668
-50.0   60.0   33.333333333333336
0.0   90.0   33.333333333333336
0.0   60.0   16.666666666666668
-50.0   90.0   16.666666666666668
-50.0   60.0   33.333333333333336
0.0   60.0   33.333333333333336
-50.0   90.0   33.333333333333336
-50.0   60.0   50.0
0.0   60.0   33.333333333333336
0.0   90.0   33.333333333333336
-50.0   90.0   33.333333333333336
0.0   90.0   50.0
-50.0   60.0   50.0
-50.0   90.0   50.0
0.0   90.0   50.0
-50.0   90.0   33.333333333333336
-50.0   60.0   50.0
0.0   90.0   50.0
0.0   60.0   50.0
0.0   60.0   33.333333333333336
-50.0   60.0   50.0
0.0   90.0   50.0
0.0   60.0   33.333333333333336
-50.0   90.0   33.333333333333336
-50.0   90.0   0.0
0.0   90.0   0.0
-50.0   120.0   0.0
-50.0   90.0   16.666666666666668
0.0   90.0   0.0
0.0   120.0   0.0
-50.0   120.0   0.0
0.0   120.0   16.666666666666668
-50.0   90.0   16.666666666666668
-50.0   120.0   16.666666666666668
0.0   120.0   16.666666666666668
-50.0   120.0   0.0
-50.0   90.0   16.666666666666668
0.0   120.0   16.666666666666668
0.0   90.0   16.666666666666668
0.0   90.0   0.0
-50.0   90.0   16.666666666666668
0.0   120.0   16.666666666666668
0.0   90.0   0.0
-50.0   120.0   0.0
-50.0   90.0   16.666666666666668
0.0   90.0   16.666666666666668
-50.0   120.0   16.666666666666668
-50.0   90.0   33.333333333333336
0.0   90.0   16.666666666666668
0.0   120.0   16.666666666666668
-50.0   120.0   16.666666666666668
0.0   120.0   33.333333333333336
-50.0   90.0   33.333333333333336
-50.0   120.0   33.333333333333336
0.0   120.0   33.333333333333336
-50.0   120.0   16.666666666666668
-50.0   90.0   33.333333333333336
0.0   120.0   33.333333333333336
0.0   90.0   33.333333333333336
0.0   90.0   16.666666666666668
-50.0   90.0   33.333333333333336
0.0   120.0   33.333333333333336
0.0   90.0   16.666666666666668
-50.0   120.0   16.666666666666668
-50.0   90.0   33.333333333333336
0.0   90.0   33.333333333333336
-50.0   120.0   33.333333333333336
-50.0   90.0   50.0
0.0   90.0   33.333333333333336
0.0   120.0   33.333333333333336
-50.0   120.0   33.333333333333336
0.0   120.0   50.0
-50.0   90.0   50.0
-50.0   120.0   50.0
0.0   120.0   50.0
-50.0   120.0   33.333333333333336
-50.0   90.0   50.0
0.0   120.0   50.0
0.0   90.0   50.0
0.0   90.0   33.333333333333336
-50.0   90.0   50.0
0.0   120.0   50.0
0.0   90.0   33.333333333333336
-50.0   120.0   33.333333333333336
-50.0   120.0   0.0
0.0   120.0   0.0
-50.0   150.0   0.0
-50.0   120.0   16.666666666666668
0.0   120.0   0.0
0.0   150.0   0.0
-50.0   150.0   0.0
0.0   150.0   16.666666666666668
-50.0   120.0   16.666666666666668
-50.0   150.0   16.666666666666668
0.0   150.0   16.666666666666668
-50.0   150.0   0.0
-50.0   120.0   16.666666666666668
0.0   150.0   16.666666666666668
0.0   120.0   16.666666666666668
0.0   120.0   0.0
-50.0   120.0   16.666666666666668
0.0   150.0   16.666666666666668
0.0   120.0   0.0
-50.0   150.0   0.0
-50.0   120.0   16.666666666666668
0.0   120.0   16.666666666666668
-50.0   150.0   16.666666666666668
-50.0   120.0   33.333333333333336
0.0   120.0   16.666666666666668
0.0   150.0   16.666666666666668
-50.0   150.0   16.666666666666668
0.0   150.0   33.333333333333336
-50.0   120.0   33.333333333333336
-50.0   150.0   33.333333333333336
0.0   150.0   33.333333333333336
-50.0   150.0   16.666666666666668
-50.0   120.0   33.333333333333336
0.0   150.0   33.333333333333336
0.0   120.0   33.333333333333336
0.0   120.0   16.666666666666668
-50.0   120.0   33.333333333333336
0.0   150.0   33.333333333333336
0.0   120.0   16.666666666666668
-50.0   150.0   16.666666666666668
-50.0   120.0   33.333333333333336
0.0   120.0   33.333333333333336
-50.0   150.0   33.333333333333336
-50.0   120.0   50.0
0.0   120.0   33.333333333333336
0.0   150.0   33.333333333333336
-50.0   150.0   33.333333333333336
0.0   150.0   50.0
-50.0   120.0   50.0
-50.0   150.0   50.0
0.0   150.0   50.0
-50.0   150.0   33.333333333333336
-50.0   120.0   50.0
0.0   150.0   50.0
0.0   120.0   50.0
0.0   120.0   33.333333333333336
-50.0   120.0   50.0
0.0   150.0   50.0
0.0   120.0   33.333333333333336
-50.0   150.0   33.333333333333336
0.0   0.0   0.0
50.0   0.0   0.0
0.0   30.0   0.0
0.0   0.0   16.666666666666668
50.0   0.0   0.0
50.0   30.0   0.0
0.0   30.0   0.0
50.0   30.0   16.666666666666668
0.0   0.0   16.666666666666668
0.0   30.0   16.666666666666668
50.0   30.0   16.666666666666668
0.0   30.0   0.0
0.0   0.0   16.666666666666668
50.0   30.0   16.666666666666668
50.0   0.0   16.666666666666668
50.0   0.0   0.0
0.0   0.0   16.666666666666668
50.0   30.0   16.666666666666668
50.0   0.0   0.0
0.0   30.0   0.0
0.0   0.0   16.666666666666668
50.0   0.0   16.666666666666668
0.0   30.0   16.666666666666668
0.0   0.0   33.333333333333336
50.0   0.0   16.666666666666668
50.0   30.0   16.666666666666668
0.0   30.0   16.666666666666668
50.0   30.0   33.333333333333336
0.0   0.0   33.333333333333336
0.0   30.0   33.333333333333336
50.0   30.0   33.333333333333336
0.0   30.0   16.666666666666668
0.0   0.0   33.333333333333336
50.0   30.0   33.333333333333336
50.0   0.0   33.333333333333336
50.0   0.0   16.666666666666668
0.0   0.0   33.333333333333336
50.0   30.0   33.333333333333336
50.0   0.0   16.666666666666668
0.0   30.0   16.666666666666668
0.0   0.0   33.333333333333336
50.0   0.0   33.333333333333336
0.0   30.0   33.333333333333336
0.0   0.0   50.0
50.0   0.0   33.333333333333336
50.0   30.0   33.333333333333336
0.0   30.0   33.333333333333336
50.0   30.0   50.0
0.0   0.0   50.0
0.0   30.0   50.0
50.0   30.0   50.0
0.0   30.0   33.333333333333336
0.0   0.0   50.0
50.0   30.0   50.0
50.0   0.0   50.0
50.0   0.0   33.333333333333336
0.0   0.0   50.0
50.0   30.0   50.0
50.0   0.0   33.333333333333336
0.0   30.0   33.333333333333336
0.0   30.0   0.0
50.0   30.0   0.0
0.0   60.0   0.0
0.0   30.0   16.666666666666668
50.0   30.0   0.0
50.0   60.0   0.0
0.0   60.0   0.0
50.0   60.0   16.666666666666668
0.0   30.0   16.666666666666668
0.0   60.0   16.666666666666668
50.0   60.0   16.666666666666668
0.0   60.0   0.0
0.0   30.0   16.666666666666668
50.0   60.0   16.666666666666668
50.0   30.0   16.666666666666668
50.0   30.0   0.0
0.0   30.0   16.666666666666668
50.0   60.0   16.666666666666668
50.0   30.0   0.0
0.0   60.0   0.0
0.0   30.0   16.666666666666668
50.0   30.0   16.666666666666668
0.0   60.0   16.666666666666668
0.0   30.0   33.333333333333336
50.0   30.0   16.666666666666668
50.0   60.0   16.666666666666668
0.0   60.0   16.666666666666668
50.0   60.0   33.333333333333336
0.0   30.0   33.333333333333336
0.0   60.0   33.333333333333336
50.0   60.0   33.333333333333336
0.0   60.0   16.666666666666668
0.0   30.0   33.333333333333336
50.0   60.0   33.333333333333336
50.0   30.0   33.333333333333336
50.0   30.0   16.666666666666668
0.0   30.0   33.333333333333336
50.0   60.0   33.333333333333336
50.0   30.0   16.666666666666668
0.0   60.0   16.666666666666668
0.0   30.0   33.333333333333336
50.0   30.0   33.333333333333336
0.0   60.0   33.333333333333336
0.0   30.0   50.0
50.0   30.0   33.333333333333336
50.0   60.0   33.333333333333336
0.0   60.0   33.333333333333336
50.0   60.0   50.0
0.0   30.0   50.0
0.0   60.0   50.0
50.0   60.0   50.0
0.0   60.0   33.333333333333336
0.0   30.0   50.0
50.0   60.0   50.0
50.0   30.0   50.0
50.0   30.0   33.333333333333336
0.0   30.0   50.0
50.0   60.0   50.0
50.0   30.0   33.333333333333336
0.0   60.0   33.333333333333336
0.0   60.0   0.0
50.0   60.0   0.0
0.0   90.0   0.0
0.0   60.0   16.666666666666668
50.0   60.0   0.0
50.0   90.0   0.0
0.0   90.0   0.0
50.0   90.0   16.666666666666668
0.0   60.0   16.666666666666668
0.0   90.0   16.666666666666668
50.0   90.0   16.666666666666668
0.0   90.0   0.0
0.0   60.0   16.666666666666668
50.0   90.0   16.666666666666668
50.0   60.0   16.666666666666668
50.0   60.0   0.0
0.0   60.0   16.666666666666668
50.0   90.0   16.666666666666668
50.0   60.0   0.0
0.0   90.0   0.0
0.0   60.0   16.666666666666668
50.0   60.0   16.666666666666668
0.0   90.0   16.666666666666668
0.0   60.0   33.333333333333336
50.0   60.0   16.666666666666668
50.0   90.0   16.666666666666668
0.0   90.0   16.666666666666668
50.0   90.0   33.333333333333336
0.0   60.0   33.333333333333336
0.0   90.0   33.333333333333336
50.0   90.0   33.333333333333336
0.0   90.0   16.666666666666668
0.0   60.0   33.333333333333336
50.0   90.0   33.333333333333336
50.0   60.0   33.333333333333336
50.0   60.0   16.666666666666668
0.0   60.0   33.333333333333336
50.0   90.0   33.333333333333336
50.0   60.0   16.666666666666668
0.0   90.0   16.666666666666668
0.0   60.0   33.333333333333336
50.0   60.0   33.333333333333336
0.0   90.0   33.333333333333336
0.0   60.0   50.0
50.0   60.0   33.333333333333336
50.0   90.0   33.333333333333336
0.0   90.0   33.333333333333336
50.0   90.0   50.0
0.0   60.0   50.0
0.0   90.0   50.0
50.0   90.0   50.0
0.0   90.0   33.333333333333336
0.0   60.0   50.0
50.0   90.0   50.0
50.0   60.0   50.0
50.0   60.0   33.333333333333336
0.0   60.0   50.0
50.0   90.0   50.0
50.0   60.0   33.333333333333336
0.0   90.0   33.333333333333336
0.0   90.0   0.0
50.0   90.0   0.0
0.0   120.0   0.0
0.0   90.0   16.666666666666668
50.0   90.0   0.0
50.0   120.0   0.0
0.0   120.0   0.0
50.0   120.0   16.666666666666668
0.0   90.0   16.666666666666668
0.0   120.0   16.666666666666668
50.0   120.0   16.666666666666668
0.0   120.0   0.0
0.0   90.0   16.666666666666668
50.0   120.0   16.666666666666668
50.0   90.0   16.666666666666668
50.0   90.0   0.0
0.0   90.0   16.666666666666668
50.0   120.0   16.666666666666668
50.0   90.0   0.0
0.0   120.0   0.0
0.0   90.0   16.666666666666668
50.0   90.0   16.666666666666668
0.0   120.0   16.666666666666668
0.0   90.0   33.333333333333336
50.0   90.0   16.666666666666668
50.0   120.0   16.666666666666668
0.0   120.0   16.666666666666668
50.0   120.0   33.333333333333336
0.0   90.0   33.333333333333336
0.0   120.0   33.333333333333336
50.0   120.0   33.333333333333336
0.0   120.0   16.666666666666668
0.0   90.0   33.333333333333336
50.0   120.0   33.333333333333336
50.0   90.0   33.333333333333336
50.0   90.0   16.666666666666668
0.0   90.0   33.333333333333336
50.0   120.0   33.333333333333336
50.0   90.0   16.666666666666668
0.0   120.0   16.666666666666668
0.0   90.0   33.333333333333336
50.0   90.0   33.333333333333336
0.0   120.0   33.333333333333336
0.0   90.0   50.0
50.0   90.0   33.333333333333336
50.0   120.0   33.333333333333336
0.0   120.0   33.333333333333336
50.0   120.0   50.0
0.0   90.0   50.0
0.0   120.0   50.0
50.0   120.0   50.0
0.0   120.0   33.333333333333336
0.0   90.0   50.0
50.0   120.0   50.0
50.0   90.0   50.0
50.0   90.0   33.333333333333336
0.0   90.0   50.0
50.0   120.0   50.0
50.0   90.0   33.333333333333336
0.0   120.0   33.333333333333336
0.0   120.0   0.0
50.0   120.0   0.0
0.0   150.0   0.0
0.0   120.0   16.666666666666668
50.0   120.0   0.0
50.0   150.0   0.0
0.0   150.0   0.0
50.0   150.0   16.666666666666668
0.0   120.0   16.666666666666668
0.0   150.0   16.666666666666668
50.0   150.0   16.666666666666668
0.0   150.0   0.0
0.0   120.0   16.666666666666668
50.0   150.0   16.666666666666668
50.0   120.0   16.666666666666668
50.0   120.0   0.0
0.0   120.0   16.666666666666668
50.0   150.0   16.666666666666668
50.0   120.0   0.0
0.0   150.0   0.0
0.0   120.0   16.666666666666668
50.0   120.0   16.666666666666668
0.0   150.0   16.666666666666668
0.0   120.0   33.333333333333336
50.0   120.0   16.666666666666668
50.0   150.0   16.666666666666668
0.0   150.0   16.666666666666668
50.0   150.0   33.333333333333336
0.0   120.0   33.333333333333336
0.0   150.0   33.333333333333336
50.0   150.0   33.333333333333336
0.0   150.0   16.666666666666668
0.0   120.0   33.333333333333336
50.0   150.0   33.333333333333336
50.0   120.0   33.333333333333336
50.0   120.0   16.666666666666668
0.0   120.0   33.333333333333336
50.0   150.0   33.333333333333336
50.0   120.0   16.666666666666668
0.0   150.0   16.666666666666668
0.0   120.0   33.333333333333336
50.0   120.0   33.333333333333336
0.0   150.0   33.333333333333336
0.0   120.0   50.0
50.0   120.0   33.333333333333336
50.0   150.0   33.333333333333336
0.0   150.0   33.333333333333336
50.0   150.0   50.0
0.0   120.0   50.0
0.0   150.0   50.0
50.0   150.0   50.0
0.0   150.0   33.333333333333336
0.0   120.0   50.0
50.0   150.0   50.0
50.0   120.0   50.0
50.0   120.0   33.333333333333336
0.0   120.0   50.0
50.0   150.0   50.0
50.0   120.0   33.333333333333336
0.0   150.0   33.333333333333336
50.0   0.0   0.0
100.0   0.0   0.0
50.0   30.0   0.0
50.0   0.0   16.666666666666668
100.0   0.0   0.0
100.0   30.0   0.0
50.0   30.0   0.0
100.0   30.0   16.666666666666668
50.0   0.0   16.666666666666668
50.0   30.0   16.666666666666668
100.0   30.0   16.666666666666668
50.0   30.0   0.0
50.0   0.0   16.666666666666668
100.0   30.0   16.666666666666668
100.0   0.0   16.666666666666668
100.0   0.0   0.0
50.0   0.0   16.666666666666668
100.0   30.0   16.666666666666668
100.0   0.0   0.0
50.0   30.0   0.0
50.0   0.0   16.666666666666668
100.0   0.0   16.666666666666668
50.0   30.0   16.666666666666668
50.0   0.0   33.333333333333336
100.0   0.0   16.666666666666668
100.0   30.0   16.666666666666668
50.0   30.0   16.666666666666668
100.0   30.0   33.333333333333336
50.0   0.0   33.333333333333336
50.0   30.0   33.333333333333336
100.0   30.0   33.333333333333336
50.0   30.0   16.666666666666668
50.0   0.0   33.333333333333336
100.0   30.0   33.333333333333336
100.0   0.0   33.333333333333336
100.0   0.0   16.666666666666668
50.0   0.0   33.333333333333336
100.0   30.0   33.333333333333336
100.0   0.0   16.666666666666668
50.0   30.0   16.666666666666668
50.0   0.0   33.333333333333336
100.0   0.0   33.333333333333336
50.0   30.0   33.333333333333336
50.0   0.0   50.0
100.0   0.0   33.333333333333336
100.0   30.0   33.333333333333336
50.0   30.0   33.333333333333336
100.0   30.0   50.0
50.0   0.0   50.0
50.0   30.0   50.0
100.0   30.0   50.0
50.0   30.0   33.333333333333336
50.0   0.0   50.0
100.0   30.0   50.0
100.0   0.0   50.0
100.0   0.0   33.333333333333336
50.0   0.0   50.0
100.0   30.0   50.0
100.0   0.0   33.333333333333336
50.0   30.0   33.333333333333336
50.0   30.0   0.0
100.0   30.0   0.0
50.0   60.0   0.0
50.0   30.0   16.666666666666668
100.0   30.0   0.0
100.0   60.0   0.0
50.0   60.0   0.0
100.0   60.0   16.666666666666668
50.0   30.0   16.666666666666668
50.0   60.0   16.666666666666668
100.0   60.0   16.666666666666668
50.0   60.0   0.0
50.0   30.0   16.666666666666668
100.0   60.0   16.666666666666668
100.0   30.0   16.666666666666668
100.0   30.0   0.0
50.0   30.0   16.666666666666668
100.0   60.0   16.666666666666668
100.0   30.0   0.0
50.0   60.0   0.0
50.0   30.0   16.666666666666668
100.0   30.0   16.666666666666668
50.0   60.0   16.666666666666668
50.0   30.0   33.333333333333336
100.0   30.0   16.666666666666668
100.0   60.0   16.666666666666668
50.0   60.0   16.666666666666668
100.0   60.0   33.333333333333336
50.0   30.0   33.333333333333336
50.0   60.0   33.333333333333336
100.0   60.0   33.333333333333336
50.0   60.0   16.666666666666668
50.0   30.0   33.333333333333336
100.0   60.0   33.333333333333336
100.0   30.0   33.333333333333336
100.0   30.0   16.666666666666668
50.0   30.0   33.333333333333336
100.0   60.0   33.333333333333336
100.0   30.0   16.666666666666668
50.0   60.0   16.666666666666668
50.0   30.0   33.333333333333336
100.0   30.0   33.333333333333336
50.0   60.0   33.333333333333336
50.0   30.0   50.0
100.0   30.0   33.333333333333336
100.0   60.0   33.333333333333336
50.0   60.0   33.333333333333336
100.0   60.0   50.0
50.0   30.0   50.0
50.0   60.0   50.0
100.0   60.0   50.0
50.0   60.0   33.333333333333336
50.0   30.0   50.0
100.0   60.0   50.0
100.0   30.0   50.0
100.0   30.0   33.333333333333336
50.0   30.0   50.0
100.0   60.0   50.0
100.0   30.0   33.333333333333336
50.0   60.0   33.333333333333336
50.0   60.0   0.0
100.0   60.0   0.0
50.0   90.0   0.0
50.0   60.0   16.666666666666668
100.0   60.0   0.0
100.0   90.0   0.0
50.0   90.0   0.0
100.0   90.0   16.666666666666668
50.0   60.0   16.666666666666668
50.0   90.0   16.666666666666668
100.0   90.0   16.666666666666668
50.0   90.0   0.0
50.0   60.0   16.666666666666668
100.0   90.0   16.666666666666668
100.0   60.0   16.666666666666668
100.0   60.0   0.0
50.0   60.0   16.666666666666668
100.0   90.0   16.666666666666668
100.0   60.0   0.0
50.0   90.0   0.0
50.0   60.0   16.666666666666668
100.0   60.0   16.666666666666668
50.0   90.0   16.666666666666668
50.0   60.0   33.333333333333336
100.0   60.0   16.666666666666668
100.0   90.0   16.666666666666668
50.0   90.0   16.666666666666668
100.0   90.0   33.333333333333336
50.0   60.0   33.333333333333336
50.0   90.0   33.333333333333336
100.0   90.0   33.333333333333336
50.0   90.0   16.666666666666668
50.0   60.0   33.333333333333336
100.0   90.0   33.333333333333336
100.0   60.0   33.333333333333336
100.0   60.0   16.666666666666668
50.0   60.0   33.333333333333336
100.0   90.0   33.333333333333336
100.0   60.0   16.666666666666668
50.0   90.0   16.666666666666668
50.0   60.0   33.333333333333336
100.0   60.0   33.333333333333336
50.0   90.0   33.333333333333336
50.0   60.0   50.0
100.0   60.0   33.333333333333336
100.0   90.0   33.333333333333336
50.0   90.0   33.333333333333336
100.0   90.0   50.0
50.0   60.0   50.0
50.0   90.0   50.0
100.0   90.0   50.0
50.0   90.0   33.333333333333336
50.0   60.0   50.0
100.0   90.0   50.0
100.0   60.0   50.0
100.0   60.0   33.333333333333336
50.0   60.0   50.0
100.0   90.0   50.0
100.0   60.0   33.333333333333336
50.0   90.0   33.333333333333336
50.0   90.0   0.0
100.0   90.0   0.0
50.0   120.0   0.0
50.0   90.0   16.666666666666668
100.0   90.0   0.0
100.0   120.0   0.0
50.0   120.0   0.0
100.0   120.0   16.666666666666668
50.0   90.0   16.666666666666668
50.0   120.0   16.666666666666668
100.0   120.0   16.666666666666668
50.0   120.0   0.0
50.0   90.0   16.666666666666668
100.0   120.0   16.666666666666668
100.0   90.0   16.666666666666668
100.0   90.0   0.0
50.0   90.0   16.666666666666668
100.0   120.0   16.666666666666668
100.0   90.0   0.0
50.0   120.0   0.0
50.0   90.0   16.666666666666668
100.0   90.0   16.666666666666668
50.0   120.0   16.666666666666668
50.0   90.0   33.333333333333336
100.0   90.0   16.666666666666668
100.0   120.0   16.666666666666668
50.0   120.0   16.666666666666668
100.0   120.0   33.333333333333336
50.0   90.0   33.333333333333336
50.0   120.0   33.333333333333336
100.0   120.0   33.333333333333336
50.0   120.0   16.666666666666668
50.0   90.0   33.333333333333336
100.0   120.0   33.333333333333336
100.0   90.0   33.333333333333336
100.0   90.0   16.666666666666668
50.0   90.0   33.333333333333336
100.0   120.0   33.333333333333336
100.0   90.0   16.666666666666668
50.0   120.0   16.666666666666668
50.0   90.0   33.333333333333336
100.0   90.0   33.333333333333336
50.0   120.0   33.333333333333336
50.0   90.0   50.0
100.0   90.0   33.333333333333336
100.0   120.0   33.333333333333336
50.0   120.0   33.333333333333336
100.0   120.0   50.0
50.0   90.0   50.0
50.0   120.0   50.0
100.0   120.0   50.0
50.0   120.0   33.333333333333336
50.0   90.0   50.0
100.0   120.0   50.0
100.0   90.0   50.0
100.0   90.0   33.333333333333336
50.0   90.0   50.0
100.0   120.0   50.0
100.0   90.0   33.333333333333336
50.0   120.0   33.333333333333336
50.0   120.0   0.0
100.0   120.0   0.0
50.0   150.0   0.0
50.0   120.0   16.666666666666668
100.0   120.0   0.0
100.0   150.0   0.0
50.0   150.0   0.0
100.0   150.0   16.666666666666668
50.0   120.0   16.666666666666668
50.0   150.0   16.666666666666668
100.0   150.0   16.666666666666668
50.0   150.0   0.0
50.0   120.0   16.666666666666668
100.0   150.0   16.666666666666668
100.0   120.0   16.666666666666668
100.0   120.0   0.0
50.0   120.0   16.666666666666668
100.0   150.0   16.666666666666668
100.0   120.0   0.0
50.0   150.0   0.0
50.0   120.0   16.666666666666668
100.0   120.0   16.666666666666668
50.0   150.0   16.666666666666668
50.0   120.0   33.333333333333336
100.0   120.0   16.666666666666668
100.0   150.0   16.666666666666668
50.0   150.0   16.666666666666668
100.0   150.0   33.333333333333336
50.0   120.0   33.333333333333336
50.0   150.0   33.333333333333336
100.0   150.0   33.333333333333336
50.0   150.0   16.666666666666668
50.0   120.0   33.333333333333336
100.0   150.0   33.333333333333336
100.0   120.0   33.333333333333336
100.0   120.0   16.666666666666668
50.0   120.0   33.333333333333336
100.0   150.0   33.333333333333336
100.0   120.0   16.666666666666668
50.0   150.0   16.666666666666668
50.0   120.0   33.333333333333336
100.0   120.0   33.333333333333336
50.0   150.0   33.333333333333336
50.0   120.0   50.0
100.0   120.0   33.333333333333336
100.0   150.0   33.333333333333336
50.0   150.0   33.333333333333336
100.0   150.0   50.0
50.0   120.0   50.0
50.0   150.0   50.0
100.0   150.0   50.0
50.0   150.0   33.333333333333336
50.0   120.0   50.0
100.0   150.0   50.0
100.0   120.0   50.0
100.0   120.0   33.333333333333336
50.0   120.0   50.0
100.0   150.0   50.0
100.0   120.0   33.333333333333336
50.0   150.0   33.333333333333336
100.0   0.0   0.0
150.0   0.0   0.0
100.0   30.0   0.0
100.0   0.0   16.666666666666668
150.0   0.0   0.0
150.0   30.0   0.0
100.0   30.0   0.0
150.0   30.0   16.666666666666668
100.0   0.0   16.666666666666668
100.0   30.0   16.666666666666668
150.0   30.0   16.666666666666668
100.0   30.0   0.0
100.0   0.0   16.666666666666668
150.0   30.0   16.666666666666668
150.0   0.0   16.666666666666668
150.0   0.0   0.0
100.0   0.0   16.666666666666668
150.0   30.0   16.666666666666668
150.0   0.0   0.0
100.0   30.0   0.0
100.0   0.0   16.666666666666668
150.0   0.0   16.666666666666668
100.0   30.0   16.666666666666668
100.0   0.0   33.333333333333336
150.0   0.0   16.666666666666668
150.0   30.0   16.666666666666668
100.0   30.0   16.666666666666668
150.0   30.0   33.333333333333336
100.0   0.0   33.333333333333336
100.0   30.0   33.333333333333336
150.0   30.0   33.333333333333336
100.0   30.0   16.666666666666668
100.0   0.0   33.333333333333336
150.0   30.0   33.333333333333336
150.0   0.0   33.333333333333336
150.0   0.0   16.666666666666668
100.0   0.0   33.333333333333336
150.0   30.0   33.333333333333336
150.0   0.0   16.666666666666668
100.0   30.0   16.666666666666668
100.0   0.0   33.333333333333336
150.0   0.0   33.333333333333336
100.0   30.0   33.333333333333336
100.0   0.0   50.0
150.0   0.0   33.333333333333336
150.0   30.0   33.333333333333336
100.0   30.0   33.333333333333336
150.0   30.0   50.0
100.0   0.0   50.0
100.0   30.0   50.0
150.0   30.0   50.0
100.0   30.0   33.333333333333336
100.0   0.0   50.0
150.0   30.0   50.0
150.0   0.0   50.0
150.0   0.0   33.333333333333336
100.0   0.0   50.0
150.0   30.0   50.0
150.0   0.0   33.333333333333336
100.0   30.0   33.333333333333336
100.0   30.0   0.0
150.0   30.0   0.0
100.0   60.0   0.0
100.0   30.0   16.666666666666668
150.0   30.0   0.0
150.0   60.0   0.0
100.0   60.0   0.0
150.0   60.0   16.666666666666668
100.0   30.0   16.666666666666668
100.0   60.0   16.666666666666668
150.0   60.0   16.666666666666668
100.0   60.0   0.0
100.0   30.0   16.666666666666668
150.0   60.0   16.666666666666668
150.0   30.0   16.666666666666668
150.0   30.0   0.0
100.0   30.0   16.666666666666668
150.0   60.0   16.666666666666668
150.0   30.0   0.0
100.0   60.0   0.0
100.0   30.0   16.666666666666668
150.0   30.0   16.666666666666668
100.0   60.0   16.666666666666668
100.0   30.0   33.333333333333336
150.0   30.0   16.666666666666668
150.0   60.0   16.666666666666668
100.0   60.0   16.666666666666668
150.0   60.0   33.333333333333336
100.0   30.0   33.333333333333336
100.0   60.0   33.333333333333336
150.0   60.0   33.333333333333336
100.0   60.0   16.666666666666668
100.0   30.0   33.333333333333336
150.0   60.0   33.333333333333336
150.0   30.0   33.333333333333336
150.0   30.0   16.666666666666668
100.0   30.0   33.333333333333336
150.0   60.0   33.333333333333336
150.0   30.0   16.666666666666668
100.0   60.0   16.666666666666668
100.0   30.0   33.333333333333336
150.0   30.0   33.333333333333336
100.0   60.0   33.333333333333336
100.0   30.0   50.0
150.0   30.0   33.333333333333336
150.0   60.0   33.333333333333336
100.0   60.0   33.333333333333336
150.0   60.0   50.0
100.0   30.0   50.0
100.0   60.0   50.0
150.0   60.0   50.0
100.0   60.0   33.333333333333336
100.0   30.0   50.0
150.0   60.0   50.0
150.0   30.0   50.0
150.0   30.0   33.333333333333336
100.0   30.0   50.0
150.0   60.0   50.0
150.0   30.0   33.333333333333336
100.0   60.0   33.333333333333336
100.0   60.0   0.0
150.0   60.0   0.0
100.0   90.0   0.0
100.0   60.0   16.666666666666668
150.0   60.0   0.0
150.0   90.0   0.0
100.0   90.0   0.0
150.0   90.0   16.666666666666668
100.0   60.0   16.666666666666668
100.0   90.0   16.666666666666668
150.0   90.0   16.666666666666668
100.0   90.0   0.0
100.0   60.0   16.666666666666668
150.0   90.0   16.666666666666668
150.0   60.0   16.666666666666668
150.0   60.0   0.0
100.0   60.0   16.666666666666668
150.0   90.0   16.666666666666668
150.0   60.0   0.0
100.0   90.0   0.0
100.0   60.0   16.666666666666668
150.0   60.0   16.666666666666668
100.0   90.0   16.666666666666668
100.0   60.0   33.333333333333336
150.0   60.0   16.666666666666668
150.0   90.0   16.666666666666668
100.0   90.0   16.666666666666668
150.0   90.0   33.333333333333336
100.0   60.0   33.333333333333336
100.0   90.0   33.333333333333336
150.0   90.0   33.333333333333336
100.0   90.0   16.666666666666668
100.0   60.0   33.333333333333336
150.0   90.0   33.333333333333336
150.0   60.0   33.333333333333336
150.0   60.0   16.666666666666668
100.0   60.0   33.333333333333336
150.0   90.0   33.333333333333336
150.0   60.0   16.666666666666668
100.0   90.0   16.666666666666668
100.0   60.0   33.333333333333336
150.0   60.0   33.333333333333336
100.0   90.0   33.333333333333336
100.0   60.0   50.0
150.0   60.0   33.333333333333336
150.0   90.0   33.333333333333336
100.0   90.0   33.333333333333336
150.0   90.0   50.0
100.0   60.0   50.0
100.0   90.0   50.0
150.0   90.0   50.0
100.0   90.0   33.333333333333336
100.0   60.0   50.0
150.0   90.0   50.0
150.0   60.0   50.0
150.0   60.0   33.333333333333336
100.0   60.0   50.0
150.0   90.0   50.0
150.0   60.0   33.333333333333336
100.0   90.0   33.333333333333336
100.0   90.0   0.0
150.0   90.0   0.0
100.0   120.0   0.0
100.0   90.0   16.666666666666668
150.0   90.0   0.0
150.0   120.0   0.0
100.0   120.0   0.0
150.0   120.0   16.666666666666668
100.0   90.0   16.666666666666668
100.0   120.0   16.666666666666668
150.0   120.0   16.666666666666668
100.0   120.0   0.0
100.0   90.0   16.666666666666668
150.0   120.0   16.666666666666668
150.0   90.0   16.666666666666668
150.0   90.0   0.0
100.0   90.0   16.666666666666668
150.0   120.0   16.666666666666668
150.0   90.0   0.0
100.0   120.0   0.0
100.0   90.0   16.666666666666668
150.0   90.0   16.666666666666668
100.0   120.0   16.666666666666668
100.0   90.0   33.333333333333336
150.0   90.0   16.666666666666668
150.0   120.0   16.666666666666668
100.0   120.0   16.666666666666668
150.0   120.0   33.333333333333336
100.0   90.0   33.333333333333336
100.0   120.0   33.333333333333336
150.0   120.0   33.333333333333336
100.0   120.0   16.666666666666668
100.0   90.0   33.333333333333336
150.0   120.0   33.333333333333336
150.0   90.0   33.333333333333336
150.0   90.0   16.666666666666668
100.0   90.0   33.333333333333336
150.0   120.0   33.333333333333336
150.0   90.0   16.666666666666668
100.0   120.0   16.666666666666668
100.0   90.0   33.333333333333336
150.0   90.0   33.333333333333336
100.0   120.0   33.333333333333336
100.0   90.0   50.0
150.0   90.0   33.333333333333336
150.0   120.0   33.333333333333336
100.0   120.0   33.333333333333336
150.0   120.0   50.0
100.0   90.0   50.0
100.0   120.0   50.0
150.0   120.0   50.0
100.0   120.0   33.333333333333336
100.0   90.0   50.0
150.0   120.0   50.0
150.0   90.0   50.0
150.0   90.0   33.333333333333336
100.0   90.0   50.0
150.0   120.0   50.0
150.0   90.0   33.333333333333336
100.0   120.0   33.333333333333336
100.0   120.0   0.0
150.0   120.0   0.0
100.0   150.0   0.0
100.0   120.0   16.666666666666668
150.0   120.0   0.0
150.0   150.0   0.0
100.0   150.0   0.0
150.0   150.0   16.666666666666668
100.0   120.0   16.666666666666668
100.0   150.0   16.666666666666668
150.0   150.0   16.666666666666668
100.0   150.0   0.0
100.0   120.0   16.666666666666668
150.0   150.0   16.666666666666668
150.0   120.0   16.666666666666668
150.0   120.0   0.0
100.0   120.0   16.666666666666668
150.0   150.0   16.666666666666668
150.0   120.0   0.0
100.0   150.0   0.0
100.0   120.0   16.666666666666668
150.0   120.0   16.666666666666668
100.0   150.0   16.666666666666668
100.0   120.0   33.333333333333336
150.0   120.0   16.666666666666668
150.0   150.0   16.666666666666668
100.0   150.0   16.666666666666668
150.0   150.0   33.333333333333336
100.0   120.0   33.333333333333336
100.0   150.0   33.333333333333336
150.0   150.0   33.333333333333336
100.0   150.0   16.666666666666668
100.0   120.0   33.333333333333336
150.0   150.0   33.333333333333336
150.0   120.0   33.333333333333336
150.0   120.0   16.666666666666668
100.0   120.0   33.333333333333336
150.0   150.0   33.333333333333336
150.0   120.0   16.666666666666668
100.0   150.0   16.666666666666668
100.0   120.0   33.333333333333336
150.0   120.0   33.333333333333336
100.0   150.0   33.333333333333336
100.0   120.0   50.0
150.0   120.0   33.333333333333336
150.0   150.0   33.333333333333336
100.0   150.0   33.333333333333336
150.0   150.0   50.0
100.0   120.0   50.0
100.0   150.0   50.0
150.0   150.0   50.0
100.0   150.0   33.333333333333336
100.0   120.0   50.0
150.0   150.0   50.0
150.0   120.0   50.0
150.0   120.0   33.333333333333336
100.0   120.0   50.0
150.0   150.0   50.0
150.0   120.0   33.333333333333336
100.0   150.0   33.333333333333336
150.0   0.0   0.0
200.0   0.0   0.0
150.0   30.0   0.0
150.0   0.0   16.666666666666668
200.0   0.0   0.0
200.0   30.0   0.0
150.0   30.0   0.0
200.0   30.0   16.666666666666668
150.0   0.0   16.666666666666668
150.0   30.0   16.666666666666668
200.0   30.0   16.666666666666668
150.0   30.0   0.0
150.0   0.0   16.666666666666668
200.0   30.0   16.666666666666668
200.0   0.0   16.666666666666668
200.0   0.0   0.0
150.0   0.0   16.666666666666668
200.0   30.0   16.666666666666668
200.0   0.0   0.0
150.0   30.0   0.0
150.0   0.0   16.666666666666668
200.0   0.0   16.666666666666668
150.0   30.0   16.666666666666668
150.0   0.0   33.333333333333336
200.0   0.0   16.666666666666668
200.0   30.0   16.666666666666668
150.0   30.0   16.666666666666668
200.0   30.0   33.333333333333336
150.0   0.0   33.333333333333336
150.0   30.0   33.333333333333336
200.0   30.0   33.333333333333336
150.0   30.0   16.666666666666668
150.0   0.0   33.333333333333336
200.0   30.0   33.333333333333336
200.0   0.0   33.333333333333336
200.0   0.0   16.666666666666668
150.0   0.0   33.333333333333336
200.0   30.0   33.333333333333336
200.0   0.0   16.666666666666668
150.0   30.0   16.666666666666668
150.0   0.0   33.333333333333336
200.0   0.0   33.333333333333336
150.0   30.0   33.333333333333336
150.0   0.0   50.0
200.0   0.0   33.333333333333336
200.0   30.0   33.333333333333336
150.0   30.0   33.333333333333336
200.0   30.0   50.0
150.0   0.0   50.0
150.0   30.0   50.0
200.0   30.0   50.0
150.0   30.0   33.333333333333336
150.0   0.0   50.0
200.0   30.0   50.0
200.0   0.0   50.0
200.0   0.0   33.333333333333336
150.0   0.0   50.0
200.0   30.0   50.0
200.0   0.0   33.333333333333336
150.0   30.0   33.333333333333336
150.0   30.0   0.0
200.0   30.0   0.0
150.0   60.0   0.0
150.0   30.0   16.666666666666668
200.0   30.0   0.0
200.0   60.0   0.0
150.0   60.0   0.0
200.0   60.0   16.666666666666668
150.0   30.0   16.666666666666668
150.0   60.0   16.666666666666668
200.0   60.0   16.666666666666668
150.0   60.0   0.0
150.0   30.0   16.666666666666668
200.0   60.0   16.666666666666668
200.0   30.0   16.666666666666668
200.0   30.0   0.0
150.0   30.0   16.666666666666668
200.0   60.0   16.666666666666668
200.0   30.0   0.0
150.0   60.0   0.0
150.0   30.0   16.666666666666668
200.0   30.0   16.666666666666668
150.0   60.0   16.666666666666668
150.0   30.0   33.333333333333336
200.0   30.0   16.666666666666668
200.0   60.0   16.666666666666668
150.0   60.0   16.666666666666668
200.0   60.0   33.333333333333336
150.0   30.0   33.333333333333336
150.0   60.0   33.333333333333336
200.0   60.0   33.333333333333336
150.0   60.0   16.666666666666668
150.0   30.0   33.333333333333336
200.0   60.0   33.333333333333336
200.0   30.0   33.333333333333336
200.0   30.0   16.666666666666668
150.0   30.0   33.333333333333336
200.0   60.0   33.333333333333336
200.0   30.0   16.666666666666668
150.0   60.0   16.666666666666668
150.0   30.0   33.333333333333336
200.0   30.0   33.333333333333336
150.0   60.0   33.333333333333336
150.0   30.0   50.0
200.0   30.0   33.333333333333336
200.0   60.0   33.333333333333336
150.0   60.0   33.333333333333336
200.0   60.0   50.0
150.0   30.0   50.0
150.0   60.0   50.0
200.0   60.0   50.0
150.0   60.0   33.333333333333336
150.0   30.0   50.0
200.0   60.0   50.0
200.0   30.0   50.0
200.0   30.0   33.333333333333336
150.0   30.0   50.0
200.0   60.0   50.0
200.0   30.0   33.333333333333336
150.0   60.0   33.333333333333336
150.0   60.0   0.0
200.0   60.0   0.0
150.0   90.0   0.0
150.0   60.0   16.666666666666668
200.0   60.0   0.0
200.0   90.0   0.0
150.0   90.0   0.0
200.0   90.0   16.666666666666668
150.0   60.0   16.666666666666668
150.0   90.0   16.666666666666668
200.0   90.0   16.666666666666668
150.0   90.0   0.0
150.0   60.0   16.666666666666668
200.0   90.0   16.666666666666668
200.0   60.0   16.666666666666668
200.0   60.0   0.0
150.0   60.0   16.666666666666668
200.0   90.0   16.666666666666668
200.0   60.0   0.0
150.0   90.0   0.0
150.0   60.0   16.666666666666668
200.0   60.0   16.666666666666668
150.0   90.0   16.666666666666668
150.0   60.0   33.333333333333336
200.0   60.0   16.666666666666668
200.0   90.0   16.666666666666668
150.0   90.0   16.666666666666668
200.0   90.0   33.333333333333336
150.0   60.0   33.333333333333336
150.0   90.0   33.333333333333336
200.0   90.0   33.333333333333336
150.0   90.0   16.666666666666668
150.0   60.0   33.333333333333336
200.0   90.0   33.333333333333336
200.0   60.0   33.333333333333336
200.0   60.0   16.666666666666668
150.0   60.0   33.333333333333336
200.0   90.0   33.333333333333336
200.0   60.0   16.666666666666668
150.0   90.0   16.666666666666668
150.0   60.0   33.333333333333336
200.0   60.0   33.333333333333336
150.0   90.0   33.333333333333336
150.0   60.0   50.0
200.0   60.0   33.333333333333336
200.0   90.0   33.333333333333336
150.0   90.0   33.333333333333336
200.0   90.0   50.0
150.0   60.0   50.0
150.0   90.0   50.0
200.0   90.0   50.0
150.0   90.0   33.333333333333336
150.0   60.0   50.0
200.0   90.0   50.0
200.0   60.0   50.0
200.0   60.0   33.333333333333336
150.0   60.0   50.0
200.0   90.0   50.0
200.0   60.0   33.333333333333336
150.0   90.0   33.333333333333336
150.0   90.0   0.0
200.0   90.0   0.0
150.0   120.0   0.0
150.0   90.0   16.666666666666668
200.0   90.0   0.0
200.0   120.0   0.0
150.0   120.0   0.0
200.0   120.0   16.666666666666668
150.0   90.0   16.666666666666668
150.0   120.0   16.666666666666668
200.0   120.0   16.666666666666668
150.0   120.0   0.0
150.0   90.0   16.666666666666668
200.0   120.0   16.666666666666668
200.0   90.0   16.666666666666668
200.0   90.0   0.0
150.0   90.0   16.666666666666668
200.0   120.0   16.666666666666668
200.0   90.0   0.0
150.0   120.0   0.0
150.0   90.0   16.666666666666668
200.0   90.0   16.666666666666668
150.0   120.0   16.666666666666668
150.0   90.0   33.333333333333336
200.0   90.0   16.666666666666668
200.0   120.0   16.666666666666668
150.0   120.0   16.666666666666668
200.0   120.0   33.333333333333336
150.0   90.0   33.333333333333336
150.0   120.0   33.333333333333336
200.0   120.0   33.333333333333336
150.0   120.0   16.666666666666668
150.0   90.0   33.333333333333336
200.0   120.0   33.333333333333336
200.0   90.0   33.333333333333336
200.0   90.0   16.666666666666668
150.0   90.0   33.333333333333336
200.0   120.0   33.333333333333336
200.0   90.0   16.666666666666668
150.0   120.0   16.666666666666668
150.0   90.0   33.333333333333336
200.0   90.0   33.333333333333336
150.0   120.0   33.333333333333336
150.0   90.0   50.0
200.0   90.0   33.333333333333336
200.0   120.0   33.333333333333336
150.0   120.0   33.333333333333336
200.0   120.0   50.0
150.0   90.0   50.0
150.0   120.0   50.0
200.0   120.0   50.0
150.0   120.0   33.333333333333336
150.0   90.0   50.0
200.0   120.0   50.0
200.0   90.0   50.0
200.0   90.0   33.333333333333336
150.0   90.0   50.0
200.0   120.0   50.0
200.0   90.0   33.333333333333336
150.0   120.0   33.333333333333336
150.0   120.0   0.0
200.0   120.0   0.0
150.0   150.0   0.0
150.0   120.0   16.666666666666668
200.0   120.0   0.0
200.0   150.0   0.0
150.0   150.0   0.0
200.0   150.0   16.666666666666668
150.0   120.0   16.666666666666668
150.0   150.0   16.666666666666668
200.0   150.0   16.666666666666668
150.0   150.0   0.0
150.0   120.0   16.666666666666668
200.0   150.0   16.666666666666668
200.0   120.0   16.666666666666668
200.0   120.0   0.0
150.0   120.0   16.666666666666668
200.0   150.0   16.666666666666668
200.0   120.0   0.0
150.0   150.0   0.0
150.0   120.0   16.666666666666668
200.0   120.0   16.666666666666668
150.0   150.0   16.666666666666668
150.0   120.0   33.333333333333336
200.0   120.0   16.666666666666668
200.0   150.0   16.666666666666668
150.0   150.0   16.666666666666668
200.0   150.0   33.333333333333336
150.0   120.0   33.333333333333336
150.0   150.0   33.333333333333336
200.0   150.0   33.333333333333336
150.0   150.0   16.666666666666668
150.0   120.0   33.333333333333336
200.0   150.0   33.333333333333336
200.0   120.0   33.333333333333336
200.0   120.0   16.666666666666668
150.0   120.0   33.333333333333336
200.0   150.0   33.333333333333336
200.0   120.0   16.666666666666668
150.0   150.0   16.666666666666668
150.0   120.0   33.333333333333336
200.0   120.0   33.333333333333336
150.0   150.0   33.333333333333336
150.0   120.0   50.0
200.0   120.0   33.333333333333336
200.0   150.0   33.333333333333336
150.0   150.0   33.333333333333336
200.0   150.0   50.0
150.0   120.0   50.0
150.0   150.0   50.0
200.0   150.0   50.0
150.0   150.0   33.333333333333336
150.0   120.0   50.0
200.0   150.0   50.0
200.0   120.0   50.0
200.0   120.0   33.333333333333336
150.0   120.0   50.0
200.0   150.0   50.0
200.0   120.0   33.333333333333336
150.0   150.0   33.333333333333336
200.0   0.0   0.0
250.0   0.0   0.0
200.0   30.0   0.0
200.0   0.0   16.666666666666668
250.0   0.0   0.0
250.0   30.0   0.0
200.0   30.0   0.0
250.0   30.0   16.666666666666668
200.0   0.0   16.666666666666668
200.0   30.0   16.666666666666668
250.0   30.0   16.666666666666668
200.0   30.0   0.0
200.0   0.0   16.666666666666668
250.0   30.0   16.666666666666668
250.0   0.0   16.666666666666668
250.0   0.0   0.0
200.0   0.0   16.666666666666668
250.0   30.0   16.666666666666668
250.0   0.0   0.0
200.0   30.0   0.0
200.0   0.0   16.666666666666668
250.0   0.0   16.666666666666668
200.0   30.0   16.666666666666668
200.0   0.0   33.333333333333336
250.0   0.0   16.666666666666668
250.0   30.0   16.666666666666668
200.0   30.0   16.666666666666668
250.0   30.0   33.333333333333336
200.0   0.0   33.333333333333336
200.0   30.0   33.333333333333336
250.0   30.0   33.333333333333336
200.0   30.0   16.666666666666668
200.0   0.0   33.333333333333336
250.0   30.0   33.333333333333336
250.0   0.0   33.333333333333336
250.0   0.0   16.666666666666668
200.0   0.0   33.333333333333336
250.0   30.0   33.333333333333336
250.0   0.0   16.666666666666668
200.0   30.0   16.666666666666668
200.0   0.0   33.333333333333336
250.0   0.0   33.333333333333336
200.0   30.0   33.333333333333336
200.0   0.0   50.0
250.0   0.0   33.333333333333336
250.0   30.0   33.333333333333336
200.0   30.0   33.333333333333336
250.0   30.0   50.0
200.0   0.0   50.0
200.0   30.0   50.0
250.0   30.0   50.0
200.0   30.0   33.333333333333336
200.0   0.0   50.0
250.0   30.0   50.0
250.0   0.0   50.0
250.0   0.0   33.333333333333336
200.0   0.0   50.0
250.0   30.0   50.0
250.0   0.0   33.333333333333336
200.0   30.0   33.333333333333336
200.0   30.0   0.0
250.0   30.0   0.0
200.0   60.0   0.0
200.0   30.0   16.666666666666668
250.0   30.0   0.0
250.0   60.0   0.0
200.0   60.0   0.0
250.0   60.0   16.666666666666668
200.0   30.0   16.666666666666668
200.0   60.0   16.666666666666668
250.0   60.0   16.666666666666668
200.0   60.0   0.0
200.0   30.0   16.666666666666668
250.0   60.0   16.666666666666668
250.0   30.0   16.666666666666668
250.0   30.0   0.0
200.0   30.0   16.666666666666668
250.0   60.0   16.666666666666668
250.0   30.0   0.0
200.0   60.0   0.0
200.0   30.0   16.666666666666668
250.0   30.0   16.666666666666668
200.0   60.0   16.666666666666668
200.0   30.0   33.333333333333336
250.0   30.0   16.666666666666668
250.0   60.0   16.666666666666668
200.0   60.0   16.666666666666668
250.0   60.0   33.333333333333336
200.0   30.0   33.333333333333336
200.0   60.0   33.333333333333336
250.0   60.0   33.333333333333336
200.0   60.0   16.666666666666668
200.0   30.0   33.333333333333336
250.0   60.0   33.333333333333336
250.0   30.0   33.333333333333336
250.0   30.0   16.666666666666668
200.0   30.0   33.333333333333336
250.0   60.0   33.333333333333336
250.0   30.0   16.666666666666668
200.0   60.0   16.666666666666668
200.0   30.0   33.333333333333336
250.0   30.0   33.333333333333336
200.0   60.0   33.333333333333336
200.0   30.0   50.0
250.0   30.0   33.333333333333336
250.0   60.0   33.333333333333336
200.0   60.0   33.333333333333336
250.0   60.0   50.0
200.0   30.0   50.0
200.0   60.0   50.0
250.0   60.0   50.0
200.0   60.0   33.333333333333336
200.0   30.0   50.0
250.0   60.0   50.0
250.0   30.0   50.0
250.0   30.0   33.333333333333336
200.0   30.0   50.0
250.0   60.0   50.0
250.0   30.0   33.333333333333336
200.0   60.0   33.333333333333336
200.0   60.0   0.0
250.0   60.0   0.0
200.0   90.0   0.0
200.0   60.0   16.666666666666668
250.0   60.0   0.0
250.0   90.0   0.0
200.0   90.0   0.0
250.0   90.0   16.666666666666668
200.0   60.0   16.666666666666668
200.0   90.0   16.666666666666668
250.0   90.0   16.666666666666668
200.0   90.0   0.0
200.0   60.0   16.666666666666668
250.0   90.0   16.666666666666668
250.0   60.0   16.666666666666668
250.0   60.0   0.0
200.0   60.0   16.666666666666668
250.0   90.0   16.666666666666668
250.0   60.0   0.0
200.0   90.0   0.0
200.0   60.0   16.666666666666668
250.0   60.0   16.666666666666668
200.0   90.0   16.666666666666668
200.0   60.0   33.333333333333336
250.0   60.0   16.666666666666668
250.0   90.0   16.666666666666668
200.0   90.0   16.666666666666668
250.0   90.0   33.333333333333336
200.0   60.0   33.333333333333336
200.0   90.0   33.333333333333336
250.0   90.0   33.333333333333336
200.0   90.0   16.666666666666668
200.0   60.0   33.333333333333336
250.0   90.0   33.333333333333336
250.0   60.0   33.333333333333336
250.0   60.0   16.666666666666668
200.0   60.0   33.333333333333336
250.0   90.0   33.333333333333336
250.0   60.0   16.666666666666668
200.0   90.0   16.666666666666668
200.0   60.0   33.333333333333336
250.0   60.0   33.333333333333336
200.0   90.0   33.333333333333336
200.0   60.0   50.0
250.0   60.0   33.333333333333336
250.0   90.0   33.333333333333336
200.0   90.0   33.333333333333336
250.0   90.0   50.0
200.0   60.0   50.0
200.0   90.0   50.0
250.0   90.0   50.0
200.0   90.0   33.333333333333336
200.0   60.0   50.0
250.0   90.0   50.0
250.0   60.0   50.0
250.0   60.0   33.333333333333336
200.0   60.0   50.0
250.0   90.0   50.0
250.0   60.0   33.333333333333336
200.0   90.0   33.333333333333336
200.0   90.0   0.0
250.0   90.0   0.0
200.0   120.0   0.0
200.0   90.0   16.666666666666668
250.0   90.0   0.0
250.0   120.0   0.0
200.0   120.0   0.0
250.0   120.0   16.666666666666668
200.0   90.0   16.666666666666668
200.0   120.0   16.666666666666668
250.0   120.0   16.666666666666668
200.0   120.0   0.0
200.0   90.0   16.666666666666668
250.0   120.0   16.666666666666668
250.0   90.0   16.666666666666668
250.0   90.0   0.0
200.0   90.0   16.666666666666668
250.0   120.0   16.666666666666668
250.0   90.0   0.0
200.0   120.0   0.0
200.0   90.0   16.666666666666668
250.0   90.0   16.666666666666668
200.0   120.0   16.666666666666668
200.0   90.0   33.333333333333336
250.0   90.0   16.666666666666668
250.0   120.0   16.666666666666668
200.0   120.0   16.666666666666668
250.0   120.0   33.333333333333336
200.0   90.0   33.333333333333336
200.0   120.0   33.333333333333336
250.0   120.0   33.333333333333336
200.0   120.0   16.666666666666668
200.0   90.0   33.333333333333336
250.0   120.0   33.333333333333336
250.0   90.0   33.333333333333336
250.0   90.0   16.666666666666668
200.0   90.0   33.333333333333336
250.0   120.0   33.333333333333336
250.0   90.0   16.666666666666668
200.0   120.0   16.666666666666668
200.0   90.0   33.333333333333336
250.0   90.0   33.333333333333336
200.0   120.0   33.333333333333336
200.0   90.0   50.0
250.0   90.0   33.333333333333336
250.0   120.0   33.333333333333336
200.0   120.0   33.333333333333336
250.0   120.0   50.0
200.0   90.0   50.0
200.0   120.0   50.0
250.0   120.0   50.0
200.0   120.0   33.333333333333336
200.0   90.0   50.0
250.0   120.0   50.0
250.0   90.0   50.0
250.0   90.0   33.333333333333336
200.0   90.0   50.0
250.0   120.0   50.0
250.0   90.0   33.333333333333336
200.0   120.0   33.333333333333336
200.0   120.0   0.0
250.0   120.0   0.0
200.0   150.0   0.0
200.0   120.0   16.666666666666668
250.0   120.0   0.0
250.0   150.0   0.0
200.0   150.0   0.0
250.0   150.0   16.666666666666668
200.0   120.0   16.666666666666668
200.0   150.0   16.666666666666668
250.0   150.0   16.666666666666668
200.0   150.0   0.0
200.0   120.0   16.666666666666668
250.0   150.0   16.666666666666668
250.0   120.0   16.666666666666668
250.0   120.0   0.0
200.0   120.0   16.666666666666668
250.0   150.0   16.666666666666668
250.0   120.0   0.0
200.0   150.0   0.0
200.0   120.0   16.666666666666668
250.0   120.0   16.666666666666668
200.0   150.0   16.666666666666668
200.0   120.0   33.333333333333336
250.0   120.0   16.666666666666668
250.0   150.0   16.666666666666668
200.0   150.0   16.666666666666668
250.0   150.0   33.333333333333336
200.0   120.0   33.333333333333336
200.0   150.0   33.333333333333336
250.0   150.0   33.333333333333336
200.0   150.0   16.666666666666668
200.0   120.0   33.333333333333336
250.0   150.0   33.333333333333336
250.0   120.0   33.333333333333336
250.0   120.0   16.666666666666668
200.0   120.0   33.333333333333336
250.0   150.0   33.333333333333336
250.0   120.0   16.666666666666668
200.0   150.0   16.666666666666668
200.0   120.0   33.333333333333336
250.0   120.0   33.333333333333336
200.0   150.0   33.333333333333336
200.0   120.0   50.0
250.0   120.0   33.333333333333336
250.0   150.0   33.333333333333336
200.0   150.0   33.333333333333336
250.0   150.0   50.0
200.0   120.0   50.0
200.0   150.0   50.0
250.0   150.0   50.0
200.0   150.0   33.333333333333336
200.0   120.0   50.0
250.0   150.0   50.0
250.0   120.0   50.0
250.0   120.0   33.333333333333336
200.0   120.0   50.0
250.0   150.0   50.0
250.0   120.0   33.333333333333336
200.0   150.0   33.333333333333336
250.0   0.0   0.0
300.0   0.0   0.0
250.0   30.0   0.0
250.0   0.0   16.666666666666668
300.0   0.0   0.0
300.0   30.0   0.0
250.0   30.0   0.0
300.0   30.0   16.666666666666668
250.0   0.0   16.666666666666668
250.0   30.0   16.666666666666668
300.0   30.0   16.666666666666668
250.0   30.0   0.0
250.0   0.0   16.666666666666668
300.0   30.0   16.666666666666668
300.0   0.0   16.666666666666668
300.0   0.0   0.0
250.0   0.0   16.666666666666668
300.0   30.0   16.666666666666668
300.0   0.0   0.0
250.0   30.0   0.0
250.0   0.0   16.666666666666668
300.0   0.0   16.666666666666668
250.0   30.0   16.666666666666668
250.0   0.0   33.333333333333336
300.0   0.0   16.666666666666668
300.0   30.0   16.666666666666668
250.0   30.0   16.666666666666668
300.0   30.0   33.333333333333336
250.0   0.0   33.333333333333336
250.0   30.0   33.333333333333336
300.0   30.0   33.333333333333336
250.0   30.0   16.666666666666668
250.0   0.0   33.333333333333336
300.0   30.0   33.333333333333336
300.0   0.0   33.333333333333336
300.0   0.0   16.666666666666668
250.0   0.0   33.333333333333336
300.0   30.0   33.333333333333336
300.0   0.0   16.666666666666668
250.0   30.0   16.666666666666668
250.0   0.0   33.333333333333336
300.0   0.0   33.333333333333336
250.0   30.0   33.333333333333336
250.0   0.0   50.0
300.0   0.0   33.333333333333336
300.0   30.0   33.333333333333336
250.0   30.0   33.333333333333336
300.0   30.0   50.0
250.0   0.0   50.0
250.0   30.0   50.0
300.0   30.0   50.0
250.0   30.0   33.333333333333336
250.0   0.0   50.0
300.0   30.0   50.0
300.0   0.0   50.0
300.0   0.0   33.333333333333336
250.0   0.0   50.0
300.0   30.0   50.0
300.0   0.0   33.333333333333336
250.0   30.0   33.333333333333336
250.0   30.0   0.0
300.0   30.0   0.0
250.0   60.0   0.0
250.0   30.0   16.666666666666668
300.0   30.0   0.0
300.0   60.0   0.0
250.0   60.0   0.0
300.0   60.0   16.666666666666668
250.0   30.0   16.666666666666668
250.0   60.0   16.666666666666668
300.0   60.0   16.666666666666668
250.0   60.0   0.0
250.0   30.0   16.666666666666668
300.0   60.0   16.666666666666668
300.0   30.0   16.666666666666668
300.0   30.0   0.0
250.0   30.0   16.666666666666668
300.0   60.0   16.666666666666668
300.0   30.0   0.0
250.0   60.0   0.0
250.0   30.0   16.666666666666668
300.0   30.0   16.666666666666668
250.0   60.0   16.666666666666668
250.0   30.0   33.333333333333336
300.0   30.0   16.666666666666668
300.0   60.0   16.666666666666668
250.0   60.0   16.666666666666668
300.0   60.0   33.333333333333336
250.0   30.0   33.333333333333336
250.0   60.0   33.333333333333336
300.0   60.0   33.333333333333336
250.0   60.0   16.666666666666668
250.0   30.0   33.333333333333336
300.0   60.0   33.333333333333336
300.0   30.0   33.333333333333336
300.0   30.0   16.666666666666668
250.0   30.0   33.333333333333336
300.0   60.0   33.333333333333336
300.0   30.0   16.666666666666668
250.0   60.0   16.666666666666668
250.0   30.0   33.333333333333336
300.0   30.0   33.333333333333336
250.0   60.0   33.333333333333336
250.0   30.0   50.0
300.0   30.0   33.333333333333336
300.0   60.0   33.333333333333336
250.0   60.0   33.333333333333336
300.0   60.0   50.0
250.0   30.0   50.0
250.0   60.0   50.0
300.0   60.0   50.0
250.0   60.0   33.333333333333336
250.0   30.0   50.0
300.0   60.0   50.0
300.0   30.0   50.0
300.0   30.0   33.333333333333336
250.0   30.0   50.0
300.0   60.0   50.0
300.0   30.0   33.333333333333336
250.0   60.0   33.333333333333336
250.0   60.0   0.0
300.0   60.0   0.0
250.0   90.0   0.0
250.0   60.0   16.666666666666668
300.0   60.0   0.0
300.0   90.0   0.0
250.0   90.0   0.0
300.0   90.0   16.666666666666668
250.0   60.0   16.666666666666668
250.0   90.0   16.666666666666668
300.0   90.0   16.666666666666668
250.0   90.0   0.0
250.0   60.0   16.666666666666668
300.0   90.0   16.666666666666668
300.0   60.0   16.666666666666668
300.0   60.0   0.0
250.0   60.0   16.666666666666668
300.0   90.0   16.666666666666668
300.0   60.0   0.0
250.0   90.0   0.0
250.0   60.0   16.666666666666668
300.0   60.0   16.666666666666668
250.0   90.0   16.666666666666668
250.0   60.0   33.333333333333336
300.0   60.0   16.666666666666668
300.0   90.0   16.666666666666668
250.0   90.0   16.666666666666668
300.0   90.0   33.333333333333336
250.0   60.0   33.333333333333336
250.0   90.0   33.333333333333336
300.0   90.0   33.333333333333336
250.0   90.0   16.666666666666668
250.0   60.0   33.333333333333336
300.0   90.0   33.333333333333336
300.0   60.0   33.333333333333336
300.0   60.0   16.666666666666668
250.0   60.0   33.333333333333336
300.0   90.0   33.333333333333336
300.0   60.0   16.666666666666668
250.0   90.0   16.666666666666668
250.0   60.0   33.333333333333336
300.0   60.0   33.333333333333336
250.0   90.0   33.333333333333336
250.0   60.0   50.0
300.0   60.0   33.333333333333336
300.0   90.0   33.333333333333336
250.0   90.0   33.333333333333336
300.0   90.0   50.0
250.0   60.0   50.0
250.0   90.0   50.0
300.0   90.0   50.0
250.0   90.0   33.333333333333336
250.0   60.0   50.0
300.0   90.0   50.0
300.0   60.0   50.0
300.0   60.0   33.333333333333336
250.0   60.0   50.0
300.0   90.0   50.0
300.0   60.0   33.333333333333336
250.0   90.0   33.333333333333336
250.0   90.0   0.0
300.0   90.0   0.0
250.0   120.0   0.0
250.0   90.0   16.666666666666668
300.0   90.0   0.0
300.0   120.0   0.0
250.0   120.0   0.0
300.0   120.0   16.666666666666668
250.0   90.0   16.666666666666668
250.0   120.0   16.666666666666668
300.0   120.0   16.666666666666668
250.0   120.0   0.0
250.0   90.0   16.666666666666668
300.0   120.0   16.666666666666668
300.0   90.0   16.666666666666668
300.0   90.0   0.0
250.0   90.0   16.666666666666668
300.0   120.0   16.666666666666668
300.0   90.0   0.0
250.0   120.0   0.0
250.0   90.0   16.666666666666668
300.0   90.0   16.666666666666668
250.0   120.0   16.666666666666668
250.0   90.0   33.333333333333336
300.0   90.0   16.666666666666668
300.0   120.0   16.666666666666668
250.0   120.0   16.666666666666668
300.0   120.0   33.333333333333336
250.0   90.0   33.333333333333336
250.0   120.0   33.333333333333336
300.0   120.0   33.333333333333336
250.0   120.0   16.666666666666668
250.0   90.0   33.333333333333336
300.0   120.0   33.333333333333336
300.0   90.0   33.333333333333336
300.0   90.0   16.666666666666668
250.0   90.0   33.333333333333336
300.0   120.0   33.333333333333336
300.0   90.0   16.666666666666668
250.0   120.0   16.666666666666668
250.0   90.0   33.333333333333336
300.0   90.0   33.333333333333336
250.0   120.0   33.333333333333336
250.0   90.0   50.0
300.0   90.0   33.333333333333336
300.0   120.0   33.333333333333336
250.0   120.0   33.333333333333336
300.0   120.0   50.0
250.0   90.0   50.0
250.0   120.0   50.0
300.0   120.0   50.0
250.0   120.0   33.333333333333336
250.0   90.0   50.0
300.0   120.0   50.0
300.0   90.0   50.0
300.0   90.0   33.333333333333336
250.0   90.0   50.0
300.0   120.0   50.0
300.0   90.0   33.333333333333336
250.0   120.0   33.333333333333336
250.0   120.0   0.0
300.0   120.0   0.0
250.0   150.0   0.0
250.0   120.0   16.666666666666668
300.0   120.0   0.0
300.0   150.0   0.0
250.0   150.0   0.0
300.0   150.0   16.666666666666668
250.0   120.0   16.666666666666668
250.0   150.0   16.666666666666668
300.0   150.0   16.666666666666668
250.0   150.0   0.0
250.0   120.0   16.666666666666668
300.0   150.0   16.666666666666668
300.0   120.0   16.666666666666668
300.0   120.0   0.0
250.0   120.0   16.666666666666668
300.0   150.0   16.666666666666668
300.0   120.0   0.0
250.0   150.0   0.0
250.0   120.0   16.666666666666668
300.0   120.0   16.666666666666668
250.0   150.0   16.666666666666668
250.0   120.0   33.333333333333336
300.0   120.0   16.666666666666668
300.0   150.0   16.666666666666668
250.0   150.0   16.666666666666668
300.0   150.0   33.333333333333336
250.0   120.0   33.333333333333336
250.0   150.0   33.333333333333336
300.0   150.0   33.333333333333336
250.0   150.0   16.666666666666668
250.0   120.0   33.333333333333336
300.0   150.0   33.333333333333336
300.0   120.0   33.333333333333336
300.0   120.0   16.666666666666668
250.0   120.0   33.333333333333336
300.0   150.0   33.333333333333336
300.0   120.0   16.666666666666668
250.0   150.0   16.666666666666668
250.0   120.0   33.333333333333336
300.0   120.0   33.333333333333336
250.0   150.0   33.333333333333336
250.0   120.0   50.0
300.0   120.0   33.333333333333336
300.0   150.0   33.333333333333336
250.0   150.0   33.333333333333336
300.0   150.0   50.0
250.0   120.0   50.0
250.0   150.0   50.0
300.0   150.0   50.0
250.0   150.0   33.333333333333336
250.0   120.0   50.0
300.0   150.0   50.0
300.0   120.0   50.0
300.0   120.0   33.333333333333336
250.0   120.0   50.0
300.0   150.0   50.0
300.0   120.0   33.333333333333336
250.0   150.0   33.333333333333336
300.0   0.0   0.0
350.0   0.0   0.0
300.0   30.0   0.0
300.0   0.0   16.666666666666668
350.0   0.0   0.0
350.0   30.0   0.0
300.0   30.0   0.0
350.0   30.0   16.666666666666668
300.0   0.0   16.666666666666668
300.0   30.0   16.666666666666668
350.0   30.0   16.666666666666668
300.0   30.0   0.0
300.0   0.0   16.666666666666668
350.0   30.0   16.666666666666668
350.0   0.0   16.666666666666668
350.0   0.0   0.0
300.0   0.0   16.666666666666668
350.0   30.0   16.666666666666668
350.0   0.0   0.0
300.0   30.0   0.0
300.0   0.0   16.666666666666668
350.0   0.0   16.666666666666668
300.0   30.0   16.666666666666668
300.0   0.0   33.333333333333336
350.0   0.0   16.666666666666668
350.0   30.0   16.666666666666668
300.0   30.0   16.666666666666668
350.0   30.0   33.333333333333336
300.0   0.0   33.333333333333336
300.0   30.0   33.333333333333336
350.0   30.0   33.333333333333336
300.0   30.0   16.666666666666668
300.0   0.0   33.333333333333336
350.0   30.0   33.333333333333336
350.0   0.0   33.333333333333336
350.0   0.0   16.666666666666668
300.0   0.0   33.333333333333336
350.0   30.0   33.333333333333336
350.0   0.0   16.666666666666668
300.0   30.0   16.666666666666668
300.0   0.0   33.333333333333336
350.0   0.0   33.333333333333336
300.0   30.0   33.333333333333336
300.0   0.0   50.0
350.0   0.0   33.333333333333336
350.0   30.0   33.333333333333336
300.0   30.0   33.333333333333336
350.0   30.0   50.0
300.0   0.0   50.0
300.0   30.0   50.0
350.0   30.0   50.0
300.0   30.0   33.333333333333336
300.0   0.0   50.0
350.0   30.0   50.0
350.0   0.0   50.0
350.0   0.0   33.333333333333336
300.0   0.0   50.0
350.0   30.0   50.0
350.0   0.0   33.333333333333336
300.0   30.0   33.333333333333336
300.0   30.0   0.0
350.0   30.0   0.0
300.0   60.0   0.0
300.0   30.0   16.666666666666668
350.0   30.0   0.0
350.0   60.0   0.0
300.0   60.0   0.0
350.0   60.0   16.666666666666668
300.0   30.0   16.666666666666668
300.0   60.0   16.666666666666668
350.0   60.0   16.666666666666668
300.0   60.0   0.0
300.0   30.0   16.666666666666668
350.0   60.0   16.666666666666668
350.0   30.0   16.666666666666668
350.0   30.0   0.0
300.0   30.0   16.666666666666668
350.0   60.0   16.666666666666668
350.0   30.0   0.0
300.0   60.0   0.0
300.0   30.0   16.666666666666668
350.0   30.0   16.666666666666668
300.0   60.0   16.666666666666668
300.0   30.0   33.333333333333336
350.0   30.0   16.666666666666668
350.0   60.0   16.666666666666668
300.0   60.0   16.666666666666668
350.0   60.0   33.333333333333336
300.0   30.0   33.333333333333336
300.0   60.0   33.333333333333336
350.0   60.0   33.333333333333336
300.0   60.0   16.666666666666668
300.0   30.0   33.333333333333336
350.0   60.0   33.333333333333336
350.0   30.0   33.333333333333336
350.0   30.0   16.666666666666668
300.0   30.0   33.333333333333336
350.0   60.0   33.333333333333336
350.0   30.0   16.666666666666668
300.0   60.0   16.666666666666668
300.0   30.0   33.333333333333336
350.0   30.0   33.333333333333336
300.0   60.0   33.333333333333336
300.0   30.0   50.0
350.0   30.0   33.333333333333336
350.0   60.0   33.333333333333336
300.0   60.0   33.333333333333336
350.0   60.0   50.0
300.0   30.0   50.0
300.0   60.0   50.0
350.0   60.0   50.0
300.0   60.0   33.333333333333336
300.0   30.0   50.0
350.0   60.0   50.0
350.0   30.0   50.0
350.0   30.0   33.333333333333336
300.0   30.0   50.0
350.0   60.0   50.0
350.0   30.0   33.333333333333336
300.0   60.0   33.333333333333336
300.0   60.0   0.0
350.0   60.0   0.0
300.0   90.0   0.0
300.0   60.0   16.666666666666668
350.0   60.0   0.0
350.0   90.0   0.0
300.0   90.0   0.0
350.0   90.0   16.666666666666668
300.0   60.0   16.666666666666668
300.0   90.0   16.666666666666668
350.0   90.0   16.666666666666668
300.0   90.0   0.0
300.0   60.0   16.666666666666668
350.0   90.0   16.666666666666668
350.0   60.0   16.666666666666668
350.0   60.0   0.0
300.0   60.0   16.666666666666668
350.0   90.0   16.666666666666668
350.0   60.0   0.0
300.0   90.0   0.0
300.0   60.0   16.666666666666668
350.0   60.0   16.666666666666668
300.0   90.0   16.666666666666668
300.0   60.0   33.333333333333336
350.0   60.0   16.666666666666668
350.0   90.0   16.666666666666668
300.0   90.0   16.666666666666668
350.0   90.0   33.333333333333336
300.0   60.0   33.333333333333336
300.0   90.0   33.333333333333336
350.0   90.0   33.333333333333336
300.0   90.0   16.666666666666668
300.0   60.0   33.333333333333336
350.0   90.0   33.333333333333336
350.0   60.0   33.333333333333336
350.0   60.0   16.666666666666668
300.0   60.0   33.333333333333336
350.0   90.0   33.333333333333336
350.0   60.0   16.666666666666668
300.0   90.0   16.666666666666668
300.0   60.0   33.333333333333336
350.0   60.0   33.333333333333336
300.0   90.0   33.333333333333336
300.0   60.0   50.0
350.0   60.0   33.333333333333336
350.0   90.0   33.333333333333336
300.0   90.0   33.333333333333336
350.0   90.0   50.0
300.0   60.0   50.0
300.0   90.0   50.0
350.0   90.0   50.0
300.0   90.0   33.333333333333336
300.0   60.0   50.0
350.0   90.0   50.0
350.0   60.0   50.0
350.0   60.0   33.333333333333336
300.0   60.0   50.0
350.0   90.0   50.0
350.0   60.0   33.333333333333336
300.0   90.0   33.333333333333336
300.0   90.0   0.0
350.0   90.0   0.0
300.0   120.0   0.0
300.0   90.0   16.666666666666668
350.0   90.0   0.0
350.0   120.0   0.0
300.0   120.0   0.0
350.0   120.0   16.666666666666668
300.0   90.0   16.666666666666668
300.0   120.0   16.666666666666668
350.0   120.0   16.666666666666668
300.0   120.0   0.0
300.0   90.0   16.666666666666668
350.0   120.0   16.666666666666668
350.0   90.0   16.666666666666668
350.0   90.0   0.0
300.0   90.0   16.666666666666668
350.0   120.0   16.666666666666668
350.0   90.0   0.0
300.0   120.0   0.0
300.0   90.0   16.666666666666668
350.0   90.0   16.666666666666668
300.0   120.0   16.666666666666668
300.0   90.0   33.333333333333336
350.0   90.0   16.666666666666668
350.0   120.0   16.666666666666668
300.0   120.0   16.666666666666668
350.0   120.0   33.333333333333336
300.0   90.0   33.333333333333336
300.0   120.0   33.333333333333336
350.0   120.0   33.333333333333336
300.0   120.0   16.666666666666668
300.0   90.0   33.333333333333336
350.0   120.0   33.333333333333336
350.0   90.0   33.333333333333336
350.0   90.0   16.666666666666668
300.0   90.0   33.333333333333336
350.0   120.0   33.333333333333336
350.0   90.0   16.666666666666668
300.0   120.0   16.666666666666668
300.0   90.0   33.333333333333336
350.0   90.0   33.333333333333336
300.0   120.0   33.333333333333336
300.0   90.0   50.0
350.0   90.0   33.333333333333336
350.0   120.0   33.333333333333336
300.0   120.0   33.333333333333336
350.0   120.0   50.0
300.0   90.0   50.0
300.0   120.0   50.0
350.0   120.0   50.0
300.0   120.0   33.333333333333336
300.0   90.0   50.0
350.0   120.0   50.0
350.0   90.0   50.0
350.0   90.0   33.333333333333336
300.0   90.0   50.0
350.0   120.0   50.0
350.0   90.0   33.333333333333336
300.0   120.0   33.333333333333336
300.0   120.0   0.0
350.0   120.0   0.0
300.0   150.0   0.0
300.0   120.0   16.666666666666668
350.0   120.0   0.0
350.0   150.0   0.0
300.0   150.0   0.0
350.0   150.0   16.666666666666668
300.0   120.0   16.666666666666668
300.0   150.0   16.666666666666668
350.0   150.0   16.666666666666668
300.0   150.0   0.0
300.0   120.0   16.666666666666668
350.0   150.0   16.666666666666668
350.0   120.0   16.666666666666668
350.0   120.0   0.0
300.0   120.0   16.666666666666668
350.0   150.0   16.666666666666668
350.0   120.0   0.0
300.0   150.0   0.0
300.0   120.0   16.666666666666668
350.0   120.0   16.666666666666668
300.0   150.0   16.666666666666668
300.0   120.0   33.333333333333336
350.0   120.0   16.666666666666668
350.0   150.0   16.666666666666668
300.0   150.0   16.666666666666668
350.0   150.0   33.333333333333336
300.0   120.0   33.333333333333336
300.0   150.0   33.333333333333336
350.0   150.0   33.333333333333336
300.0   150.0   16.666666666666668
300.0   120.0   33.333333333333336
350.0   150.0   33.333333333333336
350.0   120.0   33.333333333333336
350.0   120.0   16.666666666666668
300.0   120.0   33.333333333333336
350.0   150.0   33.333333333333336
350.0   120.0   16.666666666666668
300.0   150.0   16.666666666666668
300.0   120.0   33.333333333333336
350.0   120.0   33.333333333333336
300.0   150.0   33.333333333333336
300.0   120.0   50.0
350.0   120.0   33.333333333333336
350.0   150.0   33.333333333333336
300.0   150.0   33.333333333333336
350.0   150.0   50.0
300.0   120.0   50.0
300.0   150.0   50.0
350.0   150.0   50.0
300.0   150.0   33.333333333333336
300.0   120.0   50.0
350.0   150.0   50.0
350.0   120.0   50.0
350.0   120.0   33.333333333333336
300.0   120.0   50.0
350.0   150.0   50.0
350.0   120.0   33.333333333333336
300.0   150.0   33.333333333333336
350.0   0.0   0.0
400.0   0.0   0.0
350.0   30.0   0.0
350.0   0.0   16.666666666666668
400.0   0.0   0.0
400.0   30.0   0.0
350.0   30.0   0.0
400.0   30.0   16.666666666666668
350.0   0.0   16.666666666666668
350.0   30.0   16.666666666666668
400.0   30.0   16.666666666666668
350.0   30.0   0.0
350.0   0.0   16.666666666666668
400.0   30.0   16.666666666666668
400.0   0.0   16.666666666666668
400.0   0.0   0.0
350.0   0.0   16.666666666666668
400.0   30.0   16.666666666666668
400.0   0.0   0.0
350.0   30.0   0.0
350.0   0.0   16.666666666666668
400.0   0.0   16.666666666666668
350.0   30.0   16.666666666666668
350.0   0.0   33.333333333333336
400.0   0.0   16.666666666666668
400.0   30.0   16.666666666666668
350.0   30.0   16.666666666666668
400.0   30.0   33.333333333333336
350.0   0.0   33.333333333333336
350.0   30.0   33.333333333333336
400.0   30.0   33.333333333333336
350.0   30.0   16.666666666666668
350.0   0.0   33.333333333333336
400.0   30.0   33.333333333333336
400.0   0.0   33.333333333333336
400.0   0.0   16.666666666666668
350.0   0.0   33.333333333333336
400.0   30.0   33.333333333333336
400.0   0.0   16.666666666666668
350.0   30.0   16.666666666666668
350.0   0.0   33.333333333333336
400.0   0.0   33.333333333333336
350.0   30.0   33.333333333333336
350.0   0.0   50.0
400.0   0.0   33.333333333333336
400.0   30.0   33.333333333333336
350.0   30.0   33.333333333333336
400.0   30.0   50.0
350.0   0.0   50.0
350.0   30.0   50.0
400.0   30.0   50.0
350.0   30.0   33.333333333333336
350.0   0.0   50.0
400.0   30.0   50.0
400.0   0.0   50.0
400.0   0.0   33.333333333333336
350.0   0.0   50.0
400.0   30.0   50.0
400.0   0.0   33.333333333333336
350.0   30.0   33.333333333333336
350.0   30.0   0.0
400.0   30.0   0.0
350.0   60.0   0.0
350.0   30.0   16.666666666666668
400.0   30.0   0.0
400.0   60.0   0.0
350.0   60.0   0.0
400.0   60.0   16.666666666666668
350.0   30.0   16.666666666666668
350.0   60.0   16.666666666666668
400.0   60.0   16.666666666666668
350.0   60.0   0.0
350.0   30.0   16.666666666666668
400.0   60.0   16.666666666666668
400.0   30.0   16.666666666666668
400.0   30.0   0.0
350.0   30.0   16.666666666666668
400.0   60.0   16.666666666666668
400.0   30.0   0.0
350.0   60.0   0.0
350.0   30.0   16.666666666666668
400.0   30.0   16.666666666666668
350.0   60.0   16.666666666666668
350.0   30.0   33.333333333333336
400.0   30.0   16.666666666666668
400.0   60.0   16.666666666666668
350.0   60.0   16.666666666666668
400.0   60.0   33.333333333333336
350.0   30.0   33.333333333333336
350.0   60.0   33.333333333333336
400.0   60.0   33.333333333333336
350.0   60.0   16.666666666666668
350.0   30.0   33.333333333333336
400.0   60.0   33.333333333333336
400.0   30.0   33.333333333333336
400.0   30.0   16.666666666666668
350.0   30.0   33.333333333333336
400.0   60.0   33.333333333333336
400.0   30.0   16.666666666666668
350.0   60.0   16.666666666666668
350.0   30.0   33.333333333333336
400.0   30.0   33.333333333333336
350.0   60.0   33.333333333333336
350.0   30.0   50.0
400.0   30.0   33.333333333333336
400.0   60.0   33.333333333333336
350.0   60.0   33.333333333333336
400.0   60.0   50.0
350.0   30.0   50.0
350.0   60.0   50.0
400.0   60.0   50.0
350.0   60.0   33.333333333333336
350.0   30.0   50.0
400.0   60.0   50.0
400.0   30.0   50.0
400.0   30.0   33.333333333333336
350.0   30.0   50.0
400.0   60.0   50.0
400.0   30.0   33.333333333333336
350.0   60.0   33.333333333333336
350.0   60.0   0.0
400.0   60.0   0.0
350.0   90.0   0.0
350.0   60.0   16.666666666666668
400.0   60.0   0.0
400.0   90.0   0.0
350.0   90.0   0.0
400.0   90.0   16.666666666666668
350.0   60.0   16.666666666666668
350.0   90.0   16.666666666666668
400.0   90.0   16.666666666666668
350.0   90.0   0.0
350.0   60.0   16.666666666666668
400.0   90.0   16.666666666666668
400.0   60.0   16.666666666666668
400.0   60.0   0.0
350.0   60.0   16.666666666666668
400.0   90.0   16.666666666666668
400.0   60.0   0.0
350.0   90.0   0.0
350.0   60.0   16.666666666666668
400.0   60.0   16.666666666666668
350.0   90.0   16.666666666666668
350.0   60.0   33.333333333333336
400.0   60.0   16.666666666666668
400.0   90.0   16.666666666666668
350.0   90.0   16.666666666666668
400.0   90.0   33.333333333333336
350.0   60.0   33.333333333333336
350.0   90.0   33.333333333333336
400.0   90.0   33.333333333333336
350.0   90.0   16.666666666666668
350.0   60.0   33.333333333333336
400.0   90.0   33.333333333333336
400.0   60.0   33.333333333333336
400.0   60.0   16.666666666666668
350.0   60.0   33.333333333333336
400.0   90.0   33.333333333333336
400.0   60.0   16.666666666666668
350.0   90.0   16.666666666666668
350.0   60.0   33.333333333333336
400.0   60.0   33.333333333333336
350.0   90.0   33.333333333333336
350.0   60.0   50.0
400.0   60.0   33.333333333333336
400.0   90.0   33.333333333333336
350.0   90.0   33.333333333333336
400.0   90.0   50.0
350.0   60.0   50.0
350.0   90.0   50.0
400.0   90.0   50.0
350.0   90.0   33.333333333333336
350.0   60.0   50.0
400.0   90.0   50.0
400.0   60.0   50.0
400.0   60.0   33.333333333333336
350.0   60.0   50.0
400.0   90.0   50.0
400.0   60.0   33.333333333333336
350.0   90.0   33.333333333333336
350.0   90.0   0.0
400.0   90.0   0.0
350.0   120.0   0.0
350.0   90.0   16.666666666666668
400.0   90.0   0.0
400.0   120.0   0.0
350.0   120.0   0.0
400.0   120.0   16.666666666666668
350.0   90.0   16.666666666666668
350.0   120.0   16.666666666666668
400.0   120.0   16.666666666666668
350.0   120.0   0.0
350.0   90.0   16.666666666666668
400.0   120.0   16.666666666666668
400.0   90.0   16.666666666666668
400.0   90.0   0.0
350.0   90.0   16.666666666666668
400.0   120.0   16.666666666666668
400.0   90.0   0.0
350.0   120.0   0.0
350.0   90.0   16.666666666666668
400.0   90.0   16.666666666666668
350.0   120.0   16.666666666666668
350.0   90.0   33.333333333333336
400.0   90.0   16.666666666666668
400.0   120.0   16.666666666666668
350.0   120.0   16.666666666666668
400.0   120.0   33.333333333333336
350.0   90.0   33.333333333333336
350.0   120.0   33.333333333333336
400.0   120.0   33.333333333333336
350.0   120.0   16.666666666666668
350.0   90.0   33.333333333333336
400.0   120.0   33.333333333333336
400.0   90.0   33.333333333333336
400.0   90.0   16.666666666666668
350.0   90.0   33.333333333333336
400.0   120.0   33.333333333333336
400.0   90.0   16.666666666666668
350.0   120.0   16.666666666666668
350.0   90.0   33.333333333333336
400.0   90.0   33.333333333333336
350.0   120.0   33.333333333333336
350.0   90.0   50.0
400.0   90.0   33.333333333333336
400.0   120.0   33.333333333333336
350.0   120.0   33.333333333333336
400.0   120.0   50.0
350.0   90.0   50.0
350.0   120.0   50.0
400.0   120.0   50.0
350.0   120.0   33.333333333333336
350.0   90.0   50.0
400.0   120.0   50.0
400.0   90.0   50.0
400.0   90.0   33.333333333333336
350.0   90.0   50.0
400.0   120.0   50.0
400.0   90.0   33.333333333333336
350.0   120.0   33.333333333333336
350.0   120.0   0.0
400.0   120.0   0.0
350.0   150.0   0.0
350.0   120.0   16.666666666666668
400.0   120.0   0.0
400.0   150.0   0.0
350.0   150.0   0.0
400.0   150.0   16.666666666666668
350.0   120.0   16.666666666666668
350.0   150.0   16.666666666666668
400.0   150.0   16.666666666666668
350.0   150.0   0.0
350.0   120.0   16.666666666666668
400.0   150.0   16.666666666666668
400.0   120.0   16.666666666666668
400.0   120.0   0.0
350.0   120.0   16.666666666666668
400.0   150.0   16.666666666666668
400.0   120.0   0.0
350.0   150.0   0.0
350.0   120.0   16.666666666666668
400.0   120.0   16.666666666666668
350.0   150.0   16.666666666666668
350.0   120.0   33.333333333333336
400.0   120.0   16.666666666666668
400.0   150.0   16.666666666666668
350.0   150.0   16.666666666666668
400.0   150.0   33.333333333333336
350.0   120.0   33.333333333333336
350.0   150.0   33.333333333333336
400.0   150.0   33.333333333333336
350.0   150.0   16.666666666666668
350.0   120.0   33.333333333333336
400.0   150.0   33.333333333333336
400.0   120.0   33.333333333333336
400.0   120.0   16.666666666666668
350.0   120.0   33.333333333333336
400.0   150.0   33.333333333333336
400.0   120.0   16.666666666666668
350.0   150.0   16.666666666666668
350.0   120.0   33.333333333333336
400.0   120.0   33.333333333333336
350.0   150.0   33.333333333333336
350.0   120.0   50.0
400.0   120.0   33.333333333333336
400.0   150.0   33.333333333333336
350.0   150.0   33.333333333333336
400.0   150.0   50.0
350.0   120.0   50.0
350.0   150.0   50.0
400.0   150.0   50.0
350.0   150.0   33.333333333333336
350.0   120.0   50.0
400.0   150.0   50.0
400.0   120.0   50.0
400.0   120.0   33.333333333333336
350.0   120.0   50.0
400.0   150.0   50.0
400.0   120.0   33.333333333333336
350.0   150.0   33.333333333333336
400.0   0.0   0.0
450.0   0.0   0.0
400.0   30.0   0.0
400.0   0.0   16.666666666666668
450.0   0.0   0.0
450.0   30.0   0.0
400.0   30.0   0.0
450.0   30.0   16.666666666666668
400.0   0.0   16.666666666666668
400.0   30.0   16.666666666666668
450.0   30.0   16.666666666666668
400.0   30.0   0.0
400.0   0.0   16.666666666666668
450.0   30.0   16.666666666666668
450.0   0.0   16.666666666666668
450.0   0.0   0.0
400.0   0.0   16.666666666666668
450.0   30.0   16.666666666666668
450.0   0.0   0.0
400.0   30.0   0.0
400.0   0.0   16.666666666666668
450.0   0.0   16.666666666666668
400.0   30.0   16.666666666666668
400.0   0.0   33.333333333333336
450.0   0.0   16.666666666666668
450.0   30.0   16.666666666666668
400.0   30.0   16.666666666666668
450.0   30.0   33.333333333333336
400.0   0.0   33.333333333333336
400.0   30.0   33.333333333333336
450.0   30.0   33.333333333333336
400.0   30.0   16.666666666666668
400.0   0.0   33.333333333333336
450.0   30.0   33.333333333333336
450.0   0.0   33.333333333333336
450.0   0.0   16.666666666666668
400.0   0.0   33.333333333333336
450.0   30.0   33.333333333333336
450.0   0.0   16.666666666666668
400.0   30.0   16.666666666666668
400.0   0.0   33.333333333333336
450.0   0.0   33.333333333333336
400.0   30.0   33.333333333333336
400.0   0.0   50.0
450.0   0.0   33.333333333333336
450.0   30.0   33.333333333333336
400.0   30.0   33.333333333333336
450.0   30.0   50.0
400.0   0.0   50.0
400.0   30.0   50.0
450.0   30.0   50.0
400.0   30.0   33.333333333333336
400.0   0.0   50.0
450.0   30.0   50.0
450.0   0.0   50.0
450.0   0.0   33.333333333333336
400.0   0.0   50.0
450.0   30.0   50.0
450.0   0.0   33.333333333333336
400.0   30.0   33.333333333333336
400.0   30.0   0.0
450.0   30.0   0.0
400.0   60.0   0.0
400.0   30.0   16.666666666666668
450.0   30.0   0.0
450.0   60.0   0.0
400.0   60.0   0.0
450.0   60.0   16.666666666666668
400.0   30.0   16.666666666666668
400.0   60.0   16.666666666666668
450.0   60.0   16.666666666666668
400.0   60.0   0.0
400.0   30.0   16.666666666666668
450.0   60.0   16.666666666666668
450.0   30.0   16.666666666666668
450.0   30.0   0.0
400.0   30.0   16.666666666666668
450.0   60.0   16.666666666666668
450.0   30.0   0.0
400.0   60.0   0.0
400.0   30.0   16.666666666666668
450.0   30.0   16.666666666666668
400.0   60.0   16.666666666666668
400.0   30.0   33.333333333333336
450.0   30.0   16.666666666666668
450.0   60.0   16.666666666666668
400.0   60.0   16.666666666666668
450.0   60.0   33.333333333333336
400.0   30.0   33.333333333333336
400.0   60.0   33.333333333333336
450.0   60.0   33.333333333333336
400.0   60.0   16.666666666666668
400.0   30.0   33.333333333333336
450.0   60.0   33.333333333333336
450.0   30.0   33.333333333333336
450.0   30.0   16.666666666666668
400.0   30.0   33.333333333333336
450.0   60.0   33.333333333333336
450.0   30.0   16.666666666666668
400.0   60.0   16.666666666666668
400.0   30.0   33.333333333333336
450.0   30.0   33.333333333333336
400.0   60.0   33.333333333333336
400.0   30.0   50.0
450.0   30.0   33.333333333333336
450.0   60.0   33.333333333333336
400.0   60.0   33.333333333333336
450.0   60.0   50.0
400.0   30.0   50.0
400.0   60.0   50.0
450.0   60.0   50.0
400.0   60.0   33.333333333333336
400.0   30.0   50.0
450.0   60.0   50.0
450.0   30.0   50.0
450.0   30.0   33.333333333333336
400.0   30.0   50.0
450.0   60.0   50.0
450.0   30.0   33.333333333333336
400.0   60.0   33.333333333333336
400.0   60.0   0.0
450.0   60.0   0.0
400.0   90.0   0.0
400.0   60.0   16.666666666666668
450.0   60.0   0.0
450.0   90.0   0.0
400.0   90.0   0.0
450.0   90.0   16.666666666666668
400.0   60.0   16.666666666666668
400.0   90.0   16.666666666666668
450.0   90.0   16.666666666666668
400.0   90.0   0.0
400.0   60.0   16.666666666666668
450.0   90.0   16.666666666666668
450.0   60.0   16.666666666666668
450.0   60.0   0.0
400.0   60.0   16.666666666666668
450.0   90.0   16.666666666666668
450.0   60.0   0.0
400.0   90.0   0.0
400.0   60.0   16.666666666666668
450.0   60.0   16.666666666666668
400.0   90.0   16.666666666666668
400.0   60.0   33.333333333333336
450.0   60.0   16.666666666666668
450.0   90.0   16.666666666666668
400.0   90.0   16.666666666666668
450.0   90.0   33.333333333333336
400.0   60.0   33.333333333333336
400.0   90.0   33.333333333333336
450.0   90.0   33.333333333333336
400.0   90.0   16.666666666666668
400.0   60.0   33.333333333333336
450.0   90.0   33.333333333333336
450.0   60.0   33.333333333333336
450.0   60.0   16.666666666666668
400.0   60.0   33.333333333333336
450.0   90.0   33.333333333333336
450.0   60.0   16.666666666666668
400.0   90.0   16.666666666666668
400.0   60.0   33.333333333333336
450.0   60.0   33.333333333333336
400.0   90.0   33.333333333333336
400.0   60.0   50.0
450.0   60.0   33.333333333333336
450.0   90.0   33.333333333333336
400.0   90.0   33.333333333333336
450.0   90.0   50.0
400.0   60.0   50.0
400.0   90.0   50.0
450.0   90.0   50.0
400.0   90.0   33.333333333333336
400.0   60.0   50.0
450.0   90.0   50.0
450.0   60.0   50.0
450.0   60.0   33.333333333333336
400.0   60.0   50.0
450.0   90.0   50.0
450.0   60.0   33.333333333333336
400.0   90.0   33.333333333333336
400.0   90.0   0.0
450.0   90.0   0.0
400.0   120.0   0.0
400.0   90.0   16.666666666666668
450.0   90.0   0.0
450.0   120.0   0.0
400.0   120.0   0.0
450.0   120.0   16.666666666666668
400.0   90.0   16.666666666666668
400.0   120.0   16.666666666666668
450.0   120.0   16.666666666666668
400.0   120.0   0.0
400.0   90.0   16.666666666666668
450.0   120.0   16.666666666666668
450.0   90.0   16.666666666666668
450.0   90.0   0.0
400.0   90.0   16.666666666666668
450.0   120.0   16.666666666666668
450.0   90.0   0.0
400.0   120.0   0.0
400.0   90.0   16.666666666666668
450.0   90.0   16.666666666666668
400.0   120.0   16.666666666666668
400.0   90.0   33.333333333333336
450.0   90.0   16.666666666666668
450.0   120.0   16.666666666666668
400.0   120.0   16.666666666666668
450.0   120.0   33.333333333333336
400.0   90.0   33.333333333333336
400.0   120.0   33.333333333333336
450.0   120.0   33.333333333333336
400.0   120.0   16.666666666666668
400.0   90.0   33.333333333333336
450.0   120.0   33.333333333333336
450.0   90.0   33.333333333333336
450.0   90.0   16.666666666666668
400.0   90.0   33.333333333333336
450.0   120.0   33.333333333333336
450.0   90.0   16.666666666666668
400.0   120.0   16.666666666666668
400.0   90.0   33.333333333333336
450.0   90.0   33.333333333333336
400.0   120.0   33.333333333333336
400.0   90.0   50.0
450.0   90.0   33.333333333333336
450.0   120.0   33.333333333333336
400.0   120.0   33.333333333333336
450.0   120.0   50.0
400.0   90.0   50.0
400.0   120.0   50.0
450.0   120.0   50.0
400.0   120.0   33.333333333333336
400.0   90.0   50.0
450.0   120.0   50.0
450.0   90.0   50.0
450.0   90.0   33.333333333333336
400.0   90.0   50.0
450.0   120.0   50.0
450.0   90.0   33.333333333333336
400.0   120.0   33.333333333333336
400.0   120.0   0.0
450.0   120.0   0.0
400.0   150.0   0.0
400.0   120.0   16.666666666666668
450.0   120.0   0.0
450.0   150.0   0.0
400.0   150.0   0.0
450.0   150.0   16.666666666666668
400.0   120.0   16.666666666666668
400.0   150.0   16.666666666666668
450.0   150.0   16.666666666666668
400.0   150.0   0.0
400.0   120.0   16.666666666666668
450.0   150.0   16.666666666666668
450.0   120.0   16.666666666666668
450.0   120.0   0.0
400.0   120.0   16.666666666666668
450.0   150.0   16.666666666666668
450.0   120.0   0.0
400.0   150.0   0.0
400.0   120.0   16.666666666666668
450.0   120.0   16.666666666666668
400.0   150.0   16.666666666666668
400.0   120.0   33.333333333333336
450.0   120.0   16.666666666666668
450.0   150.0   16.666666666666668
400.0   150.0   16.666666666666668
450.0   150.0   33.333333333333336
400.0   120.0   33.333333333333336
400.0   150.0   33.333333333333336
450.0   150.0   33.333333333333336
400.0   150.0   16.666666666666668
400.0   120.0   33.333333333333336
450.0   150.0   33.333333333333336
450.0   120.0   33.333333333333336
450.0   120.0   16.666666666666668
400.0   120.0   33.333333333333336
450.0   150.0   33.333333333333336
450.0   120.0   16.666666666666668
400.0   150.0   16.666666666666668
400.0   120.0   33.333333333333336
450.0   120.0   33.333333333333336
400.0   150.0   33.333333333333336
400.0   120.0   50.0
450.0   120.0   33.333333333333336
450.0   150.0   33.333333333333336
400.0   150.0   33.333333333333336
450.0   150.0   50.0
400.0   120.0   50.0
400.0   150.0   50.0
450.0   150.0   50.0
400.0   150.0   33.333333333333336
400.0   120.0   50.0
450.0   150.0   50.0
450.0   120.0   50.0
450.0   120.0   33.333333333333336
400.0   120.0   50.0
450.0   150.0   50.0
450.0   120.0   33.333333333333336
400.0   150.0   33.333333333333336
450.0   0.0   0.0
500.0   0.0   0.0
450.0   30.0   0.0
450.0   0.0   16.666666666666668
500.0   0.0   0.0
500.0   30.0   0.0
450.0   30.0   0.0
500.0   30.0   16.666666666666668
450.0   0.0   16.666666666666668
450.0   30.0   16.666666666666668
500.0   30.0   16.666666666666668
450.0   30.0   0.0
450.0   0.0   16.666666666666668
500.0   30.0   16.666666666666668
500.0   0.0   16.666666666666668
500.0   0.0   0.0
450.0   0.0   16.666666666666668
500.0   30.0   16.666666666666668
500.0   0.0   0.0
450.0   30.0   0.0
450.0   0.0   16.666666666666668
500.0   0.0   16.666666666666668
450.0   30.0   16.666666666666668
450.0   0.0   33.333333333333336
500.0   0.0   16.666666666666668
500.0   30.0   16.666666666666668
450.0   30.0   16.666666666666668
500.0   30.0   33.333333333333336
450.0   0.0   33.333333333333336
450.0   30.0   33.333333333333336
500.0   30.0   33.333333333333336
450.0   30.0   16.666666666666668
450.0   0.0   33.333333333333336
500.0   30.0   33.333333333333336
500.0   0.0   33.333333333333336
500.0   0.0   16.666666666666668
450.0   0.0   33.333333333333336
500.0   30.0   33.333333333333336
500.0   0.0   16.666666666666668
450.0   30.0   16.666666666666668
450.0   0.0   33.333333333333336
500.0   0.0   33.333333333333336
450.0   30.0   33.333333333333336
450.0   0.0   50.0
500.0   0.0   33.333333333333336
500.0   30.0   33.333333333333336
450.0   30.0   33.333333333333336
500.0   30.0   50.0
450.0   0.0   50.0
450.0   30.0   50.0
500.0   30.0   50.0
450.0   30.0   33.333333333333336
450.0   0.0   50.0
500.0   30.0   50.0
500.0   0.0   50.0
500.0   0.0   33.333333333333336
450.0   0.0   50.0
500.0   30.0   50.0
500.0   0.0   33.333333333333336
450.0   30.0   33.333333333333336
450.0   30.0   0.0
500.0   30.0   0.0
450.0   60.0   0.0
450.0   30.0   16.666666666666668
500.0   30.0   0.0
500.0   60.0   0.0
450.0   60.0   0.0
500.0   60.0   16.666666666666668
450.0   30.0   16.666666666666668
450.0   60.0   16.666666666666668
500.0   60.0   16.666666666666668
450.0   60.0   0.0
450.0   30.0   16.666666666666668
500.0   60.0   16.666666666666668
500.0   30.0   16.666666666666668
500.0   30.0   0.0
450.0   30.0   16.666666666666668
500.0   60.0   16.666666666666668
500.0   30.0   0.0
450.0   60.0   0.0
450.0   30.0   16.666666666666668
500.0   30.0   16.666666666666668
450.0   60.0   16.666666666666668
450.0   30.0   33.333333333333336
500.0   30.0   16.666666666666668
500.0   60.0   16.666666666666668
450.0   60.0   16.666666666666668
500.0   60.0   33.333333333333336
450.0   30.0   33.333333333333336
450.0   60.0   33.333333333333336
500.0   60.0   33.333333333333336
450.0   60.0   16.666666666666668
450.0   30.0   33.333333333333336
500.0   60.0   33.333333333333336
500.0   30.0   33.333333333333336
500.0   30.0   16.666666666666668
450.0   30.0   33.333333333333336
500.0   60.0   33.333333333333336
500.0   30.0   16.666666666666668
450.0   60.0   16.666666666666668
450.0   30.0   33.333333333333336
500.0   30.0   33.333333333333336
450.0   60.0   33.333333333333336
450.0   30.0   50.0
500.0   30.0   33.333333333333336
500.0   60.0   33.333333333333336
450.0   60.0   33.333333333333336
500.0   60.0   50.0
450.0   30.0   50.0
450.0   60.0   50.0
500.0   60.0   50.0
450.0   60.0   33.333333333333336
450.0   30.0   50.0
500.0   60.0   50.0
500.0   30.0   50.0
500.0   30.0   33.333333333333336
450.0   30.0   50.0
500.0   60.0   50.0
500.0   30.0   33.333333333333336
450.0   60.0   33.333333333333336
450.0   60.0   0.0
500.0   60.0   0.0
450.0   90.0   0.0
450.0   60.0   16.666666666666668
500.0   60.0   0.0
500.0   90.0   0.0
450.0   90.0   0.0
500.0   90.0   16.666666666666668
450.0   60.0   16.666666666666668
450.0   90.0   16.666666666666668
500.0   90.0   16.666666666666668
450.0   90.0   0.0
450.0   60.0   16.666666666666668
500.0   90.0   16.666666666666668
500.0   60.0   16.666666666666668
500.0   60.0   0.0
450.0   60.0   16.666666666666668
500.0   90.0   16.666666666666668
500.0   60.0   0.0
450.0   90.0   0.0
450.0   60.0   16.666666666666668
500.0   60.0   16.666666666666668
450.0   90.0   16.666666666666668
450.0   60.0   33.333333333333336
500.0   60.0   16.666666666666668
500.0   90.0   16.666666666666668
450.0   90.0   16.666666666666668
500.0   90.0   33.333333333333336
450.0   60.0   33.333333333333336
450.0   90.0   33.333333333333336
500.0   90.0   33.333333333333336
450.0   90.0   16.666666666666668
450.0   60.0   33.333333333333336
500.0   90.0   33.333333333333336
500.0   60.0   33.333333333333336
500.0   60.0   16.666666666666668
450.0   60.0   33.333333333333336
500.0   90.0   33.333333333333336
500.0   60.0   16.666666666666668
450.0   90.0   16.666666666666668
450.0   60.0   33.333333333333336
500.0   60.0   33.333333333333336
450.0   90.0   33.333333333333336
450.0   60.0   50.0
500.0   60.0   33.333333333333336
500.0   90.0   33.333333333333336
450.0   90.0   33.333333333333336
500.0   90.0   50.0
450.0   60.0   50.0
450.0   90.0   50.0
500.0   90.0   50.0
450.0   90.0   33.333333333333336
450.0   60.0   50.0
500.0   90.0   50.0
500.0   60.0   50.0
500.0   60.0   33.333333333333336
450.0   60.0   50.0
500.0   90.0   50.0
500.0   60.0   33.333333333333336
450.0   90.0   33.333333333333336
450.0   90.0   0.0
500.0   90.0   0.0
450.0   120.0   0.0
450.0   90.0   16.666666666666668
500.0   90.0   0.0
500.0   120.0   0.0
450.0   120.0   0.0
500.0   120.0   16.666666666666668
450.0   90.0   16.666666666666668
450.0   120.0   16.666666666666668
500.0   120.0   16.666666666666668
450.0   120.0   0.0
450.0   90.0   16.666666666666668
500.0   120.0   16.666666666666668
500.0   90.0   16.666666666666668
500.0   90.0   0.0
450.0   90.0   16.666666666666668
500.0   120.0   16.666666666666668
500.0   90.0   0.0
450.0   120.0   0.0
450.0   90.0   16.666666666666668
500.0   90.0   16.666666666666668
450.0   120.0   16.666666666666668
450.0   90.0   33.333333333333336
500.0   90.0   16.666666666666668
500.0   120.0   16.666666666666668
450.0   120.0   16.666666666666668
500.0   120.0   33.333333333333336
450.0   90.0   33.333333333333336
450.0   120.0   33.333333333333336
500.0   120.0   33.333333333333336
450.0   120.0   16.666666666666668
450.0   90.0   33.333333333333336
500.0   120.0   33.333333333333336
500.0   90.0   33.333333333333336
500.0   90.0   16.666666666666668
450.0   90.0   33.333333333333336
500.0   120.0   33.333333333333336
500.0   90.0   16.666666666666668
450.0   120.0   16.666666666666668
450.0   90.0   33.333333333333336
500.0   90.0   33.333333333333336
450.0   120.0   33.333333333333336
450.0   90.0   50.0
500.0   90.0   33.333333333333336
500.0   120.0   33.333333333333336
450.0   120.0   33.333333333333336
500.0   120.0   50.0
450.0   90.0   50.0
450.0   120.0   50.0
500.0   120.0   50.0
450.0   120.0   33.333333333333336
450.0   90.0   50.0
500.0   120.0   50.0
500.0   90.0   50.0
500.0   90.0   33.333333333333336
450.0   90.0   50.0
500.0   120.0   50.0
500.0   90.0   33.333333333333336
450.0   120.0   33.333333333333336
450.0   120.0   0.0
500.0   120.0   0.0
450.0   150.0   0.0
450.0   120.0   16.666666666666668
500.0   120.0   0.0
500.0   150.0   0.0
450.0   150.0   0.0
500.0   150.0   16.666666666666668
450.0   120.0   16.666666666666668
450.0   150.0   16.666666666666668
500.0   150.0   16.666666666666668
450.0   150.0   0.0
450.0   120.0   16.666666666666668
500.0   150.0   16.666666666666668
500.0   120.0   16.666666666666668
500.0   120.0   0.0
450.0   120.0   16.666666666666668
500.0   150.0   16.666666666666668
500.0   120.0   0.0
450.0   150.0   0.0
450.0   120.0   16.666666666666668
500.0   120.0   16.666666666666668
450.0   150.0   16.666666666666668
450.0   120.0   33.333333333333336
500.0   120.0   16.666666666666668
500.0   150.0   16.666666666666668
450.0   150.0   16.666666666666668
500.0   150.0   33.333333333333336
450.0   120.0   33.333333333333336
450.0   150.0   33.333333333333336
500.0   150.0   33.333333333333336
450.0   150.0   16.666666666666668
450.0   120.0   33.333333333333336
500.0   150.0   33.333333333333336
500.0   120.0   33.333333333333336
500.0   120.0   16.666666666666668
450.0   120.0   33.333333333333336
500.0   150.0   33.333333333333336
500.0   120.0   16.666666666666668
450.0   150.0   16.666666666666668
450.0   120.0   33.333333333333336
500.0   120.0   33.333333333333336
450.0   150.0   33.333333333333336
450.0   120.0   50.0
500.0   120.0   33.333333333333336
500.0   150.0   33.333333333333336
450.0   150.0   33.333333333333336
500.0   150.0   50.0
450.0   120.0   50.0
450.0   150.0   50.0
500.0   150.0   50.0
450.0   150.0   33.333333333333336
450.0   120.0   50.0
500.0   150.0   50.0
500.0   120.0   50.0
500.0   120.0   33.333333333333336
450.0   120.0   50.0
500.0   150.0   50.0
500.0   120.0   33.333333333333336
450.0   150.0   33.333333333333336
             </DataArray>   
          </Points>  
          <Cells>  
             <DataArray type="Int32" Name="connectivity" format="ascii">   
0   1   2   3
4   5   6   7
8   9   10   11
12   13   14   15
16   17   18   19
20   21   22   23
24   25   26   27
28   29   30   31
32   33   34   35
36   37   38   39
40   41   42   43
44   45   46   47
48   49   50   51
52   53   54   55
56   57   58   59
60   61   62   63
64   65   66   67
68   69   70   71
72   73   74   75
76   77   78   79
80   81   82   83
84   85   86   87
88   89   90   91
92   93   94   95
96   97   98   99
100   101   102   103
104   105   106   107
108   109   110   111
112   113   114   115
116   117   118   119
120   121   122   123
124   125   126   127
128   129   130   131
132   133   134   135
136   137   138   139
140   141   142   143
144   145   146   147
148   149   150   151
152   153   154   155
156   157   158   159
160   161   162   163
164   165   166   167
168   169   170   171
172   173   174   175
176   177   178   179
180   181   182   183
184   185   186   187
188   189   190   191
192   193   194   195
196   197   198   199
200   201   202   203
204   205   206   207
208   209   210   211
212   213   214   215
216   217   218   219
220   221   222   223
224   225   226   227
228   229   230   231
232   233   234   235
236   237   238   239
240   241   242   243
244   245   246   247
248   249   250   251
252   253   254   255
256   257   258   259
260   261   262   263
264   265   266   267
268   269   270   271
272   273   274   275
276   277   278   279
280   281   282   283
284   285   286   287
288   289   290   291
292   293   294   295
296   297   298   299
300   301   302   303
304   305   306   307
308   309   310   311
312   313   314   315
316   317   318   319
320   321   322   323
324   325   326   327
328   329   330   331
332   333   334   335
336   337   338   339
340   341   342   343
344   345   346   347
348   349   350   351
352   353   354   355
356   357   358   359
360   361   362   363
364   365   366   367
368   369   370   371
372   373   374   375
376   377   378   379
380   381   382   383
384   385   386   387
388   389   390   391
392   393   394   395
396   397   398   399
400   401   402   403
404   405   406   407
408   409   410   411
412   413   414   415
416   417   418   419
420   421   422   423
424   425   426   427
428   429   430   431
432   433   434   435
436   437   438   439
440   441   442   443
444   445   446   447
448   449   450   451
452   453   454   455
456   457   458   459
460   461   462   463
464   465   466   467
468   469   470   471
472   473   474   475
476   477   478   479
480   481   482   483
484   485   486   487
488   489   490   491
492   493   494   495
496   497   498   499
500   501   502   503
504   505   506   507
508   509   510   511
512   513   514   515
516   517   518   519
520   521   522   523
524   525   526   527
528   529   530   531
532   533   534   535
536   537   538   539
540   541   542   543
544   545   546   547
548   549   550   551
552   553   554   555
556   557   558   559
560   561   562   563
564   565   566   567
568   569   570   571
572   573   574   575
576   577   578   579
580   581   582   583
584   585   586   587
588   589   590   591
592   593   594   595
596   597   598   599
600   601   602   603
604   605   606   607
608   609   610   611
612   613   614   615
616   617   618   619
620   621   622   623
624   625   626   627
628   629   630   631
632   633   634   635
636   637   638   639
640   641   642   643
644   645   646   647
648   649   650   651
652   653   654   655
656   657   658   659
660   661   662   663
664   665   666   667
668   669   670   671
672   673   674   675
676   677   678   679
680   681   682   683
684   685   686   687
688   689   690   691
692   693   694   695
696   697   698   699
700   701   702   703
704   705   706   707
708   709   710   711
712   713   714   715
716   717   718   719
720   721   722   723
724   725   726   727
728   729   730   731
732   733   734   735
736   737   738   739
740   741   742   743
744   745   746   747
748   749   750   751
752   753   754   755
756   757   758   759
760   761   762   763
764   765   766   767
768   769   770   771
772   773   774   775
776   777   778   779
780   781   782   783
784   785   786   787
788   789   790   791
792   793   794   795
796   797   798   799
800   801   802   803
804   805   806   807
808   809   810   811
812   813   814   815
816   817   818   819
820   821   822   823
824   825   826   827
828   829   830   831
832   833   834   835
836   837   838   839
840   841   842   843
844   845   846   847
848   849   850   851
852   853   854   855
856   857   858   859
860   861   862   863
864   865   866   867
868   869   870   871
872   873   874   875
876   877   878   879
880   881   882   883
884   885   886   887
888   889   890   891
892   893   894   895
896   897   898   899
900   901   902   903
904   905   906   907
908   909   910   911
912   913   914   915
916   917   918   919
920   921   922   923
924   925   926   927
928   929   930   931
932   933   934   935
936   937   938   939
940   941   942   943
944   945   946   947
948   949   950   951
952   953   954   955
956   957   958   959
960   961   962   963
964   965   966   967
968   969   970   971
972   973   974   975
976   977   978   979
980   981   982   983
984   985   986   987
988   989   990   991
992   993   994   995
996   997   998   999
1000   1001   1002   1003
1004   1005   1006   1007
1008   1009   1010   1011
1012   1013   1014   1015
1016   1017   1018   1019
1020   1021   1022   1023
1024   1025   1026   1027
1028   1029   1030   1031
1032   1033   1034   1035
1036   1037   1038   1039
1040   1041   1042   1043
1044   1045   1046   1047
1048   1049   1050   1051
1052   1053   1054   1055
1056   1057   1058   1059
1060   1061   1062   1063
1064   1065   1066   1067
1068   1069   1070   1071
1072   1073   1074   1075
1076   1077   1078   1079
1080   1081   1082   1083
1084   1085   1086   1087
1088   1089   1090   1091
1092   1093   1094   1095
1096   1097   1098   1099
1100   1101   1102   1103
1104   1105   1106   1107
1108   1109   1110   1111
1112   1113   1114   1115
1116   1117   1118   1119
1120   1121   1122   1123
1124   1125   1126   1127
1128   1129   1130   1131
1132   1133   1134   1135
1136   1137   1138   1139
1140   1141   1142   1143
1144   1145   1146   1147
1148   1149   1150   1151
1152   1153   1154   1155
1156   1157   1158   1159
1160   1161   1162   1163
1164   1165   1166   1167
1168   1169   1170   1171
1172   1173   1174   1175
1176   1177   1178   1179
1180   1181   1182   1183
1184   1185   1186   1187
1188   1189   1190   1191
1192   1193   1194   1195
1196   1197   1198   1199
1200   1201   1202   1203
1204   1205   1206   1207
1208   1209   1210   1211
1212   1213   1214   1215
1216   1217   1218   1219
1220   1221   1222   1223
1224   1225   1226   1227
1228   1229   1230   1231
1232   1233   1234   1235
1236   1237   1238   1239
1240   1241   1242   1243
1244   1245   1246   1247
1248   1249   1250   1251
1252   1253   1254   1255
1256   1257   1258   1259
1260   1261   1262   1263
1264   1265   1266   1267
1268   1269   1270   1271
1272   1273   1274   1275
1276   1277   1278   1279
1280   1281   1282   1283
1284   1285   1286   1287
1288   1289   1290   1291
1292   1293   1294   1295
1296   1297   1298   1299
1300   1301   1302   1303
1304   1305   1306   1307
1308   1309   1310   1311
1312   1313   1314   1315
1316   1317   1318   1319
1320   1321   1322   1323
1324   1325   1326   1327
1328   1329   1330   1331
1332   1333   1334   1335
1336   1337   1338   1339
1340   1341   1342   1343
1344   1345   1346   1347
1348   1349   1350   1351
1352   1353   1354   1355
1356   1357   1358   1359
1360   1361   1362   1363
1364   1365   1366   1367
1368   1369   1370   1371
1372   1373   1374   1375
1376   1377   1378   1379
1380   1381   1382   1383
1384   1385   1386   1387
1388   1389   1390   1391
1392   1393   1394   1395
1396   1397   1398   1399
1400   1401   1402   1403
1404   1405   1406   1407
1408   1409   1410   1411
1412   1413   1414   1415
1416   1417   1418   1419
1420   1421   1422   1423
1424   1425   1426   1427
1428   1429   1430   1431
1432   1433   1434   1435
1436   1437   1438   1439
1440   1441   1442   1443
1444   1445   1446   1447
1448   1449   1450   1451
1452   1453   1454   1455
1456   1457   1458   1459
1460   1461   1462   1463
1464   1465   1466   1467
1468   1469   1470   1471
1472   1473   1474   1475
1476   1477   1478   1479
1480   1481   1482   1483
1484   1485   1486   1487
1488   1489   1490   1491
1492   1493   1494   1495
1496   1497   1498   1499
1500   1501   1502   1503
1504   1505   1506   1507
1508   1509   1510   1511
1512   1513   1514   1515
1516   1517   1518   1519
1520   1521   1522   1523
1524   1525   1526   1527
1528   1529   1530   1531
1532   1533   1534   1535
1536   1537   1538   1539
1540   1541   1542   1543
1544   1545   1546   1547
1548   1549   1550   1551
1552   1553   1554   1555
1556   1557   1558   1559
1560   1561   1562   1563
1564   1565   1566   1567
1568   1569   1570   1571
1572   1573   1574   1575
1576   1577   1578   1579
1580   1581   1582   1583
1584   1585   1586   1587
1588   1589   1590   1591
1592   1593   1594   1595
1596   1597   1598   1599
1600   1601   1602   1603
1604   1605   1606   1607
1608   1609   1610   1611
1612   1613   1614   1615
1616   1617   1618   1619
1620   1621   1622   1623
1624   1625   1626   1627
1628   1629   1630   1631
1632   1633   1634   1635
1636   1637   1638   1639
1640   1641   1642   1643
1644   1645   1646   1647
1648   1649   1650   1651
1652   1653   1654   1655
1656   1657   1658   1659
1660   1661   1662   1663
1664   1665   1666   1667
1668   1669   1670   1671
1672   1673   1674   1675
1676   1677   1678   1679
1680   1681   1682   1683
1684   1685   1686   1687
1688   1689   1690   1691
1692   1693   1694   1695
1696   1697   1698   1699
1700   1701   1702   1703
1704   1705   1706   1707
1708   1709   1710   1711
1712   1713   1714   1715
1716   1717   1718   1719
1720   1721   1722   1723
1724   1725   1726   1727
1728   1729   1730   1731
1732   1733   1734   1735
1736   1737   1738   1739
1740   1741   1742   1743
1744   1745   1746   1747
1748   1749   1750   1751
1752   1753   1754   1755
1756   1757   1758   1759
1760   1761   1762   1763
1764   1765   1766   1767
1768   1769   1770   1771
1772   1773   1774   1775
1776   1777   1778   1779
1780   1781   1782   1783
1784   1785   1786   1787
1788   1789   1790   1791
1792   1793   1794   1795
1796   1797   1798   1799
1800   1801   1802   1803
1804   1805   1806   1807
1808   1809   1810   1811
1812   1813   1814   1815
1816   1817   1818   1819
1820   1821   1822   1823
1824   1825   1826   1827
1828   1829   1830   1831
1832   1833   1834   1835
1836   1837   1838   1839
1840   1841   1842   1843
1844   1845   1846   1847
1848   1849   1850   1851
1852   1853   1854   1855
1856   1857   1858   1859
1860   1861   1862   1863
1864   1865   1866   1867
1868   1869   1870   1871
1872   1873   1874   1875
1876   1877   1878   1879
1880   1881   1882   1883
1884   1885   1886   1887
1888   1889   1890   1891
1892   1893   1894   1895
1896   1897   1898   1899
1900   1901   1902   1903
1904   1905   1906   1907
1908   1909   1910   1911
1912   1913   1914   1915
1916   1917   1918   1919
1920   1921   1922   1923
1924   1925   1926   1927
1928   1929   1930   1931
1932   1933   1934   1935
1936   1937   1938   1939
1940   1941   1942   1943
1944   1945   1946   1947
1948   1949   1950   1951
1952   1953   1954   1955
1956   1957   1958   1959
1960   1961   1962   1963
1964   1965   1966   1967
1968   1969   1970   1971
1972   1973   1974   1975
1976   1977   1978   1979
1980   1981   1982   1983
1984   1985   1986   1987
1988   1989   1990   1991
1992   1993   1994   1995
1996   1997   1998   1999
2000   2001   2002   2003
2004   2005   2006   2007
2008   2009   2010   2011
2012   2013   2014   2015
2016   2017   2018   2019
2020   2021   2022   2023
2024   2025   2026   2027
2028   2029   2030   2031
2032   2033   2034   2035
2036   2037   2038   2039
2040   2041   2042   2043
2044   2045   2046   2047
2048   2049   2050   2051
2052   2053   2054   2055
2056   2057   2058   2059
2060   2061   2062   2063
2064   2065   2066   2067
2068   2069   2070   2071
2072   2073   2074   2075
2076   2077   2078   2079
2080   2081   2082   2083
2084   2085   2086   2087
2088   2089   2090   2091
2092   2093   2094   2095
2096   2097   2098   2099
2100   2101   2102   2103
2104   2105   2106   2107
2108   2109   2110   2111
2112   2113   2114   2115
2116   2117   2118   2119
2120   2121   2122   2123
2124   2125   2126   2127
2128   2129   2130   2131
2132   2133   2134   2135
2136   2137   2138   2139
2140   2141   2142   2143
2144   2145   2146   2147
2148   2149   2150   2151
2152   2153   2154   2155
2156   2157   2158   2159
2160   2161   2162   2163
2164   2165   2166   2167
2168   2169   2170   2171
2172   2173   2174   2175
2176   2177   2178   2179
2180   2181   2182   2183
2184   2185   2186   2187
2188   2189   2190   2191
2192   2193   2194   2195
2196   2197   2198   2199
2200   2201   2202   2203
2204   2205   2206   2207
2208   2209   2210   2211
2212   2213   2214   2215
2216   2217   2218   2219
2220   2221   2222   2223
2224   2225   2226   2227
2228   2229   2230   2231
2232   2233   2234   2235
2236   2237   2238   2239
2240   2241   2242   2243
2244   2245   2246   2247
2248   2249   2250   2251
2252   2253   2254   2255
2256   2257   2258   2259
2260   2261   2262   2263
2264   2265   2266   2267
2268   2269   2270   2271
2272   2273   2274   2275
2276   2277   2278   2279
2280   2281   2282   2283
2284   2285   2286   2287
2288   2289   2290   2291
2292   2293   2294   2295
2296   2297   2298   2299
2300   2301   2302   2303
2304   2305   2306   2307
2308   2309   2310   2311
2312   2313   2314   2315
2316   2317   2318   2319
2320   2321   2322   2323
2324   2325   2326   2327
2328   2329   2330   2331
2332   2333   2334   2335
2336   2337   2338   2339
2340   2341   2342   2343
2344   2345   2346   2347
2348   2349   2350   2351
2352   2353   2354   2355
2356   2357   2358   2359
2360   2361   2362   2363
2364   2365   2366   2367
2368   2369   2370   2371
2372   2373   2374   2375
2376   2377   2378   2379
2380   2381   2382   2383
2384   2385   2386   2387
2388   2389   2390   2391
2392   2393   2394   2395
2396   2397   2398   2399
2400   2401   2402   2403
2404   2405   2406   2407
2408   2409   2410   2411
2412   2413   2414   2415
2416   2417   2418   2419
2420   2421   2422   2423
2424   2425   2426   2427
2428   2429   2430   2431
2432   2433   2434   2435
2436   2437   2438   2439
2440   2441   2442   2443
2444   2445   2446   2447
2448   2449   2450   2451
2452   2453   2454   2455
2456   2457   2458   2459
2460   2461   2462   2463
2464   2465   2466   2467
2468   2469   2470   2471
2472   2473   2474   2475
2476   2477   2478   2479
2480   2481   2482   2483
2484   2485   2486   2487
2488   2489   2490   2491
2492   2493   2494   2495
2496   2497   2498   2499
2500   2501   2502   2503
2504   2505   2506   2507
2508   2509   2510   2511
2512   2513   2514   2515
2516   2517   2518   2519
2520   2521   2522   2523
2524   2525   2526   2527
2528   2529   2530   2531
2532   2533   2534   2535
2536   2537   2538   2539
2540   2541   2542   2543
2544   2545   2546   2547
2548   2549   2550   2551
2552   2553   2554   2555
2556   2557   2558   2559
2560   2561   2562   2563
2564   2565   2566   2567
2568   2569   2570   2571
2572   2573   2574   2575
2576   2577   2578   2579
2580   2581   2582   2583
2584   2585   2586   2587
2588   2589   2590   2591
2592   2593   2594   2595
2596   2597   2598   2599
2600   2601   2602   2603
2604   2605   2606   2607
2608   2609   2610   2611
2612   2613   2614   2615
2616   2617   2618   2619
2620   2621   2622   2623
2624   2625   2626   2627
2628   2629   2630   2631
2632   2633   2634   2635
2636   2637   2638   2639
2640   2641   2642   2643
2644   2645   2646   2647
2648   2649   2650   2651
2652   2653   2654   2655
2656   2657   2658   2659
2660   2661   2662   2663
2664   2665   2666   2667
2668   2669   2670   2671
2672   2673   2674   2675
2676   2677   2678   2679
2680   2681   2682   2683
2684   2685   2686   2687
2688   2689   2690   2691
2692   2693   2694   2695
2696   2697   2698   2699
2700   2701   2702   2703
2704   2705   2706   2707
2708   2709   2710   2711
2712   2713   2714   2715
2716   2717   2718   2719
2720   2721   2722   2723
2724   2725   2726   2727
2728   2729   2730   2731
2732   2733   2734   2735
2736   2737   2738   2739
2740   2741   2742   2743
2744   2745   2746   2747
2748   2749   2750   2751
2752   2753   2754   2755
2756   2757   2758   2759
2760   2761   2762   2763
2764   2765   2766   2767
2768   2769   2770   2771
2772   2773   2774   2775
2776   2777   2778   2779
2780   2781   2782   2783
2784   2785   2786   2787
2788   2789   2790   2791
2792   2793   2794   2795
2796   2797   2798   2799
2800   2801   2802   2803
2804   2805   2806   2807
2808   2809   2810   2811
2812   2813   2814   2815
2816   2817   2818   2819
2820   2821   2822   2823
2824   2825   2826   2827
2828   2829   2830   2831
2832   2833   2834   2835
2836   2837   2838   2839
2840   2841   2842   2843
2844   2845   2846   2847
2848   2849   2850   2851
2852   2853   2854   2855
2856   2857   2858   2859
2860   2861   2862   2863
2864   2865   2866   2867
2868   2869   2870   2871
2872   2873   2874   2875
2876   2877   2878   2879
2880   2881   2882   2883
2884   2885   2886   2887
2888   2889   2890   2891
2892   2893   2894   2895
2896   2897   2898   2899
2900   2901   2902   2903
2904   2905   2906   2907
2908   2909   2910   2911
2912   2913   2914   2915
2916   2917   2918   2919
2920   2921   2922   2923
2924   2925   2926   2927
2928   2929   2930   2931
2932   2933   2934   2935
2936   2937   2938   2939
2940   2941   2942   2943
2944   2945   2946   2947
2948   2949   2950   2951
2952   2953   2954   2955
2956   2957   2958   2959
2960   2961   2962   2963
2964   2965   2966   2967
2968   2969   2970   2971
2972   2973   2974   2975
2976   2977   2978   2979
2980   2981   2982   2983
2984   2985   2986   2987
2988   2989   2990   2991
2992   2993   2994   2995
2996   2997   2998   2999
3000   3001   3002   3003
3004   3005   3006   3007
3008   3009   3010   3011
3012   3013   3014   3015
3016   3017   3018   3019
3020   3021   3022   3023
3024   3025   3026   3027
3028   3029   3030   3031
3032   3033   3034   3035
3036   3037   3038   3039
3040   3041   3042   3043
3044   3045   3046   3047
3048   3049   3050   3051
3052   3053   3054   3055
3056   3057   3058   3059
3060   3061   3062   3063
3064   3065   3066   3067
3068   3069   3070   3071
3072   3073   3074   3075
3076   3077   3078   3079
3080   3081   3082   3083
3084   3085   3086   3087
3088   3089   3090   3091
3092   3093   3094   3095
3096   3097   3098   3099
3100   3101   3102   3103
3104   3105   3106   3107
3108   3109   3110   3111
3112   3113   3114   3115
3116   3117   3118   3119
3120   3121   3122   3123
3124   3125   3126   3127
3128   3129   3130   3131
3132   3133   3134   3135
3136   3137   3138   3139
3140   3141   3142   3143
3144   3145   3146   3147
3148   3149   3150   3151
3152   3153   3154   3155
3156   3157   3158   3159
3160   3161   3162   3163
3164   3165   3166   3167
3168   3169   3170   3171
3172   3173   3174   3175
3176   3177   3178   3179
3180   3181   3182   3183
3184   3185   3186   3187
3188   3189   3190   3191
3192   3193   3194   3195
3196   3197   3198   3199
3200   3201   3202   3203
3204   3205   3206   3207
3208   3209   3210   3211
3212   3213   3214   3215
3216   3217   3218   3219
3220   3221   3222   3223
3224   3225   3226   3227
3228   3229   3230   3231
3232   3233   3234   3235
3236   3237   3238   3239
3240   3241   3242   3243
3244   3245   3246   3247
3248   3249   3250   3251
3252   3253   3254   3255
3256   3257   3258   3259
3260   3261   3262   3263
3264   3265   3266   3267
3268   3269   3270   3271
3272   3273   3274   3275
3276   3277   3278   3279
3280   3281   3282   3283
3284   3285   3286   3287
3288   3289   3290   3291
3292   3293   3294   3295
3296   3297   3298   3299
3300   3301   3302   3303
3304   3305   3306   3307
3308   3309   3310   3311
3312   3313   3314   3315
3316   3317   3318   3319
3320   3321   3322   3323
3324   3325   3326   3327
3328   3329   3330   3331
3332   3333   3334   3335
3336   3337   3338   3339
3340   3341   3342   3343
3344   3345   3346   3347
3348   3349   3350   3351
3352   3353   3354   3355
3356   3357   3358   3359
3360   3361   3362   3363
3364   3365   3366   3367
3368   3369   3370   3371
3372   3373   3374   3375
3376   3377   3378   3379
3380   3381   3382   3383
3384   3385   3386   3387
3388   3389   3390   3391
3392   3393   3394   3395
3396   3397   3398   3399
3400   3401   3402   3403
3404   3405   3406   3407
3408   3409   3410   3411
3412   3413   3414   3415
3416   3417   3418   3419
3420   3421   3422   3423
3424   3425   3426   3427
3428   3429   3430   3431
3432   3433   3434   3435
3436   3437   3438   3439
3440   3441   3442   3443
3444   3445   3446   3447
3448   3449   3450   3451
3452   3453   3454   3455
3456   3457   3458   3459
3460   3461   3462   3463
3464   3465   3466   3467
3468   3469   3470   3471
3472   3473   3474   3475
3476   3477   3478   3479
3480   3481   3482   3483
3484   3485   3486   3487
3488   3489   3490   3491
3492   3493   3494   3495
3496   3497   3498   3499
3500   3501   3502   3503
3504   3505   3506   3507
3508   3509   3510   3511
3512   3513   3514   3515
3516   3517   3518   3519
3520   3521   3522   3523
3524   3525   3526   3527
3528   3529   3530   3531
3532   3533   3534   3535
3536   3537   3538   3539
3540   3541   3542   3543
3544   3545   3546   3547
3548   3549   3550   3551
3552   3553   3554   3555
3556   3557   3558   3559
3560   3561   3562   3563
3564   3565   3566   3567
3568   3569   3570   3571
3572   3573   3574   3575
3576   3577   3578   3579
3580   3581   3582   3583
3584   3585   3586   3587
3588   3589   3590   3591
3592   3593   3594   3595
3596   3597   3598   3599
3600   3601   3602   3603
3604   3605   3606   3607
3608   3609   3610   3611
3612   3613   3614   3615
3616   3617   3618   3619
3620   3621   3622   3623
3624   3625   3626   3627
3628   3629   3630   3631
3632   3633   3634   3635
3636   3637   3638   3639
3640   3641   3642   3643
3644   3645   3646   3647
3648   3649   3650   3651
3652   3653   3654   3655
3656   3657   3658   3659
3660   3661   3662   3663
3664   3665   3666   3667
3668   3669   3670   3671
3672   3673   3674   3675
3676   3677   3678   3679
3680   3681   3682   3683
3684   3685   3686   3687
3688   3689   3690   3691
3692   3693   3694   3695
3696   3697   3698   3699
3700   3701   3702   3703
3704   3705   3706   3707
3708   3709   3710   3711
3712   3713   3714   3715
3716   3717   3718   3719
3720   3721   3722   3723
3724   3725   3726   3727
3728   3729   3730   3731
3732   3733   3734   3735
3736   3737   3738   3739
3740   3741   3742   3743
3744   3745   3746   3747
3748   3749   3750   3751
3752   3753   3754   3755
3756   3757   3758   3759
3760   3761   3762   3763
3764   3765   3766   3767
3768   3769   3770   3771
3772   3773   3774   3775
3776   3777   3778   3779
3780   3781   3782   3783
3784   3785   3786   3787
3788   3789   3790   3791
3792   3793   3794   3795
3796   3797   3798   3799
3800   3801   3802   3803
3804   3805   3806   3807
3808   3809   3810   3811
3812   3813   3814   3815
3816   3817   3818   3819
3820   3821   3822   3823
3824   3825   3826   3827
3828   3829   3830   3831
3832   3833   3834   3835
3836   3837   3838   3839
3840   3841   3842   3843
3844   3845   3846   3847
3848   3849   3850   3851
3852   3853   3854   3855
3856   3857   3858   3859
3860   3861   3862   3863
3864   3865   3866   3867
3868   3869   3870   3871
3872   3873   3874   3875
3876   3877   3878   3879
3880   3881   3882   3883
3884   3885   3886   3887
3888   3889   3890   3891
3892   3893   3894   3895
3896   3897   3898   3899
3900   3901   3902   3903
3904   3905   3906   3907
3908   3909   3910   3911
3912   3913   3914   3915
3916   3917   3918   3919
3920   3921   3922   3923
3924   3925   3926   3927
3928   3929   3930   3931
3932   3933   3934   3935
3936   3937   3938   3939
3940   3941   3942   3943
3944   3945   3946   3947
3948   3949   3950   3951
3952   3953   3954   3955
3956   3957   3958   3959
3960   3961   3962   3963
3964   3965   3966   3967
3968   3969   3970   3971
3972   3973   3974   3975
3976   3977   3978   3979
3980   3981   3982   3983
3984   3985   3986   3987
3988   3989   3990   3991
3992   3993   3994   3995
3996   3997   3998   3999
4000   4001   4002   4003
4004   4005   4006   4007
4008   4009   4010   4011
4012   4013   4014   4015
4016   4017   4018   4019
4020   4021   4022   4023
4024   4025   4026   4027
4028   4029   4030   4031
4032   4033   4034   4035
4036   4037   4038   4039
4040   4041   4042   4043
4044   4045   4046   4047
4048   4049   4050   4051
4052   4053   4054   4055
4056   4057   4058   4059
4060   4061   4062   4063
4064   4065   4066   4067
4068   4069   4070   4071
4072   4073   4074   4075
4076   4077   4078   4079
4080   4081   4082   4083
4084   4085   4086   4087
4088   4089   4090   4091
4092   4093   4094   4095
4096   4097   4098   4099
4100   4101   4102   4103
4104   4105   4106   4107
4108   4109   4110   4111
4112   4113   4114   4115
4116   4117   4118   4119
4120   4121   4122   4123
4124   4125   4126   4127
4128   4129   4130   4131
4132   4133   4134   4135
4136   4137   4138   4139
4140   4141   4142   4143
4144   4145   4146   4147
4148   4149   4150   4151
4152   4153   4154   4155
4156   4157   4158   4159
4160   4161   4162   4163
4164   4165   4166   4167
4168   4169   4170   4171
4172   4173   4174   4175
4176   4177   4178   4179
4180   4181   4182   4183
4184   4185   4186   4187
4188   4189   4190   4191
4192   4193   4194   4195
4196   4197   4198   4199
4200   4201   4202   4203
4204   4205   4206   4207
4208   4209   4210   4211
4212   4213   4214   4215
4216   4217   4218   4219
4220   4221   4222   4223
4224   4225   4226   4227
4228   4229   4230   4231
4232   4233   4234   4235
4236   4237   4238   4239
4240   4241   4242   4243
4244   4245   4246   4247
4248   4249   4250   4251
4252   4253   4254   4255
4256   4257   4258   4259
4260   4261   4262   4263
4264   4265   4266   4267
4268   4269   4270   4271
4272   4273   4274   4275
4276   4277   4278   4279
4280   4281   4282   4283
4284   4285   4286   4287
4288   4289   4290   4291
4292   4293   4294   4295
4296   4297   4298   4299
4300   4301   4302   4303
4304   4305   4306   4307
4308   4309   4310   4311
4312   4313   4314   4315
4316   4317   4318   4319
4320   4321   4322   4323
4324   4325   4326   4327
4328   4329   4330   4331
4332   4333   4334   4335
4336   4337   4338   4339
4340   4341   4342   4343
4344   4345   4346   4347
4348   4349   4350   4351
4352   4353   4354   4355
4356   4357   4358   4359
4360   4361   4362   4363
4364   4365   4366   4367
4368   4369   4370   4371
4372   4373   4374   4375
4376   4377   4378   4379
4380   4381   4382   4383
4384   4385   4386   4387
4388   4389   4390   4391
4392   4393   4394   4395
4396   4397   4398   4399
4400   4401   4402   4403
4404   4405   4406   4407
4408   4409   4410   4411
4412   4413   4414   4415
4416   4417   4418   4419
4420   4421   4422   4423
4424   4425   4426   4427
4428   4429   4430   4431
4432   4433   4434   4435
4436   4437   4438   4439
4440   4441   4442   4443
4444   4445   4446   4447
4448   4449   4450   4451
4452   4453   4454   4455
4456   4457   4458   4459
4460   4461   4462   4463
4464   4465   4466   4467
4468   4469   4470   4471
4472   4473   4474   4475
4476   4477   4478   4479
4480   4481   4482   4483
4484   4485   4486   4487
4488   4489   4490   4491
4492   4493   4494   4495
4496   4497   4498   4499
4500   4501   4502   4503
4504   4505   4506   4507
4508   4509   4510   4511
4512   4513   4514   4515
4516   4517   4518   4519
4520   4521   4522   4523
4524   4525   4526   4527
4528   4529   4530   4531
4532   4533   4534   4535
4536   4537   4538   4539
4540   4541   4542   4543
4544   4545   4546   4547
4548   4549   4550   4551
4552   4553   4554   4555
4556   4557   4558   4559
4560   4561   4562   4563
4564   4565   4566   4567
4568   4569   4570   4571
4572   4573   4574   4575
4576   4577   4578   4579
4580   4581   4582   4583
4584   4585   4586   4587
4588   4589   4590   4591
4592   4593   4594   4595
4596   4597   4598   4599
4600   4601   4602   4603
4604   4605   4606   4607
4608   4609   4610   4611
4612   4613   4614   4615
4616   4617   4618   4619
4620   4621   4622   4623
4624   4625   4626   4627
4628   4629   4630   4631
4632   4633   4634   4635
4636   4637   4638   4639
4640   4641   4642   4643
4644   4645   4646   4647
4648   4649   4650   4651
4652   4653   4654   4655
4656   4657   4658   4659
4660   4661   4662   4663
4664   4665   4666   4667
4668   4669   4670   4671
4672   4673   4674   4675
4676   4677   4678   4679
4680   4681   4682   4683
4684   4685   4686   4687
4688   4689   4690   4691
4692   4693   4694   4695
4696   4697   4698   4699
4700   4701   4702   4703
4704   4705   4706   4707
4708   4709   4710   4711
4712   4713   4714   4715
4716   4717   4718   4719
4720   4721   4722   4723
4724   4725   4726   4727
4728   4729   4730   4731
4732   4733   4734   4735
4736   4737   4738   4739
4740   4741   4742   4743
4744   4745   4746   4747
4748   4749   4750   4751
4752   4753   4754   4755
4756   4757   4758   4759
4760   4761   4762   4763
4764   4765   4766   4767
4768   4769   4770   4771
4772   4773   4774   4775
4776   4777   4778   4779
4780   4781   4782   4783
4784   4785   4786   4787
4788   4789   4790   4791
4792   4793   4794   4795
4796   4797   4798   4799
4800   4801   4802   4803
4804   4805   4806   4807
4808   4809   4810   4811
4812   4813   4814   4815
4816   4817   4818   4819
4820   4821   4822   4823
4824   4825   4826   4827
4828   4829   4830   4831
4832   4833   4834   4835
4836   4837   4838   4839
4840   4841   4842   4843
4844   4845   4846   4847
4848   4849   4850   4851
4852   4853   4854   4855
4856   4857   4858   4859
4860   4861   4862   4863
4864   4865   4866   4867
4868   4869   4870   4871
4872   4873   4874   4875
4876   4877   4878   4879
4880   4881   4882   4883
4884   4885   4886   4887
4888   4889   4890   4891
4892   4893   4894   4895
4896   4897   4898   4899
4900   4901   4902   4903
4904   4905   4906   4907
4908   4909   4910   4911
4912   4913   4914   4915
4916   4917   4918   4919
4920   4921   4922   4923
4924   4925   4926   4927
4928   4929   4930   4931
4932   4933   4934   4935
4936   4937   4938   4939
4940   4941   4942   4943
4944   4945   4946   4947
4948   4949   4950   4951
4952   4953   4954   4955
4956   4957   4958   4959
4960   4961   4962   4963
4964   4965   4966   4967
4968   4969   4970   4971
4972   4973   4974   4975
4976   4977   4978   4979
4980   4981   4982   4983
4984   4985   4986   4987
4988   4989   4990   4991
4992   4993   4994   4995
4996   4997   4998   4999
5000   5001   5002   5003
5004   5005   5006   5007
5008   5009   5010   5011
5012   5013   5014   5015
5016   5017   5018   5019
5020   5021   5022   5023
5024   5025   5026   5027
5028   5029   5030   5031
5032   5033   5034   5035
5036   5037   5038   5039
5040   5041   5042   5043
5044   5045   5046   5047
5048   5049   5050   5051
5052   5053   5054   5055
5056   5057   5058   5059
5060   5061   5062   5063
5064   5065   5066   5067
5068   5069   5070   5071
5072   5073   5074   5075
5076   5077   5078   5079
5080   5081   5082   5083
5084   5085   5086   5087
5088   5089   5090   5091
5092   5093   5094   5095
5096   5097   5098   5099
5100   5101   5102   5103
5104   5105   5106   5107
5108   5109   5110   5111
5112   5113   5114   5115
5116   5117   5118   5119
5120   5121   5122   5123
5124   5125   5126   5127
5128   5129   5130   5131
5132   5133   5134   5135
5136   5137   5138   5139
5140   5141   5142   5143
5144   5145   5146   5147
5148   5149   5150   5151
5152   5153   5154   5155
5156   5157   5158   5159
5160   5161   5162   5163
5164   5165   5166   5167
5168   5169   5170   5171
5172   5173   5174   5175
5176   5177   5178   5179
5180   5181   5182   5183
5184   5185   5186   5187
5188   5189   5190   5191
5192   5193   5194   5195
5196   5197   5198   5199
5200   5201   5202   5203
5204   5205   5206   5207
5208   5209   5210   5211
5212   5213   5214   5215
5216   5217   5218   5219
5220   5221   5222   5223
5224   5225   5226   5227
5228   5229   5230   5231
5232   5233   5234   5235
5236   5237   5238   5239
5240   5241   5242   5243
5244   5245   5246   5247
5248   5249   5250   5251
5252   5253   5254   5255
5256   5257   5258   5259
5260   5261   5262   5263
5264   5265   5266   5267
5268   5269   5270   5271
5272   5273   5274   5275
5276   5277   5278   5279
5280   5281   5282   5283
5284   5285   5286   5287
5288   5289   5290   5291
5292   5293   5294   5295
5296   5297   5298   5299
5300   5301   5302   5303
5304   5305   5306   5307
5308   5309   5310   5311
5312   5313   5314   5315
5316   5317   5318   5319
5320   5321   5322   5323
5324   5325   5326   5327
5328   5329   5330   5331
5332   5333   5334   5335
5336   5337   5338   5339
5340   5341   5342   5343
5344   5345   5346   5347
5348   5349   5350   5351
5352   5353   5354   5355
5356   5357   5358   5359
5360   5361   5362   5363
5364   5365   5366   5367
5368   5369   5370   5371
5372   5373   5374   5375
5376   5377   5378   5379
5380   5381   5382   5383
5384   5385   5386   5387
5388   5389   5390   5391
5392   5393   5394   5395
5396   5397   5398   5399
5400   5401   5402   5403
5404   5405   5406   5407
5408   5409   5410   5411
5412   5413   5414   5415
5416   5417   5418   5419
5420   5421   5422   5423
5424   5425   5426   5427
5428   5429   5430   5431
5432   5433   5434   5435
5436   5437   5438   5439
5440   5441   5442   5443
5444   5445   5446   5447
5448   5449   5450   5451
5452   5453   5454   5455
5456   5457   5458   5459
5460   5461   5462   5463
5464   5465   5466   5467
5468   5469   5470   5471
5472   5473   5474   5475
5476   5477   5478   5479
5480   5481   5482   5483
5484   5485   5486   5487
5488   5489   5490   5491
5492   5493   5494   5495
5496   5497   5498   5499
5500   5501   5502   5503
5504   5505   5506   5507
5508   5509   5510   5511
5512   5513   5514   5515
5516   5517   5518   5519
5520   5521   5522   5523
5524   5525   5526   5527
5528   5529   5530   5531
5532   5533   5534   5535
5536   5537   5538   5539
5540   5541   5542   5543
5544   5545   5546   5547
5548   5549   5550   5551
5552   5553   5554   5555
5556   5557   5558   5559
5560   5561   5562   5563
5564   5565   5566   5567
5568   5569   5570   5571
5572   5573   5574   5575
5576   5577   5578   5579
5580   5581   5582   5583
5584   5585   5586   5587
5588   5589   5590   5591
5592   5593   5594   5595
5596   5597   5598   5599
5600   5601   5602   5603
5604   5605   5606   5607
5608   5609   5610   5611
5612   5613   5614   5615
5616   5617   5618   5619
5620   5621   5622   5623
5624   5625   5626   5627
5628   5629   5630   5631
5632   5633   5634   5635
5636   5637   5638   5639
5640   5641   5642   5643
5644   5645   5646   5647
5648   5649   5650   5651
5652   5653   5654   5655
5656   5657   5658   5659
5660   5661   5662   5663
5664   5665   5666   5667
5668   5669   5670   5671
5672   5673   5674   5675
5676   5677   5678   5679
5680   5681   5682   5683
5684   5685   5686   5687
5688   5689   5690   5691
5692   5693   5694   5695
5696   5697   5698   5699
5700   5701   5702   5703
5704   5705   5706   5707
5708   5709   5710   5711
5712   5713   5714   5715
5716   5717   5718   5719
5720   5721   5722   5723
5724   5725   5726   5727
5728   5729   5730   5731
5732   5733   5734   5735
5736   5737   5738   5739
5740   5741   5742   5743
5744   5745   5746   5747
5748   5749   5750   5751
5752   5753   5754   5755
5756   5757   5758   5759
5760   5761   5762   5763
5764   5765   5766   5767
5768   5769   5770   5771
5772   5773   5774   5775
5776   5777   5778   5779
5780   5781   5782   5783
5784   5785   5786   5787
5788   5789   5790   5791
5792   5793   5794   5795
5796   5797   5798   5799
5800   5801   5802   5803
5804   5805   5806   5807
5808   5809   5810   5811
5812   5813   5814   5815
5816   5817   5818   5819
5820   5821   5822   5823
5824   5825   5826   5827
5828   5829   5830   5831
5832   5833   5834   5835
5836   5837   5838   5839
5840   5841   5842   5843
5844   5845   5846   5847
5848   5849   5850   5851
5852   5853   5854   5855
5856   5857   5858   5859
5860   5861   5862   5863
5864   5865   5866   5867
5868   5869   5870   5871
5872   5873   5874   5875
5876   5877   5878   5879
5880   5881   5882   5883
5884   5885   5886   5887
5888   5889   5890   5891
5892   5893   5894   5895
5896   5897   5898   5899
5900   5901   5902   5903
5904   5905   5906   5907
5908   5909   5910   5911
5912   5913   5914   5915
5916   5917   5918   5919
5920   5921   5922   5923
5924   5925   5926   5927
5928   5929   5930   5931
5932   5933   5934   5935
5936   5937   5938   5939
5940   5941   5942   5943
5944   5945   5946   5947
5948   5949   5950   5951
5952   5953   5954   5955
5956   5957   5958   5959
5960   5961   5962   5963
5964   5965   5966   5967
5968   5969   5970   5971
5972   5973   5974   5975
5976   5977   5978   5979
5980   5981   5982   5983
5984   5985   5986   5987
5988   5989   5990   5991
5992   5993   5994   5995
5996   5997   5998   5999
              </DataArray>   
              <DataArray type="Int32" Name="offsets" format="ascii">   
4
8
12
16
20
24
28
32
36
40
44
48
52
56
60
64
68
72
76
80
84
88
92
96
100
104
108
112
116
120
124
128
132
136
140
144
148
152
156
160
164
168
172
176
180
184
188
192
196
200
204
208
212
216
220
224
228
232
236
240
244
248
252
256
260
264
268
272
276
280
284
288
292
296
300
304
308
312
316
320
324
328
332
336
340
344
348
352
356
360
364
368
372
376
380
384
388
392
396
400
404
408
412
416
420
424
428
432
436
440
444
448
452
456
460
464
468
472
476
480
484
488
492
496
500
504
508
512
516
520
524
528
532
536
540
544
548
552
556
560
564
568
572
576
580
584
588
592
596
600
604
608
612
616
620
624
628
632
636
640
644
648
652
656
660
664
668
672
676
680
684
688
692
696
700
704
708
712
716
720
724
728
732
736
740
744
748
752
756
760
764
768
772
776
780
784
788
792
796
800
804
808
812
816
820
824
828
832
836
840
844
848
852
856
860
864
868
872
876
880
884
888
892
896
900
904
908
912
916
920
924
928
932
936
940
944
948
952
956
960
964
968
972
976
980
984
988
992
996
1000
1004
1008
1012
1016
1020
1024
1028
1032
1036
1040
1044
1048
1052
1056
1060
1064
1068
1072
1076
1080
1084
1088
1092
1096
1100
1104
1108
1112
1116
1120
1124
1128
1132
1136
1140
1144
1148
1152
1156
1160
1164
1168
1172
1176
1180
1184
1188
1192
1196
1200
1204
1208
1212
1216
1220
1224
1228
1232
1236
1240
1244
1248
1252
1256
1260
1264
1268
1272
1276
1280
1284
1288
1292
1296
1300
1304
1308
1312
1316
1320
1324
1328
1332
1336
1340
1344
1348
1352
1356
1360
1364
1368
1372
1376
1380
1384
1388
1392
1396
1400
1404
1408
1412
1416
1420
1424
1428
1432
1436
1440
1444
1448
1452
1456
1460
1464
1468
1472
1476
1480
1484
1488
1492
1496
1500
1504
1508
1512
1516
1520
1524
1528
1532
1536
1540
1544
1548
1552
1556
1560
1564
1568
1572
1576
1580
1584
1588
1592
1596
1600
1604
1608
1612
1616
1620
1624
1628
1632
1636
1640
1644
1648
1652
1656
1660
1664
1668
1672
1676
1680
1684
1688
1692
1696
1700
1704
1708
1712
1716
1720
1724
1728
1732
1736
1740
1744
1748
1752
1756
1760
1764
1768
1772
1776
1780
1784
1788
1792
1796
1800
1804
1808
1812
1816
1820
1824
1828
1832
1836
1840
1844
1848
1852
1856
1860
1864
1868
1872
1876
1880
1884
1888
1892
1896
1900
1904
1908
1912
1916
1920
1924
1928
1932
1936
1940
1944
1948
1952
1956
1960
1964
1968
1972
1976
1980
1984
1988
1992
1996
2000
2004
2008
2012
2016
2020
2024
2028
2032
2036
2040
2044
2048
2052
2056
2060
2064
2068
2072
2076
2080
2084
2088
2092
2096
2100
2104
2108
2112
2116
2120
2124
2128
2132
2136
2140
2144
2148
2152
2156
2160
2164
2168
2172
2176
2180
2184
2188
2192
2196
2200
2204
2208
2212
2216
2220
2224
2228
2232
2236
2240
2244
2248
2252
2256
2260
2264
2268
2272
2276
2280
2284
2288
2292
2296
2300
2304
2308
2312
2316
2320
2324
2328
2332
2336
2340
2344
2348
2352
2356
2360
2364
2368
2372
2376
2380
2384
2388
2392
2396
2400
2404
2408
2412
2416
2420
2424
2428
2432
2436
2440
2444
2448
2452
2456
2460
2464
2468
2472
2476
2480
2484
2488
2492
2496
2500
2504
2508
2512
2516
2520
2524
2528
2532
2536
2540
2544
2548
2552
2556
2560
2564
2568
2572
2576
2580
2584
2588
2592
2596
2600
2604
2608
2612
2616
2620
2624
2628
2632
2636
2640
2644
2648
2652
2656
2660
2664
2668
2672
2676
2680
2684
2688
2692
2696
2700
2704
2708
2712
2716
2720
2724
2728
2732
2736
2740
2744
2748
2752
2756
2760
2764
2768
2772
2776
2780
2784
2788
2792
2796
2800
2804
2808
2812
2816
2820
2824
2828
2832
2836
2840
2844
2848
2852
2856
2860
2864
2868
2872
2876
2880
2884
2888
2892
2896
2900
2904
2908
2912
2916
2920
2924
2928
2932
2936
2940
2944
2948
2952
2956
2960
2964
2968
2972
2976
2980
2984
2988
2992
2996
3000
3004
3008
3012
3016
3020
3024
3028
3032
3036
3040
3044
3048
3052
3056
3060
3064
3068
3072
3076
3080
3084
3088
3092
3096
3100
3104
3108
3112
3116
3120
3124
3128
3132
3136
3140
3144
3148
3152
3156
3160
3164
3168
3172
3176
3180
3184
3188
3192
3196
3200
3204
3208
3212
3216
3220
3224
3228
3232
3236
3240
3244
3248
3252
3256
3260
3264
3268
3272
3276
3280
3284
3288
3292
3296
3300
3304
3308
3312
3316
3320
3324
3328
3332
3336
3340
3344
3348
3352
3356
3360
3364
3368
3372
3376
3380
3384
3388
3392
3396
3400
3404
3408
3412
3416
3420
3424
3428
3432
3436
3440
3444
3448
3452
3456
3460
3464
3468
3472
3476
3480
3484
3488
3492
3496
3500
3504
3508
3512
3516
3520
3524
3528
3532
3536
3540
3544
3548
3552
3556
3560
3564
3568
3572
3576
3580
3584
3588
3592
3596
3600
3604
3608
3612
3616
3620
3624
3628
3632
3636
3640
3644
3648
3652
3656
3660
3664
3668
3672
3676
3680
3684
3688
3692
3696
3700
3704
3708
3712
3716
3720
3724
3728
3732
3736
3740
3744
3748
3752
3756
3760
3764
3768
3772
3776
3780
3784
3788
3792
3796
3800
3804
3808
3812
3816
3820
3824
3828
3832
3836
3840
3844
3848
3852
3856
3860
3864
3868
3872
3876
3880
3884
3888
3892
3896
3900
3904
3908
3912
3916
3920
3924
3928
3932
3936
3940
3944
3948
3952
3956
3960
3964
3968
3972
3976
3980
3984
3988
3992
3996
4000
4004
4008
4012
4016
4020
4024
4028
4032
4036
4040
4044
4048
4052
4056
4060
4064
4068
4072
4076
4080
4084
4088
4092
4096
4100
4104
4108
4112
4116
4120
4124
4128
4132
4136
4140
4144
4148
4152
4156
4160
4164
4168
4172
4176
4180
4184
4188
4192
4196
4200
4204
4208
4212
4216
4220
4224
4228
4232
4236
4240
4244
4248
4252
4256
4260
4264
4268
4272
4276
4280
4284
4288
4292
4296
4300
4304
4308
4312
4316
4320
4324
4328
4332
4336
4340
4344
4348
4352
4356
4360
4364
4368
4372
4376
4380
4384
4388
4392
4396
4400
4404
4408
4412
4416
4420
4424
4428
4432
4436
4440
4444
4448
4452
4456
4460
4464
4468
4472
4476
4480
4484
4488
4492
4496
4500
4504
4508
4512
4516
4520
4524
4528
4532
4536
4540
4544
4548
4552
4556
4560
4564
4568
4572
4576
4580
4584
4588
4592
4596
4600
4604
4608
4612
4616
4620
4624
4628
4632
4636
4640
4644
4648
4652
4656
4660
4664
4668
4672
4676
4680
4684
4688
4692
4696
4700
4704
4708
4712
4716
4720
4724
4728
4732
4736
4740
4744
4748
4752
4756
4760
4764
4768
4772
4776
4780
4784
4788
4792
4796
4800
4804
4808
4812
4816
4820
4824
4828
4832
4836
4840
4844
4848
4852
4856
4860
4864
4868
4872
4876
4880
4884
4888
4892
4896
4900
4904
4908
4912
4916
4920
4924
4928
4932
4936
4940
4944
4948
4952
4956
4960
4964
4968
4972
4976
4980
4984
4988
4992
4996
5000
5004
5008
5012
5016
5020
5024
5028
5032
5036
5040
5044
5048
5052
5056
5060
5064
5068
5072
5076
5080
5084
5088
5092
5096
5100
5104
5108
5112
5116
5120
5124
5128
5132
5136
5140
5144
5148
5152
5156
5160
5164
5168
5172
5176
5180
5184
5188
5192
5196
5200
5204
5208
5212
5216
5220
5224
5228
5232
5236
5240
5244
5248
5252
5256
5260
5264
5268
5272
5276
5280
5284
5288
5292
5296
5300
5304
5308
5312
5316
5320
5324
5328
5332
5336
5340
5344
5348
5352
5356
5360
5364
5368
5372
5376
5380
5384
5388
5392
5396
5400
5404
5408
5412
5416
5420
5424
5428
5432
5436
5440
5444
5448
5452
5456
5460
5464
5468
5472
5476
5480
5484
5488
5492
5496
5500
5504
5508
5512
5516
5520
5524
5528
5532
5536
5540
5544
5548
5552
5556
5560
5564
5568
5572
5576
5580
5584
5588
5592
5596
5600
5604
5608
5612
5616
5620
5624
5628
5632
5636
5640
5644
5648
5652
5656
5660
5664
5668
5672
5676
5680
5684
5688
5692
5696
5700
5704
5708
5712
5716
5720
5724
5728
5732
5736
5740
5744
5748
5752
5756
5760
5764
5768
5772
5776
5780
5784
5788
5792
5796
5800
5804
5808
5812
5816
5820
5824
5828
5832
5836
5840
5844
5848
5852
5856
5860
5864
5868
5872
5876
5880
5884
5888
5892
5896
5900
5904
5908
5912
5916
5920
5924
5928
5932
5936
5940
5944
5948
5952
5956
5960
5964
5968
5972
5976
5980
5984
5988
5992
5996
6000
              </DataArray>   
              <DataArray type="UInt8" Name="types" format="ascii">   
10
10
10
10
10
10
10
10
10
10
10
10
10
10
10
10
10
10
10
10
10
10
10
10
10
10
10
10
10
10
10
10
10
10
10
10
10
10
10
10
10
10
10
10
10
10
10
10
10
10
10
10
10
10
10
10
10
10
10
10
10
10
10
10
10
10
10
10
10
10
10
10
10
10
10
10
10
10
10
10
10
10
10
10
10
10
10
10
10
10
10
10
10
10
10
10
10
10
10
10
10
10
10
10
10
10
10
10
10
10
10
10
10
10
10
10
10
10
10
10
10
10
10
10
10
10
10
10
10
10
10
10
10
10
10
10
10
10
10
10
10
10
10
10
10
10
10
10
10
10
10
10
10
10
10
10
10
10
10
10
10
10
10
10
10
10
10
10
10
10
10
10
10
10
10
10
10
10
10
10
10
10
10
10
10
10
10
10
10
10
10
10
10
10
10
10
10
10
10
10
10
10
10
10
10
10
10
10
10
10
10
10
10
10
10
10
10
10
10
10
10
10
10
10
10
10
10
10
10
10
10
10
10
10
10
10
10
10
10
10
10
10
10
10
10
10
10
10
10
10
10
10
10
10
10
10
10
10
10
10
10
10
10
10
10
10
10
10
10
10
10
10
10
10
10
10
10
10
10
10
10
10
10
10
10
10
10
10
10
10
10
10
10
10
10
10
10
10
10
10
10
10
10
10
10
10
10
10
10
10
10
10
10
10
10
10
10
10
10
10
10
10
10
10
10
10
10
10
10
10
10
10
10
10
10
10
10
10
10
10
10
10
10
10
10
10
10
10
10
10
10
10
10
10
10
10
10
10
10
10
10
10
10
10
10
10
10
10
10
10
10
10
10
10
10
10
10
10
10
10
10
10
10
10
10
10
10
10
10
10
10
10
10
10
10
10
10
10
10
10
10
10
10
10
10
10
10
10
10
10
10
10
10
10
10
10
10
10
10
10
10
10
10
10
10
10
10
10
10
10
10
10
10
10
10
10
10
10
10
10
10
10
10
10
10
10
10
10
10
10
10
10
10
10
10
10
10
10
10
10
10
10
10
10
10
10
10
10
10
10
10
10
10
10
10
10
10
10
10
10
10
10
10
10
10
10
10
10
10
10
10
10
10
10
10
10
10
10
10
10
10
10
10
10
10
10
10
10
10
10
10
10
10
10
10
10
10
10
10
10
10
10
10
10
10
10
10
10
10
10
10
10
10
10
10
10
10
10
10
10
10
10
10
10
10
10
10
10
10
10
10
10
10
10
10
10
10
10
10
10
10
10
10
10
10
10
10
10
10
10
10
10
10
10
10
10
10
10
10
10
10
10
10
10
10
10
10
10
10
10
10
10
10
10
10
10
10
10
10
10
10
10
10
10
10
10
10
10
10
10
10
10
10
10
10
10
10
10
10
10
10
10
10
10
10
10
10
10
10
10
10
10
10
10
10
10
10
10
10
10
10
10
10
10
10
10
10
10
10
10
10
10
10
10
10
10
10
10
10
10
10
10
10
10
10
10
10
10
10
10
10
10
10
10
10
10
10
10
10
10
10
10
10
10
10
10
10
10
10
10
10
10
10
10
10
10
10
10
10
10
10
10
10
10
10
10
10
10
10
10
10
10
10
10
10
10
10
10
10
10
10
10
10
10
10
10
10
10
10
10
10
10
10
10
10
10
10
10
10
10
10
10
10
10
10
10
10
10
10
10
10
10
10
10
10
10
10
10
10
10
10
10
10
10
10
10
10
10
10
10
10
10
10
10
10
10
10
10
10
10
10
10
10
10
10
10
10
10
10
10
10
10
10
10
10
10
10
10
10
10
10
10
10
10
10
10
10
10
10
10
10
10
10
10
10
10
10
10
10
10
10
10
10
10
10
10
10
10
10
10
10
10
10
10
10
10
10
10
10
10
10
10
10
10
10
10
10
10
10
10
10
10
10
10
10
10
10
10
10
10
10
10
10
10
10
10
10
10
10
10
10
10
10
10
10
10
10
10
10
10
10
10
10
10
10
10
10
10
10
10
10
10
10
10
10
10
10
10
10
10
10
10
10
10
10
10
10
10
10
10
10
10
10
10
10
10
10
10
10
10
10
10
10
10
10
10
10
10
10
10
10
10
10
10
10
10
10
10
10
10
10
10
10
10
10
10
10
10
10
10
10
10
10
10
10
10
10
10
10
10
10
10
10
10
10
10
10
10
10
10
10
10
10
10
10
10
10
10
10
10
10
10
10
10
10
10
10
10
10
10
10
10
10
10
10
10
10
10
10
10
10
10
10
10
10
10
10
10
10
10
10
10
10
10
10
10
10
10
10
10
10
10
10
10
10
10
10
10
10
10
10
10
10
10
10
10
10
10
10
10
10
10
10
10
10
10
10
10
10
10
10
10
10
10
10
10
10
10
10
10
10
10
10
10
10
10
10
10
10
10
10
10
10
10
10
10
10
10
10
10
10
10
10
10
10
10
10
10
10
10
10
10
10
10
10
10
10
10
10
10
10
10
10
10
10
10
10
10
10
10
10
10
10
10
10
10
10
10
10
10
10
10
10
10
10
10
10
10
10
10
10
10
10
10
10
10
10
10
10
10
10
10
10
10
10
10
10
10
10
10
10
10
10
10
10
10
10
10
10
10
10
10
10
10
10
10
10
10
10
10
10
10
10
10
10
10
10
10
10
10
10
10
10
10
10
10
10
10
10
10
10
10
10
10
10
10
10
10
10
10
10
10
10
10
10
10
10
10
10
10
10
10
10
10
10
10
10
10
10
10
10
10
10
10
10
10
10
10
10
10
10
10
10
10
10
10
10
10
10
10
10
10
10
10
10
10
10
10
10
10
10
10
10
10
10
10
10
10
10
10
10
10
10
10
10
10
10
10
10
10
10
10
10
10
10
10
10
10
10
10
10
10
10
10
10
10
10
10
10
10
10
10
10
10
10
10
10
10
10
10
10
10
10
10
10
10
10
10
10
10
10
10
10
10
10
10
10
10
10
10
10
10
10
10
10
10
10
10
10
10
10
10
10
10
10
10
10
10
10
10
10
10
10
10
10
10
10
10
10
10
10
10
10
10
10
10
10
10
10
10
10
10
10
10
10
10
10
10
10
10
10
10
10
10
10
10
10
10
10
10
10
10
10
10
10
10
10
10
10
10
10
10
10
10
10
10
10
10
10
10
10
10
10
10
10
10
10
10
10
10
10
10
10
10
10
10
10
10
10
10
10
10
10
10
10
10
10
10
10
10
10
10
10
10
10
10
10
10
10
10
10
10
10
10
10
10
10
10
10
10
10
10
10
10
10
10
10
10
10
10
10
10
10
10
10
10
10
10
10
10
10
10
10
10
10
10
10
10
10
10
10
10
10
10
10
10
10
10
10
10
10
10
10
10
10
10
10
10
10
10
              </DataArray>   
          </Cells>  
          <PointData>  
             <DataArray type="Float64" NumberOfComponents="3" Name="Strains" format="ascii">   
-8.811470777282439e-05   0.0   -5.784762011345222e-05
-8.811470777282439e-05   0.0   -5.784762011345222e-05
-8.811470777282439e-05   0.0   -5.784762011345222e-05
-8.811470777282439e-05   0.0   -5.784762011345222e-05
-5.606733686609892e-05   9.759060494663599e-06   1.4201010278882273e-06
-5.606733686609892e-05   9.759060494663599e-06   1.4201010278882273e-06
-5.606733686609892e-05   9.759060494663599e-06   1.4201010278882273e-06
-5.606733686609892e-05   9.759060494663599e-06   1.4201010278882273e-06
-5.495745030111012e-05   0.0   -5.459908309714103e-05
-5.495745030111012e-05   0.0   -5.459908309714103e-05
-5.495745030111012e-05   0.0   -5.459908309714103e-05
-5.495745030111012e-05   0.0   -5.459908309714103e-05
-9.221490587969012e-05   1.171249537274418e-05   4.691789768460509e-07
-9.221490587969012e-05   1.171249537274418e-05   4.691789768460509e-07
-9.221490587969012e-05   1.171249537274418e-05   4.691789768460509e-07
-9.221490587969012e-05   1.171249537274418e-05   4.691789768460509e-07
-7.153607903696713e-05   2.707114180259336e-06   -2.8592303712201357e-05
-7.153607903696713e-05   2.707114180259336e-06   -2.8592303712201357e-05
-7.153607903696713e-05   2.707114180259336e-06   -2.8592303712201357e-05
-7.153607903696713e-05   2.707114180259336e-06   -2.8592303712201357e-05
-9.221490587969028e-05   0.0   -6.162658032078755e-05
-9.221490587969028e-05   0.0   -6.162658032078755e-05
-9.221490587969028e-05   0.0   -6.162658032078755e-05
-9.221490587969028e-05   0.0   -6.162658032078755e-05
-5.495745030111012e-05   1.1712495372744207e-05   7.496676200492543e-06
-5.495745030111012e-05   1.1712495372744207e-05   7.496676200492543e-06
-5.495745030111012e-05   1.1712495372744207e-05   7.496676200492543e-06
-5.495745030111012e-05   1.1712495372744207e-05   7.496676200492543e-06
-5.5111298062354246e-05   0.0   -5.5935169433818835e-05
-5.5111298062354246e-05   0.0   -5.5935169433818835e-05
-5.5111298062354246e-05   0.0   -5.5935169433818835e-05
-5.5111298062354246e-05   0.0   -5.5935169433818835e-05
-9.509391057787824e-05   1.254847966888678e-05   3.173430290722654e-06
-9.509391057787824e-05   1.254847966888678e-05   3.173430290722654e-06
-9.509391057787824e-05   1.254847966888678e-05   3.173430290722654e-06
-9.509391057787824e-05   1.254847966888678e-05   3.173430290722654e-06
-7.366310197102214e-05   4.742842405807257e-06   -2.7861201696189776e-05
-7.366310197102214e-05   4.742842405807257e-06   -2.7861201696189776e-05
-7.366310197102214e-05   4.742842405807257e-06   -2.7861201696189776e-05
-7.366310197102214e-05   4.742842405807257e-06   -2.7861201696189776e-05
-9.50939105778784e-05   0.0   -6.346425723515092e-05
-9.50939105778784e-05   0.0   -6.346425723515092e-05
-9.50939105778784e-05   0.0   -6.346425723515092e-05
-9.50939105778784e-05   0.0   -6.346425723515092e-05
-5.5111298062354246e-05   1.2548479668886807e-05   1.0702518092054752e-05
-5.5111298062354246e-05   1.2548479668886807e-05   1.0702518092054752e-05
-5.5111298062354246e-05   1.2548479668886807e-05   1.0702518092054752e-05
-5.5111298062354246e-05   1.2548479668886807e-05   1.0702518092054752e-05
-5.508104302366174e-05   0.0   -5.627867041288856e-05
-5.508104302366174e-05   0.0   -5.627867041288856e-05
-5.508104302366174e-05   0.0   -5.627867041288856e-05
-5.508104302366174e-05   0.0   -5.627867041288856e-05
-0.00010129721312654297   1.4296246229895888e-05   1.2170532020642886e-05
-0.00010129721312654297   1.4296246229895888e-05   1.2170532020642886e-05
-0.00010129721312654297   1.4296246229895888e-05   1.2170532020642886e-05
-0.00010129721312654297   1.4296246229895888e-05   1.2170532020642886e-05
-7.508747680076995e-05   5.98798901855196e-06   -2.6527407528839124e-05
-7.508747680076995e-05   5.98798901855196e-06   -2.6527407528839124e-05
-7.508747680076995e-05   5.98798901855196e-06   -2.6527407528839124e-05
-7.508747680076995e-05   5.98798901855196e-06   -2.6527407528839124e-05
-5.606733686609902e-05   0.0   -5.199218381665406e-05
-5.606733686609902e-05   0.0   -5.199218381665406e-05
-5.606733686609902e-05   0.0   -5.199218381665406e-05
-5.606733686609902e-05   0.0   -5.199218381665406e-05
-2.553468900691689e-05   3.578784418787546e-06   1.0428332665886445e-06
-2.553468900691689e-05   3.578784418787546e-06   1.0428332665886445e-06
-2.553468900691689e-05   3.578784418787546e-06   1.0428332665886445e-06
-2.553468900691689e-05   3.578784418787546e-06   1.0428332665886445e-06
-2.4557789629965102e-05   0.0   -5.154156849151155e-05
-2.4557789629965102e-05   0.0   -5.154156849151155e-05
-2.4557789629965102e-05   0.0   -5.154156849151155e-05
-2.4557789629965102e-05   0.0   -5.154156849151155e-05
-5.495745030111012e-05   5.095857676049124e-06   -3.932981978565996e-06
-5.495745030111012e-05   5.095857676049124e-06   -3.932981978565996e-06
-5.495745030111012e-05   5.095857676049124e-06   -3.932981978565996e-06
-5.495745030111012e-05   5.095857676049124e-06   -3.932981978565996e-06
-4.031256324803199e-05   3.755127709520917e-07   -2.5508920123971143e-05
-4.031256324803199e-05   3.755127709520917e-07   -2.5508920123971143e-05
-4.031256324803199e-05   3.755127709520917e-07   -2.5508920123971143e-05
-4.031256324803199e-05   3.755127709520917e-07   -2.5508920123971143e-05
-5.4957450301110076e-05   0.0   -5.459908309714098e-05
-5.4957450301110076e-05   0.0   -5.459908309714098e-05
-5.4957450301110076e-05   0.0   -5.459908309714098e-05
-5.4957450301110076e-05   0.0   -5.459908309714098e-05
-2.4557789629965102e-05   5.095857676049124e-06   -8.754673729365162e-07
-2.4557789629965102e-05   5.095857676049124e-06   -8.754673729365162e-07
-2.4557789629965102e-05   5.095857676049124e-06   -8.754673729365162e-07
-2.4557789629965102e-05   5.095857676049124e-06   -8.754673729365162e-07
-2.400866605139391e-05   0.0   -5.2188318065791406e-05
-2.400866605139391e-05   0.0   -5.2188318065791406e-05
-2.400866605139391e-05   0.0   -5.2188318065791406e-05
-2.400866605139391e-05   0.0   -5.2188318065791406e-05
-5.5111298062354246e-05   6.244752280045701e-06   -4.097449415551606e-06
-5.5111298062354246e-05   6.244752280045701e-06   -4.097449415551606e-06
-5.5111298062354246e-05   6.244752280045701e-06   -4.097449415551606e-06
-5.5111298062354246e-05   6.244752280045701e-06   -4.097449415551606e-06
-3.948305817625194e-05   2.008970859458011e-06   -2.760304704003595e-05
-3.948305817625194e-05   2.008970859458011e-06   -2.760304704003595e-05
-3.948305817625194e-05   2.008970859458011e-06   -2.760304704003595e-05
-3.948305817625194e-05   2.008970859458011e-06   -2.760304704003595e-05
-5.5111298062354246e-05   0.0   -5.5935169433818835e-05
-5.5111298062354246e-05   0.0   -5.5935169433818835e-05
-5.5111298062354246e-05   0.0   -5.5935169433818835e-05
-5.5111298062354246e-05   0.0   -5.5935169433818835e-05
-2.400866605139391e-05   6.244752280045701e-06   -3.505980475241769e-07
-2.400866605139391e-05   6.244752280045701e-06   -3.505980475241769e-07
-2.400866605139391e-05   6.244752280045701e-06   -3.505980475241769e-07
-2.400866605139391e-05   6.244752280045701e-06   -3.505980475241769e-07
-2.3508457373625175e-05   0.0   -5.191860902473493e-05
-2.3508457373625175e-05   0.0   -5.191860902473493e-05
-2.3508457373625175e-05   0.0   -5.191860902473493e-05
-2.3508457373625175e-05   0.0   -5.191860902473493e-05
-5.508104302366159e-05   7.266768980255958e-06   -3.657694329494286e-06
-5.508104302366159e-05   7.266768980255958e-06   -3.657694329494286e-06
-5.508104302366159e-05   7.266768980255958e-06   -3.657694329494286e-06
-5.508104302366159e-05   7.266768980255958e-06   -3.657694329494286e-06
-3.93098777179897e-05   3.3471336742365497e-06   -2.7591188655335996e-05
-3.93098777179897e-05   3.3471336742365497e-06   -2.7591188655335996e-05
-3.93098777179897e-05   3.3471336742365497e-06   -2.7591188655335996e-05
-3.93098777179897e-05   3.3471336742365497e-06   -2.7591188655335996e-05
-2.5534689006916933e-05   0.0   -4.984491316538153e-05
-2.5534689006916933e-05   0.0   -4.984491316538153e-05
-2.5534689006916933e-05   0.0   -4.984491316538153e-05
-2.5534689006916933e-05   0.0   -4.984491316538153e-05
3.3119515204487052e-06   -4.5883749773846505e-07   -2.042481451748502e-06
3.3119515204487052e-06   -4.5883749773846505e-07   -2.042481451748502e-06
3.3119515204487052e-06   -4.5883749773846505e-07   -2.042481451748502e-06
3.3119515204487052e-06   -4.5883749773846505e-07   -2.042481451748502e-06
3.936034150392037e-06   0.0   -5.0999424514456476e-05
3.936034150392037e-06   0.0   -5.0999424514456476e-05
3.936034150392037e-06   0.0   -5.0999424514456476e-05
3.936034150392037e-06   0.0   -5.0999424514456476e-05
-2.4557789629965102e-05   9.035732950914951e-07   -4.051862190916304e-06
-2.4557789629965102e-05   9.035732950914951e-07   -4.051862190916304e-06
-2.4557789629965102e-05   9.035732950914951e-07   -4.051862190916304e-06
-2.4557789629965102e-05   9.035732950914951e-07   -4.051862190916304e-06
-1.0799327428262424e-05   -9.620927908959338e-07   -2.5863232875494875e-05
-1.0799327428262424e-05   -9.620927908959338e-07   -2.5863232875494875e-05
-1.0799327428262424e-05   -9.620927908959338e-07   -2.5863232875494875e-05
-1.0799327428262424e-05   -9.620927908959338e-07   -2.5863232875494875e-05
-2.4557789629965102e-05   0.0   -5.154156849151155e-05
-2.4557789629965102e-05   0.0   -5.154156849151155e-05
-2.4557789629965102e-05   0.0   -5.154156849151155e-05
-2.4557789629965102e-05   0.0   -5.154156849151155e-05
3.936034150392044e-06   9.035732950914816e-07   -3.509718213861399e-06
3.936034150392044e-06   9.035732950914816e-07   -3.509718213861399e-06
3.936034150392044e-06   9.035732950914816e-07   -3.509718213861399e-06
3.936034150392044e-06   9.035732950914816e-07   -3.509718213861399e-06
4.428750660908347e-06   0.0   -5.092637444946526e-05
4.428750660908347e-06   0.0   -5.092637444946526e-05
4.428750660908347e-06   0.0   -5.092637444946526e-05
4.428750660908347e-06   0.0   -5.092637444946526e-05
-2.400866605139387e-05   2.10323936054342e-06   -4.792623545287626e-06
-2.400866605139387e-05   2.10323936054342e-06   -4.792623545287626e-06
-2.400866605139387e-05   2.10323936054342e-06   -4.792623545287626e-06
-2.400866605139387e-05   2.10323936054342e-06   -4.792623545287626e-06
-1.0064519484528374e-05   5.12661701705166e-07   -2.707852122809389e-05
-1.0064519484528374e-05   5.12661701705166e-07   -2.707852122809389e-05
-1.0064519484528374e-05   5.12661701705166e-07   -2.707852122809389e-05
-1.0064519484528374e-05   5.12661701705166e-07   -2.707852122809389e-05
-2.400866605139391e-05   0.0   -5.2188318065791406e-05
-2.400866605139391e-05   0.0   -5.2188318065791406e-05
-2.400866605139391e-05   0.0   -5.2188318065791406e-05
-2.400866605139391e-05   0.0   -5.2188318065791406e-05
4.428750660908355e-06   2.1032393605434336e-06   -3.530679928961588e-06
4.428750660908355e-06   2.1032393605434336e-06   -3.530679928961588e-06
4.428750660908355e-06   2.1032393605434336e-06   -3.530679928961588e-06
4.428750660908355e-06   2.1032393605434336e-06   -3.530679928961588e-06
5.091323994772672e-06   0.0   -4.982299471603038e-05
5.091323994772672e-06   0.0   -4.982299471603038e-05
5.091323994772672e-06   0.0   -4.982299471603038e-05
5.091323994772672e-06   0.0   -4.982299471603038e-05
-2.3508457373625155e-05   3.4926905145075114e-06   -4.25230674407184e-06
-2.3508457373625155e-05   3.4926905145075114e-06   -4.25230674407184e-06
-2.3508457373625155e-05   3.4926905145075114e-06   -4.25230674407184e-06
-2.3508457373625155e-05   3.4926905145075114e-06   -4.25230674407184e-06
-9.458671028310598e-06   1.971102791467448e-06   -2.675566468577205e-05
-9.458671028310598e-06   1.971102791467448e-06   -2.675566468577205e-05
-9.458671028310598e-06   1.971102791467448e-06   -2.675566468577205e-05
-9.458671028310598e-06   1.971102791467448e-06   -2.675566468577205e-05
3.3119515204487107e-06   0.0   -5.012021566402462e-05
3.3119515204487107e-06   0.0   -5.012021566402462e-05
3.3119515204487107e-06   0.0   -5.012021566402462e-05
3.3119515204487107e-06   0.0   -5.012021566402462e-05
3.462551490354584e-05   -4.0612252474054585e-06   -3.6767850730598213e-07
3.462551490354584e-05   -4.0612252474054585e-06   -3.6767850730598213e-07
3.462551490354584e-05   -4.0612252474054585e-06   -3.6767850730598213e-07
3.462551490354584e-05   -4.0612252474054585e-06   -3.6767850730598213e-07
3.4687990267984335e-05   0.0   -5.2836207224239125e-05
3.4687990267984335e-05   0.0   -5.2836207224239125e-05
3.4687990267984335e-05   0.0   -5.2836207224239125e-05
3.4687990267984335e-05   0.0   -5.2836207224239125e-05
3.9360341503920506e-06   -3.0613045163041167e-06   2.538356815304732e-07
3.9360341503920506e-06   -3.0613045163041167e-06   2.538356815304732e-07
3.9360341503920506e-06   -3.0613045163041167e-06   2.538356815304732e-07
3.9360341503920506e-06   -3.0613045163041167e-06   2.538356815304732e-07
1.8999970894216524e-05   -2.263326300178753e-06   -2.5331512487852172e-05
1.8999970894216524e-05   -2.263326300178753e-06   -2.5331512487852172e-05
1.8999970894216524e-05   -2.263326300178753e-06   -2.5331512487852172e-05
1.8999970894216524e-05   -2.263326300178753e-06   -2.5331512487852172e-05
3.9360341503920506e-06   0.0   -5.099942451445665e-05
3.9360341503920506e-06   0.0   -5.099942451445665e-05
3.9360341503920506e-06   0.0   -5.099942451445665e-05
3.9360341503920506e-06   0.0   -5.099942451445665e-05
3.4687990267984335e-05   -3.0613045163041167e-06   -1.5829470282520012e-06
3.4687990267984335e-05   -3.0613045163041167e-06   -1.5829470282520012e-06
3.4687990267984335e-05   -3.0613045163041167e-06   -1.5829470282520012e-06
3.4687990267984335e-05   -3.0613045163041167e-06   -1.5829470282520012e-06
3.45402068699766e-05   0.0   -5.208173262048737e-05
3.45402068699766e-05   0.0   -5.208173262048737e-05
3.45402068699766e-05   0.0   -5.208173262048737e-05
3.45402068699766e-05   0.0   -5.208173262048737e-05
4.428750660908355e-06   -1.9255969517033663e-06   -7.40614101018287e-07
4.428750660908355e-06   -1.9255969517033663e-06   -7.40614101018287e-07
4.428750660908355e-06   -1.9255969517033663e-06   -7.40614101018287e-07
4.428750660908355e-06   -1.9255969517033663e-06   -7.40614101018287e-07
1.9238120510184325e-05   -9.019234216922647e-07   -2.603710130115154e-05
1.9238120510184325e-05   -9.019234216922647e-07   -2.603710130115154e-05
1.9238120510184325e-05   -9.019234216922647e-07   -2.603710130115154e-05
1.9238120510184325e-05   -9.019234216922647e-07   -2.603710130115154e-05
4.428750660908351e-06   0.0   -5.092637444946531e-05
4.428750660908351e-06   0.0   -5.092637444946531e-05
4.428750660908351e-06   0.0   -5.092637444946531e-05
4.428750660908351e-06   0.0   -5.092637444946531e-05
3.45402068699766e-05   -1.9255969517033663e-06   -1.8959722720403115e-06
3.45402068699766e-05   -1.9255969517033663e-06   -1.8959722720403115e-06
3.45402068699766e-05   -1.9255969517033663e-06   -1.8959722720403115e-06
3.45402068699766e-05   -1.9255969517033663e-06   -1.8959722720403115e-06
3.520989644507298e-05   0.0   -5.006269898399645e-05
3.520989644507298e-05   0.0   -5.006269898399645e-05
3.520989644507298e-05   0.0   -5.006269898399645e-05
3.520989644507298e-05   0.0   -5.006269898399645e-05
5.091323994772681e-06   -3.9950711327664437e-07   3.7462603447002533e-07
5.091323994772681e-06   -3.9950711327664437e-07   3.7462603447002533e-07
5.091323994772681e-06   -3.9950711327664437e-07   3.7462603447002533e-07
5.091323994772681e-06   -3.9950711327664437e-07   3.7462603447002533e-07
1.981932355299065e-05   7.197295545574158e-07   -2.484358189659368e-05
1.981932355299065e-05   7.197295545574158e-07   -2.484358189659368e-05
1.981932355299065e-05   7.197295545574158e-07   -2.484358189659368e-05
1.981932355299065e-05   7.197295545574158e-07   -2.484358189659368e-05
3.462551490354584e-05   0.0   -5.25569508124679e-05
3.462551490354584e-05   0.0   -5.25569508124679e-05
3.462551490354584e-05   0.0   -5.25569508124679e-05
3.462551490354584e-05   0.0   -5.25569508124679e-05
7.81768313968621e-05   -1.0295796335177266e-05   1.385109887528662e-05
7.81768313968621e-05   -1.0295796335177266e-05   1.385109887528662e-05
7.81768313968621e-05   -1.0295796335177266e-05   1.385109887528662e-05
7.81768313968621e-05   -1.0295796335177266e-05   1.385109887528662e-05
7.342183676005232e-05   0.0   -5.809197091334262e-05
7.342183676005232e-05   0.0   -5.809197091334262e-05
7.342183676005232e-05   0.0   -5.809197091334262e-05
7.342183676005232e-05   0.0   -5.809197091334262e-05
3.4687990267984335e-05   -8.75960614850582e-06   1.1720203595874172e-05
3.4687990267984335e-05   -8.75960614850582e-06   1.1720203595874172e-05
3.4687990267984335e-05   -8.75960614850582e-06   1.1720203595874172e-05
3.4687990267984335e-05   -8.75960614850582e-06   1.1720203595874172e-05
5.402367583179908e-05   -4.612516750728941e-06   -2.2994192649149838e-05
5.402367583179908e-05   -4.612516750728941e-06   -2.2994192649149838e-05
5.402367583179908e-05   -4.612516750728941e-06   -2.2994192649149838e-05
5.402367583179908e-05   -4.612516750728941e-06   -2.2994192649149838e-05
3.46879902679843e-05   0.0   -5.283620722423908e-05
3.46879902679843e-05   0.0   -5.283620722423908e-05
3.46879902679843e-05   0.0   -5.283620722423908e-05
3.46879902679843e-05   0.0   -5.283620722423908e-05
7.342183676005206e-05   -8.759606148505794e-06   6.464439906770649e-06
7.342183676005206e-05   -8.759606148505794e-06   6.464439906770649e-06
7.342183676005206e-05   -8.759606148505794e-06   6.464439906770649e-06
7.342183676005206e-05   -8.759606148505794e-06   6.464439906770649e-06
7.122947103040528e-05   0.0   -5.688421559955446e-05
7.122947103040528e-05   0.0   -5.688421559955446e-05
7.122947103040528e-05   0.0   -5.688421559955446e-05
7.122947103040528e-05   0.0   -5.688421559955446e-05
3.45402068699766e-05   -8.004138298445138e-06   9.067040980227065e-06
3.45402068699766e-05   -8.004138298445138e-06   9.067040980227065e-06
3.45402068699766e-05   -8.004138298445138e-06   9.067040980227065e-06
3.45402068699766e-05   -8.004138298445138e-06   9.067040980227065e-06
5.295873064919477e-05   -3.373340312762782e-06   -2.4408977443212632e-05
5.295873064919477e-05   -3.373340312762782e-06   -2.4408977443212632e-05
5.295873064919477e-05   -3.373340312762782e-06   -2.4408977443212632e-05
5.295873064919477e-05   -3.373340312762782e-06   -2.4408977443212632e-05
3.45402068699766e-05   0.0   -5.208173262048737e-05
3.45402068699766e-05   0.0   -5.208173262048737e-05
3.45402068699766e-05   0.0   -5.208173262048737e-05
3.45402068699766e-05   0.0   -5.208173262048737e-05
7.122947103040502e-05   -8.004138298445124e-06   4.264558001159966e-06
7.122947103040502e-05   -8.004138298445124e-06   4.264558001159966e-06
7.122947103040502e-05   -8.004138298445124e-06   4.264558001159966e-06
7.122947103040502e-05   -8.004138298445124e-06   4.264558001159966e-06
6.796510978900908e-05   0.0   -5.379496724955629e-05
6.796510978900908e-05   0.0   -5.379496724955629e-05
6.796510978900908e-05   0.0   -5.379496724955629e-05
6.796510978900908e-05   0.0   -5.379496724955629e-05
3.520989644507298e-05   -6.2204471092665395e-06   4.529323255897219e-06
3.520989644507298e-05   -6.2204471092665395e-06   4.529323255897219e-06
3.520989644507298e-05   -6.2204471092665395e-06   4.529323255897219e-06
3.520989644507298e-05   -6.2204471092665395e-06   4.529323255897219e-06
5.125265832949289e-05   -1.4276955242241776e-06   -2.5084264169161364e-05
5.125265832949289e-05   -1.4276955242241776e-06   -2.5084264169161364e-05
5.125265832949289e-05   -1.4276955242241776e-06   -2.5084264169161364e-05
5.125265832949289e-05   -1.4276955242241776e-06   -2.5084264169161364e-05
-7.643886827158133e-05   9.759060494663572e-06   -5.0165597483216465e-05
-7.643886827158133e-05   9.759060494663572e-06   -5.0165597483216465e-05
-7.643886827158133e-05   9.759060494663572e-06   -5.0165597483216465e-05
-7.643886827158133e-05   9.759060494663572e-06   -5.0165597483216465e-05
-4.895965501675571e-05   8.77535871754171e-06   -4.957129791446837e-06
-4.895965501675571e-05   8.77535871754171e-06   -4.957129791446837e-06
-4.895965501675571e-05   8.77535871754171e-06   -4.957129791446837e-06
-4.895965501675571e-05   8.77535871754171e-06   -4.957129791446837e-06
-5.019106276975173e-05   1.1712495372744167e-05   -4.213216676480228e-05
-5.019106276975173e-05   1.1712495372744167e-05   -4.213216676480228e-05
-5.019106276975173e-05   1.1712495372744167e-05   -4.213216676480228e-05
-5.019106276975173e-05   1.1712495372744167e-05   -4.213216676480228e-05
-7.72654099911453e-05   1.0533150461824873e-05   3.699352217405381e-06
-7.72654099911453e-05   1.0533150461824873e-05   3.699352217405381e-06
-7.72654099911453e-05   1.0533150461824873e-05   3.699352217405381e-06
-7.72654099911453e-05   1.0533150461824873e-05   3.699352217405381e-06
-6.0709923184739244e-05   1.0194074821472901e-05   -2.3689680409060606e-05
-6.0709923184739244e-05   1.0194074821472901e-05   -2.3689680409060606e-05
-6.0709923184739244e-05   1.0194074821472901e-05   -2.3689680409060606e-05
-6.0709923184739244e-05   1.0194074821472901e-05   -2.3689680409060606e-05
-7.72654099911453e-05   1.1712495372744167e-05   -4.142455981825073e-05
-7.72654099911453e-05   1.1712495372744167e-05   -4.142455981825073e-05
-7.72654099911453e-05   1.1712495372744167e-05   -4.142455981825073e-05
-7.72654099911453e-05   1.1712495372744167e-05   -4.142455981825073e-05
-5.019106276975191e-05   1.0533150461824927e-05   2.9917452708538047e-06
-5.019106276975191e-05   1.0533150461824927e-05   2.9917452708538047e-06
-5.019106276975191e-05   1.0533150461824927e-05   2.9917452708538047e-06
-5.019106276975191e-05   1.0533150461824927e-05   2.9917452708538047e-06
-5.044858051922886e-05   1.2548479668886766e-05   -3.7880049813185704e-05
-5.044858051922886e-05   1.2548479668886766e-05   -3.7880049813185704e-05
-5.044858051922886e-05   1.2548479668886766e-05   -3.7880049813185704e-05
-5.044858051922886e-05   1.2548479668886766e-05   -3.7880049813185704e-05
-7.780838548764109e-05   1.1326518162862803e-05   8.452802037782101e-06
-7.780838548764109e-05   1.1326518162862803e-05   8.452802037782101e-06
-7.780838548764109e-05   1.1326518162862803e-05   8.452802037782101e-06
-7.780838548764109e-05   1.1326518162862803e-05   8.452802037782101e-06
-6.249441678671518e-05   1.1299305668169746e-05   -1.7054151633611635e-05
-6.249441678671518e-05   1.1299305668169746e-05   -1.7054151633611635e-05
-6.249441678671518e-05   1.1299305668169746e-05   -1.7054151633611635e-05
-6.249441678671518e-05   1.1299305668169746e-05   -1.7054151633611635e-05
-7.780838548764095e-05   1.2548479668886766e-05   -3.714687290957134e-05
-7.780838548764095e-05   1.2548479668886766e-05   -3.714687290957134e-05
-7.780838548764095e-05   1.2548479668886766e-05   -3.714687290957134e-05
-7.780838548764095e-05   1.2548479668886766e-05   -3.714687290957134e-05
-5.044858051922894e-05   1.1326518162862803e-05   7.719625134167764e-06
-5.044858051922894e-05   1.1326518162862803e-05   7.719625134167764e-06
-5.044858051922894e-05   1.1326518162862803e-05   7.719625134167764e-06
-5.044858051922894e-05   1.1326518162862803e-05   7.719625134167764e-06
-5.016148937801324e-05   1.4296246229895861e-05   -2.7991422029095397e-05
-5.016148937801324e-05   1.4296246229895861e-05   -2.7991422029095397e-05
-5.016148937801324e-05   1.4296246229895861e-05   -2.7991422029095397e-05
-5.016148937801324e-05   1.4296246229895861e-05   -2.7991422029095397e-05
-7.564960996353222e-05   1.1957770415403017e-05   1.589186443546497e-05
-7.564960996353222e-05   1.1957770415403017e-05   1.589186443546497e-05
-7.564960996353222e-05   1.1957770415403017e-05   1.589186443546497e-05
-7.564960996353222e-05   1.1957770415403017e-05   1.589186443546497e-05
-6.0868158639148585e-05   1.2394186478458452e-05   -9.005737409674257e-06
-6.0868158639148585e-05   1.2394186478458452e-05   -9.005737409674257e-06
-6.0868158639148585e-05   1.2394186478458452e-05   -9.005737409674257e-06
-6.0868158639148585e-05   1.2394186478458452e-05   -9.005737409674257e-06
-4.895965501675571e-05   3.578784418787546e-06   -5.328035696206171e-05
-4.895965501675571e-05   3.578784418787546e-06   -5.328035696206171e-05
-4.895965501675571e-05   3.578784418787546e-06   -5.328035696206171e-05
-4.895965501675571e-05   3.578784418787546e-06   -5.328035696206171e-05
-2.3201972640582977e-05   4.0833345839714715e-06   -1.0048156235996718e-05
-2.3201972640582977e-05   4.0833345839714715e-06   -1.0048156235996718e-05
-2.3201972640582977e-05   4.0833345839714715e-06   -1.0048156235996718e-05
-2.3201972640582977e-05   4.0833345839714715e-06   -1.0048156235996718e-05
-2.3755845600971672e-05   5.09585767604911e-06   -5.3199506834348664e-05
-2.3755845600971672e-05   5.09585767604911e-06   -5.3199506834348664e-05
-2.3755845600971672e-05   5.09585767604911e-06   -5.3199506834348664e-05
-2.3755845600971672e-05   5.09585767604911e-06   -5.3199506834348664e-05
-5.019106276975173e-05   5.699721191902707e-06   -9.50312966256059e-06
-5.019106276975173e-05   5.699721191902707e-06   -9.50312966256059e-06
-5.019106276975173e-05   5.699721191902707e-06   -9.50312966256059e-06
-5.019106276975173e-05   5.699721191902707e-06   -9.50312966256059e-06
-3.642424390288228e-05   4.5894005816750556e-06   -3.17816354078734e-05
-3.642424390288228e-05   4.5894005816750556e-06   -3.17816354078734e-05
-3.642424390288228e-05   4.5894005816750556e-06   -3.17816354078734e-05
-3.642424390288228e-05   4.5894005816750556e-06   -3.17816354078734e-05
-5.0191062769751685e-05   5.09585767604911e-06   -5.356182494386075e-05
-5.0191062769751685e-05   5.09585767604911e-06   -5.356182494386075e-05
-5.0191062769751685e-05   5.09585767604911e-06   -5.356182494386075e-05
-5.0191062769751685e-05   5.09585767604911e-06   -5.356182494386075e-05
-2.375584560097171e-05   5.699721191902707e-06   -9.140811553048447e-06
-2.375584560097171e-05   5.699721191902707e-06   -9.140811553048447e-06
-2.375584560097171e-05   5.699721191902707e-06   -9.140811553048447e-06
-2.375584560097171e-05   5.699721191902707e-06   -9.140811553048447e-06
-2.3929811246649814e-05   6.244752280045701e-06   -5.220422647992493e-05
-2.3929811246649814e-05   6.244752280045701e-06   -5.220422647992493e-05
-2.3929811246649814e-05   6.244752280045701e-06   -5.220422647992493e-05
-2.3929811246649814e-05   6.244752280045701e-06   -5.220422647992493e-05
-5.044858051922886e-05   7.037737014824218e-06   -8.482068533160352e-06
-5.044858051922886e-05   7.037737014824218e-06   -8.482068533160352e-06
-5.044858051922886e-05   7.037737014824218e-06   -8.482068533160352e-06
-5.044858051922886e-05   7.037737014824218e-06   -8.482068533160352e-06
-3.6708951338293165e-05   5.825287948250577e-06   -3.06539810614422e-05
-3.6708951338293165e-05   5.825287948250577e-06   -3.06539810614422e-05
-3.6708951338293165e-05   5.825287948250577e-06   -3.06539810614422e-05
-3.6708951338293165e-05   5.825287948250577e-06   -3.06539810614422e-05
-5.044858051922886e-05   6.244752280045701e-06   -5.2680017320792035e-05
-5.044858051922886e-05   6.244752280045701e-06   -5.2680017320792035e-05
-5.044858051922886e-05   6.244752280045701e-06   -5.2680017320792035e-05
-5.044858051922886e-05   6.244752280045701e-06   -5.2680017320792035e-05
-2.392981124664989e-05   7.037737014824218e-06   -8.006277692293277e-06
-2.392981124664989e-05   7.037737014824218e-06   -8.006277692293277e-06
-2.392981124664989e-05   7.037737014824218e-06   -8.006277692293277e-06
-2.392981124664989e-05   7.037737014824218e-06   -8.006277692293277e-06
-2.387136587574715e-05   7.266768980255958e-06   -5.16709850331463e-05
-2.387136587574715e-05   7.266768980255958e-06   -5.16709850331463e-05
-2.387136587574715e-05   7.266768980255958e-06   -5.16709850331463e-05
-2.387136587574715e-05   7.266768980255958e-06   -5.16709850331463e-05
-5.0161489378013194e-05   8.477454120295466e-06   -8.580523613393315e-06
-5.0161489378013194e-05   8.477454120295466e-06   -8.580523613393315e-06
-5.0161489378013194e-05   8.477454120295466e-06   -8.580523613393315e-06
-5.0161489378013194e-05   8.477454120295466e-06   -8.580523613393315e-06
-3.692499637794994e-05   6.943907482249696e-06   -2.972121729733809e-05
-3.692499637794994e-05   6.943907482249696e-06   -2.972121729733809e-05
-3.692499637794994e-05   6.943907482249696e-06   -2.972121729733809e-05
-3.692499637794994e-05   6.943907482249696e-06   -2.972121729733809e-05
-2.320197264058294e-05   -4.588374977384786e-07   -5.5787639082645405e-05
-2.320197264058294e-05   -4.588374977384786e-07   -5.5787639082645405e-05
-2.320197264058294e-05   -4.588374977384786e-07   -5.5787639082645405e-05
-2.320197264058294e-05   -4.588374977384786e-07   -5.5787639082645405e-05
2.230714760956481e-06   -1.2183230463158135e-07   -1.3197623630882235e-05
2.230714760956481e-06   -1.2183230463158135e-07   -1.3197623630882235e-05
2.230714760956481e-06   -1.2183230463158135e-07   -1.3197623630882235e-05
2.230714760956481e-06   -1.2183230463158135e-07   -1.3197623630882235e-05
2.1261459701940107e-06   9.035732950914951e-07   -5.609756169047895e-05
2.1261459701940107e-06   9.035732950914951e-07   -5.609756169047895e-05
2.1261459701940107e-06   9.035732950914951e-07   -5.609756169047895e-05
2.1261459701940107e-06   9.035732950914951e-07   -5.609756169047895e-05
-2.3755845600971672e-05   1.3674732315075312e-06   -1.3239249033718858e-05
-2.3755845600971672e-05   1.3674732315075312e-06   -1.3239249033718858e-05
-2.3755845600971672e-05   1.3674732315075312e-06   -1.3239249033718858e-05
-2.3755845600971672e-05   1.3674732315075312e-06   -1.3239249033718858e-05
-1.0714321708698712e-05   4.541223185492707e-07   -3.442711163973234e-05
-1.0714321708698712e-05   4.541223185492707e-07   -3.442711163973234e-05
-1.0714321708698712e-05   4.541223185492707e-07   -3.442711163973234e-05
-1.0714321708698712e-05   4.541223185492707e-07   -3.442711163973234e-05
-2.3755845600971672e-05   9.035732950914951e-07   -5.6375901652328424e-05
-2.3755845600971672e-05   9.035732950914951e-07   -5.6375901652328424e-05
-2.3755845600971672e-05   9.035732950914951e-07   -5.6375901652328424e-05
-2.3755845600971672e-05   9.035732950914951e-07   -5.6375901652328424e-05
2.1261459701940107e-06   1.3674732315075312e-06   -1.2960909071869307e-05
2.1261459701940107e-06   1.3674732315075312e-06   -1.2960909071869307e-05
2.1261459701940107e-06   1.3674732315075312e-06   -1.2960909071869307e-05
2.1261459701940107e-06   1.3674732315075312e-06   -1.2960909071869307e-05
1.9837985705537326e-06   2.10323936054342e-06   -5.62146028345668e-05
1.9837985705537326e-06   2.10323936054342e-06   -5.62146028345668e-05
1.9837985705537326e-06   2.10323936054342e-06   -5.62146028345668e-05
1.9837985705537326e-06   2.10323936054342e-06   -5.62146028345668e-05
-2.3929811246649814e-05   2.822654599079458e-06   -1.3456902282349206e-05
-2.3929811246649814e-05   2.822654599079458e-06   -1.3456902282349206e-05
-2.3929811246649814e-05   2.822654599079458e-06   -1.3456902282349206e-05
-2.3929811246649814e-05   2.822654599079458e-06   -1.3456902282349206e-05
-1.0914227049236414e-05   1.7161651593618492e-06   -3.4485648947540825e-05
-1.0914227049236414e-05   1.7161651593618492e-06   -3.4485648947540825e-05
-1.0914227049236414e-05   1.7161651593618492e-06   -3.4485648947540825e-05
-1.0914227049236414e-05   1.7161651593618492e-06   -3.4485648947540825e-05
-2.3929811246649814e-05   2.10323936054342e-06   -5.664625197768839e-05
-2.3929811246649814e-05   2.10323936054342e-06   -5.664625197768839e-05
-2.3929811246649814e-05   2.10323936054342e-06   -5.664625197768839e-05
-2.3929811246649814e-05   2.10323936054342e-06   -5.664625197768839e-05
1.983798570553736e-06   2.822654599079458e-06   -1.3025253139227588e-05
1.983798570553736e-06   2.822654599079458e-06   -1.3025253139227588e-05
1.983798570553736e-06   2.822654599079458e-06   -1.3025253139227588e-05
1.983798570553736e-06   2.822654599079458e-06   -1.3025253139227588e-05
1.6969284311133365e-06   3.4926905145075114e-06   -5.611799968164021e-05
1.6969284311133365e-06   3.4926905145075114e-06   -5.611799968164021e-05
1.6969284311133365e-06   3.4926905145075114e-06   -5.611799968164021e-05
1.6969284311133365e-06   3.4926905145075114e-06   -5.611799968164021e-05
-2.3871365875747172e-05   4.338789104903001e-06   -1.4011834991110026e-05
-2.3871365875747172e-05   4.338789104903001e-06   -1.4011834991110026e-05
-2.3871365875747172e-05   4.338789104903001e-06   -1.4011834991110026e-05
-2.3871365875747172e-05   4.338789104903001e-06   -1.4011834991110026e-05
-1.1035259079720432e-05   3.0126687174328185e-06   -3.4609674085339115e-05
-1.1035259079720432e-05   3.0126687174328185e-06   -3.4609674085339115e-05
-1.1035259079720432e-05   3.0126687174328185e-06   -3.4609674085339115e-05
-1.1035259079720432e-05   3.0126687174328185e-06   -3.4609674085339115e-05
2.230714760956481e-06   -4.061225247405445e-06   -5.147389787389547e-05
2.230714760956481e-06   -4.061225247405445e-06   -5.147389787389547e-05
2.230714760956481e-06   -4.061225247405445e-06   -5.147389787389547e-05
2.230714760956481e-06   -4.061225247405445e-06   -5.147389787389547e-05
2.8439466215501118e-05   -4.1752937084379754e-06   -7.861086526273896e-06
2.8439466215501118e-05   -4.1752937084379754e-06   -7.861086526273896e-06
2.8439466215501118e-05   -4.1752937084379754e-06   -7.861086526273896e-06
2.8439466215501118e-05   -4.1752937084379754e-06   -7.861086526273896e-06
2.8672671253074567e-05   -3.0613045163040896e-06   -5.21903914453033e-05
2.8672671253074567e-05   -3.0613045163040896e-06   -5.21903914453033e-05
2.8672671253074567e-05   -3.0613045163040896e-06   -5.21903914453033e-05
2.8672671253074567e-05   -3.0613045163040896e-06   -5.21903914453033e-05
2.1261459701940107e-06   -2.8219439333314745e-06   -8.08979899028588e-06
2.1261459701940107e-06   -2.8219439333314745e-06   -8.08979899028588e-06
2.1261459701940107e-06   -2.8219439333314745e-06   -8.08979899028588e-06
2.1261459701940107e-06   -2.8219439333314745e-06   -8.08979899028588e-06
1.5170889374263126e-05   -3.378332767049112e-06   -2.9497204696837208e-05
1.5170889374263126e-05   -3.378332767049112e-06   -2.9497204696837208e-05
1.5170889374263126e-05   -3.378332767049112e-06   -2.9497204696837208e-05
1.5170889374263126e-05   -3.378332767049112e-06   -2.9497204696837208e-05
2.1261459701940073e-06   -3.061304516304103e-06   -5.233400779508699e-05
2.1261459701940073e-06   -3.061304516304103e-06   -5.233400779508699e-05
2.1261459701940073e-06   -3.061304516304103e-06   -5.233400779508699e-05
2.1261459701940073e-06   -3.061304516304103e-06   -5.233400779508699e-05
2.8672671253074615e-05   -2.8219439333314745e-06   -7.946182640502272e-06
2.8672671253074615e-05   -2.8219439333314745e-06   -7.946182640502272e-06
2.8672671253074615e-05   -2.8219439333314745e-06   -7.946182640502272e-06
2.8672671253074615e-05   -2.8219439333314745e-06   -7.946182640502272e-06
2.8531023930957647e-05   -1.9255969517033527e-06   -5.31670045975592e-05
2.8531023930957647e-05   -1.9255969517033527e-06   -5.31670045975592e-05
2.8531023930957647e-05   -1.9255969517033527e-06   -5.31670045975592e-05
2.8531023930957647e-05   -1.9255969517033527e-06   -5.31670045975592e-05
1.9837985705537326e-06   -1.496376269929738e-06   -9.179161405950283e-06
1.9837985705537326e-06   -1.496376269929738e-06   -9.179161405950283e-06
1.9837985705537326e-06   -1.496376269929738e-06   -9.179161405950283e-06
1.9837985705537326e-06   -1.496376269929738e-06   -9.179161405950283e-06
1.5008334996313832e-05   -2.29803152978052e-06   -3.040572895963986e-05
1.5008334996313832e-05   -2.29803152978052e-06   -3.040572895963986e-05
1.5008334996313832e-05   -2.29803152978052e-06   -3.040572895963986e-05
1.5008334996313832e-05   -2.29803152978052e-06   -3.040572895963986e-05
1.983798570553731e-06   -1.9255969517033663e-06   -5.342453700662338e-05
1.983798570553731e-06   -1.9255969517033663e-06   -5.342453700662338e-05
1.983798570553731e-06   -1.9255969517033663e-06   -5.342453700662338e-05
1.983798570553731e-06   -1.9255969517033663e-06   -5.342453700662338e-05
2.8531023930957742e-05   -1.496376269929738e-06   -8.921628996886075e-06
2.8531023930957742e-05   -1.496376269929738e-06   -8.921628996886075e-06
2.8531023930957742e-05   -1.496376269929738e-06   -8.921628996886075e-06
2.8531023930957742e-05   -1.496376269929738e-06   -8.921628996886075e-06
2.769669054902319e-05   -3.9950711327664437e-07   -5.3261143195753246e-05
2.769669054902319e-05   -3.9950711327664437e-07   -5.3261143195753246e-05
2.769669054902319e-05   -3.9950711327664437e-07   -5.3261143195753246e-05
2.769669054902319e-05   -3.9950711327664437e-07   -5.3261143195753246e-05
1.6969284311133365e-06   1.43056246805853e-07   -1.0253744348619723e-05
1.6969284311133365e-06   1.43056246805853e-07   -1.0253744348619723e-05
1.6969284311133365e-06   1.43056246805853e-07   -1.0253744348619723e-05
1.6969284311133365e-06   1.43056246805853e-07   -1.0253744348619723e-05
1.4843802680404511e-05   -1.036274191809416e-06   -3.145760316760247e-05
1.4843802680404511e-05   -1.036274191809416e-06   -3.145760316760247e-05
1.4843802680404511e-05   -1.036274191809416e-06   -3.145760316760247e-05
1.4843802680404511e-05   -1.036274191809416e-06   -3.145760316760247e-05
2.8439466215501118e-05   -1.0295796335177266e-05   -3.1146083766816024e-05
2.8439466215501118e-05   -1.0295796335177266e-05   -3.1146083766816024e-05
2.8439466215501118e-05   -1.0295796335177266e-05   -3.1146083766816024e-05
2.8439466215501118e-05   -1.0295796335177266e-05   -3.1146083766816024e-05
5.4305551188594796e-05   -7.75983956867194e-06   1.3485631914909814e-05
5.4305551188594796e-05   -7.75983956867194e-06   1.3485631914909814e-05
5.4305551188594796e-05   -7.75983956867194e-06   1.3485631914909814e-05
5.4305551188594796e-05   -7.75983956867194e-06   1.3485631914909814e-05
5.6370459871566314e-05   -8.75960614850582e-06   -3.7854943752725695e-05
5.6370459871566314e-05   -8.75960614850582e-06   -3.7854943752725695e-05
5.6370459871566314e-05   -8.75960614850582e-06   -3.7854943752725695e-05
5.6370459871566314e-05   -8.75960614850582e-06   -3.7854943752725695e-05
2.8672671253074662e-05   -7.039111034419802e-06   7.275740209642225e-06
2.8672671253074662e-05   -7.039111034419802e-06   7.275740209642225e-06
2.8672671253074662e-05   -7.039111034419802e-06   7.275740209642225e-06
2.8672671253074662e-05   -7.039111034419802e-06   7.275740209642225e-06
3.9996228042909474e-05   -8.427487339476614e-06   -1.0763828657048407e-05
3.9996228042909474e-05   -8.427487339476614e-06   -1.0763828657048407e-05
3.9996228042909474e-05   -8.427487339476614e-06   -1.0763828657048407e-05
3.9996228042909474e-05   -8.427487339476614e-06   -1.0763828657048407e-05
2.8672671253074595e-05   -8.759606148505807e-06   -3.888724082117716e-05
2.8672671253074595e-05   -8.759606148505807e-06   -3.888724082117716e-05
2.8672671253074595e-05   -8.759606148505807e-06   -3.888724082117716e-05
2.8672671253074595e-05   -8.759606148505807e-06   -3.888724082117716e-05
5.6370459871566314e-05   -7.039111034419802e-06   8.308037278093863e-06
5.6370459871566314e-05   -7.039111034419802e-06   8.308037278093863e-06
5.6370459871566314e-05   -7.039111034419802e-06   8.308037278093863e-06
5.6370459871566314e-05   -7.039111034419802e-06   8.308037278093863e-06
5.6158297280932225e-05   -8.004138298445138e-06   -4.116728674894605e-05
5.6158297280932225e-05   -8.004138298445138e-06   -4.116728674894605e-05
5.6158297280932225e-05   -8.004138298445138e-06   -4.116728674894605e-05
5.6158297280932225e-05   -8.004138298445138e-06   -4.116728674894605e-05
2.8531023930957742e-05   -6.276297304535204e-06   3.841464237998757e-06
2.8531023930957742e-05   -6.276297304535204e-06   3.841464237998757e-06
2.8531023930957742e-05   -6.276297304535204e-06   3.841464237998757e-06
2.8531023930957742e-05   -6.276297304535204e-06   3.841464237998757e-06
4.1393193101183726e-05   -7.442212813783632e-06   -1.6895935073495488e-05
4.1393193101183726e-05   -7.442212813783632e-06   -1.6895935073495488e-05
4.1393193101183726e-05   -7.442212813783632e-06   -1.6895935073495488e-05
4.1393193101183726e-05   -7.442212813783632e-06   -1.6895935073495488e-05
2.8531023930957695e-05   -8.00413829844511e-06   -4.220399134529195e-05
2.8531023930957695e-05   -8.00413829844511e-06   -4.220399134529195e-05
2.8531023930957695e-05   -8.00413829844511e-06   -4.220399134529195e-05
2.8531023930957695e-05   -8.00413829844511e-06   -4.220399134529195e-05
5.6158297280932225e-05   -6.276297304535204e-06   4.878168834344661e-06
5.6158297280932225e-05   -6.276297304535204e-06   4.878168834344661e-06
5.6158297280932225e-05   -6.276297304535204e-06   4.878168834344661e-06
5.6158297280932225e-05   -6.276297304535204e-06   4.878168834344661e-06
5.5817337608477996e-05   -6.2204471092665395e-06   -4.791535722082796e-05
5.5817337608477996e-05   -6.2204471092665395e-06   -4.791535722082796e-05
5.5817337608477996e-05   -6.2204471092665395e-06   -4.791535722082796e-05
5.5817337608477996e-05   -6.2204471092665395e-06   -4.791535722082796e-05
2.7696690549023285e-05   -4.634806300046041e-06   -1.998996607269126e-06
2.7696690549023285e-05   -4.634806300046041e-06   -1.998996607269126e-06
2.7696690549023285e-05   -4.634806300046041e-06   -1.998996607269126e-06
2.7696690549023285e-05   -4.634806300046041e-06   -1.998996607269126e-06
4.020715536147164e-05   -6.407804799451794e-06   -2.1785972195039542e-05
4.020715536147164e-05   -6.407804799451794e-06   -2.1785972195039542e-05
4.020715536147164e-05   -6.407804799451794e-06   -2.1785972195039542e-05
4.020715536147164e-05   -6.407804799451794e-06   -2.1785972195039542e-05
-6.0879654857875484e-05   8.77535871754171e-06   -4.2029442618945416e-05
-6.0879654857875484e-05   8.77535871754171e-06   -4.2029442618945416e-05
-6.0879654857875484e-05   8.77535871754171e-06   -4.2029442618945416e-05
-6.0879654857875484e-05   8.77535871754171e-06   -4.2029442618945416e-05
-3.991479164493831e-05   6.704309688606853e-06   -8.330633348077701e-06
-3.991479164493831e-05   6.704309688606853e-06   -8.330633348077701e-06
-3.991479164493831e-05   6.704309688606853e-06   -8.330633348077701e-06
-3.991479164493831e-05   6.704309688606853e-06   -8.330633348077701e-06
-4.0107665983368836e-05   1.0533150461824873e-05   -3.489764034171432e-05
-4.0107665983368836e-05   1.0533150461824873e-05   -3.489764034171432e-05
-4.0107665983368836e-05   1.0533150461824873e-05   -3.489764034171432e-05
-4.0107665983368836e-05   1.0533150461824873e-05   -3.489764034171432e-05
-5.995690694920219e-05   8.110807860672539e-06   -3.6216650463408986e-07
-5.995690694920219e-05   8.110807860672539e-06   -3.6216650463408986e-07
-5.995690694920219e-05   8.110807860672539e-06   -3.6216650463408986e-07
-5.995690694920219e-05   8.110807860672539e-06   -3.6216650463408986e-07
-4.8091051101410895e-05   8.923508378455417e-06   -2.062621322828945e-05
-4.8091051101410895e-05   8.923508378455417e-06   -2.062621322828945e-05
-4.8091051101410895e-05   8.923508378455417e-06   -2.062621322828945e-05
-4.8091051101410895e-05   8.923508378455417e-06   -2.062621322828945e-05
-5.995690694920219e-05   1.0533150461824873e-05   -3.3444234781022925e-05
-5.995690694920219e-05   1.0533150461824873e-05   -3.3444234781022925e-05
-5.995690694920219e-05   1.0533150461824873e-05   -3.3444234781022925e-05
-5.995690694920219e-05   1.0533150461824873e-05   -3.3444234781022925e-05
-4.0107665983368836e-05   8.110807860672647e-06   -1.8155720653253494e-06
-4.0107665983368836e-05   8.110807860672647e-06   -1.8155720653253494e-06
-4.0107665983368836e-05   8.110807860672647e-06   -1.8155720653253494e-06
-4.0107665983368836e-05   8.110807860672647e-06   -1.8155720653253494e-06
-4.0066940524242356e-05   1.1326518162862803e-05   -2.985571552530954e-05
-4.0066940524242356e-05   1.1326518162862803e-05   -2.985571552530954e-05
-4.0066940524242356e-05   1.1326518162862803e-05   -2.985571552530954e-05
-4.0066940524242356e-05   1.1326518162862803e-05   -2.985571552530954e-05
-5.905753241620894e-05   8.728857552047658e-06   3.353867327790419e-06
-5.905753241620894e-05   8.728857552047658e-06   3.353867327790419e-06
-5.905753241620894e-05   8.728857552047658e-06   3.353867327790419e-06
-5.905753241620894e-05   8.728857552047658e-06   3.353867327790419e-06
-4.8506616394741e-05   9.73885774215727e-06   -1.483699282205477e-05
-4.8506616394741e-05   9.73885774215727e-06   -1.483699282205477e-05
-4.8506616394741e-05   9.73885774215727e-06   -1.483699282205477e-05
-4.8506616394741e-05   9.73885774215727e-06   -1.483699282205477e-05
-5.905753241620894e-05   1.1326518162862803e-05   -2.8297119158820415e-05
-5.905753241620894e-05   1.1326518162862803e-05   -2.8297119158820415e-05
-5.905753241620894e-05   1.1326518162862803e-05   -2.8297119158820415e-05
-5.905753241620894e-05   1.1326518162862803e-05   -2.8297119158820415e-05
-4.006694052424241e-05   8.728857552047658e-06   1.7952709613015111e-06
-4.006694052424241e-05   8.728857552047658e-06   1.7952709613015111e-06
-4.006694052424241e-05   8.728857552047658e-06   1.7952709613015111e-06
-4.006694052424241e-05   8.728857552047658e-06   1.7952709613015111e-06
-4.0107705899382297e-05   1.1957770415403017e-05   -2.2796118739085787e-05
-4.0107705899382297e-05   1.1957770415403017e-05   -2.2796118739085787e-05
-4.0107705899382297e-05   1.1957770415403017e-05   -2.2796118739085787e-05
-4.0107705899382297e-05   1.1957770415403017e-05   -2.2796118739085787e-05
-5.788321662254502e-05   9.337514455769213e-06   8.401886041965387e-06
-5.788321662254502e-05   9.337514455769213e-06   8.401886041965387e-06
-5.788321662254502e-05   9.337514455769213e-06   8.401886041965387e-06
-5.788321662254502e-05   9.337514455769213e-06   8.401886041965387e-06
-4.740168255556362e-05   1.0168154077156539e-05   -9.565721175835312e-06
-4.740168255556362e-05   1.0168154077156539e-05   -9.565721175835312e-06
-4.740168255556362e-05   1.0168154077156539e-05   -9.565721175835312e-06
-4.740168255556362e-05   1.0168154077156539e-05   -9.565721175835312e-06
-3.991479164493831e-05   4.0833345839714715e-06   -4.8665828579966557e-05
-3.991479164493831e-05   4.0833345839714715e-06   -4.8665828579966557e-05
-3.991479164493831e-05   4.0833345839714715e-06   -4.8665828579966557e-05
-3.991479164493831e-05   4.0833345839714715e-06   -4.8665828579966557e-05
-2.031803977146059e-05   3.343336677525755e-06   -1.6448574201371064e-05
-2.031803977146059e-05   3.343336677525755e-06   -1.6448574201371064e-05
-2.031803977146059e-05   3.343336677525755e-06   -1.6448574201371064e-05
-2.031803977146059e-05   3.343336677525755e-06   -1.6448574201371064e-05
-2.056479469702766e-05   5.699721191902707e-06   -4.797633186009927e-05
-2.056479469702766e-05   5.699721191902707e-06   -4.797633186009927e-05
-2.056479469702766e-05   5.699721191902707e-06   -4.797633186009927e-05
-2.056479469702766e-05   5.699721191902707e-06   -4.797633186009927e-05
-4.010766598336878e-05   4.7266935502851635e-06   -1.4821063131226686e-05
-4.010766598336878e-05   4.7266935502851635e-06   -1.4821063131226686e-05
-4.010766598336878e-05   4.7266935502851635e-06   -1.4821063131226686e-05
-4.010766598336878e-05   4.7266935502851635e-06   -1.4821063131226686e-05
-2.9967519368697863e-05   4.7097923703678175e-06   -3.1711166781061314e-05
-2.9967519368697863e-05   4.7097923703678175e-06   -3.1711166781061314e-05
-2.9967519368697863e-05   4.7097923703678175e-06   -3.1711166781061314e-05
-2.9967519368697863e-05   4.7097923703678175e-06   -3.1711166781061314e-05
-4.010766598336882e-05   5.699721191902707e-06   -4.7392515275128605e-05
-4.010766598336882e-05   5.699721191902707e-06   -4.7392515275128605e-05
-4.010766598336882e-05   5.699721191902707e-06   -4.7392515275128605e-05
-4.010766598336882e-05   5.699721191902707e-06   -4.7392515275128605e-05
-2.056479469702769e-05   4.7266935502851635e-06   -1.5404879716197217e-05
-2.056479469702769e-05   4.7266935502851635e-06   -1.5404879716197217e-05
-2.056479469702769e-05   4.7266935502851635e-06   -1.5404879716197217e-05
-2.056479469702769e-05   4.7266935502851635e-06   -1.5404879716197217e-05
-2.0724802500269938e-05   7.037737014824218e-06   -4.6706564301737916e-05
-2.0724802500269938e-05   7.037737014824218e-06   -4.6706564301737916e-05
-2.0724802500269938e-05   7.037737014824218e-06   -4.6706564301737916e-05
-2.0724802500269938e-05   7.037737014824218e-06   -4.6706564301737916e-05
-4.0066940524242356e-05   5.955811832990135e-06   -1.3820512486017165e-05
-4.0066940524242356e-05   5.955811832990135e-06   -1.3820512486017165e-05
-4.0066940524242356e-05   5.955811832990135e-06   -1.3820512486017165e-05
-4.0066940524242356e-05   5.955811832990135e-06   -1.3820512486017165e-05
-3.0022972520012236e-05   5.8479612428361015e-06   -3.0495748805640986e-05
-3.0022972520012236e-05   5.8479612428361015e-06   -3.0495748805640986e-05
-3.0022972520012236e-05   5.8479612428361015e-06   -3.0495748805640986e-05
-3.0022972520012236e-05   5.8479612428361015e-06   -3.0495748805640986e-05
-4.0066940524242356e-05   7.037737014824218e-06   -4.605740919263763e-05
-4.0066940524242356e-05   7.037737014824218e-06   -4.605740919263763e-05
-4.0066940524242356e-05   7.037737014824218e-06   -4.605740919263763e-05
-4.0066940524242356e-05   7.037737014824218e-06   -4.605740919263763e-05
-2.072480250027002e-05   5.955811832990244e-06   -1.4469667595117344e-05
-2.072480250027002e-05   5.955811832990244e-06   -1.4469667595117344e-05
-2.072480250027002e-05   5.955811832990244e-06   -1.4469667595117344e-05
-2.072480250027002e-05   5.955811832990244e-06   -1.4469667595117344e-05
-2.0931859175644387e-05   8.47745412029552e-06   -4.659384469483409e-05
-2.0931859175644387e-05   8.47745412029552e-06   -4.659384469483409e-05
-2.0931859175644387e-05   8.47745412029552e-06   -4.659384469483409e-05
-2.0931859175644387e-05   8.47745412029552e-06   -4.659384469483409e-05
-4.0107705899382256e-05   7.26341512765293e-06   -1.3905676759685276e-05
-4.0107705899382256e-05   7.26341512765293e-06   -1.3905676759685276e-05
-4.0107705899382256e-05   7.26341512765293e-06   -1.3905676759685276e-05
-4.0107705899382256e-05   7.26341512765293e-06   -1.3905676759685276e-05
-3.03787459155617e-05   6.9754161646696676e-06   -2.994781068826267e-05
-3.03787459155617e-05   6.9754161646696676e-06   -2.994781068826267e-05
-3.03787459155617e-05   6.9754161646696676e-06   -2.994781068826267e-05
-3.03787459155617e-05   6.9754161646696676e-06   -2.994781068826267e-05
-2.0318039771460557e-05   -1.2183230463158135e-07   -5.24614978345836e-05
-2.0318039771460557e-05   -1.2183230463158135e-07   -5.24614978345836e-05
-2.0318039771460557e-05   -1.2183230463158135e-07   -5.24614978345836e-05
-2.0318039771460557e-05   -1.2183230463158135e-07   -5.24614978345836e-05
-9.40488129068122e-07   1.7807051703609602e-07   -1.9985636737595517e-05
-9.40488129068122e-07   1.7807051703609602e-07   -1.9985636737595517e-05
-9.40488129068122e-07   1.7807051703609602e-07   -1.9985636737595517e-05
-9.40488129068122e-07   1.7807051703609602e-07   -1.9985636737595517e-05
-1.1384732348949685e-06   1.367473231507477e-06   -5.1971315201796895e-05
-1.1384732348949685e-06   1.367473231507477e-06   -5.1971315201796895e-05
-1.1384732348949685e-06   1.367473231507477e-06   -5.1971315201796895e-05
-1.1384732348949685e-06   1.367473231507477e-06   -5.1971315201796895e-05
-2.056479469702766e-05   1.539896796462015e-06   -1.969756690388191e-05
-2.056479469702766e-05   1.539896796462015e-06   -1.969756690388191e-05
-2.056479469702766e-05   1.539896796462015e-06   -1.969756690388191e-05
-2.056479469702766e-05   1.539896796462015e-06   -1.969756690388191e-05
-1.0680012791868879e-05   8.972956815688307e-07   -3.5786642743543894e-05
-1.0680012791868879e-05   8.972956815688307e-07   -3.5786642743543894e-05
-1.0680012791868879e-05   8.972956815688307e-07   -3.5786642743543894e-05
-1.0680012791868879e-05   8.972956815688307e-07   -3.5786642743543894e-05
-2.056479469702766e-05   1.3674732315075312e-06   -5.207476934076971e-05
-2.056479469702766e-05   1.3674732315075312e-06   -5.207476934076971e-05
-2.056479469702766e-05   1.3674732315075312e-06   -5.207476934076971e-05
-2.056479469702766e-05   1.3674732315075312e-06   -5.207476934076971e-05
-1.1384732348949694e-06   1.539896796462015e-06   -1.9594112764909012e-05
-1.1384732348949694e-06   1.539896796462015e-06   -1.9594112764909012e-05
-1.1384732348949694e-06   1.539896796462015e-06   -1.9594112764909012e-05
-1.1384732348949694e-06   1.539896796462015e-06   -1.9594112764909012e-05
-1.2815264222943345e-06   2.822654599079458e-06   -5.21121759898289e-05
-1.2815264222943345e-06   2.822654599079458e-06   -5.21121759898289e-05
-1.2815264222943345e-06   2.822654599079458e-06   -5.21121759898289e-05
-1.2815264222943345e-06   2.822654599079458e-06   -5.21121759898289e-05
-2.072480250026998e-05   2.8976761023544097e-06   -1.9751728761834686e-05
-2.072480250026998e-05   2.8976761023544097e-06   -1.9751728761834686e-05
-2.072480250026998e-05   2.8976761023544097e-06   -1.9751728761834686e-05
-2.072480250026998e-05   2.8976761023544097e-06   -1.9751728761834686e-05
-1.093555497066951e-05   2.0983206272122998e-06   -3.558752802608332e-05
-1.093555497066951e-05   2.0983206272122998e-06   -3.558752802608332e-05
-1.093555497066951e-05   2.0983206272122998e-06   -3.558752802608332e-05
-1.093555497066951e-05   2.0983206272122998e-06   -3.558752802608332e-05
-2.072480250026998e-05   2.822654599079458e-06   -5.215718889179399e-05
-2.072480250026998e-05   2.822654599079458e-06   -5.215718889179399e-05
-2.072480250026998e-05   2.822654599079458e-06   -5.215718889179399e-05
-2.072480250026998e-05   2.822654599079458e-06   -5.215718889179399e-05
-1.2815264222943362e-06   2.8976761023544097e-06   -1.9706715859869542e-05
-1.2815264222943362e-06   2.8976761023544097e-06   -1.9706715859869542e-05
-1.2815264222943362e-06   2.8976761023544097e-06   -1.9706715859869542e-05
-1.2815264222943362e-06   2.8976761023544097e-06   -1.9706715859869542e-05
-1.5063047002972222e-06   4.338789104903001e-06   -5.278263653332599e-05
-1.5063047002972222e-06   4.338789104903001e-06   -5.278263653332599e-05
-1.5063047002972222e-06   4.338789104903001e-06   -5.278263653332599e-05
-1.5063047002972222e-06   4.338789104903001e-06   -5.278263653332599e-05
-2.093185917564436e-05   4.287006810316913e-06   -2.037564303099604e-05
-2.093185917564436e-05   4.287006810316913e-06   -2.037564303099604e-05
-2.093185917564436e-05   4.287006810316913e-06   -2.037564303099604e-05
-2.093185917564436e-05   4.287006810316913e-06   -2.037564303099604e-05
-1.1207029027407314e-05   3.3136138927250796e-06   -3.599965752750229e-05
-1.1207029027407314e-05   3.3136138927250796e-06   -3.599965752750229e-05
-1.1207029027407314e-05   3.3136138927250796e-06   -3.599965752750229e-05
-1.1207029027407314e-05   3.3136138927250796e-06   -3.599965752750229e-05
-9.404881290681236e-07   -4.1752937084379754e-06   -4.687657796035509e-05
-9.404881290681236e-07   -4.1752937084379754e-06   -4.687657796035509e-05
-9.404881290681236e-07   -4.1752937084379754e-06   -4.687657796035509e-05
-9.404881290681236e-07   -4.1752937084379754e-06   -4.687657796035509e-05
1.833878868125797e-05   -2.798991869409017e-06   -1.391866883972766e-05
1.833878868125797e-05   -2.798991869409017e-06   -1.391866883972766e-05
1.833878868125797e-05   -2.798991869409017e-06   -1.391866883972766e-05
1.833878868125797e-05   -2.798991869409017e-06   -1.391866883972766e-05
1.832473972859115e-05   -2.8219439333314745e-06   -4.633735986608471e-05
1.832473972859115e-05   -2.8219439333314745e-06   -4.633735986608471e-05
1.832473972859115e-05   -2.8219439333314745e-06   -4.633735986608471e-05
1.832473972859115e-05   -2.8219439333314745e-06   -4.633735986608471e-05
-1.1384732348949694e-06   -1.5505351764499332e-06   -1.466151684773669e-05
-1.1384732348949694e-06   -1.5505351764499332e-06   -1.466151684773669e-05
-1.1384732348949694e-06   -1.5505351764499332e-06   -1.466151684773669e-05
-1.1384732348949694e-06   -1.5505351764499332e-06   -1.466151684773669e-05
8.580209081177055e-06   -2.7383906351470186e-06   -3.0146607432638557e-05
8.580209081177055e-06   -2.7383906351470186e-06   -3.0146607432638557e-05
8.580209081177055e-06   -2.7383906351470186e-06   -3.0146607432638557e-05
8.580209081177055e-06   -2.7383906351470186e-06   -3.0146607432638557e-05
-1.1384732348949694e-06   -2.8219439333314745e-06   -4.710020512021349e-05
-1.1384732348949694e-06   -2.8219439333314745e-06   -4.710020512021349e-05
-1.1384732348949694e-06   -2.8219439333314745e-06   -4.710020512021349e-05
-1.1384732348949694e-06   -2.8219439333314745e-06   -4.710020512021349e-05
1.832473972859115e-05   -1.5505351764500417e-06   -1.3898671593607801e-05
1.832473972859115e-05   -1.5505351764500417e-06   -1.3898671593607801e-05
1.832473972859115e-05   -1.5505351764500417e-06   -1.3898671593607801e-05
1.832473972859115e-05   -1.5505351764500417e-06   -1.3898671593607801e-05
1.841147947006883e-05   -1.496376269929738e-06   -4.756260670170506e-05
1.841147947006883e-05   -1.496376269929738e-06   -4.756260670170506e-05
1.841147947006883e-05   -1.496376269929738e-06   -4.756260670170506e-05
1.841147947006883e-05   -1.496376269929738e-06   -4.756260670170506e-05
-1.2815264222943387e-06   -3.2391367851857585e-07   -1.5444407769279978e-05
-1.2815264222943387e-06   -3.2391367851857585e-07   -1.5444407769279978e-05
-1.2815264222943387e-06   -3.2391367851857585e-07   -1.5444407769279978e-05
-1.2815264222943387e-06   -3.2391367851857585e-07   -1.5444407769279978e-05
8.316603202086573e-06   -1.6558838764833806e-06   -3.064210835780231e-05
8.316603202086573e-06   -1.6558838764833806e-06   -3.064210835780231e-05
8.316603202086573e-06   -1.6558838764833806e-06   -3.064210835780231e-05
8.316603202086573e-06   -1.6558838764833806e-06   -3.064210835780231e-05
-1.2815264222943345e-06   -1.496376269929738e-06   -4.8266084256551594e-05
-1.2815264222943345e-06   -1.496376269929738e-06   -4.8266084256551594e-05
-1.2815264222943345e-06   -1.496376269929738e-06   -4.8266084256551594e-05
-1.2815264222943345e-06   -1.496376269929738e-06   -4.8266084256551594e-05
1.841147947006883e-05   -3.2391367851846743e-07   -1.4740930214433e-05
1.841147947006883e-05   -3.2391367851846743e-07   -1.4740930214433e-05
1.841147947006883e-05   -3.2391367851846743e-07   -1.4740930214433e-05
1.841147947006883e-05   -3.2391367851846743e-07   -1.4740930214433e-05
1.8270156770849625e-05   1.43056246805853e-07   -4.8951960338523804e-05
1.8270156770849625e-05   1.43056246805853e-07   -4.8951960338523804e-05
1.8270156770849625e-05   1.43056246805853e-07   -4.8951960338523804e-05
1.8270156770849625e-05   1.43056246805853e-07   -4.8951960338523804e-05
-1.5063047002972247e-06   1.1101307577214038e-06   -1.657143592649514e-05
-1.5063047002972247e-06   1.1101307577214038e-06   -1.657143592649514e-05
-1.5063047002972247e-06   1.1101307577214038e-06   -1.657143592649514e-05
-1.5063047002972247e-06   1.1101307577214038e-06   -1.657143592649514e-05
8.224141673646608e-06   -4.977414670078199e-07   -3.1824123214897106e-05
8.224141673646608e-06   -4.977414670078199e-07   -3.1824123214897106e-05
8.224141673646608e-06   -4.977414670078199e-07   -3.1824123214897106e-05
8.224141673646608e-06   -4.977414670078199e-07   -3.1824123214897106e-05
1.833878868125793e-05   -7.75983956867194e-06   -2.6225652475657217e-05
1.833878868125793e-05   -7.75983956867194e-06   -2.6225652475657217e-05
1.833878868125793e-05   -7.75983956867194e-06   -2.6225652475657217e-05
1.833878868125793e-05   -7.75983956867194e-06   -2.6225652475657217e-05
3.638908031569288e-05   -5.07531653751842e-06   5.468880733759858e-06
3.638908031569288e-05   -5.07531653751842e-06   5.468880733759858e-06
3.638908031569288e-05   -5.07531653751842e-06   5.468880733759858e-06
3.638908031569288e-05   -5.07531653751842e-06   5.468880733759858e-06
3.761678795614304e-05   -7.039111034419802e-06   -2.9505332590807376e-05
3.761678795614304e-05   -7.039111034419802e-06   -2.9505332590807376e-05
3.761678795614304e-05   -7.039111034419802e-06   -2.9505332590807376e-05
3.761678795614304e-05   -7.039111034419802e-06   -2.9505332590807376e-05
1.8324739728591108e-05   -4.355603659198632e-06   1.0379766966465574e-06
1.8324739728591108e-05   -4.355603659198632e-06   1.0379766966465574e-06
1.8324739728591108e-05   -4.355603659198632e-06   1.0379766966465574e-06
1.8324739728591108e-05   -4.355603659198632e-06   1.0379766966465574e-06
2.648490514077523e-05   -5.985644347711978e-06   -1.158427457721901e-05
2.648490514077523e-05   -5.985644347711978e-06   -1.158427457721901e-05
2.648490514077523e-05   -5.985644347711978e-06   -1.158427457721901e-05
2.648490514077523e-05   -5.985644347711978e-06   -1.158427457721901e-05
1.8324739728591095e-05   -7.039111034419802e-06   -3.1115437015940054e-05
1.8324739728591095e-05   -7.039111034419802e-06   -3.1115437015940054e-05
1.8324739728591095e-05   -7.039111034419802e-06   -3.1115437015940054e-05
1.8324739728591095e-05   -7.039111034419802e-06   -3.1115437015940054e-05
3.761678795614304e-05   -4.355603659198632e-06   2.6480811217793844e-06
3.761678795614304e-05   -4.355603659198632e-06   2.6480811217793844e-06
3.761678795614304e-05   -4.355603659198632e-06   2.6480811217793844e-06
3.761678795614304e-05   -4.355603659198632e-06   2.6480811217793844e-06
3.856061775605289e-05   -6.276297304535204e-06   -3.327694241968543e-05
3.856061775605289e-05   -6.276297304535204e-06   -3.327694241968543e-05
3.856061775605289e-05   -6.276297304535204e-06   -3.327694241968543e-05
3.856061775605289e-05   -6.276297304535204e-06   -3.327694241968543e-05
1.841147947006876e-05   -3.738678892644125e-06   -1.2176163235134909e-06
1.841147947006876e-05   -3.738678892644125e-06   -1.2176163235134909e-06
1.841147947006876e-05   -3.738678892644125e-06   -1.2176163235134909e-06
1.841147947006876e-05   -3.738678892644125e-06   -1.2176163235134909e-06
2.7385129942243688e-05   -5.521323116825427e-06   -1.5104113909295973e-05
2.7385129942243688e-05   -5.521323116825427e-06   -1.5104113909295973e-05
2.7385129942243688e-05   -5.521323116825427e-06   -1.5104113909295973e-05
2.7385129942243688e-05   -5.521323116825427e-06   -1.5104113909295973e-05
1.8411479470068802e-05   -6.276297304535204e-06   -3.4799513466820105e-05
1.8411479470068802e-05   -6.276297304535204e-06   -3.4799513466820105e-05
1.8411479470068802e-05   -6.276297304535204e-06   -3.4799513466820105e-05
1.8411479470068802e-05   -6.276297304535204e-06   -3.4799513466820105e-05
3.856061775605281e-05   -3.7386788926440165e-06   3.0495472362146534e-07
3.856061775605281e-05   -3.7386788926440165e-06   3.0495472362146534e-07
3.856061775605281e-05   -3.7386788926440165e-06   3.0495472362146534e-07
3.856061775605281e-05   -3.7386788926440165e-06   3.0495472362146534e-07
3.956656598219822e-05   -4.634806300046041e-06   -3.969453045905593e-05
3.956656598219822e-05   -4.634806300046041e-06   -3.969453045905593e-05
3.956656598219822e-05   -4.634806300046041e-06   -3.969453045905593e-05
3.956656598219822e-05   -4.634806300046041e-06   -3.969453045905593e-05
1.8270156770849557e-05   -2.4211060431015554e-06   -5.528735260974994e-06
1.8270156770849557e-05   -2.4211060431015554e-06   -5.528735260974994e-06
1.8270156770849557e-05   -2.4211060431015554e-06   -5.528735260974994e-06
1.8270156770849557e-05   -2.4211060431015554e-06   -5.528735260974994e-06
2.7268684172627403e-05   -4.756014424969865e-06   -1.9125335901483593e-05
2.7268684172627403e-05   -4.756014424969865e-06   -1.9125335901483593e-05
2.7268684172627403e-05   -4.756014424969865e-06   -1.9125335901483593e-05
2.7268684172627403e-05   -4.756014424969865e-06   -1.9125335901483593e-05
-4.3738474496075495e-05   6.704309688606853e-06   -3.328292188876637e-05
-4.3738474496075495e-05   6.704309688606853e-06   -3.328292188876637e-05
-4.3738474496075495e-05   6.704309688606853e-06   -3.328292188876637e-05
-4.3738474496075495e-05   6.704309688606853e-06   -3.328292188876637e-05
-2.978575393659206e-05   4.263841170902907e-06   -1.1492668733582932e-05
-2.978575393659206e-05   4.263841170902907e-06   -1.1492668733582932e-05
-2.978575393659206e-05   4.263841170902907e-06   -1.1492668733582932e-05
-2.978575393659206e-05   4.263841170902907e-06   -1.1492668733582932e-05
-2.9677246473340958e-05   8.110807860672539e-06   -2.8275421358649818e-05
-2.9677246473340958e-05   8.110807860672539e-06   -2.8275421358649818e-05
-2.9677246473340958e-05   8.110807860672539e-06   -2.8275421358649818e-05
-2.9677246473340958e-05   8.110807860672539e-06   -2.8275421358649818e-05
-4.2429225243927754e-05   5.427816631431545e-06   -5.412328670127188e-06
-4.2429225243927754e-05   5.427816631431545e-06   -5.412328670127188e-06
-4.2429225243927754e-05   5.427816631431545e-06   -5.412328670127188e-06
-4.2429225243927754e-05   5.427816631431545e-06   -5.412328670127188e-06
-3.486306228904878e-05   6.45603645068292e-06   -1.8639532153142877e-05
-3.486306228904878e-05   6.45603645068292e-06   -1.8639532153142877e-05
-3.486306228904878e-05   6.45603645068292e-06   -1.8639532153142877e-05
-3.486306228904878e-05   6.45603645068292e-06   -1.8639532153142877e-05
-4.2429225243927754e-05   8.110807860672539e-06   -2.66656266211052e-05
-4.2429225243927754e-05   8.110807860672539e-06   -2.66656266211052e-05
-4.2429225243927754e-05   8.110807860672539e-06   -2.66656266211052e-05
-4.2429225243927754e-05   8.110807860672539e-06   -2.66656266211052e-05
-2.9677246473341012e-05   5.427816631431654e-06   -7.02212340767186e-06
-2.9677246473341012e-05   5.427816631431654e-06   -7.02212340767186e-06
-2.9677246473341012e-05   5.427816631431654e-06   -7.02212340767186e-06
-2.9677246473341012e-05   5.427816631431654e-06   -7.02212340767186e-06
-2.9452123199738458e-05   8.728857552047658e-06   -2.465613513965301e-05
-2.9452123199738458e-05   8.728857552047658e-06   -2.465613513965301e-05
-2.9452123199738458e-05   8.728857552047658e-06   -2.465613513965301e-05
-2.9452123199738458e-05   8.728857552047658e-06   -2.465613513965301e-05
-4.145071722916273e-05   5.97031778570335e-06   -3.0033545641393994e-06
-4.145071722916273e-05   5.97031778570335e-06   -3.0033545641393994e-06
-4.145071722916273e-05   5.97031778570335e-06   -3.0033545641393994e-06
-4.145071722916273e-05   5.97031778570335e-06   -3.0033545641393994e-06
-3.4864691416785246e-05   7.10556781577062e-06   -1.466121426947555e-05
-3.4864691416785246e-05   7.10556781577062e-06   -1.466121426947555e-05
-3.4864691416785246e-05   7.10556781577062e-06   -1.466121426947555e-05
-3.4864691416785246e-05   7.10556781577062e-06   -1.466121426947555e-05
-4.145071722916273e-05   8.728857552047658e-06   -2.3001011279846393e-05
-4.145071722916273e-05   8.728857552047658e-06   -2.3001011279846393e-05
-4.145071722916273e-05   8.728857552047658e-06   -2.3001011279846393e-05
-4.145071722916273e-05   8.728857552047658e-06   -2.3001011279846393e-05
-2.9452123199738512e-05   5.97031778570335e-06   -4.6584784239458e-06
-2.9452123199738512e-05   5.97031778570335e-06   -4.6584784239458e-06
-2.9452123199738512e-05   5.97031778570335e-06   -4.6584784239458e-06
-2.9452123199738512e-05   5.97031778570335e-06   -4.6584784239458e-06
-2.9362130386911372e-05   9.337514455769213e-06   -1.964675642881445e-05
-2.9362130386911372e-05   9.337514455769213e-06   -1.964675642881445e-05
-2.9362130386911372e-05   9.337514455769213e-06   -1.964675642881445e-05
-2.9362130386911372e-05   9.337514455769213e-06   -1.964675642881445e-05
-4.017064275279466e-05   6.652772561666987e-06   -2.1724015880836885e-08
-4.017064275279466e-05   6.652772561666987e-06   -2.1724015880836885e-08
-4.017064275279466e-05   6.652772561666987e-06   -2.1724015880836885e-08
-4.017064275279466e-05   6.652772561666987e-06   -2.1724015880836885e-08
-3.383302779020704e-05   7.457853885796048e-06   -1.1067464414671129e-05
-3.383302779020704e-05   7.457853885796048e-06   -1.1067464414671129e-05
-3.383302779020704e-05   7.457853885796048e-06   -1.1067464414671129e-05
-3.383302779020704e-05   7.457853885796048e-06   -1.1067464414671129e-05
-2.9785753936592004e-05   3.343336677525755e-06   -4.242114510881462e-05
-2.9785753936592004e-05   3.343336677525755e-06   -4.242114510881462e-05
-2.9785753936592004e-05   3.343336677525755e-06   -4.242114510881462e-05
-2.9785753936592004e-05   3.343336677525755e-06   -4.242114510881462e-05
-1.7137542387340264e-05   2.205156420690443e-06   -2.2023700680829603e-05
-1.7137542387340264e-05   2.205156420690443e-06   -2.2023700680829603e-05
-1.7137542387340264e-05   2.205156420690443e-06   -2.2023700680829603e-05
-1.7137542387340264e-05   2.205156420690443e-06   -2.2023700680829603e-05
-1.714590932695954e-05   4.726693550285055e-06   -4.205645746113533e-05
-1.714590932695954e-05   4.726693550285055e-06   -4.205645746113533e-05
-1.714590932695954e-05   4.726693550285055e-06   -4.205645746113533e-05
-1.714590932695954e-05   4.726693550285055e-06   -4.205645746113533e-05
-2.9677246473340958e-05   3.4341184893113205e-06   -2.0395350513915294e-05
-2.9677246473340958e-05   3.4341184893113205e-06   -2.0395350513915294e-05
-2.9677246473340958e-05   3.4341184893113205e-06   -2.0395350513915294e-05
-2.9677246473340958e-05   3.4341184893113205e-06   -2.0395350513915294e-05
-2.322049812305896e-05   3.657439518313572e-06   -3.1290590381786814e-05
-2.322049812305896e-05   3.657439518313572e-06   -3.1290590381786814e-05
-2.322049812305896e-05   3.657439518313572e-06   -3.1290590381786814e-05
-2.322049812305896e-05   3.657439518313572e-06   -3.1290590381786814e-05
-2.967724647334093e-05   4.7266935502851635e-06   -4.128091242455094e-05
-2.967724647334093e-05   4.7266935502851635e-06   -4.128091242455094e-05
-2.967724647334093e-05   4.7266935502851635e-06   -4.128091242455094e-05
-2.967724647334093e-05   4.7266935502851635e-06   -4.128091242455094e-05
-1.714590932695954e-05   3.4341184893113205e-06   -2.1170895550499632e-05
-1.714590932695954e-05   3.4341184893113205e-06   -2.1170895550499632e-05
-1.714590932695954e-05   3.4341184893113205e-06   -2.1170895550499632e-05
-1.714590932695954e-05   3.4341184893113205e-06   -2.1170895550499632e-05
-1.7133277285757845e-05   5.955811832990244e-06   -4.1113865869000696e-05
-1.7133277285757845e-05   5.955811832990244e-06   -4.1113865869000696e-05
-1.7133277285757845e-05   5.955811832990244e-06   -4.1113865869000696e-05
-1.7133277285757845e-05   5.955811832990244e-06   -4.1113865869000696e-05
-2.9452123199738458e-05   4.5525663629414695e-06   -1.9740508730337124e-05
-2.9452123199738458e-05   4.5525663629414695e-06   -1.9740508730337124e-05
-2.9452123199738458e-05   4.5525663629414695e-06   -1.9740508730337124e-05
-2.9452123199738458e-05   4.5525663629414695e-06   -1.9740508730337124e-05
-2.3112366788926622e-05   4.666860680644334e-06   -3.037534600564489e-05
-2.3112366788926622e-05   4.666860680644334e-06   -3.037534600564489e-05
-2.3112366788926622e-05   4.666860680644334e-06   -3.037534600564489e-05
-2.3112366788926622e-05   4.666860680644334e-06   -3.037534600564489e-05
-2.9452123199738458e-05   5.955811832990244e-06   -4.02719185869715e-05
-2.9452123199738458e-05   5.955811832990244e-06   -4.02719185869715e-05
-2.9452123199738458e-05   5.955811832990244e-06   -4.02719185869715e-05
-2.9452123199738458e-05   5.955811832990244e-06   -4.02719185869715e-05
-1.7133277285757872e-05   4.552566362941578e-06   -2.0582456012366296e-05
-1.7133277285757872e-05   4.552566362941578e-06   -2.0582456012366296e-05
-1.7133277285757872e-05   4.552566362941578e-06   -2.0582456012366296e-05
-1.7133277285757872e-05   4.552566362941578e-06   -2.0582456012366296e-05
-1.714705078379292e-05   7.263415127652822e-06   -4.127964346994819e-05
-1.714705078379292e-05   7.263415127652822e-06   -4.127964346994819e-05
-1.714705078379292e-05   7.263415127652822e-06   -4.127964346994819e-05
-1.714705078379292e-05   7.263415127652822e-06   -4.127964346994819e-05
-2.93621303869114e-05   5.767618768880915e-06   -2.0023699649487252e-05
-2.93621303869114e-05   5.767618768880915e-06   -2.0023699649487252e-05
-2.93621303869114e-05   5.767618768880915e-06   -2.0023699649487252e-05
-2.93621303869114e-05   5.767618768880915e-06   -2.0023699649487252e-05
-2.326207870750124e-05   5.665653065995563e-06   -3.012927302677298e-05
-2.326207870750124e-05   5.665653065995563e-06   -3.012927302677298e-05
-2.326207870750124e-05   5.665653065995563e-06   -3.012927302677298e-05
-2.326207870750124e-05   5.665653065995563e-06   -3.012927302677298e-05
-1.7137542387340237e-05   1.7807051703620444e-07   -4.6821057492141044e-05
-1.7137542387340237e-05   1.7807051703620444e-07   -4.6821057492141044e-05
-1.7137542387340237e-05   1.7807051703620444e-07   -4.6821057492141044e-05
-1.7137542387340237e-05   1.7807051703620444e-07   -4.6821057492141044e-05
-4.664399304551111e-06   3.801100208250443e-07   -2.5911261985219207e-05
-4.664399304551111e-06   3.801100208250443e-07   -2.5911261985219207e-05
-4.664399304551111e-06   3.801100208250443e-07   -2.5911261985219207e-05
-4.664399304551111e-06   3.801100208250443e-07   -2.5911261985219207e-05
-4.673326113430561e-06   1.539896796462015e-06   -4.6303528764175274e-05
-4.673326113430561e-06   1.539896796462015e-06   -4.6303528764175274e-05
-4.673326113430561e-06   1.539896796462015e-06   -4.6303528764175274e-05
-4.673326113430561e-06   1.539896796462015e-06   -4.6303528764175274e-05
-1.71459093269595e-05   1.6159232708697546e-06   -2.556150595960503e-05
-1.71459093269595e-05   1.6159232708697546e-06   -2.556150595960503e-05
-1.71459093269595e-05   1.6159232708697546e-06   -2.556150595960503e-05
-1.71459093269595e-05   1.6159232708697546e-06   -2.556150595960503e-05
-1.0832805629206386e-05   1.088511426778748e-06   -3.5766898349405684e-05
-1.0832805629206386e-05   1.088511426778748e-06   -3.5766898349405684e-05
-1.0832805629206386e-05   1.088511426778748e-06   -3.5766898349405684e-05
-1.0832805629206386e-05   1.088511426778748e-06   -3.5766898349405684e-05
-1.71459093269595e-05   1.539896796462015e-06   -4.6349144648819886e-05
-1.71459093269595e-05   1.539896796462015e-06   -4.6349144648819886e-05
-1.71459093269595e-05   1.539896796462015e-06   -4.6349144648819886e-05
-1.71459093269595e-05   1.539896796462015e-06   -4.6349144648819886e-05
-4.673326113430561e-06   1.6159232708697546e-06   -2.5515890074960447e-05
-4.673326113430561e-06   1.6159232708697546e-06   -2.5515890074960447e-05
-4.673326113430561e-06   1.6159232708697546e-06   -2.5515890074960447e-05
-4.673326113430561e-06   1.6159232708697546e-06   -2.5515890074960447e-05
-4.656937528940203e-06   2.8976761023544097e-06   -4.6421118623830426e-05
-4.656937528940203e-06   2.8976761023544097e-06   -4.6421118623830426e-05
-4.656937528940203e-06   2.8976761023544097e-06   -4.6421118623830426e-05
-4.656937528940203e-06   2.8976761023544097e-06   -4.6421118623830426e-05
-1.7133277285757845e-05   2.8556901221667283e-06   -2.5602027441021843e-05
-1.7133277285757845e-05   2.8556901221667283e-06   -2.5602027441021843e-05
-1.7133277285757845e-05   2.8556901221667283e-06   -2.5602027441021843e-05
-1.7133277285757845e-05   2.8556901221667283e-06   -2.5602027441021843e-05
-1.0905340531036893e-05   2.1696889788078155e-06   -3.557032134620812e-05
-1.0905340531036893e-05   2.1696889788078155e-06   -3.557032134620812e-05
-1.0905340531036893e-05   2.1696889788078155e-06   -3.557032134620812e-05
-1.0905340531036893e-05   2.1696889788078155e-06   -3.557032134620812e-05
-1.7133277285757845e-05   2.8976761023543013e-06   -4.6395927035717903e-05
-1.7133277285757845e-05   2.8976761023543013e-06   -4.6395927035717903e-05
-1.7133277285757845e-05   2.8976761023543013e-06   -4.6395927035717903e-05
-1.7133277285757845e-05   2.8976761023543013e-06   -4.6395927035717903e-05
-4.656937528940212e-06   2.85569012216662e-06   -2.562721902913431e-05
-4.656937528940212e-06   2.85569012216662e-06   -2.562721902913431e-05
-4.656937528940212e-06   2.85569012216662e-06   -2.562721902913431e-05
-4.656937528940212e-06   2.85569012216662e-06   -2.562721902913431e-05
-4.664266691237545e-06   4.287006810317021e-06   -4.7123110655772186e-05
-4.664266691237545e-06   4.287006810317021e-06   -4.7123110655772186e-05
-4.664266691237545e-06   4.287006810317021e-06   -4.7123110655772186e-05
-4.664266691237545e-06   4.287006810317021e-06   -4.7123110655772186e-05
-1.7147050783792905e-05   4.117132960152099e-06   -2.621654619141406e-05
-1.7147050783792905e-05   4.117132960152099e-06   -2.621654619141406e-05
-1.7147050783792905e-05   4.117132960152099e-06   -2.621654619141406e-05
-1.7147050783792905e-05   4.117132960152099e-06   -2.621654619141406e-05
-1.0999108216935658e-05   3.265066851951509e-06   -3.595187747125586e-05
-1.0999108216935658e-05   3.265066851951509e-06   -3.595187747125586e-05
-1.0999108216935658e-05   3.265066851951509e-06   -3.595187747125586e-05
-1.0999108216935658e-05   3.265066851951509e-06   -3.595187747125586e-05
-4.664399304551103e-06   -2.798991869409017e-06   -4.1458646995417225e-05
-4.664399304551103e-06   -2.798991869409017e-06   -4.1458646995417225e-05
-4.664399304551103e-06   -2.798991869409017e-06   -4.1458646995417225e-05
-4.664399304551103e-06   -2.798991869409017e-06   -4.1458646995417225e-05
7.626121186837134e-06   -1.2888480460182886e-06   -2.0068359882402347e-05
7.626121186837134e-06   -1.2888480460182886e-06   -2.0068359882402347e-05
7.626121186837134e-06   -1.2888480460182886e-06   -2.0068359882402347e-05
7.626121186837134e-06   -1.2888480460182886e-06   -2.0068359882402347e-05
7.72643313827133e-06   -1.5505351764500417e-06   -4.0515403320284804e-05
7.72643313827133e-06   -1.5505351764500417e-06   -4.0515403320284804e-05
7.72643313827133e-06   -1.5505351764500417e-06   -4.0515403320284804e-05
7.72643313827133e-06   -1.5505351764500417e-06   -4.0515403320284804e-05
-4.673326113430561e-06   -1.2465263191996975e-07   -2.0704667427499705e-05
-4.673326113430561e-06   -1.2465263191996975e-07   -2.0704667427499705e-05
-4.673326113430561e-06   -1.2465263191996975e-07   -2.0704667427499705e-05
-4.673326113430561e-06   -1.2465263191996975e-07   -2.0704667427499705e-05
1.5110682748556961e-06   -1.3333142325291664e-06   -3.0286794447611308e-05
1.5110682748556961e-06   -1.3333142325291664e-06   -3.0286794447611308e-05
1.5110682748556961e-06   -1.3333142325291664e-06   -3.0286794447611308e-05
1.5110682748556961e-06   -1.3333142325291664e-06   -3.0286794447611308e-05
-4.673326113430561e-06   -1.5505351764499332e-06   -4.137093284700287e-05
-4.673326113430561e-06   -1.5505351764499332e-06   -4.137093284700287e-05
-4.673326113430561e-06   -1.5505351764499332e-06   -4.137093284700287e-05
-4.673326113430561e-06   -1.5505351764499332e-06   -4.137093284700287e-05
7.726433138271344e-06   -1.2465263191996975e-07   -1.984913790078173e-05
7.726433138271344e-06   -1.2465263191996975e-07   -1.984913790078173e-05
7.726433138271344e-06   -1.2465263191996975e-07   -1.984913790078173e-05
7.726433138271344e-06   -1.2465263191996975e-07   -1.984913790078173e-05
7.963135835912456e-06   -3.2391367851846743e-07   -4.1367357219804354e-05
7.963135835912456e-06   -3.2391367851846743e-07   -4.1367357219804354e-05
7.963135835912456e-06   -3.2391367851846743e-07   -4.1367357219804354e-05
7.963135835912456e-06   -3.2391367851846743e-07   -4.1367357219804354e-05
-4.656937528940212e-06   9.951751772085135e-07   -2.1125354925152912e-05
-4.656937528940212e-06   9.951751772085135e-07   -2.1125354925152912e-05
-4.656937528940212e-06   9.951751772085135e-07   -2.1125354925152912e-05
-4.656937528940212e-06   9.951751772085135e-07   -2.1125354925152912e-05
1.439901410179135e-06   -3.647907074249765e-07   -3.047077362623836e-05
1.439901410179135e-06   -3.647907074249765e-07   -3.047077362623836e-05
1.439901410179135e-06   -3.647907074249765e-07   -3.047077362623836e-05
1.439901410179135e-06   -3.647907074249765e-07   -3.047077362623836e-05
-4.656937528940208e-06   -3.2391367851846743e-07   -4.2158810533240553e-05
-4.656937528940208e-06   -3.2391367851846743e-07   -4.2158810533240553e-05
-4.656937528940208e-06   -3.2391367851846743e-07   -4.2158810533240553e-05
-4.656937528940208e-06   -3.2391367851846743e-07   -4.2158810533240553e-05
7.96313583591247e-06   9.95175177208622e-07   -2.033390161171653e-05
7.96313583591247e-06   9.95175177208622e-07   -2.033390161171653e-05
7.96313583591247e-06   9.95175177208622e-07   -2.033390161171653e-05
7.96313583591247e-06   9.95175177208622e-07   -2.033390161171653e-05
8.07905460341096e-06   1.1101307577214038e-06   -4.2586833310431945e-05
8.07905460341096e-06   1.1101307577214038e-06   -4.2586833310431945e-05
8.07905460341096e-06   1.1101307577214038e-06   -4.2586833310431945e-05
8.07905460341096e-06   1.1101307577214038e-06   -4.2586833310431945e-05
-4.664266691237538e-06   2.2784655312008085e-06   -2.2048965350105334e-05
-4.664266691237538e-06   2.2784655312008085e-06   -2.2048965350105334e-05
-4.664266691237538e-06   2.2784655312008085e-06   -2.2048965350105334e-05
-4.664266691237538e-06   2.2784655312008085e-06   -2.2048965350105334e-05
1.4826128259961805e-06   6.709943120508047e-07   -3.13292818140048e-05
1.4826128259961805e-06   6.709943120508047e-07   -3.13292818140048e-05
1.4826128259961805e-06   6.709943120508047e-07   -3.13292818140048e-05
1.4826128259961805e-06   6.709943120508047e-07   -3.13292818140048e-05
7.626121186837134e-06   -5.075316537518529e-06   -2.2775724946587242e-05
7.626121186837134e-06   -5.075316537518529e-06   -2.2775724946587242e-05
7.626121186837134e-06   -5.075316537518529e-06   -2.2775724946587242e-05
7.626121186837134e-06   -5.075316537518529e-06   -2.2775724946587242e-05
1.8537594582122228e-05   -2.3672996721940415e-06   -2.965125835250812e-06
1.8537594582122228e-05   -2.3672996721940415e-06   -2.965125835250812e-06
1.8537594582122228e-05   -2.3672996721940415e-06   -2.965125835250812e-06
1.8537594582122228e-05   -2.3672996721940415e-06   -2.965125835250812e-06
1.9835127834450683e-05   -4.355603659198632e-06   -2.3912510316816512e-05
1.9835127834450683e-05   -4.355603659198632e-06   -2.3912510316816512e-05
1.9835127834450683e-05   -4.355603659198632e-06   -2.3912510316816512e-05
1.9835127834450683e-05   -4.355603659198632e-06   -2.3912510316816512e-05
7.726433138271344e-06   -1.5785291371752828e-06   -5.397597203064971e-06
7.726433138271344e-06   -1.5785291371752828e-06   -5.397597203064971e-06
7.726433138271344e-06   -1.5785291371752828e-06   -5.397597203064971e-06
7.726433138271344e-06   -1.5785291371752828e-06   -5.397597203064971e-06
1.285861962927716e-05   -3.2405454586420697e-06   -1.2954031561861277e-05
1.285861962927716e-05   -3.2405454586420697e-06   -1.2954031561861277e-05
1.285861962927716e-05   -3.2405454586420697e-06   -1.2954031561861277e-05
1.285861962927716e-05   -3.2405454586420697e-06   -1.2954031561861277e-05
7.72643313827133e-06   -4.355603659198632e-06   -2.5578755030030364e-05
7.72643313827133e-06   -4.355603659198632e-06   -2.5578755030030364e-05
7.72643313827133e-06   -4.355603659198632e-06   -2.5578755030030364e-05
7.72643313827133e-06   -4.355603659198632e-06   -2.5578755030030364e-05
1.983512783445063e-05   -1.5785291371752828e-06   -3.731352489850983e-06
1.983512783445063e-05   -1.5785291371752828e-06   -3.731352489850983e-06
1.983512783445063e-05   -1.5785291371752828e-06   -3.731352489850983e-06
1.983512783445063e-05   -1.5785291371752828e-06   -3.731352489850983e-06
2.0834064837491154e-05   -3.738678892644125e-06   -2.6221354332714583e-05
2.0834064837491154e-05   -3.738678892644125e-06   -2.6221354332714583e-05
2.0834064837491154e-05   -3.738678892644125e-06   -2.6221354332714583e-05
2.0834064837491154e-05   -3.738678892644125e-06   -2.6221354332714583e-05
7.96313583591247e-06   -1.034197232360561e-06   -6.392494992920217e-06
7.96313583591247e-06   -1.034197232360561e-06   -6.392494992920217e-06
7.96313583591247e-06   -1.034197232360561e-06   -6.392494992920217e-06
7.96313583591247e-06   -1.034197232360561e-06   -6.392494992920217e-06
1.3651245217018947e-05   -2.8354079979853e-06   -1.4791950835389483e-05
1.3651245217018947e-05   -2.8354079979853e-06   -1.4791950835389483e-05
1.3651245217018947e-05   -2.8354079979853e-06   -1.4791950835389483e-05
1.3651245217018947e-05   -2.8354079979853e-06   -1.4791950835389483e-05
7.963135835912456e-06   -3.7386788926440165e-06   -2.7844043328884764e-05
7.963135835912456e-06   -3.7386788926440165e-06   -2.7844043328884764e-05
7.963135835912456e-06   -3.7386788926440165e-06   -2.7844043328884764e-05
7.963135835912456e-06   -3.7386788926440165e-06   -2.7844043328884764e-05
2.08340648374911e-05   -1.034197232360561e-06   -4.769805996749981e-06
2.08340648374911e-05   -1.034197232360561e-06   -4.769805996749981e-06
2.08340648374911e-05   -1.034197232360561e-06   -4.769805996749981e-06
2.08340648374911e-05   -1.034197232360561e-06   -4.769805996749981e-06
2.2161889108525065e-05   -2.4211060431015554e-06   -3.065042576321704e-05
2.2161889108525065e-05   -2.4211060431015554e-06   -3.065042576321704e-05
2.2161889108525065e-05   -2.4211060431015554e-06   -3.065042576321704e-05
2.2161889108525065e-05   -2.4211060431015554e-06   -3.065042576321704e-05
8.079054603410974e-06   3.5479937305401416e-08   -8.652986509604228e-06
8.079054603410974e-06   3.5479937305401416e-08   -8.652986509604228e-06
8.079054603410974e-06   3.5479937305401416e-08   -8.652986509604228e-06
8.079054603410974e-06   3.5479937305401416e-08   -8.652986509604228e-06
1.3915809381394912e-05   -2.233258133083624e-06   -1.701966829734423e-05
1.3915809381394912e-05   -2.233258133083624e-06   -1.701966829734423e-05
1.3915809381394912e-05   -2.233258133083624e-06   -1.701966829734423e-05
1.3915809381394912e-05   -2.233258133083624e-06   -1.701966829734423e-05
-2.6465283413256227e-05   4.263841170902799e-06   -2.480963958820183e-05
-2.6465283413256227e-05   4.263841170902799e-06   -2.480963958820183e-05
-2.6465283413256227e-05   4.263841170902799e-06   -2.480963958820183e-05
-2.6465283413256227e-05   4.263841170902799e-06   -2.480963958820183e-05
-1.9549030289264693e-05   1.7359566004111846e-06   -1.4799281790510974e-05
-1.9549030289264693e-05   1.7359566004111846e-06   -1.4799281790510974e-05
-1.9549030289264693e-05   1.7359566004111846e-06   -1.4799281790510974e-05
-1.9549030289264693e-05   1.7359566004111846e-06   -1.4799281790510974e-05
-1.9261927268211776e-05   5.427816631431545e-06   -2.1886635409526685e-05
-1.9261927268211776e-05   5.427816631431545e-06   -2.1886635409526685e-05
-1.9261927268211776e-05   5.427816631431545e-06   -2.1886635409526685e-05
-1.9261927268211776e-05   5.427816631431545e-06   -2.1886635409526685e-05
-2.5026295995664218e-05   2.7042319483523095e-06   -1.0645203387258198e-05
-2.5026295995664218e-05   2.7042319483523095e-06   -1.0645203387258198e-05
-2.5026295995664218e-05   2.7042319483523095e-06   -1.0645203387258198e-05
-2.5026295995664218e-05   2.7042319483523095e-06   -1.0645203387258198e-05
-2.161917803952297e-05   3.824923213364951e-06   -1.6996148073168877e-05
-2.161917803952297e-05   3.824923213364951e-06   -1.6996148073168877e-05
-2.161917803952297e-05   3.824923213364951e-06   -1.6996148073168877e-05
-2.161917803952297e-05   3.824923213364951e-06   -1.6996148073168877e-05
-2.5026295995664218e-05   5.427816631431545e-06   -2.0252484599679187e-05
-2.5026295995664218e-05   5.427816631431545e-06   -2.0252484599679187e-05
-2.5026295995664218e-05   5.427816631431545e-06   -2.0252484599679187e-05
-2.5026295995664218e-05   5.427816631431545e-06   -2.0252484599679187e-05
-1.9261927268211804e-05   2.7042319483523095e-06   -1.2279354197105804e-05
-1.9261927268211804e-05   2.7042319483523095e-06   -1.2279354197105804e-05
-1.9261927268211804e-05   2.7042319483523095e-06   -1.2279354197105804e-05
-1.9261927268211804e-05   2.7042319483523095e-06   -1.2279354197105804e-05
-1.885203372076235e-05   5.97031778570335e-06   -1.9543400157284816e-05
-1.885203372076235e-05   5.97031778570335e-06   -1.9543400157284816e-05
-1.885203372076235e-05   5.97031778570335e-06   -1.9543400157284816e-05
-1.885203372076235e-05   5.97031778570335e-06   -1.9543400157284816e-05
-2.3878849024084562e-05   3.1937010434609885e-06   -9.499404606402254e-06
-2.3878849024084562e-05   3.1937010434609885e-06   -9.499404606402254e-06
-2.3878849024084562e-05   3.1937010434609885e-06   -9.499404606402254e-06
-2.3878849024084562e-05   3.1937010434609885e-06   -9.499404606402254e-06
-2.1239874423746713e-05   4.347497481488869e-06   -1.458997346978218e-05
-2.1239874423746713e-05   4.347497481488869e-06   -1.458997346978218e-05
-2.1239874423746713e-05   4.347497481488869e-06   -1.458997346978218e-05
-2.1239874423746713e-05   4.347497481488869e-06   -1.458997346978218e-05
-2.3878849024084562e-05   5.97031778570335e-06   -1.7877430111939248e-05
-2.3878849024084562e-05   5.97031778570335e-06   -1.7877430111939248e-05
-2.3878849024084562e-05   5.97031778570335e-06   -1.7877430111939248e-05
-2.3878849024084562e-05   5.97031778570335e-06   -1.7877430111939248e-05
-1.8852033720762404e-05   3.1937010434609885e-06   -1.116537465174766e-05
-1.8852033720762404e-05   3.1937010434609885e-06   -1.116537465174766e-05
-1.8852033720762404e-05   3.1937010434609885e-06   -1.116537465174766e-05
-1.8852033720762404e-05   3.1937010434609885e-06   -1.116537465174766e-05
-1.8573121863489596e-05   6.652772561666987e-06   -1.6537879339799822e-05
-1.8573121863489596e-05   6.652772561666987e-06   -1.6537879339799822e-05
-1.8573121863489596e-05   6.652772561666987e-06   -1.6537879339799822e-05
-1.8573121863489596e-05   6.652772561666987e-06   -1.6537879339799822e-05
-2.2417833146744465e-05   3.969164190459123e-06   -8.519862178316714e-06
-2.2417833146744465e-05   3.969164190459123e-06   -8.519862178316714e-06
-2.2417833146744465e-05   3.969164190459123e-06   -8.519862178316714e-06
-2.2417833146744465e-05   3.969164190459123e-06   -8.519862178316714e-06
-2.0247630257727583e-05   4.710184189191352e-06   -1.258147899258486e-05
-2.0247630257727583e-05   4.710184189191352e-06   -1.258147899258486e-05
-2.0247630257727583e-05   4.710184189191352e-06   -1.258147899258486e-05
-2.0247630257727583e-05   4.710184189191352e-06   -1.258147899258486e-05
-1.9549030289264693e-05   2.205156420690443e-06   -3.617449412364227e-05
-1.9549030289264693e-05   2.205156420690443e-06   -3.617449412364227e-05
-1.9549030289264693e-05   2.205156420690443e-06   -3.617449412364227e-05
-1.9549030289264693e-05   2.205156420690443e-06   -3.617449412364227e-05
-1.3928524818953737e-05   9.979788442432674e-07   -2.7531291552325757e-05
-1.3928524818953737e-05   9.979788442432674e-07   -2.7531291552325757e-05
-1.3928524818953737e-05   9.979788442432674e-07   -2.7531291552325757e-05
-1.3928524818953737e-05   9.979788442432674e-07   -2.7531291552325757e-05
-1.374083634561711e-05   3.434118489311429e-06   -3.605529813386569e-05
-1.374083634561711e-05   3.434118489311429e-06   -3.605529813386569e-05
-1.374083634561711e-05   3.434118489311429e-06   -3.605529813386569e-05
-1.374083634561711e-05   3.434118489311429e-06   -3.605529813386569e-05
-1.9261927268211804e-05   2.1083924591522134e-06   -2.605804431144549e-05
-1.9261927268211804e-05   2.1083924591522134e-06   -2.605804431144549e-05
-1.9261927268211804e-05   2.1083924591522134e-06   -2.605804431144549e-05
-1.9261927268211804e-05   2.1083924591522134e-06   -2.605804431144549e-05
-1.645803701015925e-05   2.3998110373650225e-06   -3.090604588846163e-05
-1.645803701015925e-05   2.3998110373650225e-06   -3.090604588846163e-05
-1.645803701015925e-05   2.3998110373650225e-06   -3.090604588846163e-05
-1.645803701015925e-05   2.3998110373650225e-06   -3.090604588846163e-05
-1.9261927268211722e-05   3.434118489311429e-06   -3.5259862515769956e-05
-1.9261927268211722e-05   3.434118489311429e-06   -3.5259862515769956e-05
-1.9261927268211722e-05   3.434118489311429e-06   -3.5259862515769956e-05
-1.9261927268211722e-05   3.434118489311429e-06   -3.5259862515769956e-05
-1.374083634561711e-05   2.1083924591522134e-06   -2.6853479929541172e-05
-1.374083634561711e-05   2.1083924591522134e-06   -2.6853479929541172e-05
-1.374083634561711e-05   2.1083924591522134e-06   -2.6853479929541172e-05
-1.374083634561711e-05   2.1083924591522134e-06   -2.6853479929541172e-05
-1.3533511075168752e-05   4.552566362941578e-06   -3.5472303886221676e-05
-1.3533511075168752e-05   4.552566362941578e-06   -3.5472303886221676e-05
-1.3533511075168752e-05   4.552566362941578e-06   -3.5472303886221676e-05
-1.3533511075168752e-05   4.552566362941578e-06   -3.5472303886221676e-05
-1.885203372076243e-05   3.1411106586989087e-06   -2.5761226054353092e-05
-1.885203372076243e-05   3.1411106586989087e-06   -2.5761226054353092e-05
-1.885203372076243e-05   3.1411106586989087e-06   -2.5761226054353092e-05
-1.885203372076243e-05   3.1411106586989087e-06   -2.5761226054353092e-05
-1.6211069697267927e-05   3.2978371884661e-06   -3.0256868678037342e-05
-1.6211069697267927e-05   3.2978371884661e-06   -3.0256868678037342e-05
-1.6211069697267927e-05   3.2978371884661e-06   -3.0256868678037342e-05
-1.6211069697267927e-05   3.2978371884661e-06   -3.0256868678037342e-05
-1.885203372076235e-05   4.5525663629414695e-06   -3.462543046367592e-05
-1.885203372076235e-05   4.5525663629414695e-06   -3.462543046367592e-05
-1.885203372076235e-05   4.5525663629414695e-06   -3.462543046367592e-05
-1.885203372076235e-05   4.5525663629414695e-06   -3.462543046367592e-05
-1.3533511075168738e-05   3.141110658698692e-06   -2.660809947689863e-05
-1.3533511075168738e-05   3.141110658698692e-06   -2.660809947689863e-05
-1.3533511075168738e-05   3.141110658698692e-06   -2.660809947689863e-05
-1.3533511075168738e-05   3.141110658698692e-06   -2.660809947689863e-05
-1.3349248567471507e-05   5.767618768880807e-06   -3.5816276108857495e-05
-1.3349248567471507e-05   5.767618768880807e-06   -3.5816276108857495e-05
-1.3349248567471507e-05   5.767618768880807e-06   -3.5816276108857495e-05
-1.3349248567471507e-05   5.767618768880807e-06   -3.5816276108857495e-05
-1.857312186348965e-05   4.288841649026593e-06   -2.6222554343581137e-05
-1.857312186348965e-05   4.288841649026593e-06   -2.6222554343581137e-05
-1.857312186348965e-05   4.288841649026593e-06   -2.6222554343581137e-05
-1.857312186348965e-05   4.288841649026593e-06   -2.6222554343581137e-05
-1.611501601528358e-05   4.207651392611395e-06   -3.0270683270075874e-05
-1.611501601528358e-05   4.207651392611395e-06   -3.0270683270075874e-05
-1.611501601528358e-05   4.207651392611395e-06   -3.0270683270075874e-05
-1.611501601528358e-05   4.207651392611395e-06   -3.0270683270075874e-05
-1.3928524818953683e-05   3.801100208250443e-07   -4.0907585676173486e-05
-1.3928524818953683e-05   3.801100208250443e-07   -4.0907585676173486e-05
-1.3928524818953683e-05   3.801100208250443e-07   -4.0907585676173486e-05
-1.3928524818953683e-05   3.801100208250443e-07   -4.0907585676173486e-05
-8.450791347187452e-06   5.728485532358225e-07   -3.166238677045004e-05
-8.450791347187452e-06   5.728485532358225e-07   -3.166238677045004e-05
-8.450791347187452e-06   5.728485532358225e-07   -3.166238677045004e-05
-8.450791347187452e-06   5.728485532358225e-07   -3.166238677045004e-05
-8.267946767043562e-06   1.6159232708697546e-06   -4.0393027413441964e-05
-8.267946767043562e-06   1.6159232708697546e-06   -4.0393027413441964e-05
-8.267946767043562e-06   1.6159232708697546e-06   -4.0393027413441964e-05
-8.267946767043562e-06   1.6159232708697546e-06   -4.0393027413441964e-05
-1.374083634561711e-05   1.7040584867518416e-06   -3.1324425912014967e-05
-1.374083634561711e-05   1.7040584867518416e-06   -3.1324425912014967e-05
-1.374083634561711e-05   1.7040584867518416e-06   -3.1324425912014967e-05
-1.374083634561711e-05   1.7040584867518416e-06   -3.1324425912014967e-05
-1.1025887106449732e-05   1.225846624376063e-06   -3.55624141932026e-05
-1.1025887106449732e-05   1.225846624376063e-06   -3.55624141932026e-05
-1.1025887106449732e-05   1.225846624376063e-06   -3.55624141932026e-05
-1.1025887106449732e-05   1.225846624376063e-06   -3.55624141932026e-05
-1.3740836345617097e-05   1.6159232708697546e-06   -4.044590854297117e-05
-1.3740836345617097e-05   1.6159232708697546e-06   -4.044590854297117e-05
-1.3740836345617097e-05   1.6159232708697546e-06   -4.044590854297117e-05
-1.3740836345617097e-05   1.6159232708697546e-06   -4.044590854297117e-05
-8.267946767043562e-06   1.7040584867518416e-06   -3.127154478248592e-05
-8.267946767043562e-06   1.7040584867518416e-06   -3.127154478248592e-05
-8.267946767043562e-06   1.7040584867518416e-06   -3.127154478248592e-05
-8.267946767043562e-06   1.7040584867518416e-06   -3.127154478248592e-05
-8.062097860193366e-06   2.8556901221667283e-06   -4.049818879026676e-05
-8.062097860193366e-06   2.8556901221667283e-06   -4.049818879026676e-05
-8.062097860193366e-06   2.8556901221667283e-06   -4.049818879026676e-05
-8.062097860193366e-06   2.8556901221667283e-06   -4.049818879026676e-05
-1.3533511075168738e-05   2.8451676631839184e-06   -3.1372853289917915e-05
-1.3533511075168738e-05   2.8451676631839184e-06   -3.1372853289917915e-05
-1.3533511075168738e-05   2.8451676631839184e-06   -3.1372853289917915e-05
-1.3533511075168738e-05   2.8451676631839184e-06   -3.1372853289917915e-05
-1.0903505934347928e-05   2.197903244446041e-06   -3.536783654004335e-05
-1.0903505934347928e-05   2.197903244446041e-06   -3.536783654004335e-05
-1.0903505934347928e-05   2.197903244446041e-06   -3.536783654004335e-05
-1.0903505934347928e-05   2.197903244446041e-06   -3.536783654004335e-05
-1.3533511075168697e-05   2.8556901221667283e-06   -4.0491875314876925e-05
-1.3533511075168697e-05   2.8556901221667283e-06   -4.0491875314876925e-05
-1.3533511075168697e-05   2.8556901221667283e-06   -4.0491875314876925e-05
-1.3533511075168697e-05   2.8556901221667283e-06   -4.0491875314876925e-05
-8.06209786019338e-06   2.8451676631837015e-06   -3.137916676530778e-05
-8.06209786019338e-06   2.8451676631837015e-06   -3.137916676530778e-05
-8.06209786019338e-06   2.8451676631837015e-06   -3.137916676530778e-05
-8.06209786019338e-06   2.8451676631837015e-06   -3.137916676530778e-05
-7.877197234750836e-06   4.117132960152208e-06   -4.117981838344317e-05
-7.877197234750836e-06   4.117132960152208e-06   -4.117981838344317e-05
-7.877197234750836e-06   4.117132960152208e-06   -4.117981838344317e-05
-7.877197234750836e-06   4.117132960152208e-06   -4.117981838344317e-05
-1.3349248567471521e-05   4.003510380282561e-06   -3.199155928098647e-05
-1.3349248567471521e-05   4.003510380282561e-06   -3.199155928098647e-05
-1.3349248567471521e-05   4.003510380282561e-06   -3.199155928098647e-05
-1.3349248567471521e-05   4.003510380282561e-06   -3.199155928098647e-05
-1.0802468215528878e-05   3.1828869300460196e-06   -3.574381913074938e-05
-1.0802468215528878e-05   3.1828869300460196e-06   -3.574381913074938e-05
-1.0802468215528878e-05   3.1828869300460196e-06   -3.574381913074938e-05
-1.0802468215528878e-05   3.1828869300460196e-06   -3.574381913074938e-05
-8.450791347187424e-06   -1.2888480460181801e-06   -3.5855126747944715e-05
-8.450791347187424e-06   -1.2888480460181801e-06   -3.5855126747944715e-05
-8.450791347187424e-06   -1.2888480460181801e-06   -3.5855126747944715e-05
-8.450791347187424e-06   -1.2888480460181801e-06   -3.5855126747944715e-05
-3.140094989289628e-06   2.4646183347009146e-07   -2.6082780223755475e-05
-3.140094989289628e-06   2.4646183347009146e-07   -2.6082780223755475e-05
-3.140094989289628e-06   2.4646183347009146e-07   -2.6082780223755475e-05
-3.140094989289628e-06   2.4646183347009146e-07   -2.6082780223755475e-05
-2.8665745452609184e-06   -1.2465263191996975e-07   -3.470157080476884e-05
-2.8665745452609184e-06   -1.2465263191996975e-07   -3.470157080476884e-05
-2.8665745452609184e-06   -1.2465263191996975e-07   -3.470157080476884e-05
-2.8665745452609184e-06   -1.2465263191996975e-07   -3.470157080476884e-05
-8.267946767043547e-06   1.34240397010074e-06   -2.6579517729676693e-05
-8.267946767043547e-06   1.34240397010074e-06   -2.6579517729676693e-05
-8.267946767043547e-06   1.34240397010074e-06   -2.6579517729676693e-05
-8.267946767043547e-06   1.34240397010074e-06   -2.6579517729676693e-05
-5.624012208071768e-06   1.58238674364446e-07   -3.02755761505218e-05
-5.624012208071768e-06   1.58238674364446e-07   -3.02755761505218e-05
-5.624012208071768e-06   1.58238674364446e-07   -3.02755761505218e-05
-5.624012208071768e-06   1.58238674364446e-07   -3.02755761505218e-05
-8.267946767043533e-06   -1.2465263191996975e-07   -3.55818047659812e-05
-8.267946767043533e-06   -1.2465263191996975e-07   -3.55818047659812e-05
-8.267946767043533e-06   -1.2465263191996975e-07   -3.55818047659812e-05
-8.267946767043533e-06   -1.2465263191996975e-07   -3.55818047659812e-05
-2.866574545260905e-06   1.34240397010074e-06   -2.5699283768464468e-05
-2.866574545260905e-06   1.34240397010074e-06   -2.5699283768464468e-05
-2.866574545260905e-06   1.34240397010074e-06   -2.5699283768464468e-05
-2.866574545260905e-06   1.34240397010074e-06   -2.5699283768464468e-05
-2.4599458097345254e-06   9.951751772085135e-07   -3.5168437212566904e-05
-2.4599458097345254e-06   9.951751772085135e-07   -3.5168437212566904e-05
-2.4599458097345254e-06   9.951751772085135e-07   -3.5168437212566904e-05
-2.4599458097345254e-06   9.951751772085135e-07   -3.5168437212566904e-05
-8.062097860193366e-06   2.3749876334056962e-06   -2.6659404602186936e-05
-8.062097860193366e-06   2.3749876334056962e-06   -2.6659404602186936e-05
-8.062097860193366e-06   2.3749876334056962e-06   -2.6659404602186936e-05
-8.062097860193366e-06   2.3749876334056962e-06   -2.6659404602186936e-05
-5.4587926828754675e-06   1.0431964407296192e-06   -3.019917184877795e-05
-5.4587926828754675e-06   1.0431964407296192e-06   -3.019917184877795e-05
-5.4587926828754675e-06   1.0431964407296192e-06   -3.019917184877795e-05
-5.4587926828754675e-06   1.0431964407296192e-06   -3.019917184877795e-05
-8.062097860193344e-06   9.951751772085135e-07   -3.599632468628502e-05
-8.062097860193344e-06   9.951751772085135e-07   -3.599632468628502e-05
-8.062097860193344e-06   9.951751772085135e-07   -3.599632468628502e-05
-8.062097860193344e-06   9.951751772085135e-07   -3.599632468628502e-05
-2.4599458097345254e-06   2.374987633405913e-06   -2.5831517128468767e-05
-2.4599458097345254e-06   2.374987633405913e-06   -2.5831517128468767e-05
-2.4599458097345254e-06   2.374987633405913e-06   -2.5831517128468767e-05
-2.4599458097345254e-06   2.374987633405913e-06   -2.5831517128468767e-05
-2.176128033509563e-06   2.2784655312007e-06   -3.6151988943720914e-05
-2.176128033509563e-06   2.2784655312007e-06   -3.6151988943720914e-05
-2.176128033509563e-06   2.2784655312007e-06   -3.6151988943720914e-05
-2.176128033509563e-06   2.2784655312007e-06   -3.6151988943720914e-05
-7.877197234750836e-06   3.542339345057738e-06   -2.740853122996637e-05
-7.877197234750836e-06   3.542339345057738e-06   -2.740853122996637e-05
-7.877197234750836e-06   3.542339345057738e-06   -2.740853122996637e-05
-7.877197234750836e-06   3.542339345057738e-06   -2.740853122996637e-05
-5.28593469319275e-06   1.970493879511299e-06   -3.078419485323523e-05
-5.28593469319275e-06   1.970493879511299e-06   -3.078419485323523e-05
-5.28593469319275e-06   1.970493879511299e-06   -3.078419485323523e-05
-5.28593469319275e-06   1.970493879511299e-06   -3.078419485323523e-05
-3.140094989289628e-06   -2.3672996721940415e-06   -1.945551689229479e-05
-3.140094989289628e-06   -2.3672996721940415e-06   -1.945551689229479e-05
-3.140094989289628e-06   -2.3672996721940415e-06   -1.945551689229479e-05
-3.140094989289628e-06   -2.3672996721940415e-06   -1.945551689229479e-05
7.813101601332993e-07   3.4355406100506324e-07   -1.1293329403337183e-05
7.813101601332993e-07   3.4355406100506324e-07   -1.1293329403337183e-05
7.813101601332993e-07   3.4355406100506324e-07   -1.1293329403337183e-05
7.813101601332993e-07   3.4355406100506324e-07   -1.1293329403337183e-05
2.227972862985935e-06   -1.5785291371752828e-06   -1.8576914775319424e-05
2.227972862985935e-06   -1.5785291371752828e-06   -1.8576914775319424e-05
2.227972862985935e-06   -1.5785291371752828e-06   -1.8576914775319424e-05
2.227972862985935e-06   -1.5785291371752828e-06   -1.8576914775319424e-05
-2.8665745452609184e-06   1.209996415712589e-06   -1.1759117759973722e-05
-2.8665745452609184e-06   1.209996415712589e-06   -1.1759117759973722e-05
-2.8665745452609184e-06   1.209996415712589e-06   -1.1759117759973722e-05
-2.8665745452609184e-06   1.209996415712589e-06   -1.1759117759973722e-05
-7.294552940714864e-07   -4.813175546512869e-07   -1.4306194796404872e-05
-7.294552940714864e-07   -4.813175546512869e-07   -1.4306194796404872e-05
-7.294552940714864e-07   -4.813175546512869e-07   -1.4306194796404872e-05
-7.294552940714864e-07   -4.813175546512869e-07   -1.4306194796404872e-05
-2.866574545260905e-06   -1.5785291371752828e-06   -2.0250030107052083e-05
-2.866574545260905e-06   -1.5785291371752828e-06   -2.0250030107052083e-05
-2.866574545260905e-06   -1.5785291371752828e-06   -2.0250030107052083e-05
-2.866574545260905e-06   -1.5785291371752828e-06   -2.0250030107052083e-05
2.227972862985935e-06   1.209996415712589e-06   -1.0086002428241173e-05
2.227972862985935e-06   1.209996415712589e-06   -1.0086002428241173e-05
2.227972862985935e-06   1.209996415712589e-06   -1.0086002428241173e-05
2.227972862985935e-06   1.209996415712589e-06   -1.0086002428241173e-05
3.3703321907921162e-06   -1.034197232360561e-06   -1.9588209028142847e-05
3.3703321907921162e-06   -1.034197232360561e-06   -1.9588209028142847e-05
3.3703321907921162e-06   -1.034197232360561e-06   -1.9588209028142847e-05
3.3703321907921162e-06   -1.034197232360561e-06   -1.9588209028142847e-05
-2.4599458097345254e-06   1.6971720436854444e-06   -1.150990059289262e-05
-2.4599458097345254e-06   1.6971720436854444e-06   -1.150990059289262e-05
-2.4599458097345254e-06   1.6971720436854444e-06   -1.150990059289262e-05
-2.4599458097345254e-06   1.6971720436854444e-06   -1.150990059289262e-05
3.992204602990446e-09   -6.627167966960154e-08   -1.4558397716108574e-05
3.992204602990446e-09   -6.627167966960154e-08   -1.4558397716108574e-05
3.992204602990446e-09   -6.627167966960154e-08   -1.4558397716108574e-05
3.992204602990446e-09   -6.627167966960154e-08   -1.4558397716108574e-05
-2.4599458097345254e-06   -1.034197232360561e-06   -2.1227030593770537e-05
-2.4599458097345254e-06   -1.034197232360561e-06   -2.1227030593770537e-05
-2.4599458097345254e-06   -1.034197232360561e-06   -2.1227030593770537e-05
-2.4599458097345254e-06   -1.034197232360561e-06   -2.1227030593770537e-05
3.3703321907921162e-06   1.6971720436856613e-06   -9.871079027265039e-06
3.3703321907921162e-06   1.6971720436856613e-06   -9.871079027265039e-06
3.3703321907921162e-06   1.6971720436856613e-06   -9.871079027265039e-06
3.3703321907921162e-06   1.6971720436856613e-06   -9.871079027265039e-06
4.812240152442888e-06   3.5479937305401416e-08   -2.1941936833619943e-05
4.812240152442888e-06   3.5479937305401416e-08   -2.1941936833619943e-05
4.812240152442888e-06   3.5479937305401416e-08   -2.1941936833619943e-05
4.812240152442888e-06   3.5479937305401416e-08   -2.1941936833619943e-05
-2.1761280335095765e-06   2.560603493451802e-06   -1.180973065738664e-05
-2.1761280335095765e-06   2.560603493451802e-06   -1.180973065738664e-05
-2.1761280335095765e-06   2.560603493451802e-06   -1.180973065738664e-05
-2.1761280335095765e-06   2.560603493451802e-06   -1.180973065738664e-05
6.353968322980229e-07   4.069704277535587e-07   -1.5203425594314033e-05
6.353968322980229e-07   4.069704277535587e-07   -1.5203425594314033e-05
6.353968322980229e-07   4.069704277535587e-07   -1.5203425594314033e-05
6.353968322980229e-07   4.069704277535587e-07   -1.5203425594314033e-05
-9.206871504835955e-06   1.7359566004111846e-06   -1.6526981842702082e-05
-9.206871504835955e-06   1.7359566004111846e-06   -1.6526981842702082e-05
-9.206871504835955e-06   1.7359566004111846e-06   -1.6526981842702082e-05
-9.206871504835955e-06   1.7359566004111846e-06   -1.6526981842702082e-05
-9.343248863506363e-06   -8.093037878974512e-07   -1.8281433673471086e-05
-9.343248863506363e-06   -8.093037878974512e-07   -1.8281433673471086e-05
-9.343248863506363e-06   -8.093037878974512e-07   -1.8281433673471086e-05
-9.343248863506363e-06   -8.093037878974512e-07   -1.8281433673471086e-05
-8.875995878197547e-06   2.7042319483523095e-06   -1.552861358440757e-05
-8.875995878197547e-06   2.7042319483523095e-06   -1.552861358440757e-05
-8.875995878197547e-06   2.7042319483523095e-06   -1.552861358440757e-05
-8.875995878197547e-06   2.7042319483523095e-06   -1.552861358440757e-05
-7.596239862618442e-06   -2.6255234647845627e-08   -1.602324796723929e-05
-7.596239862618442e-06   -2.6255234647845627e-08   -1.602324796723929e-05
-7.596239862618442e-06   -2.6255234647845627e-08   -1.602324796723929e-05
-7.596239862618442e-06   -2.6255234647845627e-08   -1.602324796723929e-05
-8.372948588575223e-06   1.195164759233442e-06   -1.5461585420307262e-05
-8.372948588575223e-06   1.195164759233442e-06   -1.5461585420307262e-05
-8.372948588575223e-06   1.195164759233442e-06   -1.5461585420307262e-05
-8.372948588575223e-06   1.195164759233442e-06   -1.5461585420307262e-05
-7.596239862618442e-06   2.7042319483523095e-06   -1.3890321274607521e-05
-7.596239862618442e-06   2.7042319483523095e-06   -1.3890321274607521e-05
-7.596239862618442e-06   2.7042319483523095e-06   -1.3890321274607521e-05
-7.596239862618442e-06   2.7042319483523095e-06   -1.3890321274607521e-05
-8.875995878197574e-06   -2.6255234647845627e-08   -1.7661540277039394e-05
-8.875995878197574e-06   -2.6255234647845627e-08   -1.7661540277039394e-05
-8.875995878197574e-06   -2.6255234647845627e-08   -1.7661540277039394e-05
-8.875995878197574e-06   -2.6255234647845627e-08   -1.7661540277039394e-05
-8.286430339612315e-06   3.1937010434609885e-06   -1.4410551968802553e-05
-8.286430339612315e-06   3.1937010434609885e-06   -1.4410551968802553e-05
-8.286430339612315e-06   3.1937010434609885e-06   -1.4410551968802553e-05
-8.286430339612315e-06   3.1937010434609885e-06   -1.4410551968802553e-05
-6.264759943921884e-06   4.169901840177237e-07   -1.6113976112620636e-05
-6.264759943921884e-06   4.169901840177237e-07   -1.6113976112620636e-05
-6.264759943921884e-06   4.169901840177237e-07   -1.6113976112620636e-05
-6.264759943921884e-06   4.169901840177237e-07   -1.6113976112620636e-05
-7.6108213787139085e-06   1.5973472440725719e-06   -1.4578754624000937e-05
-7.6108213787139085e-06   1.5973472440725719e-06   -1.4578754624000937e-05
-7.6108213787139085e-06   1.5973472440725719e-06   -1.4578754624000937e-05
-7.6108213787139085e-06   1.5973472440725719e-06   -1.4578754624000937e-05
-6.264759943921884e-06   3.1937010434609885e-06   -1.2744525453136702e-05
-6.264759943921884e-06   3.1937010434609885e-06   -1.2744525453136702e-05
-6.264759943921884e-06   3.1937010434609885e-06   -1.2744525453136702e-05
-6.264759943921884e-06   3.1937010434609885e-06   -1.2744525453136702e-05
-8.286430339612315e-06   4.169901840177237e-07   -1.7780002628286487e-05
-8.286430339612315e-06   4.169901840177237e-07   -1.7780002628286487e-05
-8.286430339612315e-06   4.169901840177237e-07   -1.7780002628286487e-05
-8.286430339612315e-06   4.169901840177237e-07   -1.7780002628286487e-05
-7.826945967132374e-06   3.969164190459123e-06   -1.3371480065961895e-05
-7.826945967132374e-06   3.969164190459123e-06   -1.3371480065961895e-05
-7.826945967132374e-06   3.969164190459123e-06   -1.3371480065961895e-05
-7.826945967132374e-06   3.969164190459123e-06   -1.3371480065961895e-05
-4.620809301702795e-06   1.3009151450865328e-06   -1.711409174778736e-05
-4.620809301702795e-06   1.3009151450865328e-06   -1.711409174778736e-05
-4.620809301702795e-06   1.3009151450865328e-06   -1.711409174778736e-05
-4.620809301702795e-06   1.3009151450865328e-06   -1.711409174778736e-05
-6.6585497795013056e-06   1.9831282839781646e-06   -1.4127185501458495e-05
-6.6585497795013056e-06   1.9831282839781646e-06   -1.4127185501458495e-05
-6.6585497795013056e-06   1.9831282839781646e-06   -1.4127185501458495e-05
-6.6585497795013056e-06   1.9831282839781646e-06   -1.4127185501458495e-05
-9.343248863506336e-06   9.979788442432674e-07   -3.0061841291633426e-05
-9.343248863506336e-06   9.979788442432674e-07   -3.0061841291633426e-05
-9.343248863506336e-06   9.979788442432674e-07   -3.0061841291633426e-05
-9.343248863506336e-06   9.979788442432674e-07   -3.0061841291633426e-05
-1.0775105646536716e-05   -1.74383844936659e-07   -3.315168687685865e-05
-1.0775105646536716e-05   -1.74383844936659e-07   -3.315168687685865e-05
-1.0775105646536716e-05   -1.74383844936659e-07   -3.315168687685865e-05
-1.0775105646536716e-05   -1.74383844936659e-07   -3.315168687685865e-05
-1.0397867448546549e-05   2.1083924591519965e-06   -3.0084052905107695e-05
-1.0397867448546549e-05   2.1083924591519965e-06   -3.0084052905107695e-05
-1.0397867448546549e-05   2.1083924591519965e-06   -3.0084052905107695e-05
-1.0397867448546549e-05   2.1083924591519965e-06   -3.0084052905107695e-05
-8.8759958781976e-06   8.138104485517009e-07   -3.184375631599555e-05
-8.8759958781976e-06   8.138104485517009e-07   -3.184375631599555e-05
-8.8759958781976e-06   8.138104485517009e-07   -3.184375631599555e-05
-8.8759958781976e-06   8.138104485517009e-07   -3.184375631599555e-05
-9.73336912260295e-06   1.1535953254033886e-06   -3.061867183476482e-05
-9.73336912260295e-06   1.1535953254033886e-06   -3.061867183476482e-05
-9.73336912260295e-06   1.1535953254033886e-06   -3.061867183476482e-05
-9.73336912260295e-06   1.1535953254033886e-06   -3.061867183476482e-05
-8.875995878197574e-06   2.1083924591522134e-06   -2.930730369874715e-05
-8.875995878197574e-06   2.1083924591522134e-06   -2.930730369874715e-05
-8.875995878197574e-06   2.1083924591522134e-06   -2.930730369874715e-05
-8.875995878197574e-06   2.1083924591522134e-06   -2.930730369874715e-05
-1.0397867448546535e-05   8.138104485517009e-07   -3.262050552235599e-05
-1.0397867448546535e-05   8.138104485517009e-07   -3.262050552235599e-05
-1.0397867448546535e-05   8.138104485517009e-07   -3.262050552235599e-05
-1.0397867448546535e-05   8.138104485517009e-07   -3.262050552235599e-05
-1.0005496807918938e-05   3.1411106586989087e-06   -2.9831824373796677e-05
-1.0005496807918938e-05   3.1411106586989087e-06   -2.9831824373796677e-05
-1.0005496807918938e-05   3.1411106586989087e-06   -2.9831824373796677e-05
-1.0005496807918938e-05   3.1411106586989087e-06   -2.9831824373796677e-05
-8.286430339612342e-06   1.7654089880512515e-06   -3.1871514151918896e-05
-8.286430339612342e-06   1.7654089880512515e-06   -3.1871514151918896e-05
-8.286430339612342e-06   1.7654089880512515e-06   -3.1871514151918896e-05
-8.286430339612342e-06   1.7654089880512515e-06   -3.1871514151918896e-05
-9.355381007136405e-06   1.9505250632679497e-06   -3.0200999351175654e-05
-9.355381007136405e-06   1.9505250632679497e-06   -3.0200999351175654e-05
-9.355381007136405e-06   1.9505250632679497e-06   -3.0200999351175654e-05
-9.355381007136405e-06   1.9505250632679497e-06   -3.0200999351175654e-05
-8.286430339612315e-06   3.1411106586989087e-06   -2.900640337140793e-05
-8.286430339612315e-06   3.1411106586989087e-06   -2.900640337140793e-05
-8.286430339612315e-06   3.1411106586989087e-06   -2.900640337140793e-05
-8.286430339612315e-06   3.1411106586989087e-06   -2.900640337140793e-05
-1.0005496807918897e-05   1.7654089880512515e-06   -3.2696935154307534e-05
-1.0005496807918897e-05   1.7654089880512515e-06   -3.2696935154307534e-05
-1.0005496807918897e-05   1.7654089880512515e-06   -3.2696935154307534e-05
-1.0005496807918897e-05   1.7654089880512515e-06   -3.2696935154307534e-05
-9.636056978890465e-06   4.288841649026593e-06   -3.0325977140766187e-05
-9.636056978890465e-06   4.288841649026593e-06   -3.0325977140766187e-05
-9.636056978890465e-06   4.288841649026593e-06   -3.0325977140766187e-05
-9.636056978890465e-06   4.288841649026593e-06   -3.0325977140766187e-05
-7.826945967132374e-06   2.852225095252136e-06   -3.2479192228098265e-05
-7.826945967132374e-06   2.852225095252136e-06   -3.2479192228098265e-05
-7.826945967132374e-06   2.852225095252136e-06   -3.2479192228098265e-05
-7.826945967132374e-06   2.852225095252136e-06   -3.2479192228098265e-05
-9.022943205205816e-06   2.7867189737152635e-06   -3.044655982505388e-05
-9.022943205205816e-06   2.7867189737152635e-06   -3.044655982505388e-05
-9.022943205205816e-06   2.7867189737152635e-06   -3.044655982505388e-05
-9.022943205205816e-06   2.7867189737152635e-06   -3.044655982505388e-05
-1.077510564653669e-05   5.728485532358225e-07   -3.501199724271207e-05
-1.077510564653669e-05   5.728485532358225e-07   -3.501199724271207e-05
-1.077510564653669e-05   5.728485532358225e-07   -3.501199724271207e-05
-1.077510564653669e-05   5.728485532358225e-07   -3.501199724271207e-05
-1.2281524763799715e-05   8.207857206882826e-07   -3.7373933471012344e-05
-1.2281524763799715e-05   8.207857206882826e-07   -3.7373933471012344e-05
-1.2281524763799715e-05   8.207857206882826e-07   -3.7373933471012344e-05
-1.2281524763799715e-05   8.207857206882826e-07   -3.7373933471012344e-05
-1.1910859071598307e-05   1.7040584867518416e-06   -3.4471988702539005e-05
-1.1910859071598307e-05   1.7040584867518416e-06   -3.4471988702539005e-05
-1.1910859071598307e-05   1.7040584867518416e-06   -3.4471988702539005e-05
-1.1910859071598307e-05   1.7040584867518416e-06   -3.4471988702539005e-05
-1.0397867448546549e-05   1.8424087951560923e-06   -3.707665159266785e-05
-1.0397867448546549e-05   1.8424087951560923e-06   -3.707665159266785e-05
-1.0397867448546549e-05   1.8424087951560923e-06   -3.707665159266785e-05
-1.0397867448546549e-05   1.8424087951560923e-06   -3.707665159266785e-05
-1.1273055619114942e-05   1.3942196924914604e-06   -3.534909118012213e-05
-1.1273055619114942e-05   1.3942196924914604e-06   -3.534909118012213e-05
-1.1273055619114942e-05   1.3942196924914604e-06   -3.534909118012213e-05
-1.1273055619114942e-05   1.3942196924914604e-06   -3.534909118012213e-05
-1.0397867448546494e-05   1.7040584867518416e-06   -3.455499888758149e-05
-1.0397867448546494e-05   1.7040584867518416e-06   -3.455499888758149e-05
-1.0397867448546494e-05   1.7040584867518416e-06   -3.455499888758149e-05
-1.0397867448546494e-05   1.7040584867518416e-06   -3.455499888758149e-05
-1.1910859071598327e-05   1.8424087951560923e-06   -3.699364140762539e-05
-1.1910859071598327e-05   1.8424087951560923e-06   -3.699364140762539e-05
-1.1910859071598327e-05   1.8424087951560923e-06   -3.699364140762539e-05
-1.1910859071598327e-05   1.8424087951560923e-06   -3.699364140762539e-05
-1.1520895721064284e-05   2.8451676631837015e-06   -3.457180763372634e-05
-1.1520895721064284e-05   2.8451676631837015e-06   -3.457180763372634e-05
-1.1520895721064284e-05   2.8451676631837015e-06   -3.457180763372634e-05
-1.1520895721064284e-05   2.8451676631837015e-06   -3.457180763372634e-05
-1.0005496807918938e-05   2.8864519183331716e-06   -3.712224304205813e-05
-1.0005496807918938e-05   2.8864519183331716e-06   -3.712224304205813e-05
-1.0005496807918938e-05   2.8864519183331716e-06   -3.712224304205813e-05
-1.0005496807918938e-05   2.8864519183331716e-06   -3.712224304205813e-05
-1.0962158598047206e-05   2.268319712185043e-06   -3.5156927401489276e-05
-1.0962158598047206e-05   2.268319712185043e-06   -3.5156927401489276e-05
-1.0962158598047206e-05   2.268319712185043e-06   -3.5156927401489276e-05
-1.0962158598047206e-05   2.268319712185043e-06   -3.5156927401489276e-05
-1.0005496807918897e-05   2.8451676631837015e-06   -3.4596578186815935e-05
-1.0005496807918897e-05   2.8451676631837015e-06   -3.4596578186815935e-05
-1.0005496807918897e-05   2.8451676631837015e-06   -3.4596578186815935e-05
-1.0005496807918897e-05   2.8451676631837015e-06   -3.4596578186815935e-05
-1.1520895721064284e-05   2.8864519183331716e-06   -3.7097472488968456e-05
-1.1520895721064284e-05   2.8864519183331716e-06   -3.7097472488968456e-05
-1.1520895721064284e-05   2.8864519183331716e-06   -3.7097472488968456e-05
-1.1520895721064284e-05   2.8864519183331716e-06   -3.7097472488968456e-05
-1.1153135250923635e-05   4.003510380282344e-06   -3.5242844382299106e-05
-1.1153135250923635e-05   4.003510380282344e-06   -3.5242844382299106e-05
-1.1153135250923635e-05   4.003510380282344e-06   -3.5242844382299106e-05
-1.1153135250923635e-05   4.003510380282344e-06   -3.5242844382299106e-05
-9.636056978890478e-06   3.944962753548841e-06   -3.773617959298083e-05
-9.636056978890478e-06   3.944962753548841e-06   -3.773617959298083e-05
-9.636056978890478e-06   3.944962753548841e-06   -3.773617959298083e-05
-9.636056978890478e-06   3.944962753548841e-06   -3.773617959298083e-05
-1.0676111031117728e-05   3.154658863542721e-06   -3.552857383859848e-05
-1.0676111031117728e-05   3.154658863542721e-06   -3.552857383859848e-05
-1.0676111031117728e-05   3.154658863542721e-06   -3.552857383859848e-05
-1.0676111031117728e-05   3.154658863542721e-06   -3.552857383859848e-05
-1.2281524763799673e-05   2.4646183347009146e-07   -3.0204814323239087e-05
-1.2281524763799673e-05   2.4646183347009146e-07   -3.0204814323239087e-05
-1.2281524763799673e-05   2.4646183347009146e-07   -3.0204814323239087e-05
-1.2281524763799673e-05   2.4646183347009146e-07   -3.0204814323239087e-05
-1.3873173764280912e-05   1.8237779873214559e-06   -3.191117296506374e-05
-1.3873173764280912e-05   1.8237779873214559e-06   -3.191117296506374e-05
-1.3873173764280912e-05   1.8237779873214559e-06   -3.191117296506374e-05
-1.3873173764280912e-05   1.8237779873214559e-06   -3.191117296506374e-05
-1.3424465148961746e-05   1.34240397010074e-06   -2.887601707743804e-05
-1.3424465148961746e-05   1.34240397010074e-06   -2.887601707743804e-05
-1.3424465148961746e-05   1.34240397010074e-06   -2.887601707743804e-05
-1.3424465148961746e-05   1.34240397010074e-06   -2.887601707743804e-05
-1.1910859071598307e-05   2.8489782572538053e-06   -3.2302638445335495e-05
-1.1910859071598307e-05   2.8489782572538053e-06   -3.2302638445335495e-05
-1.1910859071598307e-05   2.8489782572538053e-06   -3.2302638445335495e-05
-1.1910859071598307e-05   2.8489782572538053e-06   -3.2302638445335495e-05
-1.2772986286285904e-05   1.6795176341335635e-06   -3.0164083380317805e-05
-1.2772986286285904e-05   1.6795176341335635e-06   -3.0164083380317805e-05
-1.2772986286285904e-05   1.6795176341335635e-06   -3.0164083380317805e-05
-1.2772986286285904e-05   1.6795176341335635e-06   -3.0164083380317805e-05
-1.1910859071598287e-05   1.34240397010074e-06   -2.977996164972986e-05
-1.1910859071598287e-05   1.34240397010074e-06   -2.977996164972986e-05
-1.1910859071598287e-05   1.34240397010074e-06   -2.977996164972986e-05
-1.1910859071598287e-05   1.34240397010074e-06   -2.977996164972986e-05
-1.3424465148961746e-05   2.8489782572538053e-06   -3.139869387304374e-05
-1.3424465148961746e-05   2.8489782572538053e-06   -3.139869387304374e-05
-1.3424465148961746e-05   2.8489782572538053e-06   -3.139869387304374e-05
-1.3424465148961746e-05   2.8489782572538053e-06   -3.139869387304374e-05
-1.2844108917838278e-05   2.3749876334056962e-06   -2.9000285504358057e-05
-1.2844108917838278e-05   2.3749876334056962e-06   -2.9000285504358057e-05
-1.2844108917838278e-05   2.3749876334056962e-06   -2.9000285504358057e-05
-1.2844108917838278e-05   2.3749876334056962e-06   -2.9000285504358057e-05
-1.1520895721064262e-05   3.7945875771519706e-06   -3.20574007985622e-05
-1.1520895721064262e-05   3.7945875771519706e-06   -3.20574007985622e-05
-1.1520895721064262e-05   3.7945875771519706e-06   -3.20574007985622e-05
-1.1520895721064262e-05   3.7945875771519706e-06   -3.20574007985622e-05
-1.2371940474866618e-05   2.4930272566412847e-06   -2.9858056683252355e-05
-1.2371940474866618e-05   2.4930272566412847e-06   -2.9858056683252355e-05
-1.2371940474866618e-05   2.4930272566412847e-06   -2.9858056683252355e-05
-1.2371940474866618e-05   2.4930272566412847e-06   -2.9858056683252355e-05
-1.1520895721064231e-05   2.3749876334056962e-06   -2.9852045470605496e-05
-1.1520895721064231e-05   2.3749876334056962e-06   -2.9852045470605496e-05
-1.1520895721064231e-05   2.3749876334056962e-06   -2.9852045470605496e-05
-1.1520895721064231e-05   2.3749876334056962e-06   -2.9852045470605496e-05
-1.2844108917838291e-05   3.7945875771519706e-06   -3.1205640832314375e-05
-1.2844108917838291e-05   3.7945875771519706e-06   -3.1205640832314375e-05
-1.2844108917838291e-05   3.7945875771519706e-06   -3.1205640832314375e-05
-1.2844108917838291e-05   3.7945875771519706e-06   -3.1205640832314375e-05
-1.2388308386421872e-05   3.542339345057738e-06   -2.9804596505116922e-05
-1.2388308386421872e-05   3.542339345057738e-06   -2.9804596505116922e-05
-1.2388308386421872e-05   3.542339345057738e-06   -2.9804596505116922e-05
-1.2388308386421872e-05   3.542339345057738e-06   -2.9804596505116922e-05
-1.1153135250923635e-05   4.854083142124795e-06   -3.265026467585402e-05
-1.1153135250923635e-05   4.854083142124795e-06   -3.265026467585402e-05
-1.1153135250923635e-05   4.854083142124795e-06   -3.265026467585402e-05
-1.1153135250923635e-05   4.854083142124795e-06   -3.265026467585402e-05
-1.2071965224693123e-05   3.3242131020005342e-06   -3.02009593621632e-05
-1.2071965224693123e-05   3.3242131020005342e-06   -3.02009593621632e-05
-1.2071965224693123e-05   3.3242131020005342e-06   -3.02009593621632e-05
-1.2071965224693123e-05   3.3242131020005342e-06   -3.02009593621632e-05
-1.3873173764280858e-05   3.4355406100506324e-07   -1.6095486050429547e-05
-1.3873173764280858e-05   3.4355406100506324e-07   -1.6095486050429547e-05
-1.3873173764280858e-05   3.4355406100506324e-07   -1.6095486050429547e-05
-1.3873173764280858e-05   3.4355406100506324e-07   -1.6095486050429547e-05
-1.681094451593806e-05   3.0656866090409025e-06   -1.935849110770325e-05
-1.681094451593806e-05   3.0656866090409025e-06   -1.935849110770325e-05
-1.681094451593806e-05   3.0656866090409025e-06   -1.935849110770325e-05
-1.681094451593806e-05   3.0656866090409025e-06   -1.935849110770325e-05
-1.5214116000057616e-05   1.209996415712589e-06   -1.3264644022537909e-05
-1.5214116000057616e-05   1.209996415712589e-06   -1.3264644022537909e-05
-1.5214116000057616e-05   1.209996415712589e-06   -1.3264644022537909e-05
-1.5214116000057616e-05   1.209996415712589e-06   -1.3264644022537909e-05
-1.3424465148961719e-05   3.995341493062037e-06   -1.791860248744054e-05
-1.3424465148961719e-05   3.995341493062037e-06   -1.791860248744054e-05
-1.3424465148961719e-05   3.995341493062037e-06   -1.791860248744054e-05
-1.3424465148961719e-05   3.995341493062037e-06   -1.791860248744054e-05
-1.4230467983676928e-05   2.2658744324556904e-06   -1.553758419321866e-05
-1.4230467983676928e-05   2.2658744324556904e-06   -1.553758419321866e-05
-1.4230467983676928e-05   2.2658744324556904e-06   -1.553758419321866e-05
-1.4230467983676928e-05   2.2658744324556904e-06   -1.553758419321866e-05
-1.3424465148961692e-05   1.209996415712589e-06   -1.4935851068947404e-05
-1.3424465148961692e-05   1.209996415712589e-06   -1.4935851068947404e-05
-1.3424465148961692e-05   1.209996415712589e-06   -1.4935851068947404e-05
-1.3424465148961692e-05   1.209996415712589e-06   -1.4935851068947404e-05
-1.5214116000057562e-05   3.995341493062037e-06   -1.624739544103099e-05
-1.5214116000057562e-05   3.995341493062037e-06   -1.624739544103099e-05
-1.5214116000057562e-05   3.995341493062037e-06   -1.624739544103099e-05
-1.5214116000057562e-05   3.995341493062037e-06   -1.624739544103099e-05
-1.3915319738850906e-05   1.6971720436856613e-06   -1.3044381757326196e-05
-1.3915319738850906e-05   1.6971720436856613e-06   -1.3044381757326196e-05
-1.3915319738850906e-05   1.6971720436856613e-06   -1.3044381757326196e-05
-1.3915319738850906e-05   1.6971720436856613e-06   -1.3044381757326196e-05
-1.2844108917838278e-05   4.420984062778084e-06   -1.6464020337136133e-05
-1.2844108917838278e-05   4.420984062778084e-06   -1.6464020337136133e-05
-1.2844108917838278e-05   4.420984062778084e-06   -1.6464020337136133e-05
-1.2844108917838278e-05   4.420984062778084e-06   -1.6464020337136133e-05
-1.3549913765929054e-05   2.696534550556979e-06   -1.425300921631883e-05
-1.3549913765929054e-05   2.696534550556979e-06   -1.425300921631883e-05
-1.3549913765929054e-05   2.696534550556979e-06   -1.425300921631883e-05
-1.3549913765929054e-05   2.696534550556979e-06   -1.425300921631883e-05
-1.284410891783825e-05   1.6971720436856613e-06   -1.4678668968781694e-05
-1.284410891783825e-05   1.6971720436856613e-06   -1.4678668968781694e-05
-1.284410891783825e-05   1.6971720436856613e-06   -1.4678668968781694e-05
-1.284410891783825e-05   1.6971720436856613e-06   -1.4678668968781694e-05
-1.3915319738850906e-05   4.420984062778084e-06   -1.4829733125680446e-05
-1.3915319738850906e-05   4.420984062778084e-06   -1.4829733125680446e-05
-1.3915319738850906e-05   4.420984062778084e-06   -1.4829733125680446e-05
-1.3915319738850906e-05   4.420984062778084e-06   -1.4829733125680446e-05
-1.2326290346677423e-05   2.560603493451802e-06   -1.3452521723574559e-05
-1.2326290346677423e-05   2.560603493451802e-06   -1.3452521723574559e-05
-1.2326290346677423e-05   2.560603493451802e-06   -1.3452521723574559e-05
-1.2326290346677423e-05   2.560603493451802e-06   -1.3452521723574559e-05
-1.2388308386421845e-05   5.079934322246588e-06   -1.4860756821277092e-05
-1.2388308386421845e-05   5.079934322246588e-06   -1.4860756821277092e-05
-1.2388308386421845e-05   5.079934322246588e-06   -1.4860756821277092e-05
-1.2388308386421845e-05   5.079934322246588e-06   -1.4860756821277092e-05
-1.2546904878601097e-05   3.0443028238614795e-06   -1.3375050435280884e-05
-1.2546904878601097e-05   3.0443028238614795e-06   -1.3375050435280884e-05
-1.2546904878601097e-05   3.0443028238614795e-06   -1.3375050435280884e-05
-1.2546904878601097e-05   3.0443028238614795e-06   -1.3375050435280884e-05
8.183374358108572e-06   -8.093037878974512e-07   -8.356214619777516e-06
8.183374358108572e-06   -8.093037878974512e-07   -8.356214619777516e-06
8.183374358108572e-06   -8.093037878974512e-07   -8.356214619777516e-06
8.183374358108572e-06   -8.093037878974512e-07   -8.356214619777516e-06
8.4197588013049e-07   -3.3987595462981954e-06   -2.2145552204781466e-05
8.4197588013049e-07   -3.3987595462981954e-06   -2.2145552204781466e-05
8.4197588013049e-07   -3.3987595462981954e-06   -2.2145552204781466e-05
8.4197588013049e-07   -3.3987595462981954e-06   -2.2145552204781466e-05
1.4823917272434946e-06   -2.6255234647628786e-08   -9.234630774198607e-06
1.4823917272434946e-06   -2.6255234647628786e-08   -9.234630774198607e-06
1.4823917272434946e-06   -2.6255234647628786e-08   -9.234630774198607e-06
1.4823917272434946e-06   -2.6255234647628786e-08   -9.234630774198607e-06
9.974843163789435e-06   -2.7933599569408395e-06   -2.1728453668399335e-05
9.974843163789435e-06   -2.7933599569408395e-06   -2.1728453668399335e-05
9.974843163789435e-06   -2.7933599569408395e-06   -2.1728453668399335e-05
9.974843163789435e-06   -2.7933599569408395e-06   -2.1728453668399335e-05
4.929678817163199e-06   -1.4186701246434851e-06   -1.4144660323400673e-05
4.929678817163199e-06   -1.4186701246434851e-06   -1.4144660323400673e-05
4.929678817163199e-06   -1.4186701246434851e-06   -1.4144660323400673e-05
4.929678817163199e-06   -1.4186701246434851e-06   -1.4144660323400673e-05
9.974843163789435e-06   -2.6255234647628786e-08   -7.574367940822767e-06
9.974843163789435e-06   -2.6255234647628786e-08   -7.574367940822767e-06
9.974843163789435e-06   -2.6255234647628786e-08   -7.574367940822767e-06
9.974843163789435e-06   -2.6255234647628786e-08   -7.574367940822767e-06
1.4823917272434946e-06   -2.7933599569408395e-06   -2.33887165017755e-05
1.4823917272434946e-06   -2.7933599569408395e-06   -2.33887165017755e-05
1.4823917272434946e-06   -2.7933599569408395e-06   -2.33887165017755e-05
1.4823917272434946e-06   -2.7933599569408395e-06   -2.33887165017755e-05
2.2374736493777883e-06   4.169901840177237e-07   -9.306320319579179e-06
2.2374736493777883e-06   4.169901840177237e-07   -9.306320319579179e-06
2.2374736493777883e-06   4.169901840177237e-07   -9.306320319579179e-06
2.2374736493777883e-06   4.169901840177237e-07   -9.306320319579179e-06
1.1488637628673205e-05   -2.3894273144520455e-06   -2.30410764526565e-05
1.1488637628673205e-05   -2.3894273144520455e-06   -2.30410764526565e-05
1.1488637628673205e-05   -2.3894273144520455e-06   -2.30410764526565e-05
1.1488637628673205e-05   -2.3894273144520455e-06   -2.30410764526565e-05
6.065714938929446e-06   -1.135583208573647e-06   -1.4755178433278058e-05
6.065714938929446e-06   -1.135583208573647e-06   -1.4755178433278058e-05
6.065714938929446e-06   -1.135583208573647e-06   -1.4755178433278058e-05
6.065714938929446e-06   -1.135583208573647e-06   -1.4755178433278058e-05
1.148863762867315e-05   4.169901840177237e-07   -7.6224698204973825e-06
1.148863762867315e-05   4.169901840177237e-07   -7.6224698204973825e-06
1.148863762867315e-05   4.169901840177237e-07   -7.6224698204973825e-06
1.148863762867315e-05   4.169901840177237e-07   -7.6224698204973825e-06
2.2374736493777612e-06   -2.3894273144520455e-06   -2.4724926951738514e-05
2.2374736493777612e-06   -2.3894273144520455e-06   -2.4724926951738514e-05
2.2374736493777612e-06   -2.3894273144520455e-06   -2.4724926951738514e-05
2.2374736493777612e-06   -2.3894273144520455e-06   -2.4724926951738514e-05
2.8586963267143934e-06   1.3009151450865328e-06   -1.0199823267087547e-05
2.8586963267143934e-06   1.3009151450865328e-06   -1.0199823267087547e-05
2.8586963267143934e-06   1.3009151450865328e-06   -1.0199823267087547e-05
2.8586963267143934e-06   1.3009151450865328e-06   -1.0199823267087547e-05
1.3307125254819645e-05   -1.371933594399282e-06   -2.6010162236905147e-05
1.3307125254819645e-05   -1.371933594399282e-06   -2.6010162236905147e-05
1.3307125254819645e-05   -1.371933594399282e-06   -2.6010162236905147e-05
1.3307125254819645e-05   -1.371933594399282e-06   -2.6010162236905147e-05
6.968737018850062e-06   -7.195919885967517e-07   -1.5837586807104526e-05
6.968737018850062e-06   -7.195919885967517e-07   -1.5837586807104526e-05
6.968737018850062e-06   -7.195919885967517e-07   -1.5837586807104526e-05
6.968737018850062e-06   -7.195919885967517e-07   -1.5837586807104526e-05
8.4197588013049e-07   -1.74383844936659e-07   -2.4076723664697873e-05
8.4197588013049e-07   -1.74383844936659e-07   -2.4076723664697873e-05
8.4197588013049e-07   -1.74383844936659e-07   -2.4076723664697873e-05
8.4197588013049e-07   -1.74383844936659e-07   -2.4076723664697873e-05
-7.719458115548506e-06   -1.3430486347370835e-06   -3.90469791980429e-05
-7.719458115548506e-06   -1.3430486347370835e-06   -3.90469791980429e-05
-7.719458115548506e-06   -1.3430486347370835e-06   -3.90469791980429e-05
-7.719458115548506e-06   -1.3430486347370835e-06   -3.90469791980429e-05
-7.157974436063387e-06   8.138104485519177e-07   -2.4212739803574105e-05
-7.157974436063387e-06   8.138104485519177e-07   -2.4212739803574105e-05
-7.157974436063387e-06   8.138104485519177e-07   -2.4212739803574105e-05
-7.157974436063387e-06   8.138104485519177e-07   -2.4212739803574105e-05
1.4823917272434946e-06   -5.126778688138538e-07   -3.781745708533323e-05
1.4823917272434946e-06   -5.126778688138538e-07   -3.781745708533323e-05
1.4823917272434946e-06   -5.126778688138538e-07   -3.781745708533323e-05
1.4823917272434946e-06   -5.126778688138538e-07   -3.781745708533323e-05
-3.0658176382022395e-06   -4.9693591045721006e-08   -3.051489870958444e-05
-3.0658176382022395e-06   -4.9693591045721006e-08   -3.051489870958444e-05
-3.0658176382022395e-06   -4.9693591045721006e-08   -3.051489870958444e-05
-3.0658176382022395e-06   -4.9693591045721006e-08   -3.051489870958444e-05
1.4823917272434946e-06   8.138104485517009e-07   -2.3416846813154816e-05
1.4823917272434946e-06   8.138104485517009e-07   -2.3416846813154816e-05
1.4823917272434946e-06   8.138104485517009e-07   -2.3416846813154816e-05
1.4823917272434946e-06   8.138104485517009e-07   -2.3416846813154816e-05
-7.157974436063387e-06   -5.126778688138538e-07   -3.8613350075752517e-05
-7.157974436063387e-06   -5.126778688138538e-07   -3.8613350075752517e-05
-7.157974436063387e-06   -5.126778688138538e-07   -3.8613350075752517e-05
-7.157974436063387e-06   -5.126778688138538e-07   -3.8613350075752517e-05
-6.593276852766538e-06   1.7654089880512515e-06   -2.4249442684155667e-05
-6.593276852766538e-06   1.7654089880512515e-06   -2.4249442684155667e-05
-6.593276852766538e-06   1.7654089880512515e-06   -2.4249442684155667e-05
-6.593276852766538e-06   1.7654089880512515e-06   -2.4249442684155667e-05
2.2374736493777883e-06   3.460575864777139e-07   -3.81157493467856e-05
2.2374736493777883e-06   3.460575864777139e-07   -3.81157493467856e-05
2.2374736493777883e-06   3.460575864777139e-07   -3.81157493467856e-05
2.2374736493777883e-06   3.460575864777139e-07   -3.81157493467856e-05
-2.5686746758184814e-06   6.325356954029436e-07   -3.0277389003480356e-05
-2.5686746758184814e-06   6.325356954029436e-07   -3.0277389003480356e-05
-2.5686746758184814e-06   6.325356954029436e-07   -3.0277389003480356e-05
-2.5686746758184814e-06   6.325356954029436e-07   -3.0277389003480356e-05
2.2374736493777883e-06   1.7654089880512515e-06   -2.3397831843211697e-05
2.2374736493777883e-06   1.7654089880512515e-06   -2.3397831843211697e-05
2.2374736493777883e-06   1.7654089880512515e-06   -2.3397831843211697e-05
2.2374736493777883e-06   1.7654089880512515e-06   -2.3397831843211697e-05
-6.593276852766538e-06   3.460575864777139e-07   -3.896736018772979e-05
-6.593276852766538e-06   3.460575864777139e-07   -3.896736018772979e-05
-6.593276852766538e-06   3.460575864777139e-07   -3.896736018772979e-05
-6.593276852766538e-06   3.460575864777139e-07   -3.896736018772979e-05
-6.053818712283899e-06   2.852225095252136e-06   -2.4857393288518813e-05
-6.053818712283899e-06   2.852225095252136e-06   -2.4857393288518813e-05
-6.053818712283899e-06   2.852225095252136e-06   -2.4857393288518813e-05
-6.053818712283899e-06   2.852225095252136e-06   -2.4857393288518813e-05
2.8586963267143663e-06   1.3631934813451967e-06   -3.8818166051838546e-05
2.8586963267143663e-06   1.3631934813451967e-06   -3.8818166051838546e-05
2.8586963267143663e-06   1.3631934813451967e-06   -3.8818166051838546e-05
2.8586963267143663e-06   1.3631934813451967e-06   -3.8818166051838546e-05
-2.0148943491332083e-06   1.3889653307842288e-06   -3.071097803508991e-05
-2.0148943491332083e-06   1.3889653307842288e-06   -3.071097803508991e-05
-2.0148943491332083e-06   1.3889653307842288e-06   -3.071097803508991e-05
-2.0148943491332083e-06   1.3889653307842288e-06   -3.071097803508991e-05
-7.71945811554852e-06   8.207857206882826e-07   -2.9148931433203135e-05
-7.71945811554852e-06   8.207857206882826e-07   -2.9148931433203135e-05
-7.71945811554852e-06   8.207857206882826e-07   -2.9148931433203135e-05
-7.71945811554852e-06   8.207857206882826e-07   -2.9148931433203135e-05
-1.620604543787857e-05   1.0345803215048438e-06   -4.316496687659663e-05
-1.620604543787857e-05   1.0345803215048438e-06   -4.316496687659663e-05
-1.620604543787857e-05   1.0345803215048438e-06   -4.316496687659663e-05
-1.620604543787857e-05   1.0345803215048438e-06   -4.316496687659663e-05
-1.5640634751491328e-05   1.8424087951560923e-06   -2.8626316508768108e-05
-1.5640634751491328e-05   1.8424087951560923e-06   -2.8626316508768108e-05
-1.5640634751491328e-05   1.8424087951560923e-06   -2.8626316508768108e-05
-1.5640634751491328e-05   1.8424087951560923e-06   -2.8626316508768108e-05
-7.1579744360634e-06   1.913357737019783e-06   -4.280665306626621e-05
-7.1579744360634e-06   1.913357737019783e-06   -4.280665306626621e-05
-7.1579744360634e-06   1.913357737019783e-06   -4.280665306626621e-05
-7.1579744360634e-06   1.913357737019783e-06   -4.280665306626621e-05
-1.1613405946461764e-05   1.5819972309007863e-06   -3.518211757859763e-05
-1.1613405946461764e-05   1.5819972309007863e-06   -3.518211757859763e-05
-1.1613405946461764e-05   1.5819972309007863e-06   -3.518211757859763e-05
-1.1613405946461764e-05   1.5819972309007863e-06   -3.518211757859763e-05
-7.1579744360634e-06   1.8424087951560923e-06   -2.8668885873886323e-05
-7.1579744360634e-06   1.8424087951560923e-06   -2.8668885873886323e-05
-7.1579744360634e-06   1.8424087951560923e-06   -2.8668885873886323e-05
-7.1579744360634e-06   1.8424087951560923e-06   -2.8668885873886323e-05
-1.5640634751491328e-05   1.913357737019783e-06   -4.276408370114816e-05
-1.5640634751491328e-05   1.913357737019783e-06   -4.276408370114816e-05
-1.5640634751491328e-05   1.913357737019783e-06   -4.276408370114816e-05
-1.5640634751491328e-05   1.913357737019783e-06   -4.276408370114816e-05
-1.5066049747188297e-05   2.8864519183331716e-06   -2.870043971605566e-05
-1.5066049747188297e-05   2.8864519183331716e-06   -2.870043971605566e-05
-1.5066049747188297e-05   2.8864519183331716e-06   -2.870043971605566e-05
-1.5066049747188297e-05   2.8864519183331716e-06   -2.870043971605566e-05
-6.593276852766552e-06   2.843636678084155e-06   -4.279603872927597e-05
-6.593276852766552e-06   2.843636678084155e-06   -4.279603872927597e-05
-6.593276852766552e-06   2.843636678084155e-06   -4.279603872927597e-05
-6.593276852766552e-06   2.843636678084155e-06   -4.279603872927597e-05
-1.1115992749914423e-05   2.34919287240426e-06   -3.49615126172887e-05
-1.1115992749914423e-05   2.34919287240426e-06   -3.49615126172887e-05
-1.1115992749914423e-05   2.34919287240426e-06   -3.49615126172887e-05
-1.1115992749914423e-05   2.34919287240426e-06   -3.49615126172887e-05
-6.593276852766552e-06   2.8864519183331716e-06   -2.8674750571906402e-05
-6.593276852766552e-06   2.8864519183331716e-06   -2.8674750571906402e-05
-6.593276852766552e-06   2.8864519183331716e-06   -2.8674750571906402e-05
-6.593276852766552e-06   2.8864519183331716e-06   -2.8674750571906402e-05
-1.506604974718827e-05   2.843636678084155e-06   -4.282172787342534e-05
-1.506604974718827e-05   2.843636678084155e-06   -4.282172787342534e-05
-1.506604974718827e-05   2.843636678084155e-06   -4.282172787342534e-05
-1.506604974718827e-05   2.843636678084155e-06   -4.282172787342534e-05
-1.4518165826842874e-05   3.944962753548841e-06   -2.934538433679466e-05
-1.4518165826842874e-05   3.944962753548841e-06   -2.934538433679466e-05
-1.4518165826842874e-05   3.944962753548841e-06   -2.934538433679466e-05
-1.4518165826842874e-05   3.944962753548841e-06   -2.934538433679466e-05
-6.053818712283912e-06   3.790006727452189e-06   -4.335965591206842e-05
-6.053818712283912e-06   3.790006727452189e-06   -4.335965591206842e-05
-6.053818712283912e-06   3.790006727452189e-06   -4.335965591206842e-05
-6.053818712283912e-06   3.790006727452189e-06   -4.335965591206842e-05
-1.065335602094506e-05   3.128053312811876e-06   -3.52965883488496e-05
-1.065335602094506e-05   3.128053312811876e-06   -3.52965883488496e-05
-1.065335602094506e-05   3.128053312811876e-06   -3.52965883488496e-05
-1.065335602094506e-05   3.128053312811876e-06   -3.52965883488496e-05
-1.62060454378786e-05   1.8237779873214559e-06   -2.4504283859075305e-05
-1.62060454378786e-05   1.8237779873214559e-06   -2.4504283859075305e-05
-1.62060454378786e-05   1.8237779873214559e-06   -2.4504283859075305e-05
-1.62060454378786e-05   1.8237779873214559e-06   -2.4504283859075305e-05
-2.4593633120534765e-05   3.342862225576672e-06   -3.7572146120549293e-05
-2.4593633120534765e-05   3.342862225576672e-06   -3.7572146120549293e-05
-2.4593633120534765e-05   3.342862225576672e-06   -3.7572146120549293e-05
-2.4593633120534765e-05   3.342862225576672e-06   -3.7572146120549293e-05
-2.3947436524858733e-05   2.8489782572538053e-06   -2.3076166490779084e-05
-2.3947436524858733e-05   2.8489782572538053e-06   -2.3076166490779084e-05
-2.3947436524858733e-05   2.8489782572538053e-06   -2.3076166490779084e-05
-2.3947436524858733e-05   2.8489782572538053e-06   -2.3076166490779084e-05
-1.5640634751491328e-05   4.280890016752524e-06   -3.777998316875738e-05
-1.5640634751491328e-05   4.280890016752524e-06   -3.777998316875738e-05
-1.5640634751491328e-05   4.280890016752524e-06   -3.777998316875738e-05
-1.5640634751491328e-05   4.280890016752524e-06   -3.777998316875738e-05
-1.9957710849714946e-05   3.195836674607525e-06   -2.993382433309759e-05
-1.9957710849714946e-05   3.195836674607525e-06   -2.993382433309759e-05
-1.9957710849714946e-05   3.195836674607525e-06   -2.993382433309759e-05
-1.9957710849714946e-05   3.195836674607525e-06   -2.993382433309759e-05
-1.5640634751491355e-05   2.8489782572538053e-06   -2.3935313546478488e-05
-1.5640634751491355e-05   2.8489782572538053e-06   -2.3935313546478488e-05
-1.5640634751491355e-05   2.8489782572538053e-06   -2.3935313546478488e-05
-1.5640634751491355e-05   2.8489782572538053e-06   -2.3935313546478488e-05
-2.394743652485878e-05   4.280890016752524e-06   -3.692083611305842e-05
-2.394743652485878e-05   4.280890016752524e-06   -3.692083611305842e-05
-2.394743652485878e-05   4.280890016752524e-06   -3.692083611305842e-05
-2.394743652485878e-05   4.280890016752524e-06   -3.692083611305842e-05
-2.3173295496756414e-05   3.7945875771519706e-06   -2.2861700229139317e-05
-2.3173295496756414e-05   3.7945875771519706e-06   -2.2861700229139317e-05
-2.3173295496756414e-05   3.7945875771519706e-06   -2.2861700229139317e-05
-2.3173295496756414e-05   3.7945875771519706e-06   -2.2861700229139317e-05
-1.5066049747188297e-05   5.125700571335674e-06   -3.7172444274929734e-05
-1.5066049747188297e-05   5.125700571335674e-06   -3.7172444274929734e-05
-1.5066049747188297e-05   5.125700571335674e-06   -3.7172444274929734e-05
-1.5066049747188297e-05   5.125700571335674e-06   -3.7172444274929734e-05
-1.930622516397751e-05   3.9366274590226305e-06   -2.9392041379560395e-05
-1.930622516397751e-05   3.9366274590226305e-06   -2.9392041379560395e-05
-1.930622516397751e-05   3.9366274590226305e-06   -2.9392041379560395e-05
-1.930622516397751e-05   3.9366274590226305e-06   -2.9392041379560395e-05
-1.5066049747188287e-05   3.7945875771519706e-06   -2.3660368025649344e-05
-1.5066049747188287e-05   3.7945875771519706e-06   -2.3660368025649344e-05
-1.5066049747188287e-05   3.7945875771519706e-06   -2.3660368025649344e-05
-1.5066049747188287e-05   3.7945875771519706e-06   -2.3660368025649344e-05
-2.3173295496756414e-05   5.125700571335674e-06   -3.6373776478419674e-05
-2.3173295496756414e-05   5.125700571335674e-06   -3.6373776478419674e-05
-2.3173295496756414e-05   5.125700571335674e-06   -3.6373776478419674e-05
-2.3173295496756414e-05   5.125700571335674e-06   -3.6373776478419674e-05
-2.252845274100669e-05   4.854083142124795e-06   -2.3494403757554506e-05
-2.252845274100669e-05   4.854083142124795e-06   -2.3494403757554506e-05
-2.252845274100669e-05   4.854083142124795e-06   -2.3494403757554506e-05
-2.252845274100669e-05   4.854083142124795e-06   -2.3494403757554506e-05
-1.4518165826842874e-05   6.070644952247371e-06   -3.7574819033900884e-05
-1.4518165826842874e-05   6.070644952247371e-06   -3.7574819033900884e-05
-1.4518165826842874e-05   6.070644952247371e-06   -3.7574819033900884e-05
-1.4518165826842874e-05   6.070644952247371e-06   -3.7574819033900884e-05
-1.8870594384409632e-05   4.6663698616952656e-06   -2.947820638362493e-05
-1.8870594384409632e-05   4.6663698616952656e-06   -2.947820638362493e-05
-1.8870594384409632e-05   4.6663698616952656e-06   -2.947820638362493e-05
-1.8870594384409632e-05   4.6663698616952656e-06   -2.947820638362493e-05
-2.4593633120534765e-05   3.0656866090409025e-06   -1.2673430987583559e-05
-2.4593633120534765e-05   3.0656866090409025e-06   -1.2673430987583559e-05
-2.4593633120534765e-05   3.0656866090409025e-06   -1.2673430987583559e-05
-2.4593633120534765e-05   3.0656866090409025e-06   -1.2673430987583559e-05
-3.415512998960671e-05   5.7475797584087725e-06   -2.7000123213082646e-05
-3.415512998960671e-05   5.7475797584087725e-06   -2.7000123213082646e-05
-3.415512998960671e-05   5.7475797584087725e-06   -2.7000123213082646e-05
-3.415512998960671e-05   5.7475797584087725e-06   -2.7000123213082646e-05
-3.2376498904960235e-05   3.995341493062037e-06   -7.960276428778195e-06
-3.2376498904960235e-05   3.995341493062037e-06   -7.960276428778195e-06
-3.2376498904960235e-05   3.995341493062037e-06   -7.960276428778195e-06
-3.2376498904960235e-05   3.995341493062037e-06   -7.960276428778195e-06
-2.3947436524858733e-05   6.721672620392007e-06   -2.364451240534521e-05
-2.3947436524858733e-05   6.721672620392007e-06   -2.364451240534521e-05
-2.3947436524858733e-05   6.721672620392007e-06   -2.364451240534521e-05
-2.3947436524858733e-05   6.721672620392007e-06   -2.364451240534521e-05
-2.759782916397453e-05   4.993596047908524e-06   -1.6523678729995686e-05
-2.759782916397453e-05   4.993596047908524e-06   -1.6523678729995686e-05
-2.759782916397453e-05   4.993596047908524e-06   -1.6523678729995686e-05
-2.759782916397453e-05   4.993596047908524e-06   -1.6523678729995686e-05
-2.394743652485876e-05   3.995341493062037e-06   -9.596075105176155e-06
-2.394743652485876e-05   3.995341493062037e-06   -9.596075105176155e-06
-2.394743652485876e-05   3.995341493062037e-06   -9.596075105176155e-06
-2.394743652485876e-05   3.995341493062037e-06   -9.596075105176155e-06
-3.2376498904960126e-05   6.721672620392007e-06   -2.2008713728947265e-05
-3.2376498904960126e-05   6.721672620392007e-06   -2.2008713728947265e-05
-3.2376498904960126e-05   6.721672620392007e-06   -2.2008713728947265e-05
-3.2376498904960126e-05   6.721672620392007e-06   -2.2008713728947265e-05
-3.090646340844864e-05   4.420984062778084e-06   -6.530205930675107e-06
-3.090646340844864e-05   4.420984062778084e-06   -6.530205930675107e-06
-3.090646340844864e-05   4.420984062778084e-06   -6.530205930675107e-06
-3.090646340844864e-05   4.420984062778084e-06   -6.530205930675107e-06
-2.3173295496756367e-05   7.070773734921048e-06   -2.1008692920114624e-05
-2.3173295496756367e-05   7.070773734921048e-06   -2.1008692920114624e-05
-2.3173295496756367e-05   7.070773734921048e-06   -2.1008692920114624e-05
-2.3173295496756367e-05   7.070773734921048e-06   -2.1008692920114624e-05
-2.6947751273634765e-05   5.431946276062034e-06   -1.373463681666841e-05
-2.6947751273634765e-05   5.431946276062034e-06   -1.373463681666841e-05
-2.6947751273634765e-05   5.431946276062034e-06   -1.373463681666841e-05
-2.6947751273634765e-05   5.431946276062034e-06   -1.373463681666841e-05
-2.3173295496756414e-05   4.420984062778084e-06   -8.120079733960994e-06
-2.3173295496756414e-05   4.420984062778084e-06   -8.120079733960994e-06
-2.3173295496756414e-05   4.420984062778084e-06   -8.120079733960994e-06
-2.3173295496756414e-05   4.420984062778084e-06   -8.120079733960994e-06
-3.090646340844858e-05   7.070773734921048e-06   -1.941881911682905e-05
-3.090646340844858e-05   7.070773734921048e-06   -1.941881911682905e-05
-3.090646340844858e-05   7.070773734921048e-06   -1.941881911682905e-05
-3.090646340844858e-05   7.070773734921048e-06   -1.941881911682905e-05
-2.916742135930151e-05   5.079934322246588e-06   -5.032185550532596e-06
-2.916742135930151e-05   5.079934322246588e-06   -5.032185550532596e-06
-2.916742135930151e-05   5.079934322246588e-06   -5.032185550532596e-06
-2.916742135930151e-05   5.079934322246588e-06   -5.032185550532596e-06
-2.252845274100669e-05   7.512862040055541e-06   -1.7556889878376098e-05
-2.252845274100669e-05   7.512862040055541e-06   -1.7556889878376098e-05
-2.252845274100669e-05   7.512862040055541e-06   -1.7556889878376098e-05
-2.252845274100669e-05   7.512862040055541e-06   -1.7556889878376098e-05
-2.5565449243993592e-05   5.6434010563815185e-06   -1.1373552449860341e-05
-2.5565449243993592e-05   5.6434010563815185e-06   -1.1373552449860341e-05
-2.5565449243993592e-05   5.6434010563815185e-06   -1.1373552449860341e-05
-2.5565449243993592e-05   5.6434010563815185e-06   -1.1373552449860341e-05
2.591626663910507e-05   -3.3987595462981954e-06   -1.7680057959042032e-07
2.591626663910507e-05   -3.3987595462981954e-06   -1.7680057959042032e-07
2.591626663910507e-05   -3.3987595462981954e-06   -1.7680057959042032e-07
2.591626663910507e-05   -3.3987595462981954e-06   -1.7680057959042032e-07
1.1041770778849618e-05   -6.128420260146988e-06   -2.6605423441658548e-05
1.1041770778849618e-05   -6.128420260146988e-06   -2.6605423441658548e-05
1.1041770778849618e-05   -6.128420260146988e-06   -2.6605423441658548e-05
1.1041770778849618e-05   -6.128420260146988e-06   -2.6605423441658548e-05
1.1822753827941729e-05   -2.7933599569408395e-06   -2.9050428434233486e-06
1.1822753827941729e-05   -2.7933599569408395e-06   -2.9050428434233486e-06
1.1822753827941729e-05   -2.7933599569408395e-06   -2.9050428434233486e-06
1.1822753827941729e-05   -2.7933599569408395e-06   -2.9050428434233486e-06
2.787423485245264e-05   -5.699742989507227e-06   -2.791368139806868e-05
2.787423485245264e-05   -5.699742989507227e-06   -2.791368139806868e-05
2.787423485245264e-05   -5.699742989507227e-06   -2.791368139806868e-05
2.787423485245264e-05   -5.699742989507227e-06   -2.791368139806868e-05
1.8390779528726608e-05   -4.039787458156143e-06   -1.3103895844002482e-05
1.8390779528726608e-05   -4.039787458156143e-06   -1.3103895844002482e-05
1.8390779528726608e-05   -4.039787458156143e-06   -1.3103895844002482e-05
1.8390779528726608e-05   -4.039787458156143e-06   -1.3103895844002482e-05
2.7874234852452696e-05   -2.7933599569408395e-06   -1.1612130238838631e-06
2.7874234852452696e-05   -2.7933599569408395e-06   -1.1612130238838631e-06
2.7874234852452696e-05   -2.7933599569408395e-06   -1.1612130238838631e-06
2.7874234852452696e-05   -2.7933599569408395e-06   -1.1612130238838631e-06
1.1822753827941702e-05   -5.699742989507227e-06   -2.9657511217608275e-05
1.1822753827941702e-05   -5.699742989507227e-06   -2.9657511217608275e-05
1.1822753827941702e-05   -5.699742989507227e-06   -2.9657511217608275e-05
1.1822753827941702e-05   -5.699742989507227e-06   -2.9657511217608275e-05
1.268799067593096e-05   -2.3894273144520455e-06   -4.10163254333548e-06
1.268799067593096e-05   -2.3894273144520455e-06   -4.10163254333548e-06
1.268799067593096e-05   -2.3894273144520455e-06   -4.10163254333548e-06
1.268799067593096e-05   -2.3894273144520455e-06   -4.10163254333548e-06
2.9518734097549646e-05   -5.3310047102932655e-06   -3.0387925141862036e-05
2.9518734097549646e-05   -5.3310047102932655e-06   -3.0387925141862036e-05
2.9518734097549646e-05   -5.3310047102932655e-06   -3.0387925141862036e-05
2.9518734097549646e-05   -5.3310047102932655e-06   -3.0387925141862036e-05
1.9861313025162897e-05   -3.875632849048094e-06   -1.516544647129763e-05
1.9861313025162897e-05   -3.875632849048094e-06   -1.516544647129763e-05
1.9861313025162897e-05   -3.875632849048094e-06   -1.516544647129763e-05
1.9861313025162897e-05   -3.875632849048094e-06   -1.516544647129763e-05
2.9518734097549754e-05   -2.3894273144520455e-06   -2.3366861058307046e-06
2.9518734097549754e-05   -2.3894273144520455e-06   -2.3366861058307046e-06
2.9518734097549754e-05   -2.3894273144520455e-06   -2.3366861058307046e-06
2.9518734097549754e-05   -2.3894273144520455e-06   -2.3366861058307046e-06
1.268799067593096e-05   -5.331004710292832e-06   -3.215287157936676e-05
1.268799067593096e-05   -5.331004710292832e-06   -3.215287157936676e-05
1.268799067593096e-05   -5.331004710292832e-06   -3.215287157936676e-05
1.268799067593096e-05   -5.331004710292832e-06   -3.215287157936676e-05
1.3402959996377915e-05   -1.371933594399282e-06   -6.862260816198774e-06
1.3402959996377915e-05   -1.371933594399282e-06   -6.862260816198774e-06
1.3402959996377915e-05   -1.371933594399282e-06   -6.862260816198774e-06
1.3402959996377915e-05   -1.371933594399282e-06   -6.862260816198774e-06
3.142822483666075e-05   -4.165272161028074e-06   -3.522836574335969e-05
3.142822483666075e-05   -4.165272161028074e-06   -3.522836574335969e-05
3.142822483666075e-05   -4.165272161028074e-06   -3.522836574335969e-05
3.142822483666075e-05   -4.165272161028074e-06   -3.522836574335969e-05
2.065728461371514e-05   -3.4198748429313357e-06   -1.77240370959757e-05
2.065728461371514e-05   -3.4198748429313357e-06   -1.77240370959757e-05
2.065728461371514e-05   -3.4198748429313357e-06   -1.77240370959757e-05
2.065728461371514e-05   -3.4198748429313357e-06   -1.77240370959757e-05
1.1041770778849646e-05   -1.3430486347370835e-06   -1.8014825127280745e-05
1.1041770778849646e-05   -1.3430486347370835e-06   -1.8014825127280745e-05
1.1041770778849646e-05   -1.3430486347370835e-06   -1.8014825127280745e-05
1.1041770778849646e-05   -1.3430486347370835e-06   -1.8014825127280745e-05
-4.70014330847829e-06   -2.868281022359951e-06   -4.5166488038734447e-05
-4.70014330847829e-06   -2.868281022359951e-06   -4.5166488038734447e-05
-4.70014330847829e-06   -2.868281022359951e-06   -4.5166488038734447e-05
-4.70014330847829e-06   -2.868281022359951e-06   -4.5166488038734447e-05
-3.973670748892786e-06   -5.126778688138538e-07   -1.8389569487619337e-05
-3.973670748892786e-06   -5.126778688138538e-07   -1.8389569487619337e-05
-3.973670748892786e-06   -5.126778688138538e-07   -1.8389569487619337e-05
-3.973670748892786e-06   -5.126778688138538e-07   -1.8389569487619337e-05
1.1822753827941729e-05   -2.272321303209944e-06   -4.3661157721705556e-05
1.1822753827941729e-05   -2.272321303209944e-06   -4.3661157721705556e-05
1.1822753827941729e-05   -2.272321303209944e-06   -4.3661157721705556e-05
1.1822753827941729e-05   -2.272321303209944e-06   -4.3661157721705556e-05
3.586765570928682e-06   -1.386582318586068e-06   -3.046595401745843e-05
3.586765570928682e-06   -1.386582318586068e-06   -3.046595401745843e-05
3.586765570928682e-06   -1.386582318586068e-06   -3.046595401745843e-05
3.586765570928682e-06   -1.386582318586068e-06   -3.046595401745843e-05
1.1822753827941702e-05   -5.126778688138538e-07   -1.7333783426981076e-05
1.1822753827941702e-05   -5.126778688138538e-07   -1.7333783426981076e-05
1.1822753827941702e-05   -5.126778688138538e-07   -1.7333783426981076e-05
1.1822753827941702e-05   -5.126778688138538e-07   -1.7333783426981076e-05
-3.973670748892786e-06   -2.272321303209944e-06   -4.4716943782343384e-05
-3.973670748892786e-06   -2.272321303209944e-06   -4.4716943782343384e-05
-3.973670748892786e-06   -2.272321303209944e-06   -4.4716943782343384e-05
-3.973670748892786e-06   -2.272321303209944e-06   -4.4716943782343384e-05
-3.280045606983775e-06   3.460575864777139e-07   -1.8626425339366478e-05
-3.280045606983775e-06   3.460575864777139e-07   -1.8626425339366478e-05
-3.280045606983775e-06   3.460575864777139e-07   -1.8626425339366478e-05
-3.280045606983775e-06   3.460575864777139e-07   -1.8626425339366478e-05
1.268799067593096e-05   -1.5438930818282258e-06   -4.410584874324058e-05
1.268799067593096e-05   -1.5438930818282258e-06   -4.410584874324058e-05
1.268799067593096e-05   -1.5438930818282258e-06   -4.410584874324058e-05
1.268799067593096e-05   -1.5438930818282258e-06   -4.410584874324058e-05
4.162929828003308e-06   -8.593331723896064e-07   -3.0308149942357137e-05
4.162929828003308e-06   -8.593331723896064e-07   -3.0308149942357137e-05
4.162929828003308e-06   -8.593331723896064e-07   -3.0308149942357137e-05
4.162929828003308e-06   -8.593331723896064e-07   -3.0308149942357137e-05
1.268799067593096e-05   3.460575864777139e-07   -1.7492454938382784e-05
1.268799067593096e-05   3.460575864777139e-07   -1.7492454938382784e-05
1.268799067593096e-05   3.460575864777139e-07   -1.7492454938382784e-05
1.268799067593096e-05   3.460575864777139e-07   -1.7492454938382784e-05
-3.280045606983775e-06   -1.5438930818286595e-06   -4.5239819144224326e-05
-3.280045606983775e-06   -1.5438930818286595e-06   -4.5239819144224326e-05
-3.280045606983775e-06   -1.5438930818286595e-06   -4.5239819144224326e-05
-3.280045606983775e-06   -1.5438930818286595e-06   -4.5239819144224326e-05
-2.6285839908407686e-06   1.3631934813451967e-06   -1.9260818890084108e-05
-2.6285839908407686e-06   1.3631934813451967e-06   -1.9260818890084108e-05
-2.6285839908407686e-06   1.3631934813451967e-06   -1.9260818890084108e-05
-2.6285839908407686e-06   1.3631934813451967e-06   -1.9260818890084108e-05
1.3402959996377915e-05   -6.272456897263821e-07   -4.4785795366138604e-05
1.3402959996377915e-05   -6.272456897263821e-07   -4.4785795366138604e-05
1.3402959996377915e-05   -6.272456897263821e-07   -4.4785795366138604e-05
1.3402959996377915e-05   -6.272456897263821e-07   -4.4785795366138604e-05
4.882099256437953e-06   -2.0899974220939602e-07   -3.083530836808302e-05
4.882099256437953e-06   -2.0899974220939602e-07   -3.083530836808302e-05
4.882099256437953e-06   -2.0899974220939602e-07   -3.083530836808302e-05
4.882099256437953e-06   -2.0899974220939602e-07   -3.083530836808302e-05
-4.700143308478276e-06   1.0345803215048438e-06   -2.3176228998898372e-05
-4.700143308478276e-06   1.0345803215048438e-06   -2.3176228998898372e-05
-4.700143308478276e-06   1.0345803215048438e-06   -2.3176228998898372e-05
-4.700143308478276e-06   1.0345803215048438e-06   -2.3176228998898372e-05
-2.0164769280734565e-05   5.25430098090307e-07   -4.9256095753374106e-05
-2.0164769280734565e-05   5.25430098090307e-07   -4.9256095753374106e-05
-2.0164769280734565e-05   5.25430098090307e-07   -4.9256095753374106e-05
-2.0164769280734565e-05   5.25430098090307e-07   -4.9256095753374106e-05
-1.9382853299467643e-05   1.913357737019783e-06   -2.3013930741274747e-05
-1.9382853299467643e-05   1.913357737019783e-06   -2.3013930741274747e-05
-1.9382853299467643e-05   1.913357737019783e-06   -2.3013930741274747e-05
-1.9382853299467643e-05   1.913357737019783e-06   -2.3013930741274747e-05
-3.973670748892786e-06   1.1949272984502005e-06   -4.82648433957577e-05
-3.973670748892786e-06   1.1949272984502005e-06   -4.82648433957577e-05
-3.973670748892786e-06   1.1949272984502005e-06   -4.82648433957577e-05
-3.973670748892786e-06   1.1949272984502005e-06   -4.82648433957577e-05
-1.1972894313463731e-05   1.4186509369783565e-06   -3.506703830458976e-05
-1.1972894313463731e-05   1.4186509369783565e-06   -3.506703830458976e-05
-1.1972894313463731e-05   1.4186509369783565e-06   -3.506703830458976e-05
-1.1972894313463731e-05   1.4186509369783565e-06   -3.506703830458976e-05
-3.973670748892786e-06   1.913357737019783e-06   -2.2582872478132867e-05
-3.973670748892786e-06   1.913357737019783e-06   -2.2582872478132867e-05
-3.973670748892786e-06   1.913357737019783e-06   -2.2582872478132867e-05
-3.973670748892786e-06   1.913357737019783e-06   -2.2582872478132867e-05
-1.9382853299467643e-05   1.1949272984502005e-06   -4.869590165889931e-05
-1.9382853299467643e-05   1.1949272984502005e-06   -4.869590165889931e-05
-1.9382853299467643e-05   1.1949272984502005e-06   -4.869590165889931e-05
-1.9382853299467643e-05   1.1949272984502005e-06   -4.869590165889931e-05
-1.862863438682043e-05   2.843636678084155e-06   -2.2979281290554663e-05
-1.862863438682043e-05   2.843636678084155e-06   -2.2979281290554663e-05
-1.862863438682043e-05   2.843636678084155e-06   -2.2979281290554663e-05
-1.862863438682043e-05   2.843636678084155e-06   -2.2979281290554663e-05
-3.2800456069837885e-06   1.9700076620138285e-06   -4.8036085180640426e-05
-3.2800456069837885e-06   1.9700076620138285e-06   -4.8036085180640426e-05
-3.2800456069837885e-06   1.9700076620138285e-06   -4.8036085180640426e-05
-3.2800456069837885e-06   1.9700076620138285e-06   -4.8036085180640426e-05
-1.1300189515642078e-05   2.0454813854935312e-06   -3.4714462900297554e-05
-1.1300189515642078e-05   2.0454813854935312e-06   -3.4714462900297554e-05
-1.1300189515642078e-05   2.0454813854935312e-06   -3.4714462900297554e-05
-1.1300189515642078e-05   2.0454813854935312e-06   -3.4714462900297554e-05
-3.2800456069837885e-06   2.843636678084155e-06   -2.2455103880912554e-05
-3.2800456069837885e-06   2.843636678084155e-06   -2.2455103880912554e-05
-3.2800456069837885e-06   2.843636678084155e-06   -2.2455103880912554e-05
-3.2800456069837885e-06   2.843636678084155e-06   -2.2455103880912554e-05
-1.862863438682043e-05   1.9700076620138285e-06   -4.8560262590282644e-05
-1.862863438682043e-05   1.9700076620138285e-06   -4.8560262590282644e-05
-1.862863438682043e-05   1.9700076620138285e-06   -4.8560262590282644e-05
-1.862863438682043e-05   1.9700076620138285e-06   -4.8560262590282644e-05
-1.7931703537977674e-05   3.790006727452189e-06   -2.3520301252638034e-05
-1.7931703537977674e-05   3.790006727452189e-06   -2.3520301252638034e-05
-1.7931703537977674e-05   3.790006727452189e-06   -2.3520301252638034e-05
-1.7931703537977674e-05   3.790006727452189e-06   -2.3520301252638034e-05
-2.628583990840782e-06   2.77098760967159e-06   -4.841408902719801e-05
-2.628583990840782e-06   2.77098760967159e-06   -4.841408902719801e-05
-2.628583990840782e-06   2.77098760967159e-06   -4.841408902719801e-05
-2.628583990840782e-06   2.77098760967159e-06   -4.841408902719801e-05
-1.0699296363689683e-05   2.6886622019096657e-06   -3.491350649445995e-05
-1.0699296363689683e-05   2.6886622019096657e-06   -3.491350649445995e-05
-1.0699296363689683e-05   2.6886622019096657e-06   -3.491350649445995e-05
-1.0699296363689683e-05   2.6886622019096657e-06   -3.491350649445995e-05
-2.01647692807346e-05   3.342862225576672e-06   -1.880034891985267e-05
-2.01647692807346e-05   3.342862225576672e-06   -1.880034891985267e-05
-2.01647692807346e-05   3.342862225576672e-06   -1.880034891985267e-05
-2.01647692807346e-05   3.342862225576672e-06   -1.880034891985267e-05
-3.534493363109903e-05   4.040641275962313e-06   -4.368195540689515e-05
-3.534493363109903e-05   4.040641275962313e-06   -4.368195540689515e-05
-3.534493363109903e-05   4.040641275962313e-06   -4.368195540689515e-05
-3.534493363109903e-05   4.040641275962313e-06   -4.368195540689515e-05
-3.440235258520516e-05   4.280890016752524e-06   -1.7664025714987782e-05
-3.440235258520516e-05   4.280890016752524e-06   -1.7664025714987782e-05
-3.440235258520516e-05   4.280890016752524e-06   -1.7664025714987782e-05
-3.440235258520516e-05   4.280890016752524e-06   -1.7664025714987782e-05
-1.9382853299467677e-05   4.8905641732463305e-06   -4.306232901844662e-05
-1.9382853299467677e-05   4.8905641732463305e-06   -4.306232901844662e-05
-1.9382853299467677e-05   4.8905641732463305e-06   -4.306232901844662e-05
-1.9382853299467677e-05   4.8905641732463305e-06   -4.306232901844662e-05
-2.7124137846671825e-05   4.315970218835138e-06   -2.9815431733793117e-05
-2.7124137846671825e-05   4.315970218835138e-06   -2.9815431733793117e-05
-2.7124137846671825e-05   4.315970218835138e-06   -2.9815431733793117e-05
-2.7124137846671825e-05   4.315970218835138e-06   -2.9815431733793117e-05
-1.9382853299467677e-05   4.280890016752524e-06   -1.802983020888398e-05
-1.9382853299467677e-05   4.280890016752524e-06   -1.802983020888398e-05
-1.9382853299467677e-05   4.280890016752524e-06   -1.802983020888398e-05
-1.9382853299467677e-05   4.280890016752524e-06   -1.802983020888398e-05
-3.440235258520522e-05   4.8905641732463305e-06   -4.269652452455058e-05
-3.440235258520522e-05   4.8905641732463305e-06   -4.269652452455058e-05
-3.440235258520522e-05   4.8905641732463305e-06   -4.269652452455058e-05
-3.440235258520522e-05   4.8905641732463305e-06   -4.269652452455058e-05
-3.3359061017507335e-05   5.125700571335674e-06   -1.703193198122682e-05
-3.3359061017507335e-05   5.125700571335674e-06   -1.703193198122682e-05
-3.3359061017507335e-05   5.125700571335674e-06   -1.703193198122682e-05
-3.3359061017507335e-05   5.125700571335674e-06   -1.703193198122682e-05
-1.8628634386820465e-05   5.62247675605634e-06   -4.188070874320411e-05
-1.8628634386820465e-05   5.62247675605634e-06   -4.188070874320411e-05
-1.8628634386820465e-05   5.62247675605634e-06   -4.188070874320411e-05
-1.8628634386820465e-05   5.62247675605634e-06   -4.188070874320411e-05
-2.617043918644148e-05   4.977882783630677e-06   -2.8924277693713554e-05
-2.617043918644148e-05   4.977882783630677e-06   -2.8924277693713554e-05
-2.617043918644148e-05   4.977882783630677e-06   -2.8924277693713554e-05
-2.617043918644148e-05   4.977882783630677e-06   -2.8924277693713554e-05
-1.8628634386820444e-05   5.125700571335674e-06   -1.7329997692059132e-05
-1.8628634386820444e-05   5.125700571335674e-06   -1.7329997692059132e-05
-1.8628634386820444e-05   5.125700571335674e-06   -1.7329997692059132e-05
-1.8628634386820444e-05   5.125700571335674e-06   -1.7329997692059132e-05
-3.3359061017507335e-05   5.62247675605634e-06   -4.158264303237157e-05
-3.3359061017507335e-05   5.62247675605634e-06   -4.158264303237157e-05
-3.3359061017507335e-05   5.62247675605634e-06   -4.158264303237157e-05
-3.3359061017507335e-05   5.62247675605634e-06   -4.158264303237157e-05
-3.2477555560310586e-05   6.070644952247371e-06   -1.742569645552471e-05
-3.2477555560310586e-05   6.070644952247371e-06   -1.742569645552471e-05
-3.2477555560310586e-05   6.070644952247371e-06   -1.742569645552471e-05
-3.2477555560310586e-05   6.070644952247371e-06   -1.742569645552471e-05
-1.7931703537977707e-05   6.431968791060713e-06   -4.188557746270086e-05
-1.7931703537977707e-05   6.431968791060713e-06   -4.188557746270086e-05
-1.7931703537977707e-05   6.431968791060713e-06   -4.188557746270086e-05
-1.7931703537977707e-05   6.431968791060713e-06   -4.188557746270086e-05
-2.5577958696175532e-05   5.587489688375176e-06   -2.8635131404093098e-05
-2.5577958696175532e-05   5.587489688375176e-06   -2.8635131404093098e-05
-2.5577958696175532e-05   5.587489688375176e-06   -2.8635131404093098e-05
-2.5577958696175532e-05   5.587489688375176e-06   -2.8635131404093098e-05
-3.534493363109903e-05   5.7475797584087725e-06   -9.418794471775446e-06
-3.534493363109903e-05   5.7475797584087725e-06   -9.418794471775446e-06
-3.534493363109903e-05   5.7475797584087725e-06   -9.418794471775446e-06
-3.534493363109903e-05   5.7475797584087725e-06   -9.418794471775446e-06
-5.133721330283907e-05   7.938645827087207e-06   -3.475795428346871e-05
-5.133721330283907e-05   7.938645827087207e-06   -3.475795428346871e-05
-5.133721330283907e-05   7.938645827087207e-06   -3.475795428346871e-05
-5.133721330283907e-05   7.938645827087207e-06   -3.475795428346871e-05
-4.917023755218321e-05   6.721672620392007e-06   -2.979929994898216e-06
-4.917023755218321e-05   6.721672620392007e-06   -2.979929994898216e-06
-4.917023755218321e-05   6.721672620392007e-06   -2.979929994898216e-06
-4.917023755218321e-05   6.721672620392007e-06   -2.979929994898216e-06
-3.440235258520516e-05   9.067959307686863e-06   -2.9000843618904985e-05
-3.440235258520516e-05   9.067959307686863e-06   -2.9000843618904985e-05
-3.440235258520516e-05   9.067959307686863e-06   -2.9000843618904985e-05
-3.440235258520516e-05   9.067959307686863e-06   -2.9000843618904985e-05
-4.080413149838282e-05   7.562974105525429e-06   -1.7428220975645425e-05
-4.080413149838282e-05   7.562974105525429e-06   -1.7428220975645425e-05
-4.080413149838282e-05   7.562974105525429e-06   -1.7428220975645425e-05
-4.080413149838282e-05   7.562974105525429e-06   -1.7428220975645425e-05
-3.440235258520519e-05   6.721672620392007e-06   -4.387702007274804e-06
-3.440235258520519e-05   6.721672620392007e-06   -4.387702007274804e-06
-3.440235258520519e-05   6.721672620392007e-06   -4.387702007274804e-06
-3.440235258520519e-05   6.721672620392007e-06   -4.387702007274804e-06
-4.917023755218313e-05   9.067959307686646e-06   -2.7593071606528234e-05
-4.917023755218313e-05   9.067959307686646e-06   -2.7593071606528234e-05
-4.917023755218313e-05   9.067959307686646e-06   -2.7593071606528234e-05
-4.917023755218313e-05   9.067959307686646e-06   -2.7593071606528234e-05
-4.738709190884234e-05   7.070773734921048e-06   -2.902369929803743e-07
-4.738709190884234e-05   7.070773734921048e-06   -2.902369929803743e-07
-4.738709190884234e-05   7.070773734921048e-06   -2.902369929803743e-07
-4.738709190884234e-05   7.070773734921048e-06   -2.902369929803743e-07
-3.3359061017507335e-05   9.365126118157261e-06   -2.5046899908480308e-05
-3.3359061017507335e-05   9.365126118157261e-06   -2.5046899908480308e-05
-3.3359061017507335e-05   9.365126118157261e-06   -2.5046899908480308e-05
-3.3359061017507335e-05   9.365126118157261e-06   -2.5046899908480308e-05
-4.006757631980024e-05   8.0131497806142e-06   -1.3054855268799319e-05
-4.006757631980024e-05   8.0131497806142e-06   -1.3054855268799319e-05
-4.006757631980024e-05   8.0131497806142e-06   -1.3054855268799319e-05
-4.006757631980024e-05   8.0131497806142e-06   -1.3054855268799319e-05
-3.3359061017507335e-05   7.070773734921048e-06   -1.6668484229221889e-06
-3.3359061017507335e-05   7.070773734921048e-06   -1.6668484229221889e-06
-3.3359061017507335e-05   7.070773734921048e-06   -1.6668484229221889e-06
-3.3359061017507335e-05   7.070773734921048e-06   -1.6668484229221889e-06
-4.738709190884216e-05   9.365126118157261e-06   -2.3670288478538524e-05
-4.738709190884216e-05   9.365126118157261e-06   -2.3670288478538524e-05
-4.738709190884216e-05   9.365126118157261e-06   -2.3670288478538524e-05
-4.738709190884216e-05   9.365126118157261e-06   -2.3670288478538524e-05
-4.546286701324945e-05   7.512862040055541e-06   3.126851614799835e-06
-4.546286701324945e-05   7.512862040055541e-06   3.126851614799835e-06
-4.546286701324945e-05   7.512862040055541e-06   3.126851614799835e-06
-4.546286701324945e-05   7.512862040055541e-06   3.126851614799835e-06
-3.2477555560310586e-05   9.620455374843417e-06   -1.9779890140971168e-05
-3.2477555560310586e-05   9.620455374843417e-06   -1.9779890140971168e-05
-3.2477555560310586e-05   9.620455374843417e-06   -1.9779890140971168e-05
-3.2477555560310586e-05   9.620455374843417e-06   -1.9779890140971168e-05
-3.825895518464427e-05   8.086543389105444e-06   -9.2238769089724e-06
-3.825895518464427e-05   8.086543389105444e-06   -9.2238769089724e-06
-3.825895518464427e-05   8.086543389105444e-06   -9.2238769089724e-06
-3.825895518464427e-05   8.086543389105444e-06   -9.2238769089724e-06
4.3956893368623e-05   -6.128420260146988e-06   8.731986660726965e-06
4.3956893368623e-05   -6.128420260146988e-06   8.731986660726965e-06
4.3956893368623e-05   -6.128420260146988e-06   8.731986660726965e-06
4.3956893368623e-05   -6.128420260146988e-06   8.731986660726965e-06
2.117962849043959e-05   -9.071795085089599e-06   -3.099614636454433e-05
2.117962849043959e-05   -9.071795085089599e-06   -3.099614636454433e-05
2.117962849043959e-05   -9.071795085089599e-06   -3.099614636454433e-05
2.117962849043959e-05   -9.071795085089599e-06   -3.099614636454433e-05
2.204505123404855e-05   -5.699742989506793e-06   4.219998207973495e-06
2.204505123404855e-05   -5.699742989506793e-06   4.219998207973495e-06
2.204505123404855e-05   -5.699742989506793e-06   4.219998207973495e-06
2.204505123404855e-05   -5.699742989506793e-06   4.219998207973495e-06
4.596753195126231e-05   -8.860241586341501e-06   -3.375450382928221e-05
4.596753195126231e-05   -8.860241586341501e-06   -3.375450382928221e-05
4.596753195126231e-05   -8.860241586341501e-06   -3.375450382928221e-05
4.596753195126231e-05   -8.860241586341501e-06   -3.375450382928221e-05
3.193374901441121e-05   -6.709562871775373e-06   -1.1655272829936658e-05
3.193374901441121e-05   -6.709562871775373e-06   -1.1655272829936658e-05
3.193374901441121e-05   -6.709562871775373e-06   -1.1655272829936658e-05
3.193374901441121e-05   -6.709562871775373e-06   -1.1655272829936658e-05
4.5967531951262365e-05   -5.699742989506793e-06   6.11629736607406e-06
4.5967531951262365e-05   -5.699742989506793e-06   6.11629736607406e-06
4.5967531951262365e-05   -5.699742989506793e-06   6.11629736607406e-06
4.5967531951262365e-05   -5.699742989506793e-06   6.11629736607406e-06
2.204505123404852e-05   -8.860241586341501e-06   -3.565080298738299e-05
2.204505123404852e-05   -8.860241586341501e-06   -3.565080298738299e-05
2.204505123404852e-05   -8.860241586341501e-06   -3.565080298738299e-05
2.204505123404852e-05   -8.860241586341501e-06   -3.565080298738299e-05
2.2906000180778163e-05   -5.3310047102932655e-06   2.0118387537063596e-06
2.2906000180778163e-05   -5.3310047102932655e-06   2.0118387537063596e-06
2.2906000180778163e-05   -5.3310047102932655e-06   2.0118387537063596e-06
2.2906000180778163e-05   -5.3310047102932655e-06   2.0118387537063596e-06
4.7510621873376264e-05   -8.552536445149798e-06   -3.7062945026376576e-05
4.7510621873376264e-05   -8.552536445149798e-06   -3.7062945026376576e-05
4.7510621873376264e-05   -8.552536445149798e-06   -3.7062945026376576e-05
4.7510621873376264e-05   -8.552536445149798e-06   -3.7062945026376576e-05
3.3627335128437474e-05   -6.687336755809882e-06   -1.504325359841577e-05
3.3627335128437474e-05   -6.687336755809882e-06   -1.504325359841577e-05
3.3627335128437474e-05   -6.687336755809882e-06   -1.504325359841577e-05
3.3627335128437474e-05   -6.687336755809882e-06   -1.504325359841577e-05
4.7510621873376264e-05   -5.3310047102932655e-06   3.944757794620323e-06
4.7510621873376264e-05   -5.3310047102932655e-06   3.944757794620323e-06
4.7510621873376264e-05   -5.3310047102932655e-06   3.944757794620323e-06
4.7510621873376264e-05   -5.3310047102932655e-06   3.944757794620323e-06
2.2906000180778163e-05   -8.552536445149798e-06   -3.899586406729081e-05
2.2906000180778163e-05   -8.552536445149798e-06   -3.899586406729081e-05
2.2906000180778163e-05   -8.552536445149798e-06   -3.899586406729081e-05
2.2906000180778163e-05   -8.552536445149798e-06   -3.899586406729081e-05
2.3490502381867613e-05   -4.16527216102764e-06   -2.4346749263608365e-06
2.3490502381867613e-05   -4.16527216102764e-06   -2.4346749263608365e-06
2.3490502381867613e-05   -4.16527216102764e-06   -2.4346749263608365e-06
2.3490502381867613e-05   -4.16527216102764e-06   -2.4346749263608365e-06
4.914242341335113e-05   -7.352714047567134e-06   -4.327541151357653e-05
4.914242341335113e-05   -7.352714047567134e-06   -4.327541151357653e-05
4.914242341335113e-05   -7.352714047567134e-06   -4.327541151357653e-05
4.914242341335113e-05   -7.352714047567134e-06   -4.327541151357653e-05
3.409973898504125e-05   -6.173156973755117e-06   -1.8912005044014737e-05
3.409973898504125e-05   -6.173156973755117e-06   -1.8912005044014737e-05
3.409973898504125e-05   -6.173156973755117e-06   -1.8912005044014737e-05
3.409973898504125e-05   -6.173156973755117e-06   -1.8912005044014737e-05
2.1179628490439645e-05   -2.868281022359951e-06   -1.0679963398740758e-05
2.1179628490439645e-05   -2.868281022359951e-06   -1.0679963398740758e-05
2.1179628490439645e-05   -2.868281022359951e-06   -1.0679963398740758e-05
2.1179628490439645e-05   -2.868281022359951e-06   -1.0679963398740758e-05
-1.288287817333367e-06   -5.8752058256076635e-06   -4.99306454603114e-05
-1.288287817333367e-06   -5.8752058256076635e-06   -4.99306454603114e-05
-1.288287817333367e-06   -5.8752058256076635e-06   -4.99306454603114e-05
-1.288287817333367e-06   -5.8752058256076635e-06   -4.99306454603114e-05
-4.0007645123745384e-07   -2.2723213032103777e-06   -1.1776309233880056e-05
-4.0007645123745384e-07   -2.2723213032103777e-06   -1.1776309233880056e-05
-4.0007645123745384e-07   -2.2723213032103777e-06   -1.1776309233880056e-05
-4.0007645123745384e-07   -2.2723213032103777e-06   -1.1776309233880056e-05
2.204505123404855e-05   -5.5934228661378566e-06   -4.719219443826686e-05
2.204505123404855e-05   -5.5934228661378566e-06   -4.719219443826686e-05
2.204505123404855e-05   -5.5934228661378566e-06   -4.719219443826686e-05
2.204505123404855e-05   -5.5934228661378566e-06   -4.719219443826686e-05
1.0415236330798058e-05   -3.5546457787258637e-06   -2.9032435851963044e-05
1.0415236330798058e-05   -3.5546457787258637e-06   -2.9032435851963044e-05
1.0415236330798058e-05   -3.5546457787258637e-06   -2.9032435851963044e-05
1.0415236330798058e-05   -3.5546457787258637e-06   -2.9032435851963044e-05
2.204505123404855e-05   -2.2723213032103777e-06   -9.783648296123569e-06
2.204505123404855e-05   -2.2723213032103777e-06   -9.783648296123569e-06
2.204505123404855e-05   -2.2723213032103777e-06   -9.783648296123569e-06
2.204505123404855e-05   -2.2723213032103777e-06   -9.783648296123569e-06
-4.0007645123745384e-07   -5.5934228661378566e-06   -4.9184855376023344e-05
-4.0007645123745384e-07   -5.5934228661378566e-06   -4.9184855376023344e-05
-4.0007645123745384e-07   -5.5934228661378566e-06   -4.9184855376023344e-05
-4.0007645123745384e-07   -5.5934228661378566e-06   -4.9184855376023344e-05
3.8246678667967337e-07   -1.5438930818286595e-06   -1.2056311063970678e-05
3.8246678667967337e-07   -1.5438930818286595e-06   -1.2056311063970678e-05
3.8246678667967337e-07   -1.5438930818286595e-06   -1.2056311063970678e-05
3.8246678667967337e-07   -1.5438930818286595e-06   -1.2056311063970678e-05
2.2906000180778163e-05   -5.069180838166397e-06   -4.748036073366535e-05
2.2906000180778163e-05   -5.069180838166397e-06   -4.748036073366535e-05
2.2906000180778163e-05   -5.069180838166397e-06   -4.748036073366535e-05
2.2906000180778163e-05   -5.069180838166397e-06   -4.748036073366535e-05
1.1019528874848339e-05   -3.262464678180886e-06   -2.8753604919772816e-05
1.1019528874848339e-05   -3.262464678180886e-06   -2.8753604919772816e-05
1.1019528874848339e-05   -3.262464678180886e-06   -2.8753604919772816e-05
1.1019528874848339e-05   -3.262464678180886e-06   -2.8753604919772816e-05
2.2906000180778163e-05   -1.5438930818282258e-06   -9.941138410167949e-06
2.2906000180778163e-05   -1.5438930818282258e-06   -9.941138410167949e-06
2.2906000180778163e-05   -1.5438930818282258e-06   -9.941138410167949e-06
2.2906000180778163e-05   -1.5438930818282258e-06   -9.941138410167949e-06
3.8246678667967337e-07   -5.069180838166397e-06   -4.9595533387468025e-05
3.8246678667967337e-07   -5.069180838166397e-06   -4.9595533387468025e-05
3.8246678667967337e-07   -5.069180838166397e-06   -4.9595533387468025e-05
3.8246678667967337e-07   -5.069180838166397e-06   -4.9595533387468025e-05
9.395193244976025e-07   -6.272456897268158e-07   -1.253371830904561e-05
9.395193244976025e-07   -6.272456897268158e-07   -1.253371830904561e-05
9.395193244976025e-07   -6.272456897268158e-07   -1.253371830904561e-05
9.395193244976025e-07   -6.272456897268158e-07   -1.253371830904561e-05
2.3490502381867694e-05   -4.323273856198656e-06   -4.790107317144616e-05
2.3490502381867694e-05   -4.323273856198656e-06   -4.790107317144616e-05
2.3490502381867694e-05   -4.323273856198656e-06   -4.790107317144616e-05
2.3490502381867694e-05   -4.323273856198656e-06   -4.790107317144616e-05
1.174340181437876e-05   -2.7478361396787547e-06   -2.926783485554345e-05
1.174340181437876e-05   -2.7478361396787547e-06   -2.926783485554345e-05
1.174340181437876e-05   -2.7478361396787547e-06   -2.926783485554345e-05
1.174340181437876e-05   -2.7478361396787547e-06   -2.926783485554345e-05
-1.288287817333367e-06   5.25430098090307e-07   -1.6268235861280865e-05
-1.288287817333367e-06   5.25430098090307e-07   -1.6268235861280865e-05
-1.288287817333367e-06   5.25430098090307e-07   -1.6268235861280865e-05
-1.288287817333367e-06   5.25430098090307e-07   -1.6268235861280865e-05
-2.3424319225730246e-05   -3.079414973699516e-06   -5.532452858501586e-05
-2.3424319225730246e-05   -3.079414973699516e-06   -5.532452858501586e-05
-2.3424319225730246e-05   -3.079414973699516e-06   -5.532452858501586e-05
-2.3424319225730246e-05   -3.079414973699516e-06   -5.532452858501586e-05
-2.2358581655338123e-05   1.1949272984502005e-06   -1.7689511784427323e-05
-2.2358581655338123e-05   1.1949272984502005e-06   -1.7689511784427323e-05
-2.2358581655338123e-05   1.1949272984502005e-06   -1.7689511784427323e-05
-2.2358581655338123e-05   1.1949272984502005e-06   -1.7689511784427323e-05
-4.0007645123745384e-07   -2.747244263437594e-06   -5.192171752079546e-05
-4.0007645123745384e-07   -2.747244263437594e-06   -5.192171752079546e-05
-4.0007645123745384e-07   -2.747244263437594e-06   -5.192171752079546e-05
-4.0007645123745384e-07   -2.747244263437594e-06   -5.192171752079546e-05
-1.172710903498578e-05   -5.917892969909203e-07   -3.433660286108326e-05
-1.172710903498578e-05   -5.917892969909203e-07   -3.433660286108326e-05
-1.172710903498578e-05   -5.917892969909203e-07   -3.433660286108326e-05
-1.172710903498578e-05   -5.917892969909203e-07   -3.433660286108326e-05
-4.0007645123745384e-07   1.1949272984502005e-06   -1.5324208847294213e-05
-4.0007645123745384e-07   1.1949272984502005e-06   -1.5324208847294213e-05
-4.0007645123745384e-07   1.1949272984502005e-06   -1.5324208847294213e-05
-4.0007645123745384e-07   1.1949272984502005e-06   -1.5324208847294213e-05
-2.2358581655338123e-05   -2.7472442634380277e-06   -5.4287020457928405e-05
-2.2358581655338123e-05   -2.7472442634380277e-06   -5.4287020457928405e-05
-2.2358581655338123e-05   -2.7472442634380277e-06   -5.4287020457928405e-05
-2.2358581655338123e-05   -2.7472442634380277e-06   -5.4287020457928405e-05
-2.1380828041229126e-05   1.9700076620138285e-06   -1.737298625093561e-05
-2.1380828041229126e-05   1.9700076620138285e-06   -1.737298625093561e-05
-2.1380828041229126e-05   1.9700076620138285e-06   -1.737298625093561e-05
-2.1380828041229126e-05   1.9700076620138285e-06   -1.737298625093561e-05
3.8246678667967337e-07   -2.2306742555673782e-06   -5.112473514690133e-05
3.8246678667967337e-07   -2.2306742555673782e-06   -5.112473514690133e-05
3.8246678667967337e-07   -2.2306742555673782e-06   -5.112473514690133e-05
3.8246678667967337e-07   -2.2306742555673782e-06   -5.112473514690133e-05
-1.0859192308649659e-05   -2.116801827564338e-07   -3.3600033098372245e-05
-1.0859192308649659e-05   -2.116801827564338e-07   -3.3600033098372245e-05
-1.0859192308649659e-05   -2.116801827564338e-07   -3.3600033098372245e-05
-1.0859192308649659e-05   -2.116801827564338e-07   -3.3600033098372245e-05
3.8246678667967337e-07   1.9700076620138285e-06   -1.485257710038667e-05
3.8246678667967337e-07   1.9700076620138285e-06   -1.485257710038667e-05
3.8246678667967337e-07   1.9700076620138285e-06   -1.485257710038667e-05
3.8246678667967337e-07   1.9700076620138285e-06   -1.485257710038667e-05
-2.1380828041229166e-05   -2.230674255567812e-06   -5.364514429745024e-05
-2.1380828041229166e-05   -2.230674255567812e-06   -5.364514429745024e-05
-2.1380828041229166e-05   -2.230674255567812e-06   -5.364514429745024e-05
-2.1380828041229166e-05   -2.230674255567812e-06   -5.364514429745024e-05
-2.0721618729632667e-05   2.7709876096720237e-06   -1.767478459475014e-05
-2.0721618729632667e-05   2.7709876096720237e-06   -1.767478459475014e-05
-2.0721618729632667e-05   2.7709876096720237e-06   -1.767478459475014e-05
-2.0721618729632667e-05   2.7709876096720237e-06   -1.767478459475014e-05
9.39519324497616e-07   -1.7407392691420713e-06   -5.106964522434549e-05
9.39519324497616e-07   -1.7407392691420713e-06   -5.106964522434549e-05
9.39519324497616e-07   -1.7407392691420713e-06   -5.106964522434549e-05
9.39519324497616e-07   -1.7407392691420713e-06   -5.106964522434549e-05
-1.0240263146335573e-05   2.1501132070351342e-07   -3.361012479353125e-05
-1.0240263146335573e-05   2.1501132070351342e-07   -3.361012479353125e-05
-1.0240263146335573e-05   2.1501132070351342e-07   -3.361012479353125e-05
-1.0240263146335573e-05   2.1501132070351342e-07   -3.361012479353125e-05
-2.3424319225730205e-05   4.040641275962313e-06   -1.3275669988107187e-05
-2.3424319225730205e-05   4.040641275962313e-06   -1.3275669988107187e-05
-2.3424319225730205e-05   4.040641275962313e-06   -1.3275669988107187e-05
-2.3424319225730205e-05   4.040641275962313e-06   -1.3275669988107187e-05
-4.586974048719354e-05   7.937043235116403e-07   -5.263286759534945e-05
-4.586974048719354e-05   7.937043235116403e-07   -5.263286759534945e-05
-4.586974048719354e-05   7.937043235116403e-07   -5.263286759534945e-05
-4.586974048719354e-05   7.937043235116403e-07   -5.263286759534945e-05
-4.435248296329528e-05   4.8905641732463305e-06   -1.4145965931203642e-05
-4.435248296329528e-05   4.8905641732463305e-06   -1.4145965931203642e-05
-4.435248296329528e-05   4.8905641732463305e-06   -1.4145965931203642e-05
-4.435248296329528e-05   4.8905641732463305e-06   -1.4145965931203642e-05
-2.2358581655338083e-05   1.407186194530858e-06   -4.871244132390322e-05
-2.2358581655338083e-05   1.407186194530858e-06   -4.871244132390322e-05
-2.2358581655338083e-05   1.407186194530858e-06   -4.871244132390322e-05
-2.2358581655338083e-05   1.407186194530858e-06   -4.871244132390322e-05
-3.364864547590122e-05   3.0743682758807567e-06   -3.089597753844106e-05
-3.364864547590122e-05   3.0743682758807567e-06   -3.089597753844106e-05
-3.364864547590122e-05   3.0743682758807567e-06   -3.089597753844106e-05
-3.364864547590122e-05   3.0743682758807567e-06   -3.089597753844106e-05
-2.2358581655338083e-05   4.8905641732463305e-06   -1.2055939143974575e-05
-2.2358581655338083e-05   4.8905641732463305e-06   -1.2055939143974575e-05
-2.2358581655338083e-05   4.8905641732463305e-06   -1.2055939143974575e-05
-2.2358581655338083e-05   4.8905641732463305e-06   -1.2055939143974575e-05
-4.435248296329536e-05   1.4071861945312916e-06   -5.080246811113207e-05
-4.435248296329536e-05   1.4071861945312916e-06   -5.080246811113207e-05
-4.435248296329536e-05   1.4071861945312916e-06   -5.080246811113207e-05
-4.435248296329536e-05   1.4071861945312916e-06   -5.080246811113207e-05
-4.288550594128484e-05   5.62247675605634e-06   -1.2883803001063638e-05
-4.288550594128484e-05   5.62247675605634e-06   -1.2883803001063638e-05
-4.288550594128484e-05   5.62247675605634e-06   -1.2883803001063638e-05
-4.288550594128484e-05   5.62247675605634e-06   -1.2883803001063638e-05
-2.1380828041229166e-05   1.9718590940453855e-06   -4.6534562237282974e-05
-2.1380828041229166e-05   1.9718590940453855e-06   -4.6534562237282974e-05
-2.1380828041229166e-05   1.9718590940453855e-06   -4.6534562237282974e-05
-2.1380828041229166e-05   1.9718590940453855e-06   -4.6534562237282974e-05
-3.22769894987401e-05   3.6081497516004396e-06   -2.9356067535964974e-05
-3.22769894987401e-05   3.6081497516004396e-06   -2.9356067535964974e-05
-3.22769894987401e-05   3.6081497516004396e-06   -2.9356067535964974e-05
-3.22769894987401e-05   3.6081497516004396e-06   -2.9356067535964974e-05
-2.138082804122912e-05   5.62247675605634e-06   -1.0693432403856631e-05
-2.138082804122912e-05   5.62247675605634e-06   -1.0693432403856631e-05
-2.138082804122912e-05   5.62247675605634e-06   -1.0693432403856631e-05
-2.138082804122912e-05   5.62247675605634e-06   -1.0693432403856631e-05
-4.2885505941284914e-05   1.9718590940453855e-06   -4.8724932834489764e-05
-4.2885505941284914e-05   1.9718590940453855e-06   -4.8724932834489764e-05
-4.2885505941284914e-05   1.9718590940453855e-06   -4.8724932834489764e-05
-4.2885505941284914e-05   1.9718590940453855e-06   -4.8724932834489764e-05
-4.1773069024961685e-05   6.4319687910602795e-06   -1.2924432671844194e-05
-4.1773069024961685e-05   6.4319687910602795e-06   -1.2924432671844194e-05
-4.1773069024961685e-05   6.4319687910602795e-06   -1.2924432671844194e-05
-4.1773069024961685e-05   6.4319687910602795e-06   -1.2924432671844194e-05
-2.07216187296327e-05   2.4493502706278945e-06   -4.562061205179957e-05
-2.07216187296327e-05   2.4493502706278945e-06   -4.562061205179957e-05
-2.07216187296327e-05   2.4493502706278945e-06   -4.562061205179957e-05
-2.07216187296327e-05   2.4493502706278945e-06   -4.562061205179957e-05
-3.150952495152839e-05   3.980768156993091e-06   -2.8559619080459282e-05
-3.150952495152839e-05   3.980768156993091e-06   -2.8559619080459282e-05
-3.150952495152839e-05   3.980768156993091e-06   -2.8559619080459282e-05
-3.150952495152839e-05   3.980768156993091e-06   -2.8559619080459282e-05
-4.586974048719354e-05   7.938645827087424e-06   -7.614470677357954e-06
-4.586974048719354e-05   7.938645827087424e-06   -7.614470677357954e-06
-4.586974048719354e-05   7.938645827087424e-06   -7.614470677357954e-06
-4.586974048719354e-05   7.938645827087424e-06   -7.614470677357954e-06
-6.932262488099311e-05   7.497060934614098e-06   -4.696756226917477e-05
-6.932262488099311e-05   7.497060934614098e-06   -4.696756226917477e-05
-6.932262488099311e-05   7.497060934614098e-06   -4.696756226917477e-05
-6.932262488099311e-05   7.497060934614098e-06   -4.696756226917477e-05
-6.632741570339788e-05   9.067959307686646e-06   -1.9859764108839245e-07
-6.632741570339788e-05   9.067959307686646e-06   -1.9859764108839245e-07
-6.632741570339788e-05   9.067959307686646e-06   -1.9859764108839245e-07
-6.632741570339788e-05   9.067959307686646e-06   -1.9859764108839245e-07
-4.43524829632952e-05   9.487438281802641e-06   -3.707517292572897e-05
-4.43524829632952e-05   9.487438281802641e-06   -3.707517292572897e-05
-4.43524829632952e-05   9.487438281802641e-06   -3.707517292572897e-05
-4.43524829632952e-05   9.487438281802641e-06   -3.707517292572897e-05
-5.403292664965638e-05   8.945276081946587e-06   -2.0615802795213788e-05
-5.403292664965638e-05   8.945276081946587e-06   -2.0615802795213788e-05
-5.403292664965638e-05   8.945276081946587e-06   -2.0615802795213788e-05
-5.403292664965638e-05   8.945276081946587e-06   -2.0615802795213788e-05
-4.435248296329532e-05   9.067959307686646e-06   -4.502850255579897e-07
-4.435248296329532e-05   9.067959307686646e-06   -4.502850255579897e-07
-4.435248296329532e-05   9.067959307686646e-06   -4.502850255579897e-07
-4.435248296329532e-05   9.067959307686646e-06   -4.502850255579897e-07
-6.632741570339788e-05   9.487438281802641e-06   -3.682348554125939e-05
-6.632741570339788e-05   9.487438281802641e-06   -3.682348554125939e-05
-6.632741570339788e-05   9.487438281802641e-06   -3.682348554125939e-05
-6.632741570339788e-05   9.487438281802641e-06   -3.682348554125939e-05
-6.38435177344565e-05   9.365126118157261e-06   3.993807506038043e-06
-6.38435177344565e-05   9.365126118157261e-06   3.993807506038043e-06
-6.38435177344565e-05   9.365126118157261e-06   3.993807506038043e-06
-6.38435177344565e-05   9.365126118157261e-06   3.993807506038043e-06
-4.288550594128484e-05   9.93490509017432e-06   -3.127807953245854e-05
-4.288550594128484e-05   9.93490509017432e-06   -3.127807953245854e-05
-4.288550594128484e-05   9.93490509017432e-06   -3.127807953245854e-05
-4.288550594128484e-05   9.93490509017432e-06   -3.127807953245854e-05
-5.2900927383830785e-05   9.594750475237432e-06   -1.4381617692586055e-05
-5.2900927383830785e-05   9.594750475237432e-06   -1.4381617692586055e-05
-5.2900927383830785e-05   9.594750475237432e-06   -1.4381617692586055e-05
-5.2900927383830785e-05   9.594750475237432e-06   -1.4381617692586055e-05
-4.2885505941284914e-05   9.365126118157045e-06   3.651940122827591e-06
-4.2885505941284914e-05   9.365126118157045e-06   3.651940122827591e-06
-4.2885505941284914e-05   9.365126118157045e-06   3.651940122827591e-06
-4.2885505941284914e-05   9.365126118157045e-06   3.651940122827591e-06
-6.384351773445637e-05   9.93490509017432e-06   -3.093621214924811e-05
-6.384351773445637e-05   9.93490509017432e-06   -3.093621214924811e-05
-6.384351773445637e-05   9.93490509017432e-06   -3.093621214924811e-05
-6.384351773445637e-05   9.93490509017432e-06   -3.093621214924811e-05
-6.124538847557266e-05   9.620455374843634e-06   9.613632315519935e-06
-6.124538847557266e-05   9.620455374843634e-06   9.613632315519935e-06
-6.124538847557266e-05   9.620455374843634e-06   9.613632315519935e-06
-6.124538847557266e-05   9.620455374843634e-06   9.613632315519935e-06
-4.1773069024961685e-05   1.070240865638089e-05   -2.348940540442101e-05
-4.1773069024961685e-05   1.070240865638089e-05   -2.348940540442101e-05
-4.1773069024961685e-05   1.070240865638089e-05   -2.348940540442101e-05
-4.1773069024961685e-05   1.070240865638089e-05   -2.348940540442101e-05
-5.03920786584967e-05   9.812621601709443e-06   -8.590517115726905e-06
-5.03920786584967e-05   9.812621601709443e-06   -8.590517115726905e-06
-5.03920786584967e-05   9.812621601709443e-06   -8.590517115726905e-06
-5.03920786584967e-05   9.812621601709443e-06   -8.590517115726905e-06
6.041174937770189e-05   -9.071795085089599e-06   2.0622971353744706e-05
6.041174937770189e-05   -9.071795085089599e-06   2.0622971353744706e-05
6.041174937770189e-05   -9.071795085089599e-06   2.0622971353744706e-05
6.041174937770189e-05   -9.071795085089599e-06   2.0622971353744706e-05
3.036256361576981e-05   -1.1470736483214228e-05   -3.089836975501666e-05
3.036256361576981e-05   -1.1470736483214228e-05   -3.089836975501666e-05
3.036256361576981e-05   -1.1470736483214228e-05   -3.089836975501666e-05
3.036256361576981e-05   -1.1470736483214228e-05   -3.089836975501666e-05
3.110308520889554e-05   -8.860241586341501e-06   1.4796236032145948e-05
3.110308520889554e-05   -8.860241586341501e-06   1.4796236032145948e-05
3.110308520889554e-05   -8.860241586341501e-06   1.4796236032145948e-05
3.110308520889554e-05   -8.860241586341501e-06   1.4796236032145948e-05
6.19154199093716e-05   -1.1757702848429023e-05   -3.481917837806168e-05
6.19154199093716e-05   -1.1757702848429023e-05   -3.481917837806168e-05
6.19154199093716e-05   -1.1757702848429023e-05   -3.481917837806168e-05
6.19154199093716e-05   -1.1757702848429023e-05   -3.481917837806168e-05
4.411758608685896e-05   -9.266544419159455e-06   -6.650817064768788e-06
4.411758608685896e-05   -9.266544419159455e-06   -6.650817064768788e-06
4.411758608685896e-05   -9.266544419159455e-06   -6.650817064768788e-06
4.411758608685896e-05   -9.266544419159455e-06   -6.650817064768788e-06
6.19154199093716e-05   -8.860241586341501e-06   1.6534712789398375e-05
6.19154199093716e-05   -8.860241586341501e-06   1.6534712789398375e-05
6.19154199093716e-05   -8.860241586341501e-06   1.6534712789398375e-05
6.19154199093716e-05   -8.860241586341501e-06   1.6534712789398375e-05
3.110308520889554e-05   -1.1757702848429023e-05   -3.655765513531405e-05
3.110308520889554e-05   -1.1757702848429023e-05   -3.655765513531405e-05
3.110308520889554e-05   -1.1757702848429023e-05   -3.655765513531405e-05
3.110308520889554e-05   -1.1757702848429023e-05   -3.655765513531405e-05
3.172897747417592e-05   -8.552536445149798e-06   1.1676674150822583e-05
3.172897747417592e-05   -8.552536445149798e-06   1.1676674150822583e-05
3.172897747417592e-05   -8.552536445149798e-06   1.1676674150822583e-05
3.172897747417592e-05   -8.552536445149798e-06   1.1676674150822583e-05
6.285238762731302e-05   -1.1650926263789396e-05   -3.833664221322236e-05
6.285238762731302e-05   -1.1650926263789396e-05   -3.833664221322236e-05
6.285238762731302e-05   -1.1650926263789396e-05   -3.833664221322236e-05
6.285238762731302e-05   -1.1650926263789396e-05   -3.833664221322236e-05
4.567169726649883e-05   -9.558917255461912e-06   -1.0957363683528412e-05
4.567169726649883e-05   -9.558917255461912e-06   -1.0957363683528412e-05
4.567169726649883e-05   -9.558917255461912e-06   -1.0957363683528412e-05
4.567169726649883e-05   -9.558917255461912e-06   -1.0957363683528412e-05
6.285238762731302e-05   -8.552536445149798e-06   1.3535708042006168e-05
6.285238762731302e-05   -8.552536445149798e-06   1.3535708042006168e-05
6.285238762731302e-05   -8.552536445149798e-06   1.3535708042006168e-05
6.285238762731302e-05   -8.552536445149798e-06   1.3535708042006168e-05
3.172897747417592e-05   -1.1650926263789396e-05   -4.0195676104406e-05
3.172897747417592e-05   -1.1650926263789396e-05   -4.0195676104406e-05
3.172897747417592e-05   -1.1650926263789396e-05   -4.0195676104406e-05
3.172897747417592e-05   -1.1650926263789396e-05   -4.0195676104406e-05
3.238269607859192e-05   -7.3527140475667e-06   5.6251406106971186e-06
3.238269607859192e-05   -7.3527140475667e-06   5.6251406106971186e-06
3.238269607859192e-05   -7.3527140475667e-06   5.6251406106971186e-06
3.238269607859192e-05   -7.3527140475667e-06   5.6251406106971186e-06
6.377499424308262e-05   -1.1002023218456211e-05   -4.450577082758687e-05
6.377499424308262e-05   -1.1002023218456211e-05   -4.450577082758687e-05
6.377499424308262e-05   -1.1002023218456211e-05   -4.450577082758687e-05
6.377499424308262e-05   -1.1002023218456211e-05   -4.450577082758687e-05
4.569306904092902e-05   -9.19900696127237e-06   -1.545103857830785e-05
4.569306904092902e-05   -9.19900696127237e-06   -1.545103857830785e-05
4.569306904092902e-05   -9.19900696127237e-06   -1.545103857830785e-05
4.569306904092902e-05   -9.19900696127237e-06   -1.545103857830785e-05
3.036256361576981e-05   -5.875205825608097e-06   2.0532623010518797e-06
3.036256361576981e-05   -5.875205825608097e-06   2.0532623010518797e-06
3.036256361576981e-05   -5.875205825608097e-06   2.0532623010518797e-06
3.036256361576981e-05   -5.875205825608097e-06   2.0532623010518797e-06
3.5920525310299025e-06   -1.1499465032083905e-05   -4.5938811697399974e-05
3.5920525310299025e-06   -1.1499465032083905e-05   -4.5938811697399974e-05
3.5920525310299025e-06   -1.1499465032083905e-05   -4.5938811697399974e-05
3.5920525310299025e-06   -1.1499465032083905e-05   -4.5938811697399974e-05
4.455002809994625e-06   -5.593422866137423e-06   -2.5300931769892815e-07
4.455002809994625e-06   -5.593422866137423e-06   -2.5300931769892815e-07
4.455002809994625e-06   -5.593422866137423e-06   -2.5300931769892815e-07
4.455002809994625e-06   -5.593422866137423e-06   -2.5300931769892815e-07
3.1103085208895566e-05   -1.143984603107183e-05   -4.115862608357313e-05
3.1103085208895566e-05   -1.143984603107183e-05   -4.115862608357313e-05
3.1103085208895566e-05   -1.143984603107183e-05   -4.115862608357313e-05
3.1103085208895566e-05   -1.143984603107183e-05   -4.115862608357313e-05
1.744563783532268e-05   -7.758581312721988e-06   -2.0604972625294996e-05
1.744563783532268e-05   -7.758581312721988e-06   -2.0604972625294996e-05
1.744563783532268e-05   -7.758581312721988e-06   -2.0604972625294996e-05
1.744563783532268e-05   -7.758581312721988e-06   -2.0604972625294996e-05
3.1103085208895485e-05   -5.5934228661378566e-06   3.254844581261976e-06
3.1103085208895485e-05   -5.5934228661378566e-06   3.254844581261976e-06
3.1103085208895485e-05   -5.5934228661378566e-06   3.254844581261976e-06
3.1103085208895485e-05   -5.5934228661378566e-06   3.254844581261976e-06
4.4550028099946115e-06   -1.1439846031072263e-05   -4.466647998253382e-05
4.4550028099946115e-06   -1.1439846031072263e-05   -4.466647998253382e-05
4.4550028099946115e-06   -1.1439846031072263e-05   -4.466647998253382e-05
4.4550028099946115e-06   -1.1439846031072263e-05   -4.466647998253382e-05
5.23394202386623e-06   -5.069180838165963e-06   -5.375801409651052e-07
5.23394202386623e-06   -5.069180838165963e-06   -5.375801409651052e-07
5.23394202386623e-06   -5.069180838165963e-06   -5.375801409651052e-07
5.23394202386623e-06   -5.069180838165963e-06   -5.375801409651052e-07
3.172897747417592e-05   -1.1285443547187895e-05   -4.096621493273475e-05
3.172897747417592e-05   -1.1285443547187895e-05   -4.096621493273475e-05
3.172897747417592e-05   -1.1285443547187895e-05   -4.096621493273475e-05
3.172897747417592e-05   -1.1285443547187895e-05   -4.096621493273475e-05
1.7935080626458902e-05   -7.84323081533516e-06   -2.0041714492317355e-05
1.7935080626458902e-05   -7.84323081533516e-06   -2.0041714492317355e-05
1.7935080626458902e-05   -7.84323081533516e-06   -2.0041714492317355e-05
1.7935080626458902e-05   -7.84323081533516e-06   -2.0041714492317355e-05
3.172897747417592e-05   -5.069180838166397e-06   3.192177484448097e-06
3.172897747417592e-05   -5.069180838166397e-06   3.192177484448097e-06
3.172897747417592e-05   -5.069180838166397e-06   3.192177484448097e-06
3.172897747417592e-05   -5.069180838166397e-06   3.192177484448097e-06
5.23394202386623e-06   -1.1285443547187895e-05   -4.4695972558147926e-05
5.23394202386623e-06   -1.1285443547187895e-05   -4.4695972558147926e-05
5.23394202386623e-06   -1.1285443547187895e-05   -4.4695972558147926e-05
5.23394202386623e-06   -1.1285443547187895e-05   -4.4695972558147926e-05
6.396594457848328e-06   -4.323273856198656e-06   -1.0806028769565646e-06
6.396594457848328e-06   -4.323273856198656e-06   -1.0806028769565646e-06
6.396594457848328e-06   -4.323273856198656e-06   -1.0806028769565646e-06
6.396594457848328e-06   -4.323273856198656e-06   -1.0806028769565646e-06
3.238269607859189e-05   -1.0977518792378103e-05   -4.039822528315501e-05
3.238269607859189e-05   -1.0977518792378103e-05   -4.039822528315501e-05
3.238269607859189e-05   -1.0977518792378103e-05   -4.039822528315501e-05
3.238269607859189e-05   -1.0977518792378103e-05   -4.039822528315501e-05
1.886970319611722e-05   -7.720536620866789e-06   -1.9830759781937213e-05
1.886970319611722e-05   -7.720536620866789e-06   -1.9830759781937213e-05
1.886970319611722e-05   -7.720536620866789e-06   -1.9830759781937213e-05
1.886970319611722e-05   -7.720536620866789e-06   -1.9830759781937213e-05
3.5920525310299025e-06   -3.0794149736999496e-06   -4.5522693044642605e-06
3.5920525310299025e-06   -3.0794149736999496e-06   -4.5522693044642605e-06
3.5920525310299025e-06   -3.0794149736999496e-06   -4.5522693044642605e-06
3.5920525310299025e-06   -3.0794149736999496e-06   -4.5522693044642605e-06
-2.2901218108047346e-05   -1.3863734447369918e-05   -5.517831205379504e-05
-2.2901218108047346e-05   -1.3863734447369918e-05   -5.517831205379504e-05
-2.2901218108047346e-05   -1.3863734447369918e-05   -5.517831205379504e-05
-2.2901218108047346e-05   -1.3863734447369918e-05   -5.517831205379504e-05
-2.155689298857433e-05   -2.747244263437594e-06   -9.843189624533788e-06
-2.155689298857433e-05   -2.747244263437594e-06   -9.843189624533788e-06
-2.155689298857433e-05   -2.747244263437594e-06   -9.843189624533788e-06
-2.155689298857433e-05   -2.747244263437594e-06   -9.843189624533788e-06
4.4550028099946115e-06   -1.4169441200209687e-05   -4.6343031126752394e-05
4.4550028099946115e-06   -1.4169441200209687e-05   -4.6343031126752394e-05
4.4550028099946115e-06   -1.4169441200209687e-05   -4.6343031126752394e-05
4.4550028099946115e-06   -1.4169441200209687e-05   -4.6343031126752394e-05
-8.797331425274165e-06   -7.836565450565925e-06   -2.805553285109059e-05
-8.797331425274165e-06   -7.836565450565925e-06   -2.805553285109059e-05
-8.797331425274165e-06   -7.836565450565925e-06   -2.805553285109059e-05
-8.797331425274165e-06   -7.836565450565925e-06   -2.805553285109059e-05
4.4550028099946115e-06   -2.747244263437594e-06   -2.989871462470879e-06
4.4550028099946115e-06   -2.747244263437594e-06   -2.989871462470879e-06
4.4550028099946115e-06   -2.747244263437594e-06   -2.989871462470879e-06
4.4550028099946115e-06   -2.747244263437594e-06   -2.989871462470879e-06
-2.1556892988574357e-05   -1.4169441200209687e-05   -5.319634928881568e-05
-2.1556892988574357e-05   -1.4169441200209687e-05   -5.319634928881568e-05
-2.1556892988574357e-05   -1.4169441200209687e-05   -5.319634928881568e-05
-2.1556892988574357e-05   -1.4169441200209687e-05   -5.319634928881568e-05
-2.0398326027259623e-05   -2.2306742555673782e-06   -9.189622641846444e-06
-2.0398326027259623e-05   -2.2306742555673782e-06   -9.189622641846444e-06
-2.0398326027259623e-05   -2.2306742555673782e-06   -9.189622641846444e-06
-2.0398326027259623e-05   -2.2306742555673782e-06   -9.189622641846444e-06
5.23394202386623e-06   -1.4102075491313933e-05   -4.4787228652274974e-05
5.23394202386623e-06   -1.4102075491313933e-05   -4.4787228652274974e-05
5.23394202386623e-06   -1.4102075491313933e-05   -4.4787228652274974e-05
5.23394202386623e-06   -1.4102075491313933e-05   -4.4787228652274974e-05
-7.842796482952987e-06   -8.013377258092244e-06   -2.6645883414175904e-05
-7.842796482952987e-06   -8.013377258092244e-06   -2.6645883414175904e-05
-7.842796482952987e-06   -8.013377258092244e-06   -2.6645883414175904e-05
-7.842796482952987e-06   -8.013377258092244e-06   -2.6645883414175904e-05
5.23394202386623e-06   -2.2306742555673782e-06   -2.066781900398598e-06
5.23394202386623e-06   -2.2306742555673782e-06   -2.066781900398598e-06
5.23394202386623e-06   -2.2306742555673782e-06   -2.066781900398598e-06
5.23394202386623e-06   -2.2306742555673782e-06   -2.066781900398598e-06
-2.0398326027259704e-05   -1.4102075491313933e-05   -5.19100693937226e-05
-2.0398326027259704e-05   -1.4102075491313933e-05   -5.19100693937226e-05
-2.0398326027259704e-05   -1.4102075491313933e-05   -5.19100693937226e-05
-2.0398326027259704e-05   -1.4102075491313933e-05   -5.19100693937226e-05
-1.839929025864237e-05   -1.7407392691420713e-06   -9.150905805688789e-06
-1.839929025864237e-05   -1.7407392691420713e-06   -9.150905805688789e-06
-1.839929025864237e-05   -1.7407392691420713e-06   -9.150905805688789e-06
-1.839929025864237e-05   -1.7407392691420713e-06   -9.150905805688789e-06
6.396594457848341e-06   -1.3606318895334826e-05   -4.335803255745788e-05
6.396594457848341e-06   -1.3606318895334826e-05   -4.335803255745788e-05
6.396594457848341e-06   -1.3606318895334826e-05   -4.335803255745788e-05
6.396594457848341e-06   -1.3606318895334826e-05   -4.335803255745788e-05
-6.6022829053579015e-06   -7.834674494625049e-06   -2.5156223592539856e-05
-6.6022829053579015e-06   -7.834674494625049e-06   -2.5156223592539856e-05
-6.6022829053579015e-06   -7.834674494625049e-06   -2.5156223592539856e-05
-6.6022829053579015e-06   -7.834674494625049e-06   -2.5156223592539856e-05
-2.2901218108047305e-05   7.93704323512074e-07   -6.383037827529083e-06
-2.2901218108047305e-05   7.93704323512074e-07   -6.383037827529083e-06
-2.2901218108047305e-05   7.93704323512074e-07   -6.383037827529083e-06
-2.2901218108047305e-05   7.93704323512074e-07   -6.383037827529083e-06
-5.245561960414174e-05   -1.7277534505802904e-05   -6.648311695194226e-05
-5.245561960414174e-05   -1.7277534505802904e-05   -6.648311695194226e-05
-5.245561960414174e-05   -1.7277534505802904e-05   -6.648311695194226e-05
-5.245561960414174e-05   -1.7277534505802904e-05   -6.648311695194226e-05
-5.084947402182742e-05   1.4071861945312916e-06   -1.669025016505358e-05
-5.084947402182742e-05   1.4071861945312916e-06   -1.669025016505358e-05
-5.084947402182742e-05   1.4071861945312916e-06   -1.669025016505358e-05
-5.084947402182742e-05   1.4071861945312916e-06   -1.669025016505358e-05
-2.155689298857433e-05   -1.929554659637657e-05   -5.3089578879263785e-05
-2.155689298857433e-05   -1.929554659637657e-05   -5.3089578879263785e-05
-2.155689298857433e-05   -1.929554659637657e-05   -5.3089578879263785e-05
-2.155689298857433e-05   -1.929554659637657e-05   -5.3089578879263785e-05
-3.640983046957277e-05   -8.781997231594417e-06   -3.464281269646897e-05
-3.640983046957277e-05   -8.781997231594417e-06   -3.464281269646897e-05
-3.640983046957277e-05   -8.781997231594417e-06   -3.464281269646897e-05
-3.640983046957277e-05   -8.781997231594417e-06   -3.464281269646897e-05
-2.155689298857433e-05   1.407186194530858e-06   -4.26861049050882e-06
-2.155689298857433e-05   1.407186194530858e-06   -4.26861049050882e-06
-2.155689298857433e-05   1.407186194530858e-06   -4.26861049050882e-06
-2.155689298857433e-05   1.407186194530858e-06   -4.26861049050882e-06
-5.084947402182742e-05   -1.9295546596377004e-05   -6.551121855380882e-05
-5.084947402182742e-05   -1.9295546596377004e-05   -6.551121855380882e-05
-5.084947402182742e-05   -1.9295546596377004e-05   -6.551121855380882e-05
-5.084947402182742e-05   -1.9295546596377004e-05   -6.551121855380882e-05
-4.930991289402393e-05   1.971859094044952e-06   -1.4903425506142395e-05
-4.930991289402393e-05   1.971859094044952e-06   -1.4903425506142395e-05
-4.930991289402393e-05   1.971859094044952e-06   -1.4903425506142395e-05
-4.930991289402393e-05   1.971859094044952e-06   -1.4903425506142395e-05
-2.0398326027259677e-05   -1.9402115780060413e-05   -5.026501869295283e-05
-2.0398326027259677e-05   -1.9402115780060413e-05   -5.026501869295283e-05
-2.0398326027259677e-05   -1.9402115780060413e-05   -5.026501869295283e-05
-2.0398326027259677e-05   -1.9402115780060413e-05   -5.026501869295283e-05
-3.484373693777703e-05   -8.810784322967839e-06   -3.25441327163461e-05
-3.484373693777703e-05   -8.810784322967839e-06   -3.25441327163461e-05
-3.484373693777703e-05   -8.810784322967839e-06   -3.25441327163461e-05
-3.484373693777703e-05   -8.810784322967839e-06   -3.25441327163461e-05
-2.039832602725965e-05   1.971859094044952e-06   -2.0790405816789592e-06
-2.039832602725965e-05   1.971859094044952e-06   -2.0790405816789592e-06
-2.039832602725965e-05   1.971859094044952e-06   -2.0790405816789592e-06
-2.039832602725965e-05   1.971859094044952e-06   -2.0790405816789592e-06
-4.9309912894024004e-05   -1.9402115780060413e-05   -6.308940361741651e-05
-4.9309912894024004e-05   -1.9402115780060413e-05   -6.308940361741651e-05
-4.9309912894024004e-05   -1.9402115780060413e-05   -6.308940361741651e-05
-4.9309912894024004e-05   -1.9402115780060413e-05   -6.308940361741651e-05
-4.6785889273391666e-05   2.4493502706283282e-06   -1.3084503431487265e-05
-4.6785889273391666e-05   2.4493502706283282e-06   -1.3084503431487265e-05
-4.6785889273391666e-05   2.4493502706283282e-06   -1.3084503431487265e-05
-4.6785889273391666e-05   2.4493502706283282e-06   -1.3084503431487265e-05
-1.8399290258642423e-05   -1.770009460542706e-05   -4.8305834863769784e-05
-1.8399290258642423e-05   -1.770009460542706e-05   -4.8305834863769784e-05
-1.8399290258642423e-05   -1.770009460542706e-05   -4.8305834863769784e-05
-1.8399290258642423e-05   -1.770009460542706e-05   -4.8305834863769784e-05
-3.32980702663953e-05   -7.777384870087667e-06   -2.9428160692050978e-05
-3.32980702663953e-05   -7.777384870087667e-06   -2.9428160692050978e-05
-3.32980702663953e-05   -7.777384870087667e-06   -2.9428160692050978e-05
-3.32980702663953e-05   -7.777384870087667e-06   -2.9428160692050978e-05
-5.245561960414174e-05   7.497060934614098e-06   -1.1295524863459694e-05
-5.245561960414174e-05   7.497060934614098e-06   -1.1295524863459694e-05
-5.245561960414174e-05   7.497060934614098e-06   -1.1295524863459694e-05
-5.245561960414174e-05   7.497060934614098e-06   -1.1295524863459694e-05
-9.029298712847141e-05   0.0   -7.885604063144458e-05
-9.029298712847141e-05   0.0   -7.885604063144458e-05
-9.029298712847141e-05   0.0   -7.885604063144458e-05
-9.029298712847141e-05   0.0   -7.885604063144458e-05
-8.794359616897304e-05   9.487438281802641e-06   -8.655417948732255e-06
-8.794359616897304e-05   9.487438281802641e-06   -8.655417948732255e-06
-8.794359616897304e-05   9.487438281802641e-06   -8.655417948732255e-06
-8.794359616897304e-05   9.487438281802641e-06   -8.655417948732255e-06
-5.084947402182734e-05   0.0   -6.478649189156012e-05
-5.084947402182734e-05   0.0   -6.478649189156012e-05
-5.084947402182734e-05   0.0   -6.478649189156012e-05
-5.084947402182734e-05   0.0   -6.478649189156012e-05
-6.739498061406948e-05   2.901707391348221e-06   -3.895167200596555e-05
-6.739498061406948e-05   2.901707391348221e-06   -3.895167200596555e-05
-6.739498061406948e-05   2.901707391348221e-06   -3.895167200596555e-05
-6.739498061406948e-05   2.901707391348221e-06   -3.895167200596555e-05
-5.084947402182738e-05   9.487438281802641e-06   -2.9629549796504964e-06
-5.084947402182738e-05   9.487438281802641e-06   -2.9629549796504964e-06
-5.084947402182738e-05   9.487438281802641e-06   -2.9629549796504964e-06
-5.084947402182738e-05   9.487438281802641e-06   -2.9629549796504964e-06
-8.79435961689729e-05   0.0   -7.047895486064163e-05
-8.79435961689729e-05   0.0   -7.047895486064163e-05
-8.79435961689729e-05   0.0   -7.047895486064163e-05
-8.79435961689729e-05   0.0   -7.047895486064163e-05
-8.59556664624805e-05   9.93490509017432e-06   -3.417515258216002e-06
-8.59556664624805e-05   9.93490509017432e-06   -3.417515258216002e-06
-8.59556664624805e-05   9.93490509017432e-06   -3.417515258216002e-06
-8.59556664624805e-05   9.93490509017432e-06   -3.417515258216002e-06
-4.9309912894024004e-05   0.0   -5.8532828151538964e-05
-4.9309912894024004e-05   0.0   -5.8532828151538964e-05
-4.9309912894024004e-05   0.0   -5.8532828151538964e-05
-4.9309912894024004e-05   0.0   -5.8532828151538964e-05
-6.669703680364325e-05   4.594778569099074e-06   -3.231115544363199e-05
-6.669703680364325e-05   4.594778569099074e-06   -3.231115544363199e-05
-6.669703680364325e-05   4.594778569099074e-06   -3.231115544363199e-05
-6.669703680364325e-05   4.594778569099074e-06   -3.231115544363199e-05
-4.9309912894024004e-05   9.93490509017432e-06   2.543427795888807e-06
-4.9309912894024004e-05   9.93490509017432e-06   2.543427795888807e-06
-4.9309912894024004e-05   9.93490509017432e-06   2.543427795888807e-06
-4.9309912894024004e-05   9.93490509017432e-06   2.543427795888807e-06
-8.595566646248035e-05   0.0   -6.449377120564307e-05
-8.595566646248035e-05   0.0   -6.449377120564307e-05
-8.595566646248035e-05   0.0   -6.449377120564307e-05
-8.595566646248035e-05   0.0   -6.449377120564307e-05
-8.198887033697061e-05   1.070240865638089e-05   5.014829134322198e-06
-8.198887033697061e-05   1.070240865638089e-05   5.014829134322198e-06
-8.198887033697061e-05   1.070240865638089e-05   5.014829134322198e-06
-8.198887033697061e-05   1.070240865638089e-05   5.014829134322198e-06
-4.6785889273391754e-05   0.0   -4.72353607778143e-05
-4.6785889273391754e-05   0.0   -4.72353607778143e-05
-4.6785889273391754e-05   0.0   -4.72353607778143e-05
-4.6785889273391754e-05   0.0   -4.72353607778143e-05
-6.323317689428489e-05   5.666450429715319e-06   -2.3223085000821402e-05
-6.323317689428489e-05   5.666450429715319e-06   -2.3223085000821402e-05
-6.323317689428489e-05   5.666450429715319e-06   -2.3223085000821402e-05
-6.323317689428489e-05   5.666450429715319e-06   -2.3223085000821402e-05
6.68355383473804e-05   -1.1470736483214228e-05   3.9884788254859185e-05
6.68355383473804e-05   -1.1470736483214228e-05   3.9884788254859185e-05
6.68355383473804e-05   -1.1470736483214228e-05   3.9884788254859185e-05
6.68355383473804e-05   -1.1470736483214228e-05   3.9884788254859185e-05
3.467000212931276e-05   -8.844241742989381e-06   -1.2148541931118924e-05
3.467000212931276e-05   -8.844241742989381e-06   -1.2148541931118924e-05
3.467000212931276e-05   -8.844241742989381e-06   -1.2148541931118924e-05
3.467000212931276e-05   -8.844241742989381e-06   -1.2148541931118924e-05
3.37991269033047e-05   -1.1757702848429023e-05   3.521967892707728e-05
3.37991269033047e-05   -1.1757702848429023e-05   3.521967892707728e-05
3.37991269033047e-05   -1.1757702848429023e-05   3.521967892707728e-05
3.37991269033047e-05   -1.1757702848429023e-05   3.521967892707728e-05
6.612256385945646e-05   -9.722959052935794e-06   -1.9873562277138374e-05
6.612256385945646e-05   -9.722959052935794e-06   -1.9873562277138374e-05
6.612256385945646e-05   -9.722959052935794e-06   -1.9873562277138374e-05
6.612256385945646e-05   -9.722959052935794e-06   -1.9873562277138374e-05
4.82959269496308e-05   -9.886795006440637e-06   9.935800811340667e-06
4.82959269496308e-05   -9.886795006440637e-06   9.935800811340667e-06
4.82959269496308e-05   -9.886795006440637e-06   9.935800811340667e-06
4.82959269496308e-05   -9.886795006440637e-06   9.935800811340667e-06
6.612256385945646e-05   -1.1757702848429023e-05   3.39988326497813e-05
6.612256385945646e-05   -1.1757702848429023e-05   3.39988326497813e-05
6.612256385945646e-05   -1.1757702848429023e-05   3.39988326497813e-05
6.612256385945646e-05   -1.1757702848429023e-05   3.39988326497813e-05
3.37991269033047e-05   -9.722959052935794e-06   -1.8652715999842393e-05
3.37991269033047e-05   -9.722959052935794e-06   -1.8652715999842393e-05
3.37991269033047e-05   -9.722959052935794e-06   -1.8652715999842393e-05
3.37991269033047e-05   -9.722959052935794e-06   -1.8652715999842393e-05
3.301118499720347e-05   -1.1650926263789396e-05   3.161830123445358e-05
3.301118499720347e-05   -1.1650926263789396e-05   3.161830123445358e-05
3.301118499720347e-05   -1.1650926263789396e-05   3.161830123445358e-05
3.301118499720347e-05   -1.1650926263789396e-05   3.161830123445358e-05
6.529749956868847e-05   -9.803408744587724e-06   -2.3300733562875154e-05
6.529749956868847e-05   -9.803408744587724e-06   -2.3300733562875154e-05
6.529749956868847e-05   -9.803408744587724e-06   -2.3300733562875154e-05
6.529749956868847e-05   -9.803408744587724e-06   -2.3300733562875154e-05
4.826083527672451e-05   -1.0060204203311048e-05   5.247784198965177e-06
4.826083527672451e-05   -1.0060204203311048e-05   5.247784198965177e-06
4.826083527672451e-05   -1.0060204203311048e-05   5.247784198965177e-06
4.826083527672451e-05   -1.0060204203311048e-05   5.247784198965177e-06
6.529749956868859e-05   -1.1650926263789396e-05   3.0509790722933056e-05
6.529749956868859e-05   -1.1650926263789396e-05   3.0509790722933056e-05
6.529749956868859e-05   -1.1650926263789396e-05   3.0509790722933056e-05
6.529749956868859e-05   -1.1650926263789396e-05   3.0509790722933056e-05
3.301118499720347e-05   -9.803408744587724e-06   -2.21922230513546e-05
3.301118499720347e-05   -9.803408744587724e-06   -2.21922230513546e-05
3.301118499720347e-05   -9.803408744587724e-06   -2.21922230513546e-05
3.301118499720347e-05   -9.803408744587724e-06   -2.21922230513546e-05
3.204980596438825e-05   -1.1002023218456211e-05   2.5759165371889124e-05
3.204980596438825e-05   -1.1002023218456211e-05   2.5759165371889124e-05
3.204980596438825e-05   -1.1002023218456211e-05   2.5759165371889124e-05
3.204980596438825e-05   -1.1002023218456211e-05   2.5759165371889124e-05
6.400472459622631e-05   -9.597468120368501e-06   -2.8341765406693787e-05
6.400472459622631e-05   -9.597468120368501e-06   -2.8341765406693787e-05
6.400472459622631e-05   -9.597468120368501e-06   -2.8341765406693787e-05
6.400472459622631e-05   -9.597468120368501e-06   -2.8341765406693787e-05
4.661473594883814e-05   -9.56611581782573e-06   6.227376240940021e-07
4.661473594883814e-05   -9.56611581782573e-06   6.227376240940021e-07
4.661473594883814e-05   -9.56611581782573e-06   6.227376240940021e-07
4.661473594883814e-05   -9.56611581782573e-06   6.227376240940021e-07
3.467000212931276e-05   -1.1499465032083905e-05   2.9794798680495742e-05
3.467000212931276e-05   -1.1499465032083905e-05   2.9794798680495742e-05
3.467000212931276e-05   -1.1499465032083905e-05   2.9794798680495742e-05
3.467000212931276e-05   -1.1499465032083905e-05   2.9794798680495742e-05
7.366240015467377e-06   -5.462694486062323e-06   -1.2089409181633304e-05
7.366240015467377e-06   -5.462694486062323e-06   -1.2089409181633304e-05
7.366240015467377e-06   -5.462694486062323e-06   -1.2089409181633304e-05
7.366240015467377e-06   -5.462694486062323e-06   -1.2089409181633304e-05
5.987991559773629e-06   -1.1439846031072263e-05   3.400649055196369e-05
5.987991559773629e-06   -1.1439846031072263e-05   3.400649055196369e-05
5.987991559773629e-06   -1.1439846031072263e-05   3.400649055196369e-05
5.987991559773629e-06   -1.1439846031072263e-05   3.400649055196369e-05
3.37991269033047e-05   -5.793541742495946e-06   -1.5733184260400076e-05
3.37991269033047e-05   -5.793541742495946e-06   -1.5733184260400076e-05
3.37991269033047e-05   -5.793541742495946e-06   -1.5733184260400076e-05
3.37991269033047e-05   -5.793541742495946e-06   -1.5733184260400076e-05
2.0427065809903154e-05   -8.23232609802136e-06   8.01685484191748e-06
2.0427065809903154e-05   -8.23232609802136e-06   8.01685484191748e-06
2.0427065809903154e-05   -8.23232609802136e-06   8.01685484191748e-06
2.0427065809903154e-05   -8.23232609802136e-06   8.01685484191748e-06
3.379912690330475e-05   -1.143984603107183e-05   3.06187079788182e-05
3.379912690330475e-05   -1.143984603107183e-05   3.06187079788182e-05
3.379912690330475e-05   -1.143984603107183e-05   3.06187079788182e-05
3.379912690330475e-05   -1.143984603107183e-05   3.06187079788182e-05
5.987991559773629e-06   -5.793541742495946e-06   -1.2345401687254617e-05
5.987991559773629e-06   -5.793541742495946e-06   -1.2345401687254617e-05
5.987991559773629e-06   -5.793541742495946e-06   -1.2345401687254617e-05
5.987991559773629e-06   -5.793541742495946e-06   -1.2345401687254617e-05
5.0049401075912155e-06   -1.1285443547187895e-05   3.405496845703326e-05
5.0049401075912155e-06   -1.1285443547187895e-05   3.405496845703326e-05
5.0049401075912155e-06   -1.1285443547187895e-05   3.405496845703326e-05
5.0049401075912155e-06   -1.1285443547187895e-05   3.405496845703326e-05
3.301118499720347e-05   -5.940100129008235e-06   -1.5829312409895642e-05
3.301118499720347e-05   -5.940100129008235e-06   -1.5829312409895642e-05
3.301118499720347e-05   -5.940100129008235e-06   -1.5829312409895642e-05
3.301118499720347e-05   -5.940100129008235e-06   -1.5829312409895642e-05
1.9245123989821553e-05   -8.063234624988702e-06   8.38800329999682e-06
1.9245123989821553e-05   -8.063234624988702e-06   8.38800329999682e-06
1.9245123989821553e-05   -8.063234624988702e-06   8.38800329999682e-06
1.9245123989821553e-05   -8.063234624988702e-06   8.38800329999682e-06
3.3011184997203537e-05   -1.1285443547187895e-05   3.084776240612464e-05
3.3011184997203537e-05   -1.1285443547187895e-05   3.084776240612464e-05
3.3011184997203537e-05   -1.1285443547187895e-05   3.084776240612464e-05
3.3011184997203537e-05   -1.1285443547187895e-05   3.084776240612464e-05
5.0049401075912155e-06   -5.940100129008235e-06   -1.2622106358987266e-05
5.0049401075912155e-06   -5.940100129008235e-06   -1.2622106358987266e-05
5.0049401075912155e-06   -5.940100129008235e-06   -1.2622106358987266e-05
5.0049401075912155e-06   -5.940100129008235e-06   -1.2622106358987266e-05
3.911475538174224e-06   -1.0977518792378103e-05   3.5159708804637915e-05
3.911475538174224e-06   -1.0977518792378103e-05   3.5159708804637915e-05
3.911475538174224e-06   -1.0977518792378103e-05   3.5159708804637915e-05
3.911475538174224e-06   -1.0977518792378103e-05   3.5159708804637915e-05
3.204980596438822e-05   -5.805164816072034e-06   -1.484092095816879e-05
3.204980596438822e-05   -5.805164816072034e-06   -1.484092095816879e-05
3.204980596438822e-05   -5.805164816072034e-06   -1.484092095816879e-05
3.204980596438822e-05   -5.805164816072034e-06   -1.484092095816879e-05
1.852271441257702e-05   -7.708704017933728e-06   8.846355149300068e-06
1.852271441257702e-05   -7.708704017933728e-06   8.846355149300068e-06
1.852271441257702e-05   -7.708704017933728e-06   8.846355149300068e-06
1.852271441257702e-05   -7.708704017933728e-06   8.846355149300068e-06
7.366240015467391e-06   -1.3863734447369918e-05   3.064795233591604e-05
7.366240015467391e-06   -1.3863734447369918e-05   3.064795233591604e-05
7.366240015467391e-06   -1.3863734447369918e-05   3.064795233591604e-05
7.366240015467391e-06   -1.3863734447369918e-05   3.064795233591604e-05
-1.8863803735735232e-05   -2.2879659400095245e-06   -6.123326145005556e-06
-1.8863803735735232e-05   -2.2879659400095245e-06   -6.123326145005556e-06
-1.8863803735735232e-05   -2.2879659400095245e-06   -6.123326145005556e-06
-1.8863803735735232e-05   -2.2879659400095245e-06   -6.123326145005556e-06
-2.100767411160391e-05   -1.4169441200209687e-05   3.938219746157912e-05
-2.100767411160391e-05   -1.4169441200209687e-05   3.938219746157912e-05
-2.100767411160391e-05   -1.4169441200209687e-05   3.938219746157912e-05
-2.100767411160391e-05   -1.4169441200209687e-05   3.938219746157912e-05
5.987991559773642e-06   -2.4156777771533813e-06   -1.2662836711217383e-05
5.987991559773642e-06   -2.4156777771533813e-06   -1.2662836711217383e-05
5.987991559773642e-06   -2.4156777771533813e-06   -1.2662836711217383e-05
5.987991559773642e-06   -2.4156777771533813e-06   -1.2662836711217383e-05
-6.394940824316057e-06   -7.9207619517155e-06   1.1278434433669522e-05
-6.394940824316057e-06   -7.9207619517155e-06   1.1278434433669522e-05
-6.394940824316057e-06   -7.9207619517155e-06   1.1278434433669522e-05
-6.394940824316057e-06   -7.9207619517155e-06   1.1278434433669522e-05
5.987991559773629e-06   -1.4169441200209687e-05   3.2329939407745164e-05
5.987991559773629e-06   -1.4169441200209687e-05   3.2329939407745164e-05
5.987991559773629e-06   -1.4169441200209687e-05   3.2329939407745164e-05
5.987991559773629e-06   -1.4169441200209687e-05   3.2329939407745164e-05
-2.1007674111603856e-05   -2.4156777771529477e-06   -5.6105786573833714e-06
-2.1007674111603856e-05   -2.4156777771529477e-06   -5.6105786573833714e-06
-2.1007674111603856e-05   -2.4156777771529477e-06   -5.6105786573833714e-06
-2.1007674111603856e-05   -2.4156777771529477e-06   -5.6105786573833714e-06
-2.231836957493973e-05   -1.4102075491313933e-05   4.088160654958225e-05
-2.231836957493973e-05   -1.4102075491313933e-05   4.088160654958225e-05
-2.231836957493973e-05   -1.4102075491313933e-05   4.088160654958225e-05
-2.231836957493973e-05   -1.4102075491313933e-05   4.088160654958225e-05
5.0049401075912155e-06   -2.572251846853866e-06   -1.157513710797864e-05
5.0049401075912155e-06   -2.572251846853866e-06   -1.157513710797864e-05
5.0049401075912155e-06   -2.572251846853866e-06   -1.157513710797864e-05
5.0049401075912155e-06   -2.572251846853866e-06   -1.157513710797864e-05
-7.846510008181966e-06   -7.894588503678558e-06   1.3037348412404617e-05
-7.846510008181966e-06   -7.894588503678558e-06   1.3037348412404617e-05
-7.846510008181966e-06   -7.894588503678558e-06   1.3037348412404617e-05
-7.846510008181966e-06   -7.894588503678558e-06   1.3037348412404617e-05
5.0049401075912155e-06   -1.4102075491313933e-05   3.3963712362905995e-05
5.0049401075912155e-06   -1.4102075491313933e-05   3.3963712362905995e-05
5.0049401075912155e-06   -1.4102075491313933e-05   3.3963712362905995e-05
5.0049401075912155e-06   -1.4102075491313933e-05   3.3963712362905995e-05
-2.2318369574939688e-05   -2.572251846853866e-06   -4.65724292130279e-06
-2.2318369574939688e-05   -2.572251846853866e-06   -4.65724292130279e-06
-2.2318369574939688e-05   -2.572251846853866e-06   -4.65724292130279e-06
-2.2318369574939688e-05   -2.572251846853866e-06   -4.65724292130279e-06
-2.3859516857605668e-05   -1.3606318895334826e-05   4.2822468783977434e-05
-2.3859516857605668e-05   -1.3606318895334826e-05   4.2822468783977434e-05
-2.3859516857605668e-05   -1.3606318895334826e-05   4.2822468783977434e-05
-2.3859516857605668e-05   -1.3606318895334826e-05   4.2822468783977434e-05
3.911475538174238e-06   -2.5562850754444998e-06   -1.0092538834256847e-05
3.911475538174238e-06   -2.5562850754444998e-06   -1.0092538834256847e-05
3.911475538174238e-06   -2.5562850754444998e-06   -1.0092538834256847e-05
3.911475538174238e-06   -2.5562850754444998e-06   -1.0092538834256847e-05
-9.028705495659433e-06   -7.579074840619992e-06   1.4488103414571503e-05
-9.028705495659433e-06   -7.579074840619992e-06   1.4488103414571503e-05
-9.028705495659433e-06   -7.579074840619992e-06   1.4488103414571503e-05
-9.028705495659433e-06   -7.579074840619992e-06   1.4488103414571503e-05
-1.8863803735735246e-05   -1.7277534505802904e-05   3.713135183977382e-05
-1.8863803735735246e-05   -1.7277534505802904e-05   3.713135183977382e-05
-1.8863803735735246e-05   -1.7277534505802904e-05   3.713135183977382e-05
-1.8863803735735246e-05   -1.7277534505802904e-05   3.713135183977382e-05
-4.8722503765007884e-05   2.486446213334839e-06   -7.74759777531081e-07
-4.8722503765007884e-05   2.486446213334839e-06   -7.74759777531081e-07
-4.8722503765007884e-05   2.486446213334839e-06   -7.74759777531081e-07
-4.8722503765007884e-05   2.486446213334839e-06   -7.74759777531081e-07
-5.130006784543989e-05   -1.9295546596377004e-05   5.247051014562192e-05
-5.130006784543989e-05   -1.9295546596377004e-05   5.247051014562192e-05
-5.130006784543989e-05   -1.9295546596377004e-05   5.247051014562192e-05
-5.130006784543989e-05   -1.9295546596377004e-05   5.247051014562192e-05
-2.1007674111603856e-05   2.3403571944415405e-06   -1.0998355018595433e-05
-2.1007674111603856e-05   2.3403571944415405e-06   -1.0998355018595433e-05
-2.1007674111603856e-05   2.3403571944415405e-06   -1.0998355018595433e-05
-2.1007674111603856e-05   2.3403571944415405e-06   -1.0998355018595433e-05
-3.4485509963802346e-05   -7.160647037286576e-06   1.7165307274105278e-05
-3.4485509963802346e-05   -7.160647037286576e-06   1.7165307274105278e-05
-3.4485509963802346e-05   -7.160647037286576e-06   1.7165307274105278e-05
-3.4485509963802346e-05   -7.160647037286576e-06   1.7165307274105278e-05
-2.100767411160391e-05   -1.9295546596377004e-05   3.948896787113118e-05
-2.100767411160391e-05   -1.9295546596377004e-05   3.948896787113118e-05
-2.100767411160391e-05   -1.9295546596377004e-05   3.948896787113118e-05
-2.100767411160391e-05   -1.9295546596377004e-05   3.948896787113118e-05
-5.130006784543989e-05   2.3403571944415405e-06   1.983187255895358e-06
-5.130006784543989e-05   2.3403571944415405e-06   1.983187255895358e-06
-5.130006784543989e-05   2.3403571944415405e-06   1.983187255895358e-06
-5.130006784543989e-05   2.3403571944415405e-06   1.983187255895358e-06
-5.2870861278796804e-05   -1.9402115780060413e-05   5.540958102039583e-05
-5.2870861278796804e-05   -1.9402115780060413e-05   5.540958102039583e-05
-5.2870861278796804e-05   -1.9402115780060413e-05   5.540958102039583e-05
-5.2870861278796804e-05   -1.9402115780060413e-05   5.540958102039583e-05
-2.2318369574939688e-05   2.0694238366796708e-06   -8.394162256076496e-06
-2.2318369574939688e-05   2.0694238366796708e-06   -8.394162256076496e-06
-2.2318369574939688e-05   2.0694238366796708e-06   -8.394162256076496e-06
-2.2318369574939688e-05   2.0694238366796708e-06   -8.394162256076496e-06
-3.6159104608433803e-05   -8.248773249293784e-06   2.0864647717997614e-05
-3.6159104608433803e-05   -8.248773249293784e-06   2.0864647717997614e-05
-3.6159104608433803e-05   -8.248773249293784e-06   2.0864647717997614e-05
-3.6159104608433803e-05   -8.248773249293784e-06   2.0864647717997614e-05
-2.2318369574939674e-05   -1.9402115780060413e-05   4.252665725035178e-05
-2.2318369574939674e-05   -1.9402115780060413e-05   4.252665725035178e-05
-2.2318369574939674e-05   -1.9402115780060413e-05   4.252665725035178e-05
-2.2318369574939674e-05   -1.9402115780060413e-05   4.252665725035178e-05
-5.287086127879671e-05   2.0694238366796708e-06   4.488761513967527e-06
-5.287086127879671e-05   2.0694238366796708e-06   4.488761513967527e-06
-5.287086127879671e-05   2.0694238366796708e-06   4.488761513967527e-06
-5.287086127879671e-05   2.0694238366796708e-06   4.488761513967527e-06
-5.45636205111852e-05   -1.770009460542706e-05   5.667154355958612e-05
-5.45636205111852e-05   -1.770009460542706e-05   5.667154355958612e-05
-5.45636205111852e-05   -1.770009460542706e-05   5.667154355958612e-05
-5.45636205111852e-05   -1.770009460542706e-05   5.667154355958612e-05
-2.3859516857605587e-05   1.7624542382479146e-06   -6.179491835918248e-06
-2.3859516857605587e-05   1.7624542382479146e-06   -6.179491835918248e-06
-2.3859516857605587e-05   1.7624542382479146e-06   -6.179491835918248e-06
-2.3859516857605587e-05   1.7624542382479146e-06   -6.179491835918248e-06
-3.7884463733124504e-05   -8.309620240431678e-06   2.3238664310488343e-05
-3.7884463733124504e-05   -8.309620240431678e-06   2.3238664310488343e-05
-3.7884463733124504e-05   -8.309620240431678e-06   2.3238664310488343e-05
-3.7884463733124504e-05   -8.309620240431678e-06   2.3238664310488343e-05
-4.872250376500772e-05   0.0   4.1115053152522086e-05
-4.872250376500772e-05   0.0   4.1115053152522086e-05
-4.872250376500772e-05   0.0   4.1115053152522086e-05
-4.872250376500772e-05   0.0   4.1115053152522086e-05
-8.578031096220725e-05   1.1251042025115909e-05   -1.389733362774058e-05
-8.578031096220725e-05   1.1251042025115909e-05   -1.389733362774058e-05
-8.578031096220725e-05   1.1251042025115909e-05   -1.389733362774058e-05
-8.578031096220725e-05   1.1251042025115909e-05   -1.389733362774058e-05
-8.933258425708899e-05   0.0   5.971245865296886e-05
-8.933258425708899e-05   0.0   5.971245865296886e-05
-8.933258425708899e-05   0.0   5.971245865296886e-05
-8.933258425708899e-05   0.0   5.971245865296886e-05
-5.130006784543978e-05   1.0862036408498116e-05   -1.019229054487867e-05
-5.130006784543978e-05   1.0862036408498116e-05   -1.019229054487867e-05
-5.130006784543978e-05   1.0862036408498116e-05   -1.019229054487867e-05
-5.130006784543978e-05   1.0862036408498116e-05   -1.019229054487867e-05
-6.585129404996847e-05   6.6749213584833475e-06   1.6572022159344607e-05
-6.585129404996847e-05   6.6749213584833475e-06   1.6572022159344607e-05
-6.585129404996847e-05   6.6749213584833475e-06   1.6572022159344607e-05
-6.585129404996847e-05   6.6749213584833475e-06   1.6572022159344607e-05
-5.130006784543974e-05   0.0   5.319523680786999e-05
-5.130006784543974e-05   0.0   5.319523680786999e-05
-5.130006784543974e-05   0.0   5.319523680786999e-05
-5.130006784543974e-05   0.0   5.319523680786999e-05
-8.933258425708912e-05   1.0862036408498116e-05   -3.6750686997798817e-06
-8.933258425708912e-05   1.0862036408498116e-05   -3.6750686997798817e-06
-8.933258425708912e-05   1.0862036408498116e-05   -3.6750686997798817e-06
-8.933258425708912e-05   1.0862036408498116e-05   -3.6750686997798817e-06
-9.11213206462603e-05   0.0   6.631690893105116e-05
-9.11213206462603e-05   0.0   6.631690893105116e-05
-9.11213206462603e-05   0.0   6.631690893105116e-05
-9.11213206462603e-05   0.0   6.631690893105116e-05
-5.287086127879671e-05   1.0584587407963097e-05   -3.7846091261661222e-06
-5.287086127879671e-05   1.0584587407963097e-05   -3.7846091261661222e-06
-5.287086127879671e-05   1.0584587407963097e-05   -3.7846091261661222e-06
-5.287086127879671e-05   1.0584587407963097e-05   -3.7846091261661222e-06
-6.928097651799484e-05   5.574399747497634e-06   2.6571695535444154e-05
-6.928097651799484e-05   5.574399747497634e-06   2.6571695535444154e-05
-6.928097651799484e-05   5.574399747497634e-06   2.6571695535444154e-05
-6.928097651799484e-05   5.574399747497634e-06   2.6571695535444154e-05
-5.287086127879671e-05   0.0   5.996615648627343e-05
-5.287086127879671e-05   0.0   5.996615648627343e-05
-5.287086127879671e-05   0.0   5.996615648627343e-05
-5.287086127879671e-05   0.0   5.996615648627343e-05
-9.112132064626063e-05   1.0584587407963097e-05   2.5661433186118226e-06
-9.112132064626063e-05   1.0584587407963097e-05   2.5661433186118226e-06
-9.112132064626063e-05   1.0584587407963097e-05   2.5661433186118226e-06
-9.112132064626063e-05   1.0584587407963097e-05   2.5661433186118226e-06
-9.311203285561432e-05   0.0   7.512322361059756e-05
-9.311203285561432e-05   0.0   7.512322361059756e-05
-9.311203285561432e-05   0.0   7.512322361059756e-05
-9.311203285561432e-05   0.0   7.512322361059756e-05
-5.45636205111852e-05   8.819231732372194e-06   5.584330663792347e-06
-5.45636205111852e-05   8.819231732372194e-06   5.584330663792347e-06
-5.45636205111852e-05   8.819231732372194e-06   5.584330663792347e-06
-5.45636205111852e-05   8.819231732372194e-06   5.584330663792347e-06
-6.985384609355439e-05   3.91533101012833e-06   3.40103804010877e-05
-6.985384609355439e-05   3.91533101012833e-06   3.40103804010877e-05
-6.985384609355439e-05   3.91533101012833e-06   3.40103804010877e-05
-6.985384609355439e-05   3.91533101012833e-06   3.40103804010877e-05
5.8807776095736885e-05   -8.844241742989815e-06   4.173141184967777e-05
5.8807776095736885e-05   -8.844241742989815e-06   4.173141184967777e-05
5.8807776095736885e-05   -8.844241742989815e-06   4.173141184967777e-05
5.8807776095736885e-05   -8.844241742989815e-06   4.173141184967777e-05
2.9737897101563164e-05   -6.674564033697702e-06   -5.416579848370332e-06
2.9737897101563164e-05   -6.674564033697702e-06   -5.416579848370332e-06
2.9737897101563164e-05   -6.674564033697702e-06   -5.416579848370332e-06
2.9737897101563164e-05   -6.674564033697702e-06   -5.416579848370332e-06
2.895442365616017e-05   -9.722959052935794e-06   3.642186465912926e-05
2.895442365616017e-05   -9.722959052935794e-06   3.642186465912926e-05
2.895442365616017e-05   -9.722959052935794e-06   3.642186465912926e-05
2.895442365616017e-05   -9.722959052935794e-06   3.642186465912926e-05
5.7409564444115795e-05   -7.563718908476513e-06   -1.2298914074138683e-05
5.7409564444115795e-05   -7.563718908476513e-06   -1.2298914074138683e-05
5.7409564444115795e-05   -7.563718908476513e-06   -1.2298914074138683e-05
5.7409564444115795e-05   -7.563718908476513e-06   -1.2298914074138683e-05
4.178074383119474e-05   -7.873900710214567e-06   1.3935229361772543e-05
4.178074383119474e-05   -7.873900710214567e-06   1.3935229361772543e-05
4.178074383119474e-05   -7.873900710214567e-06   1.3935229361772543e-05
4.178074383119474e-05   -7.873900710214567e-06   1.3935229361772543e-05
5.740956444411569e-05   -9.722959052935794e-06   3.5126320572453906e-05
5.740956444411569e-05   -9.722959052935794e-06   3.5126320572453906e-05
5.740956444411569e-05   -9.722959052935794e-06   3.5126320572453906e-05
5.740956444411569e-05   -9.722959052935794e-06   3.5126320572453906e-05
2.8954423656160223e-05   -7.563718908476513e-06   -1.1003369987463074e-05
2.8954423656160223e-05   -7.563718908476513e-06   -1.1003369987463074e-05
2.8954423656160223e-05   -7.563718908476513e-06   -1.1003369987463074e-05
2.8954423656160223e-05   -7.563718908476513e-06   -1.1003369987463074e-05
2.794489604401648e-05   -9.803408744588158e-06   3.268959667267939e-05
2.794489604401648e-05   -9.803408744588158e-06   3.268959667267939e-05
2.794489604401648e-05   -9.803408744588158e-06   3.268959667267939e-05
2.794489604401648e-05   -9.803408744588158e-06   3.268959667267939e-05
5.599519254975391e-05   -7.69561901831084e-06   -1.5325571339316427e-05
5.599519254975391e-05   -7.69561901831084e-06   -1.5325571339316427e-05
5.599519254975391e-05   -7.69561901831084e-06   -1.5325571339316427e-05
5.599519254975391e-05   -7.69561901831084e-06   -1.5325571339316427e-05
4.138975228479399e-05   -8.21745948392967e-06   9.329933381654578e-06
4.138975228479399e-05   -8.21745948392967e-06   9.329933381654578e-06
4.138975228479399e-05   -8.21745948392967e-06   9.329933381654578e-06
4.138975228479399e-05   -8.21745948392967e-06   9.329933381654578e-06
5.599519254975391e-05   -9.803408744587724e-06   3.142492283691274e-05
5.599519254975391e-05   -9.803408744587724e-06   3.142492283691274e-05
5.599519254975391e-05   -9.803408744587724e-06   3.142492283691274e-05
5.599519254975391e-05   -9.803408744587724e-06   3.142492283691274e-05
2.794489604401648e-05   -7.69561901831084e-06   -1.4060897503549762e-05
2.794489604401648e-05   -7.69561901831084e-06   -1.4060897503549762e-05
2.794489604401648e-05   -7.69561901831084e-06   -1.4060897503549762e-05
2.794489604401648e-05   -7.69561901831084e-06   -1.4060897503549762e-05
2.688562359494181e-05   -9.597468120368068e-06   2.7152373879530322e-05
2.688562359494181e-05   -9.597468120368068e-06   2.7152373879530322e-05
2.688562359494181e-05   -9.597468120368068e-06   2.7152373879530322e-05
2.688562359494181e-05   -9.597468120368068e-06   2.7152373879530322e-05
5.422461945309822e-05   -7.645769558539423e-06   -1.958363835449417e-05
5.422461945309822e-05   -7.645769558539423e-06   -1.958363835449417e-05
5.422461945309822e-05   -7.645769558539423e-06   -1.958363835449417e-05
5.422461945309822e-05   -7.645769558539423e-06   -1.958363835449417e-05
3.954718922447118e-05   -8.001954652860771e-06   5.092456416477608e-06
3.954718922447118e-05   -8.001954652860771e-06   5.092456416477608e-06
3.954718922447118e-05   -8.001954652860771e-06   5.092456416477608e-06
3.954718922447118e-05   -8.001954652860771e-06   5.092456416477608e-06
2.9737897101563205e-05   -5.462694486062323e-06   3.947028889712497e-05
2.9737897101563205e-05   -5.462694486062323e-06   3.947028889712497e-05
2.9737897101563205e-05   -5.462694486062323e-06   3.947028889712497e-05
2.9737897101563205e-05   -5.462694486062323e-06   3.947028889712497e-05
3.2490479357924972e-06   -2.3535985435437987e-06   -2.812335480315009e-06
3.2490479357924972e-06   -2.3535985435437987e-06   -2.812335480315009e-06
3.2490479357924972e-06   -2.3535985435437987e-06   -2.812335480315009e-06
3.2490479357924972e-06   -2.3535985435437987e-06   -2.812335480315009e-06
2.4706242471130214e-06   -5.793541742495946e-06   4.1118838523841435e-05
2.4706242471130214e-06   -5.793541742495946e-06   4.1118838523841435e-05
2.4706242471130214e-06   -5.793541742495946e-06   4.1118838523841435e-05
2.4706242471130214e-06   -5.793541742495946e-06   4.1118838523841435e-05
2.8954423656160223e-05   -2.8311382003795398e-06   -4.798269283173671e-06
2.8954423656160223e-05   -2.8311382003795398e-06   -4.798269283173671e-06
2.8954423656160223e-05   -2.8311382003795398e-06   -4.798269283173671e-06
2.8954423656160223e-05   -2.8311382003795398e-06   -4.798269283173671e-06
1.5948643024855168e-05   -3.822055510118751e-06   1.7472582154844606e-05
1.5948643024855168e-05   -3.822055510118751e-06   1.7472582154844606e-05
1.5948643024855168e-05   -3.822055510118751e-06   1.7472582154844606e-05
1.5948643024855168e-05   -3.822055510118751e-06   1.7472582154844606e-05
2.8954423656160196e-05   -5.793541742495946e-06   3.9341396398571765e-05
2.8954423656160196e-05   -5.793541742495946e-06   3.9341396398571765e-05
2.8954423656160196e-05   -5.793541742495946e-06   3.9341396398571765e-05
2.8954423656160196e-05   -5.793541742495946e-06   3.9341396398571765e-05
2.4706242471130214e-06   -2.8311382003795398e-06   -3.0208271579040824e-06
2.4706242471130214e-06   -2.8311382003795398e-06   -3.0208271579040824e-06
2.4706242471130214e-06   -2.8311382003795398e-06   -3.0208271579040824e-06
2.4706242471130214e-06   -2.8311382003795398e-06   -3.0208271579040824e-06
1.477084600119634e-06   -5.940100129007801e-06   4.0730221714948374e-05
1.477084600119634e-06   -5.940100129007801e-06   4.0730221714948374e-05
1.477084600119634e-06   -5.940100129007801e-06   4.0730221714948374e-05
1.477084600119634e-06   -5.940100129007801e-06   4.0730221714948374e-05
2.794489604401648e-05   -3.143909460990614e-06   -5.0605117590230665e-06
2.794489604401648e-05   -3.143909460990614e-06   -5.0605117590230665e-06
2.794489604401648e-05   -3.143909460990614e-06   -5.0605117590230665e-06
2.794489604401648e-05   -3.143909460990614e-06   -5.0605117590230665e-06
1.4961289839472933e-05   -4.002621259140398e-06   1.7094058994106633e-05
1.4961289839472933e-05   -4.002621259140398e-06   1.7094058994106633e-05
1.4961289839472933e-05   -4.002621259140398e-06   1.7094058994106633e-05
1.4961289839472933e-05   -4.002621259140398e-06   1.7094058994106633e-05
2.7944896044016426e-05   -5.940100129007801e-06   3.905250731413832e-05
2.7944896044016426e-05   -5.940100129007801e-06   3.905250731413832e-05
2.7944896044016426e-05   -5.940100129007801e-06   3.905250731413832e-05
2.7944896044016426e-05   -5.940100129007801e-06   3.905250731413832e-05
1.477084600119634e-06   -3.143909460990614e-06   -3.382797358213001e-06
1.477084600119634e-06   -3.143909460990614e-06   -3.382797358213001e-06
1.477084600119634e-06   -3.143909460990614e-06   -3.382797358213001e-06
1.477084600119634e-06   -3.143909460990614e-06   -3.382797358213001e-06
3.7955058771725495e-07   -5.805164816072468e-06   4.1327165965817335e-05
3.7955058771725495e-07   -5.805164816072468e-06   4.1327165965817335e-05
3.7955058771725495e-07   -5.805164816072468e-06   4.1327165965817335e-05
3.7955058771725495e-07   -5.805164816072468e-06   4.1327165965817335e-05
2.688562359494178e-05   -3.2773636550482294e-06   -4.36630307617141e-06
2.688562359494178e-05   -3.2773636550482294e-06   -4.36630307617141e-06
2.688562359494178e-05   -3.2773636550482294e-06   -4.36630307617141e-06
2.688562359494178e-05   -3.2773636550482294e-06   -4.36630307617141e-06
1.415756469245414e-05   -3.964142975549333e-06   1.7259196020275958e-05
1.415756469245414e-05   -3.964142975549333e-06   1.7259196020275958e-05
1.415756469245414e-05   -3.964142975549333e-06   1.7259196020275958e-05
1.415756469245414e-05   -3.964142975549333e-06   1.7259196020275958e-05
3.2490479357924972e-06   -2.2879659400095245e-06   4.03563683948479e-05
3.2490479357924972e-06   -2.2879659400095245e-06   4.03563683948479e-05
3.2490479357924972e-06   -2.2879659400095245e-06   4.03563683948479e-05
3.2490479357924972e-06   -2.2879659400095245e-06   4.03563683948479e-05
-2.241394496084787e-05   2.0949943215892684e-06   2.1448972407325968e-07
-2.241394496084787e-05   2.0949943215892684e-06   2.1448972407325968e-07
-2.241394496084787e-05   2.0949943215892684e-06   2.1448972407325968e-07
-2.241394496084787e-05   2.0949943215892684e-06   2.1448972407325968e-07
-2.329106310815106e-05   -2.4156777771529477e-06   4.328882756706744e-05
-2.329106310815106e-05   -2.4156777771529477e-06   4.328882756706744e-05
-2.329106310815106e-05   -2.4156777771529477e-06   4.328882756706744e-05
-2.329106310815106e-05   -2.4156777771529477e-06   4.328882756706744e-05
2.4706242471130214e-06   1.7300290014949163e-06   -2.1347420922281524e-06
2.4706242471130214e-06   1.7300290014949163e-06   -2.1347420922281524e-06
2.4706242471130214e-06   1.7300290014949163e-06   -2.1347420922281524e-06
2.4706242471130214e-06   1.7300290014949163e-06   -2.1347420922281524e-06
-9.978042322514523e-06   -2.7453836355748745e-08   1.9667525226528353e-05
-9.978042322514523e-06   -2.7453836355748745e-08   1.9667525226528353e-05
-9.978042322514523e-06   -2.7453836355748745e-08   1.9667525226528353e-05
-9.978042322514523e-06   -2.7453836355748745e-08   1.9667525226528353e-05
2.4706242471130214e-06   -2.4156777771529477e-06   4.0801403499878723e-05
2.4706242471130214e-06   -2.4156777771529477e-06   4.0801403499878723e-05
2.4706242471130214e-06   -2.4156777771529477e-06   4.0801403499878723e-05
2.4706242471130214e-06   -2.4156777771529477e-06   4.0801403499878723e-05
-2.329106310815106e-05   1.73002900149535e-06   3.5268197496056593e-07
-2.329106310815106e-05   1.73002900149535e-06   3.5268197496056593e-07
-2.329106310815106e-05   1.73002900149535e-06   3.5268197496056593e-07
-2.329106310815106e-05   1.73002900149535e-06   3.5268197496056593e-07
-2.4466636793351373e-05   -2.572251846853866e-06   4.415471753067466e-05
-2.4466636793351373e-05   -2.572251846853866e-06   4.415471753067466e-05
-2.4466636793351373e-05   -2.572251846853866e-06   4.415471753067466e-05
-2.4466636793351373e-05   -2.572251846853866e-06   4.415471753067466e-05
1.477084600119634e-06   1.3902924276753756e-06   -1.46234468982793e-06
1.477084600119634e-06   1.3902924276753756e-06   -1.46234468982793e-06
1.477084600119634e-06   1.3902924276753756e-06   -1.46234468982793e-06
1.477084600119634e-06   1.3902924276753756e-06   -1.46234468982793e-06
-1.0843149279294801e-05   -1.2969476918551354e-07   1.998337076064609e-05
-1.0843149279294801e-05   -1.2969476918551354e-07   1.998337076064609e-05
-1.0843149279294801e-05   -1.2969476918551354e-07   1.998337076064609e-05
-1.0843149279294801e-05   -1.2969476918551354e-07   1.998337076064609e-05
1.477084600119634e-06   -2.572251846853866e-06   4.177719096595703e-05
1.477084600119634e-06   -2.572251846853866e-06   4.177719096595703e-05
1.477084600119634e-06   -2.572251846853866e-06   4.177719096595703e-05
1.477084600119634e-06   -2.572251846853866e-06   4.177719096595703e-05
-2.4466636793351332e-05   1.3902924276753756e-06   9.151818748897016e-07
-2.4466636793351332e-05   1.3902924276753756e-06   9.151818748897016e-07
-2.4466636793351332e-05   1.3902924276753756e-06   9.151818748897016e-07
-2.4466636793351332e-05   1.3902924276753756e-06   9.151818748897016e-07
-2.5719117247862775e-05   -2.556285075444066e-06   4.519333590573618e-05
-2.5719117247862775e-05   -2.556285075444066e-06   4.519333590573618e-05
-2.5719117247862775e-05   -2.556285075444066e-06   4.519333590573618e-05
-2.5719117247862775e-05   -2.556285075444066e-06   4.519333590573618e-05
3.7955058771725495e-07   1.1457152608723709e-06   -5.256440220204452e-07
3.7955058771725495e-07   1.1457152608723709e-06   -5.256440220204452e-07
3.7955058771725495e-07   1.1457152608723709e-06   -5.256440220204452e-07
3.7955058771725495e-07   1.1457152608723709e-06   -5.256440220204452e-07
-1.1946274801148244e-05   -2.0287413000832227e-07   2.0826551927284305e-05
-1.1946274801148244e-05   -2.0287413000832227e-07   2.0826551927284305e-05
-1.1946274801148244e-05   -2.0287413000832227e-07   2.0826551927284305e-05
-1.1946274801148244e-05   -2.0287413000832227e-07   2.0826551927284305e-05
-2.2413944960847788e-05   2.486446213334839e-06   3.647632248779875e-05
-2.2413944960847788e-05   2.486446213334839e-06   3.647632248779875e-05
-2.2413944960847788e-05   2.486446213334839e-06   3.647632248779875e-05
-2.2413944960847788e-05   2.486446213334839e-06   3.647632248779875e-05
-4.7559136110445285e-05   6.820569676458613e-06   -2.8318553503227026e-06
-4.7559136110445285e-05   6.820569676458613e-06   -2.8318553503227026e-06
-4.7559136110445285e-05   6.820569676458613e-06   -2.8318553503227026e-06
-4.7559136110445285e-05   6.820569676458613e-06   -2.8318553503227026e-06
-4.883587367847969e-05   2.3403571944415405e-06   4.036982741587622e-05
-4.883587367847969e-05   2.3403571944415405e-06   4.036982741587622e-05
-4.883587367847969e-05   2.3403571944415405e-06   4.036982741587622e-05
-4.883587367847969e-05   2.3403571944415405e-06   4.036982741587622e-05
-2.3291063108150993e-05   6.454984211143062e-06   -4.673633078025943e-06
-2.3291063108150993e-05   6.454984211143062e-06   -4.673633078025943e-06
-2.3291063108150993e-05   6.454984211143062e-06   -4.673633078025943e-06
-2.3291063108150993e-05   6.454984211143062e-06   -4.673633078025943e-06
-3.5245330345160175e-05   4.6036031036648245e-06   1.63609743148097e-05
-3.5245330345160175e-05   4.6036031036648245e-06   1.63609743148097e-05
-3.5245330345160175e-05   4.6036031036648245e-06   1.63609743148097e-05
-3.5245330345160175e-05   4.6036031036648245e-06   1.63609743148097e-05
-2.3291063108151034e-05   2.340357194441107e-06   3.790105120585522e-05
-2.3291063108151034e-05   2.340357194441107e-06   3.790105120585522e-05
-2.3291063108151034e-05   2.340357194441107e-06   3.790105120585522e-05
-2.3291063108151034e-05   2.340357194441107e-06   3.790105120585522e-05
-4.883587367847961e-05   6.4549842111434955e-06   -2.204856868004727e-06
-4.883587367847961e-05   6.4549842111434955e-06   -2.204856868004727e-06
-4.883587367847961e-05   6.4549842111434955e-06   -2.204856868004727e-06
-4.883587367847961e-05   6.4549842111434955e-06   -2.204856868004727e-06
-5.0400770743743085e-05   2.0694238366796708e-06   4.284610385341093e-05
-5.0400770743743085e-05   2.0694238366796708e-06   4.284610385341093e-05
-5.0400770743743085e-05   2.0694238366796708e-06   4.284610385341093e-05
-5.0400770743743085e-05   2.0694238366796708e-06   4.284610385341093e-05
-2.4466636793351332e-05   6.116599932529457e-06   -2.8057583880851714e-06
-2.4466636793351332e-05   6.116599932529457e-06   -2.8057583880851714e-06
-2.4466636793351332e-05   6.116599932529457e-06   -2.8057583880851714e-06
-2.4466636793351332e-05   6.116599932529457e-06   -2.8057583880851714e-06
-3.6195802824191134e-05   4.519895216979243e-06   1.7700874492644365e-05
-3.6195802824191134e-05   4.519895216979243e-06   1.7700874492644365e-05
-3.6195802824191134e-05   4.519895216979243e-06   1.7700874492644365e-05
-3.6195802824191134e-05   4.519895216979243e-06   1.7700874492644365e-05
-2.446663679335129e-05   2.0694238366796708e-06   4.0417798195900925e-05
-2.446663679335129e-05   2.0694238366796708e-06   4.0417798195900925e-05
-2.446663679335129e-05   2.0694238366796708e-06   4.0417798195900925e-05
-2.446663679335129e-05   2.0694238366796708e-06   4.0417798195900925e-05
-5.0400770743743085e-05   6.116599932529457e-06   -3.774527305752239e-07
-5.0400770743743085e-05   6.116599932529457e-06   -3.774527305752239e-07
-5.0400770743743085e-05   6.116599932529457e-06   -3.774527305752239e-07
-5.0400770743743085e-05   6.116599932529457e-06   -3.774527305752239e-07
-5.2056282282144224e-05   1.7624542382479146e-06   4.481572740832511e-05
-5.2056282282144224e-05   1.7624542382479146e-06   4.481572740832511e-05
-5.2056282282144224e-05   1.7624542382479146e-06   4.481572740832511e-05
-5.2056282282144224e-05   1.7624542382479146e-06   4.481572740832511e-05
-2.571911724786268e-05   5.661395565223059e-06   -1.4189124449954203e-06
-2.571911724786268e-05   5.661395565223059e-06   -1.4189124449954203e-06
-2.571911724786268e-05   5.661395565223059e-06   -1.4189124449954203e-06
-2.571911724786268e-05   5.661395565223059e-06   -1.4189124449954203e-06
-3.778073420267113e-05   4.245531894828038e-06   1.9533300681923496e-05
-3.778073420267113e-05   4.245531894828038e-06   1.9533300681923496e-05
-3.778073420267113e-05   4.245531894828038e-06   1.9533300681923496e-05
-3.778073420267113e-05   4.245531894828038e-06   1.9533300681923496e-05
-4.7559136110445285e-05   1.1251042025116342e-05   1.920359750039397e-05
-4.7559136110445285e-05   1.1251042025116342e-05   1.920359750039397e-05
-4.7559136110445285e-05   1.1251042025116342e-05   1.920359750039397e-05
-4.7559136110445285e-05   1.1251042025116342e-05   1.920359750039397e-05
-7.164571026554477e-05   1.109247012681669e-05   -2.103583589708525e-05
-7.164571026554477e-05   1.109247012681669e-05   -2.103583589708525e-05
-7.164571026554477e-05   1.109247012681669e-05   -2.103583589708525e-05
-7.164571026554477e-05   1.109247012681669e-05   -2.103583589708525e-05
-7.393801664949204e-05   1.086203640849855e-05   2.84611111120213e-05
-7.393801664949204e-05   1.086203640849855e-05   2.84611111120213e-05
-7.393801664949204e-05   1.086203640849855e-05   2.84611111120213e-05
-7.393801664949204e-05   1.086203640849855e-05   2.84611111120213e-05
-4.883587367847961e-05   1.1306638903363798e-05   -1.3642555336585436e-05
-4.883587367847961e-05   1.1306638903363798e-05   -1.3642555336585436e-05
-4.883587367847961e-05   1.1306638903363798e-05   -1.3642555336585436e-05
-4.883587367847961e-05   1.1306638903363798e-05   -1.3642555336585436e-05
-5.805968102611366e-05   1.1301980132455251e-05   1.7332521720165228e-06
-5.805968102611366e-05   1.1301980132455251e-05   1.7332521720165228e-06
-5.805968102611366e-05   1.1301980132455251e-05   1.7332521720165228e-06
-5.805968102611366e-05   1.1301980132455251e-05   1.7332521720165228e-06
-4.8835873678479554e-05   1.086203640849855e-05   2.8194349615102325e-05
-4.8835873678479554e-05   1.086203640849855e-05   2.8194349615102325e-05
-4.8835873678479554e-05   1.086203640849855e-05   2.8194349615102325e-05
-4.8835873678479554e-05   1.086203640849855e-05   2.8194349615102325e-05
-7.393801664949204e-05   1.1306638903363798e-05   -1.3375793839666243e-05
-7.393801664949204e-05   1.1306638903363798e-05   -1.3375793839666243e-05
-7.393801664949204e-05   1.1306638903363798e-05   -1.3375793839666243e-05
-7.393801664949204e-05   1.1306638903363798e-05   -1.3375793839666243e-05
-7.618593732109015e-05   1.0584587407963097e-05   3.4957362113990876e-05
-7.618593732109015e-05   1.0584587407963097e-05   3.4957362113990876e-05
-7.618593732109015e-05   1.0584587407963097e-05   3.4957362113990876e-05
-7.618593732109015e-05   1.0584587407963097e-05   3.4957362113990876e-05
-5.0400770743743004e-05   1.1225635575819529e-05   -8.402544415634934e-06
-5.0400770743743004e-05   1.1225635575819529e-05   -8.402544415634934e-06
-5.0400770743743004e-05   1.1225635575819529e-05   -8.402544415634934e-06
-5.0400770743743004e-05   1.1225635575819529e-05   -8.402544415634934e-06
-6.069015924983683e-05   1.1301527185226482e-05   8.700901462211188e-06
-6.069015924983683e-05   1.1301527185226482e-05   8.700901462211188e-06
-6.069015924983683e-05   1.1301527185226482e-05   8.700901462211188e-06
-6.069015924983683e-05   1.1301527185226482e-05   8.700901462211188e-06
-5.0400770743743004e-05   1.0584587407963097e-05   3.457273321327728e-05
-5.0400770743743004e-05   1.0584587407963097e-05   3.457273321327728e-05
-5.0400770743743004e-05   1.0584587407963097e-05   3.457273321327728e-05
-5.0400770743743004e-05   1.0584587407963097e-05   3.457273321327728e-05
-7.618593732109015e-05   1.1225635575819962e-05   -8.017915514921172e-06
-7.618593732109015e-05   1.1225635575819962e-05   -8.017915514921172e-06
-7.618593732109015e-05   1.1225635575819962e-05   -8.017915514921172e-06
-7.618593732109015e-05   1.1225635575819962e-05   -8.017915514921172e-06
-7.883726069307144e-05   8.819231732372194e-06   4.581168603294593e-05
-7.883726069307144e-05   8.819231732372194e-06   4.581168603294593e-05
-7.883726069307144e-05   8.819231732372194e-06   4.581168603294593e-05
-7.883726069307144e-05   8.819231732372194e-06   4.581168603294593e-05
-5.205628228214406e-05   1.0335340784231335e-05   2.6705658361808344e-07
-5.205628228214406e-05   1.0335340784231335e-05   2.6705658361808344e-07
-5.205628228214406e-05   1.0335340784231335e-05   2.6705658361808344e-07
-5.205628228214406e-05   1.0335340784231335e-05   2.6705658361808344e-07
-6.16303912332389e-05   1.0765968905536352e-05   1.5965527962660624e-05
-6.16303912332389e-05   1.0765968905536352e-05   1.5965527962660624e-05
-6.16303912332389e-05   1.0765968905536352e-05   1.5965527962660624e-05
-6.16303912332389e-05   1.0765968905536352e-05   1.5965527962660624e-05
4.7718871348004525e-05   -6.6745640336981354e-06   3.68024126041382e-05
4.7718871348004525e-05   -6.6745640336981354e-06   3.68024126041382e-05
4.7718871348004525e-05   -6.6745640336981354e-06   3.68024126041382e-05
4.7718871348004525e-05   -6.6745640336981354e-06   3.68024126041382e-05
2.3621549765354087e-05   -4.8968307271852855e-06   -2.293150049704649e-06
2.3621549765354087e-05   -4.8968307271852855e-06   -2.293150049704649e-06
2.3621549765354087e-05   -4.8968307271852855e-06   -2.293150049704649e-06
2.3621549765354087e-05   -4.8968307271852855e-06   -2.293150049704649e-06
2.271898371937987e-05   -7.563718908476513e-06   3.2000286593460896e-05
2.271898371937987e-05   -7.563718908476513e-06   3.2000286593460896e-05
2.271898371937987e-05   -7.563718908476513e-06   3.2000286593460896e-05
2.271898371937987e-05   -7.563718908476513e-06   3.2000286593460896e-05
4.60591288712818e-05   -5.680695510079745e-06   -8.02976936541344e-06
4.60591288712818e-05   -5.680695510079745e-06   -8.02976936541344e-06
4.60591288712818e-05   -5.680695510079745e-06   -8.02976936541344e-06
4.60591288712818e-05   -5.680695510079745e-06   -8.02976936541344e-06
3.342594059204744e-05   -6.140393864304851e-06   1.3301363445845766e-05
3.342594059204744e-05   -6.140393864304851e-06   1.3301363445845766e-05
3.342594059204744e-05   -6.140393864304851e-06   1.3301363445845766e-05
3.342594059204744e-05   -6.140393864304851e-06   1.3301363445845766e-05
4.6059128871281716e-05   -7.563718908476513e-06   3.087047255442301e-05
4.6059128871281716e-05   -7.563718908476513e-06   3.087047255442301e-05
4.6059128871281716e-05   -7.563718908476513e-06   3.087047255442301e-05
4.6059128871281716e-05   -7.563718908476513e-06   3.087047255442301e-05
2.2718983719379943e-05   -5.680695510079745e-06   -6.899955326375613e-06
2.2718983719379943e-05   -5.680695510079745e-06   -6.899955326375613e-06
2.2718983719379943e-05   -5.680695510079745e-06   -6.899955326375613e-06
2.2718983719379943e-05   -5.680695510079745e-06   -6.899955326375613e-06
2.171595642070141e-05   -7.69561901831084e-06   2.867611550054147e-05
2.171595642070141e-05   -7.69561901831084e-06   2.867611550054147e-05
2.171595642070141e-05   -7.69561901831084e-06   2.867611550054147e-05
2.171595642070141e-05   -7.69561901831084e-06   2.867611550054147e-05
4.455596232095881e-05   -5.837999662428647e-06   -1.0505132613416896e-05
4.455596232095881e-05   -5.837999662428647e-06   -1.0505132613416896e-05
4.455596232095881e-05   -5.837999662428647e-06   -1.0505132613416896e-05
4.455596232095881e-05   -5.837999662428647e-06   -1.0505132613416896e-05
3.280248682782857e-05   -6.444255902286755e-06   9.447746952381559e-06
3.280248682782857e-05   -6.444255902286755e-06   9.447746952381559e-06
3.280248682782857e-05   -6.444255902286755e-06   9.447746952381559e-06
3.280248682782857e-05   -6.444255902286755e-06   9.447746952381559e-06
4.455596232095866e-05   -7.69561901831084e-06   2.75615438870122e-05
4.455596232095866e-05   -7.69561901831084e-06   2.75615438870122e-05
4.455596232095866e-05   -7.69561901831084e-06   2.75615438870122e-05
4.455596232095866e-05   -7.69561901831084e-06   2.75615438870122e-05
2.1715956420701444e-05   -5.837999662428647e-06   -9.390560999887566e-06
2.1715956420701444e-05   -5.837999662428647e-06   -9.390560999887566e-06
2.1715956420701444e-05   -5.837999662428647e-06   -9.390560999887566e-06
2.1715956420701444e-05   -5.837999662428647e-06   -9.390560999887566e-06
2.0751147357415873e-05   -7.645769558539423e-06   2.4039154894483095e-05
2.0751147357415873e-05   -7.645769558539423e-06   2.4039154894483095e-05
2.0751147357415873e-05   -7.645769558539423e-06   2.4039154894483095e-05
2.0751147357415873e-05   -7.645769558539423e-06   2.4039154894483095e-05
4.285329615108313e-05   -5.900713913882961e-06   -1.3844793148422633e-05
4.285329615108313e-05   -5.900713913882961e-06   -1.3844793148422633e-05
4.285329615108313e-05   -5.900713913882961e-06   -1.3844793148422633e-05
4.285329615108313e-05   -5.900713913882961e-06   -1.3844793148422633e-05
3.11159863151011e-05   -6.334994770847927e-06   5.977958425726641e-06
3.11159863151011e-05   -6.334994770847927e-06   5.977958425726641e-06
3.11159863151011e-05   -6.334994770847927e-06   5.977958425726641e-06
3.11159863151011e-05   -6.334994770847927e-06   5.977958425726641e-06
2.3621549765354087e-05   -2.353598543543365e-06   3.860783939059042e-05
2.3621549765354087e-05   -2.353598543543365e-06   3.860783939059042e-05
2.3621549765354087e-05   -2.353598543543365e-06   3.860783939059042e-05
2.3621549765354087e-05   -2.353598543543365e-06   3.860783939059042e-05
1.0023862111732055e-06   -9.369554096272728e-07   1.7592193473053418e-06
1.0023862111732055e-06   -9.369554096272728e-07   1.7592193473053418e-06
1.0023862111732055e-06   -9.369554096272728e-07   1.7592193473053418e-06
1.0023862111732055e-06   -9.369554096272728e-07   1.7592193473053418e-06
1.358389474465316e-07   -2.8311382003799734e-06   3.9008530366854265e-05
1.358389474465316e-07   -2.8311382003799734e-06   3.9008530366854265e-05
1.358389474465316e-07   -2.8311382003799734e-06   3.9008530366854265e-05
1.358389474465316e-07   -2.8311382003799734e-06   3.9008530366854265e-05
2.2718983719379943e-05   -1.4925664185401824e-06   5.668126778613744e-07
2.2718983719379943e-05   -1.4925664185401824e-06   5.668126778613744e-07
2.2718983719379943e-05   -1.4925664185401824e-06   5.668126778613744e-07
2.2718983719379943e-05   -1.4925664185401824e-06   5.668126778613744e-07
1.1725601585279134e-05   -1.8332015275157251e-06   1.9093497300081677e-05
1.1725601585279134e-05   -1.8332015275157251e-06   1.9093497300081677e-05
1.1725601585279134e-05   -1.8332015275157251e-06   1.9093497300081677e-05
1.1725601585279134e-05   -1.8332015275157251e-06   1.9093497300081677e-05
2.2718983719379923e-05   -2.8311382003795398e-06   3.8205387297750434e-05
2.2718983719379923e-05   -2.8311382003795398e-06   3.8205387297750434e-05
2.2718983719379923e-05   -2.8311382003795398e-06   3.8205387297750434e-05
2.2718983719379923e-05   -2.8311382003795398e-06   3.8205387297750434e-05
1.358389474465316e-07   -1.4925664185401824e-06   1.3699557469652734e-06
1.358389474465316e-07   -1.4925664185401824e-06   1.3699557469652734e-06
1.358389474465316e-07   -1.4925664185401824e-06   1.3699557469652734e-06
1.358389474465316e-07   -1.4925664185401824e-06   1.3699557469652734e-06
-7.648899507984067e-07   -3.143909460990614e-06   3.841983336542467e-05
-7.648899507984067e-07   -3.143909460990614e-06   3.841983336542467e-05
-7.648899507984067e-07   -3.143909460990614e-06   3.841983336542467e-05
-7.648899507984067e-07   -3.143909460990614e-06   3.841983336542467e-05
2.1715956420701444e-05   -1.905022593729367e-06   2.0842395923505056e-07
2.1715956420701444e-05   -1.905022593729367e-06   2.0842395923505056e-07
2.1715956420701444e-05   -1.905022593729367e-06   2.0842395923505056e-07
2.1715956420701444e-05   -1.905022593729367e-06   2.0842395923505056e-07
1.0730576578198933e-05   -2.124179035146133e-06   1.864888422825614e-05
1.0730576578198933e-05   -2.124179035146133e-06   1.864888422825614e-05
1.0730576578198933e-05   -2.124179035146133e-06   1.864888422825614e-05
1.0730576578198933e-05   -2.124179035146133e-06   1.864888422825614e-05
2.171595642070141e-05   -3.143909460990614e-06   3.7676501245067964e-05
2.171595642070141e-05   -3.143909460990614e-06   3.7676501245067964e-05
2.171595642070141e-05   -3.143909460990614e-06   3.7676501245067964e-05
2.171595642070141e-05   -3.143909460990614e-06   3.7676501245067964e-05
-7.648899507984067e-07   -1.9050225937298007e-06   9.517560795916334e-07
-7.648899507984067e-07   -1.9050225937298007e-06   9.517560795916334e-07
-7.648899507984067e-07   -1.9050225937298007e-06   9.517560795916334e-07
-7.648899507984067e-07   -1.9050225937298007e-06   9.517560795916334e-07
-1.7026149144733899e-06   -3.2773636550477957e-06   3.8713856369881157e-05
-1.7026149144733899e-06   -3.2773636550477957e-06   3.8713856369881157e-05
-1.7026149144733899e-06   -3.2773636550477957e-06   3.8713856369881157e-05
-1.7026149144733899e-06   -3.2773636550477957e-06   3.8713856369881157e-05
2.0751147357415927e-05   -2.2300547647602018e-06   6.625339158931474e-07
2.0751147357415927e-05   -2.2300547647602018e-06   6.625339158931474e-07
2.0751147357415927e-05   -2.2300547647602018e-06   6.625339158931474e-07
2.0751147357415927e-05   -2.2300547647602018e-06   6.625339158931474e-07
9.982881348037395e-06   -2.2800922732388665e-06   1.8639666436612014e-05
9.982881348037395e-06   -2.2800922732388665e-06   1.8639666436612014e-05
9.982881348037395e-06   -2.2800922732388665e-06   1.8639666436612014e-05
9.982881348037395e-06   -2.2800922732388665e-06   1.8639666436612014e-05
1.002386211173192e-06   2.0949943215888348e-06   3.985487431836898e-05
1.002386211173192e-06   2.0949943215888348e-06   3.985487431836898e-05
1.002386211173192e-06   2.0949943215888348e-06   3.985487431836898e-05
1.002386211173192e-06   2.0949943215888348e-06   3.985487431836898e-05
-2.0956877707484797e-05   3.0386831262685723e-06   3.822314403413574e-06
-2.0956877707484797e-05   3.0386831262685723e-06   3.822314403413574e-06
-2.0956877707484797e-05   3.0386831262685723e-06   3.822314403413574e-06
-2.0956877707484797e-05   3.0386831262685723e-06   3.822314403413574e-06
-2.1862350127085733e-05   1.7300290014949163e-06   4.040259897660739e-05
-2.1862350127085733e-05   1.7300290014949163e-06   4.040259897660739e-05
-2.1862350127085733e-05   1.7300290014949163e-06   4.040259897660739e-05
-2.1862350127085733e-05   1.7300290014949163e-06   4.040259897660739e-05
1.358389474465316e-07   2.5766682416241554e-06   3.2309669749762545e-06
1.358389474465316e-07   2.5766682416241554e-06   3.2309669749762545e-06
1.358389474465316e-07   2.5766682416241554e-06   3.2309669749762545e-06
1.358389474465316e-07   2.5766682416241554e-06   3.2309669749762545e-06
-1.043636392360339e-05   2.3866765590935257e-06   2.0965300102910906e-05
-1.043636392360339e-05   2.3866765590935257e-06   2.0965300102910906e-05
-1.043636392360339e-05   2.3866765590935257e-06   2.0965300102910906e-05
-1.043636392360339e-05   2.3866765590935257e-06   2.0965300102910906e-05
1.358389474465316e-07   1.7300290014949163e-06   3.989461543252998e-05
1.358389474465316e-07   1.7300290014949163e-06   3.989461543252998e-05
1.358389474465316e-07   1.7300290014949163e-06   3.989461543252998e-05
1.358389474465316e-07   1.7300290014949163e-06   3.989461543252998e-05
-2.1862350127085733e-05   2.5766682416237217e-06   3.7389505190535324e-06
-2.1862350127085733e-05   2.5766682416237217e-06   3.7389505190535324e-06
-2.1862350127085733e-05   2.5766682416237217e-06   3.7389505190535324e-06
-2.1862350127085733e-05   2.5766682416237217e-06   3.7389505190535324e-06
-2.2818418049596104e-05   1.3902924276753756e-06   4.0782950640103587e-05
-2.2818418049596104e-05   1.3902924276753756e-06   4.0782950640103587e-05
-2.2818418049596104e-05   1.3902924276753756e-06   4.0782950640103587e-05
-2.2818418049596104e-05   1.3902924276753756e-06   4.0782950640103587e-05
-7.648899507984203e-07   2.128066771498599e-06   3.5844058691467476e-06
-7.648899507984203e-07   2.128066771498599e-06   3.5844058691467476e-06
-7.648899507984203e-07   2.128066771498599e-06   3.5844058691467476e-06
-7.648899507984203e-07   2.128066771498599e-06   3.5844058691467476e-06
-1.1277449576353888e-05   2.1231067911155893e-06   2.110831456663537e-05
-1.1277449576353888e-05   2.1231067911155893e-06   2.110831456663537e-05
-1.1277449576353888e-05   2.1231067911155893e-06   2.110831456663537e-05
-1.1277449576353888e-05   2.1231067911155893e-06   2.110831456663537e-05
-7.648899507984067e-07   1.3902924276753756e-06   4.034028603380974e-05
-7.648899507984067e-07   1.3902924276753756e-06   4.034028603380974e-05
-7.648899507984067e-07   1.3902924276753756e-06   4.034028603380974e-05
-7.648899507984067e-07   1.3902924276753756e-06   4.034028603380974e-05
-2.281841804959616e-05   2.128066771498599e-06   4.027070475440785e-06
-2.281841804959616e-05   2.128066771498599e-06   4.027070475440785e-06
-2.281841804959616e-05   2.128066771498599e-06   4.027070475440785e-06
-2.281841804959616e-05   2.128066771498599e-06   4.027070475440785e-06
-2.3804949962368145e-05   1.1457152608723709e-06   4.138767248239436e-05
-2.3804949962368145e-05   1.1457152608723709e-06   4.138767248239436e-05
-2.3804949962368145e-05   1.1457152608723709e-06   4.138767248239436e-05
-2.3804949962368145e-05   1.1457152608723709e-06   4.138767248239436e-05
-1.7026149144733899e-06   1.7287781858338e-06   4.2006096475929e-06
-1.7026149144733899e-06   1.7287781858338e-06   4.2006096475929e-06
-1.7026149144733899e-06   1.7287781858338e-06   4.2006096475929e-06
-1.7026149144733899e-06   1.7287781858338e-06   4.2006096475929e-06
-1.2187651654914502e-05   1.8706361579047363e-06   2.1590556098419688e-05
-1.2187651654914502e-05   1.8706361579047363e-06   2.1590556098419688e-05
-1.2187651654914502e-05   1.8706361579047363e-06   2.1590556098419688e-05
-1.2187651654914502e-05   1.8706361579047363e-06   2.1590556098419688e-05
-2.095687770748488e-05   6.820569676459047e-06   3.477426844890677e-05
-2.095687770748488e-05   6.820569676459047e-06   3.477426844890677e-05
-2.095687770748488e-05   6.820569676459047e-06   3.477426844890677e-05
-2.095687770748488e-05   6.820569676459047e-06   3.477426844890677e-05
-4.222781103274418e-05   6.906973106304837e-06   -6.254450352844235e-07
-4.222781103274418e-05   6.906973106304837e-06   -6.254450352844235e-07
-4.222781103274418e-05   6.906973106304837e-06   -6.254450352844235e-07
-4.222781103274418e-05   6.906973106304837e-06   -6.254450352844235e-07
-4.327896139125277e-05   6.454984211143062e-06   3.5382931808250386e-05
-4.327896139125277e-05   6.454984211143062e-06   3.5382931808250386e-05
-4.327896139125277e-05   6.454984211143062e-06   3.5382931808250386e-05
-4.327896139125277e-05   6.454984211143062e-06   3.5382931808250386e-05
-2.1862350127085787e-05   6.466064018858467e-06   -3.1806818332396963e-07
-2.1862350127085787e-05   6.466064018858467e-06   -3.1806818332396963e-07
-2.1862350127085787e-05   6.466064018858467e-06   -3.1806818332396963e-07
-2.1862350127085787e-05   6.466064018858467e-06   -3.1806818332396963e-07
-3.193815028523076e-05   6.6456373428707555e-06   1.636718808584387e-05
-3.193815028523076e-05   6.6456373428707555e-06   1.636718808584387e-05
-3.193815028523076e-05   6.6456373428707555e-06   1.636718808584387e-05
-3.193815028523076e-05   6.6456373428707555e-06   1.636718808584387e-05
-2.1862350127085787e-05   6.454984211143062e-06   3.53762839236211e-05
-2.1862350127085787e-05   6.454984211143062e-06   3.53762839236211e-05
-2.1862350127085787e-05   6.454984211143062e-06   3.53762839236211e-05
-2.1862350127085787e-05   6.454984211143062e-06   3.53762839236211e-05
-4.3278961391252714e-05   6.466064018858901e-06   -3.114202986948455e-07
-4.3278961391252714e-05   6.466064018858901e-06   -3.114202986948455e-07
-4.3278961391252714e-05   6.466064018858901e-06   -3.114202986948455e-07
-4.3278961391252714e-05   6.466064018858901e-06   -3.114202986948455e-07
-4.444380732067054e-05   6.1165999325298905e-06   3.702766308109201e-05
-4.444380732067054e-05   6.1165999325298905e-06   3.702766308109201e-05
-4.444380732067054e-05   6.1165999325298905e-06   3.702766308109201e-05
-4.444380732067054e-05   6.1165999325298905e-06   3.702766308109201e-05
-2.281841804959616e-05   6.0593544391343915e-06   1.0196949253381922e-06
-2.281841804959616e-05   6.0593544391343915e-06   1.0196949253381922e-06
-2.281841804959616e-05   6.0593544391343915e-06   1.0196949253381922e-06
-2.281841804959616e-05   6.0593544391343915e-06   1.0196949253381922e-06
-3.269762631215377e-05   6.396795781605201e-06   1.7282577224118413e-05
-3.269762631215377e-05   6.396795781605201e-06   1.7282577224118413e-05
-3.269762631215377e-05   6.396795781605201e-06   1.7282577224118413e-05
-3.269762631215377e-05   6.396795781605201e-06   1.7282577224118413e-05
-2.281841804959616e-05   6.116599932529457e-06   3.7062010377128876e-05
-2.281841804959616e-05   6.116599932529457e-06   3.7062010377128876e-05
-2.281841804959616e-05   6.116599932529457e-06   3.7062010377128876e-05
-2.281841804959616e-05   6.116599932529457e-06   3.7062010377128876e-05
-4.444380732067046e-05   6.059354439134825e-06   9.85347629301218e-07
-4.444380732067046e-05   6.059354439134825e-06   9.85347629301218e-07
-4.444380732067046e-05   6.059354439134825e-06   9.85347629301218e-07
-4.444380732067046e-05   6.059354439134825e-06   9.85347629301218e-07
-4.5553860095625054e-05   5.661395565223059e-06   3.8213835807271966e-05
-4.5553860095625054e-05   5.661395565223059e-06   3.8213835807271966e-05
-4.5553860095625054e-05   5.661395565223059e-06   3.8213835807271966e-05
-4.5553860095625054e-05   5.661395565223059e-06   3.8213835807271966e-05
-2.38049499623682e-05   5.562448814627145e-06   2.0250203022014433e-06
-2.38049499623682e-05   5.562448814627145e-06   2.0250203022014433e-06
-2.38049499623682e-05   5.562448814627145e-06   2.0250203022014433e-06
-2.38049499623682e-05   5.562448814627145e-06   2.0250203022014433e-06
-3.390692927947878e-05   6.073269515297335e-06   1.8555160076985048e-05
-3.390692927947878e-05   6.073269515297335e-06   1.8555160076985048e-05
-3.390692927947878e-05   6.073269515297335e-06   1.8555160076985048e-05
-3.390692927947878e-05   6.073269515297335e-06   1.8555160076985048e-05
-4.2227811032744125e-05   1.109247012681669e-05   1.6717273099031964e-05
-4.2227811032744125e-05   1.109247012681669e-05   1.6717273099031964e-05
-4.2227811032744125e-05   1.109247012681669e-05   1.6717273099031964e-05
-4.2227811032744125e-05   1.109247012681669e-05   1.6717273099031964e-05
-6.24452642635003e-05   9.947025241875164e-06   -1.7665749216526968e-05
-6.24452642635003e-05   9.947025241875164e-06   -1.7665749216526968e-05
-6.24452642635003e-05   9.947025241875164e-06   -1.7665749216526968e-05
-6.24452642635003e-05   9.947025241875164e-06   -1.7665749216526968e-05
-6.410065552705838e-05   1.1306638903363798e-05   2.3193268748758185e-05
-6.410065552705838e-05   1.1306638903363798e-05   2.3193268748758185e-05
-6.410065552705838e-05   1.1306638903363798e-05   2.3193268748758185e-05
-6.410065552705838e-05   1.1306638903363798e-05   2.3193268748758185e-05
-4.327896139125277e-05   1.0053364585178338e-05   -1.0757590220006785e-05
-4.327896139125277e-05   1.0053364585178338e-05   -1.0757590220006785e-05
-4.327896139125277e-05   1.0053364585178338e-05   -1.0757590220006785e-05
-4.327896139125277e-05   1.0053364585178338e-05   -1.0757590220006785e-05
-5.098312233400276e-05   1.0537576040143236e-05   1.7921511449304735e-06
-5.098312233400276e-05   1.0537576040143236e-05   1.7921511449304735e-06
-5.098312233400276e-05   1.0537576040143236e-05   1.7921511449304735e-06
-5.098312233400276e-05   1.0537576040143236e-05   1.7921511449304735e-06
-4.327896139125269e-05   1.1306638903363798e-05   2.3945233339669244e-05
-4.327896139125269e-05   1.1306638903363798e-05   2.3945233339669244e-05
-4.327896139125269e-05   1.1306638903363798e-05   2.3945233339669244e-05
-4.327896139125269e-05   1.1306638903363798e-05   2.3945233339669244e-05
-6.410065552705862e-05   1.0053364585178338e-05   -1.1509554810918278e-05
-6.410065552705862e-05   1.0053364585178338e-05   -1.1509554810918278e-05
-6.410065552705862e-05   1.0053364585178338e-05   -1.1509554810918278e-05
-6.410065552705862e-05   1.0053364585178338e-05   -1.1509554810918278e-05
-6.5716820069358e-05   1.1225635575819529e-05   2.8232959639698215e-05
-6.5716820069358e-05   1.1225635575819529e-05   2.8232959639698215e-05
-6.5716820069358e-05   1.1225635575819529e-05   2.8232959639698215e-05
-6.5716820069358e-05   1.1225635575819529e-05   2.8232959639698215e-05
-4.444380732067054e-05   9.942949315263315e-06   -6.452449851780608e-06
-4.444380732067054e-05   9.942949315263315e-06   -6.452449851780608e-06
-4.444380732067054e-05   9.942949315263315e-06   -6.452449851780608e-06
-4.444380732067054e-05   9.942949315263315e-06   -6.452449851780608e-06
-5.301865628352461e-05   1.0730257915224795e-05   7.366579926333162e-06
-5.301865628352461e-05   1.0730257915224795e-05   7.366579926333162e-06
-5.301865628352461e-05   1.0730257915224795e-05   7.366579926333162e-06
-5.301865628352461e-05   1.0730257915224795e-05   7.366579926333162e-06
-4.444380732067054e-05   1.1225635575819529e-05   2.9002571396032246e-05
-4.444380732067054e-05   1.1225635575819529e-05   2.9002571396032246e-05
-4.444380732067054e-05   1.1225635575819529e-05   2.9002571396032246e-05
-4.444380732067054e-05   1.1225635575819529e-05   2.9002571396032246e-05
-6.571682006935821e-05   9.942949315263315e-06   -7.2220616081146395e-06
-6.571682006935821e-05   9.942949315263315e-06   -7.2220616081146395e-06
-6.571682006935821e-05   9.942949315263315e-06   -7.2220616081146395e-06
-6.571682006935821e-05   9.942949315263315e-06   -7.2220616081146395e-06
-6.76040643090712e-05   1.0335340784231335e-05   3.6865353664920775e-05
-6.76040643090712e-05   1.0335340784231335e-05   3.6865353664920775e-05
-6.76040643090712e-05   1.0335340784231335e-05   3.6865353664920775e-05
-6.76040643090712e-05   1.0335340784231335e-05   3.6865353664920775e-05
-4.5553860095625054e-05   9.176863492931734e-06   8.100996839568498e-07
-4.5553860095625054e-05   9.176863492931734e-06   8.100996839568498e-07
-4.5553860095625054e-05   9.176863492931734e-06   8.100996839568498e-07
-4.5553860095625054e-05   9.176863492931734e-06   8.100996839568498e-07
-5.353321724649258e-05   1.0414144047493808e-05   1.3366659935999518e-05
-5.353321724649258e-05   1.0414144047493808e-05   1.3366659935999518e-05
-5.353321724649258e-05   1.0414144047493808e-05   1.3366659935999518e-05
-5.353321724649258e-05   1.0414144047493808e-05   1.3366659935999518e-05
3.62463595028845e-05   -4.8968307271852855e-06   3.074219047839201e-05
3.62463595028845e-05   -4.8968307271852855e-06   3.074219047839201e-05
3.62463595028845e-05   -4.8968307271852855e-06   3.074219047839201e-05
3.62463595028845e-05   -4.8968307271852855e-06   3.074219047839201e-05
1.7062038702388544e-05   -3.2387739747465148e-06   -2.3684347097126593e-07
1.7062038702388544e-05   -3.2387739747465148e-06   -2.3684347097126593e-07
1.7062038702388544e-05   -3.2387739747465148e-06   -2.3684347097126593e-07
1.7062038702388544e-05   -3.2387739747465148e-06   -2.3684347097126593e-07
1.6255755377314863e-05   -5.680695510079745e-06   2.7009779152759603e-05
1.6255755377314863e-05   -5.680695510079745e-06   2.7009779152759603e-05
1.6255755377314863e-05   -5.680695510079745e-06   2.7009779152759603e-05
1.6255755377314863e-05   -5.680695510079745e-06   2.7009779152759603e-05
3.468623759314773e-05   -3.930089097102171e-06   -4.758055054748572e-06
3.468623759314773e-05   -3.930089097102171e-06   -4.758055054748572e-06
3.468623759314773e-05   -3.930089097102171e-06   -4.758055054748572e-06
3.468623759314773e-05   -3.930089097102171e-06   -4.758055054748572e-06
2.483665871382925e-05   -4.470220539241508e-06   1.198198860939936e-05
2.483665871382925e-05   -4.470220539241508e-06   1.198198860939936e-05
2.483665871382925e-05   -4.470220539241508e-06   1.198198860939936e-05
2.483665871382925e-05   -4.470220539241508e-06   1.198198860939936e-05
3.468623759314773e-05   -5.680695510079745e-06   2.5959415304973015e-05
3.468623759314773e-05   -5.680695510079745e-06   2.5959415304973015e-05
3.468623759314773e-05   -5.680695510079745e-06   2.5959415304973015e-05
3.468623759314773e-05   -5.680695510079745e-06   2.5959415304973015e-05
1.625575537731489e-05   -3.930089097102171e-06   -3.7076912069618218e-06
1.625575537731489e-05   -3.930089097102171e-06   -3.7076912069618218e-06
1.625575537731489e-05   -3.930089097102171e-06   -3.7076912069618218e-06
1.625575537731489e-05   -3.930089097102171e-06   -3.7076912069618218e-06
1.5365696357975155e-05   -5.837999662428647e-06   2.4386411405581416e-05
1.5365696357975155e-05   -5.837999662428647e-06   2.4386411405581416e-05
1.5365696357975155e-05   -5.837999662428647e-06   2.4386411405581416e-05
1.5365696357975155e-05   -5.837999662428647e-06   2.4386411405581416e-05
3.331880493355721e-05   -4.114640097823644e-06   -6.569451959151701e-06
3.331880493355721e-05   -4.114640097823644e-06   -6.569451959151701e-06
3.331880493355721e-05   -4.114640097823644e-06   -6.569451959151701e-06
3.331880493355721e-05   -4.114640097823644e-06   -6.569451959151701e-06
2.4190980783220654e-05   -4.750778079244027e-06   9.025271080262149e-06
2.4190980783220654e-05   -4.750778079244027e-06   9.025271080262149e-06
2.4190980783220654e-05   -4.750778079244027e-06   9.025271080262149e-06
2.4190980783220654e-05   -4.750778079244027e-06   9.025271080262149e-06
3.331880493355715e-05   -5.837999662428647e-06   2.335239566681824e-05
3.331880493355715e-05   -5.837999662428647e-06   2.335239566681824e-05
3.331880493355715e-05   -5.837999662428647e-06   2.335239566681824e-05
3.331880493355715e-05   -5.837999662428647e-06   2.335239566681824e-05
1.536569635797519e-05   -4.114640097823644e-06   -5.535436220388459e-06
1.536569635797519e-05   -4.114640097823644e-06   -5.535436220388459e-06
1.536569635797519e-05   -4.114640097823644e-06   -5.535436220388459e-06
1.536569635797519e-05   -4.114640097823644e-06   -5.535436220388459e-06
1.454377969369129e-05   -5.900713913882961e-06   2.083222008183159e-05
1.454377969369129e-05   -5.900713913882961e-06   2.083222008183159e-05
1.454377969369129e-05   -5.900713913882961e-06   2.083222008183159e-05
1.454377969369129e-05   -5.900713913882961e-06   2.083222008183159e-05
3.1790758734672915e-05   -4.286496130045513e-06   -8.88127565677338e-06
3.1790758734672915e-05   -4.286496130045513e-06   -8.88127565677338e-06
3.1790758734672915e-05   -4.286496130045513e-06   -8.88127565677338e-06
3.1790758734672915e-05   -4.286496130045513e-06   -8.88127565677338e-06
2.2762652342833086e-05   -4.723280967890327e-06   6.4276392323337844e-06
2.2762652342833086e-05   -4.723280967890327e-06   6.4276392323337844e-06
2.2762652342833086e-05   -4.723280967890327e-06   6.4276392323337844e-06
2.2762652342833086e-05   -4.723280967890327e-06   6.4276392323337844e-06
1.7062038702388483e-05   -9.369554096268391e-07   3.493940804651552e-05
1.7062038702388483e-05   -9.369554096268391e-07   3.493940804651552e-05
1.7062038702388483e-05   -9.369554096268391e-07   3.493940804651552e-05
1.7062038702388483e-05   -9.369554096268391e-07   3.493940804651552e-05
-1.0952319758053612e-06   -1.7934603013195632e-08   5.228702733494142e-06
-1.0952319758053612e-06   -1.7934603013195632e-08   5.228702733494142e-06
-1.0952319758053612e-06   -1.7934603013195632e-08   5.228702733494142e-06
-1.0952319758053612e-06   -1.7934603013195632e-08   5.228702733494142e-06
-1.8533170525689428e-06   -1.4925664185401824e-06   3.5000669347531486e-05
-1.8533170525689428e-06   -1.4925664185401824e-06   3.5000669347531486e-05
-1.8533170525689428e-06   -1.4925664185401824e-06   3.5000669347531486e-05
-1.8533170525689428e-06   -1.4925664185401824e-06   3.5000669347531486e-05
1.625575537731489e-05   -6.190294343157588e-07   4.294759773856971e-06
1.625575537731489e-05   -6.190294343157588e-07   4.294759773856971e-06
1.625575537731489e-05   -6.190294343157588e-07   4.294759773856971e-06
1.625575537731489e-05   -6.190294343157588e-07   4.294759773856971e-06
7.4692774449123635e-06   -7.884782187998936e-07   1.90405589318849e-05
7.4692774449123635e-06   -7.884782187998936e-07   1.90405589318849e-05
7.4692774449123635e-06   -7.884782187998936e-07   1.90405589318849e-05
7.4692774449123635e-06   -7.884782187998936e-07   1.90405589318849e-05
1.6255755377314843e-05   -1.4925664185401824e-06   3.447654715699666e-05
1.6255755377314843e-05   -1.4925664185401824e-06   3.447654715699666e-05
1.6255755377314843e-05   -1.4925664185401824e-06   3.447654715699666e-05
1.6255755377314843e-05   -1.4925664185401824e-06   3.447654715699666e-05
-1.8533170525689428e-06   -6.190294343157588e-07   4.8188819643916764e-06
-1.8533170525689428e-06   -6.190294343157588e-07   4.8188819643916764e-06
-1.8533170525689428e-06   -6.190294343157588e-07   4.8188819643916764e-06
-1.8533170525689428e-06   -6.190294343157588e-07   4.8188819643916764e-06
-2.627558298700687e-06   -1.9050225937298007e-06   3.447282856357389e-05
-2.627558298700687e-06   -1.9050225937298007e-06   3.447282856357389e-05
-2.627558298700687e-06   -1.9050225937298007e-06   3.447282856357389e-05
-2.627558298700687e-06   -1.9050225937298007e-06   3.447282856357389e-05
1.536569635797519e-05   -1.0926355956130968e-06   3.9966386035774354e-06
1.536569635797519e-05   -1.0926355956130968e-06   3.9966386035774354e-06
1.536569635797519e-05   -1.0926355956130968e-06   3.9966386035774354e-06
1.536569635797519e-05   -1.0926355956130968e-06   3.9966386035774354e-06
6.61877743343205e-06   -1.1593347065555829e-06   1.8614856277716045e-05
6.61877743343205e-06   -1.1593347065555829e-06   1.8614856277716045e-05
6.61877743343205e-06   -1.1593347065555829e-06   1.8614856277716045e-05
6.61877743343205e-06   -1.1593347065555829e-06   1.8614856277716045e-05
1.5365696357975155e-05   -1.9050225937298007e-06   3.398539636470391e-05
1.5365696357975155e-05   -1.9050225937298007e-06   3.398539636470391e-05
1.5365696357975155e-05   -1.9050225937298007e-06   3.398539636470391e-05
1.5365696357975155e-05   -1.9050225937298007e-06   3.398539636470391e-05
-2.627558298700687e-06   -1.0926355956130968e-06   4.484070802447584e-06
-2.627558298700687e-06   -1.0926355956130968e-06   4.484070802447584e-06
-2.627558298700687e-06   -1.0926355956130968e-06   4.484070802447584e-06
-2.627558298700687e-06   -1.0926355956130968e-06   4.484070802447584e-06
-3.406016482266819e-06   -2.2300547647602018e-06   3.4711941919801474e-05
-3.406016482266819e-06   -2.2300547647602018e-06   3.4711941919801474e-05
-3.406016482266819e-06   -2.2300547647602018e-06   3.4711941919801474e-05
-3.406016482266819e-06   -2.2300547647602018e-06   3.4711941919801474e-05
1.4543779693691297e-05   -1.5310078306802598e-06   4.376186799423335e-06
1.4543779693691297e-05   -1.5310078306802598e-06   4.376186799423335e-06
1.4543779693691297e-05   -1.5310078306802598e-06   4.376186799423335e-06
1.4543779693691297e-05   -1.5310078306802598e-06   4.376186799423335e-06
5.969592582582826e-06   -1.433619174242163e-06   1.8608065457408613e-05
5.969592582582826e-06   -1.433619174242163e-06   1.8608065457408613e-05
5.969592582582826e-06   -1.433619174242163e-06   1.8608065457408613e-05
5.969592582582826e-06   -1.433619174242163e-06   1.8608065457408613e-05
-1.0952319758053612e-06   3.038683126269006e-06   3.698770230378418e-05
-1.0952319758053612e-06   3.038683126269006e-06   3.698770230378418e-05
-1.0952319758053612e-06   3.038683126269006e-06   3.698770230378418e-05
-1.0952319758053612e-06   3.038683126269006e-06   3.698770230378418e-05
-1.887152940783669e-05   3.1281785165396866e-06   7.414237151227767e-06
-1.887152940783669e-05   3.1281785165396866e-06   7.414237151227767e-06
-1.887152940783669e-05   3.1281785165396866e-06   7.414237151227767e-06
-1.887152940783669e-05   3.1281785165396866e-06   7.414237151227767e-06
-1.963376340338542e-05   2.5766682416237217e-06   3.687582110263512e-05
-1.963376340338542e-05   2.5766682416237217e-06   3.687582110263512e-05
-1.963376340338542e-05   2.5766682416237217e-06   3.687582110263512e-05
-1.963376340338542e-05   2.5766682416237217e-06   3.687582110263512e-05
-1.8533170525689428e-06   2.600235786778945e-06   7.227603324181471e-06
-1.8533170525689428e-06   2.600235786778945e-06   7.227603324181471e-06
-1.8533170525689428e-06   2.600235786778945e-06   7.227603324181471e-06
-1.8533170525689428e-06   2.600235786778945e-06   7.227603324181471e-06
-1.0390342233179621e-05   2.7862317485006626e-06   2.134438104816621e-05
-1.0390342233179621e-05   2.7862317485006626e-06   2.134438104816621e-05
-1.0390342233179621e-05   2.7862317485006626e-06   2.134438104816621e-05
-1.0390342233179621e-05   2.7862317485006626e-06   2.134438104816621e-05
-1.8533170525689428e-06   2.5766682416237217e-06   3.686168057554255e-05
-1.8533170525689428e-06   2.5766682416237217e-06   3.686168057554255e-05
-1.8533170525689428e-06   2.5766682416237217e-06   3.686168057554255e-05
-1.8533170525689428e-06   2.5766682416237217e-06   3.686168057554255e-05
-1.963376340338542e-05   2.600235786778945e-06   7.241743851274366e-06
-1.963376340338542e-05   2.600235786778945e-06   7.241743851274366e-06
-1.963376340338542e-05   2.600235786778945e-06   7.241743851274366e-06
-1.963376340338542e-05   2.600235786778945e-06   7.241743851274366e-06
-2.041499486067554e-05   2.128066771498599e-06   3.7077048001521104e-05
-2.041499486067554e-05   2.128066771498599e-06   3.7077048001521104e-05
-2.041499486067554e-05   2.128066771498599e-06   3.7077048001521104e-05
-2.041499486067554e-05   2.128066771498599e-06   3.7077048001521104e-05
-2.627558298700687e-06   2.0806828521520004e-06   7.4597507498377555e-06
-2.627558298700687e-06   2.0806828521520004e-06   7.4597507498377555e-06
-2.627558298700687e-06   2.0806828521520004e-06   7.4597507498377555e-06
-2.627558298700687e-06   2.0806828521520004e-06   7.4597507498377555e-06
-1.109798549403406e-05   2.431366854355275e-06   2.1366719007405438e-05
-1.109798549403406e-05   2.431366854355275e-06   2.1366719007405438e-05
-1.109798549403406e-05   2.431366854355275e-06   2.1366719007405438e-05
-1.109798549403406e-05   2.431366854355275e-06   2.1366719007405438e-05
-2.627558298700687e-06   2.128066771498599e-06   3.710547835312919e-05
-2.627558298700687e-06   2.128066771498599e-06   3.710547835312919e-05
-2.627558298700687e-06   2.128066771498599e-06   3.710547835312919e-05
-2.627558298700687e-06   2.128066771498599e-06   3.710547835312919e-05
-2.041499486067554e-05   2.0806828521520004e-06   7.431320398229666e-06
-2.041499486067554e-05   2.0806828521520004e-06   7.431320398229666e-06
-2.041499486067554e-05   2.0806828521520004e-06   7.431320398229666e-06
-2.041499486067554e-05   2.0806828521520004e-06   7.431320398229666e-06
-2.1195881594810584e-05   1.7287781858338e-06   3.7536978317552526e-05
-2.1195881594810584e-05   1.7287781858338e-06   3.7536978317552526e-05
-2.1195881594810584e-05   1.7287781858338e-06   3.7536978317552526e-05
-2.1195881594810584e-05   1.7287781858338e-06   3.7536978317552526e-05
-3.406016482266819e-06   1.5876881862067482e-06   7.971857129755825e-06
-3.406016482266819e-06   1.5876881862067482e-06   7.971857129755825e-06
-3.406016482266819e-06   1.5876881862067482e-06   7.971857129755825e-06
-3.406016482266819e-06   1.5876881862067482e-06   7.971857129755825e-06
-1.1838855119635404e-05   2.0856034847972684e-06   2.1727839012883343e-05
-1.1838855119635404e-05   2.0856034847972684e-06   2.1727839012883343e-05
-1.1838855119635404e-05   2.0856034847972684e-06   2.1727839012883343e-05
-1.1838855119635404e-05   2.0856034847972684e-06   2.1727839012883343e-05
-1.8871529407836637e-05   6.90697310630527e-06   3.254179804134099e-05
-1.8871529407836637e-05   6.90697310630527e-06   3.254179804134099e-05
-1.8871529407836637e-05   6.90697310630527e-06   3.254179804134099e-05
-1.8871529407836637e-05   6.90697310630527e-06   3.254179804134099e-05
-3.6257112026449005e-05   6.156104723003056e-06   3.115305980339305e-06
-3.6257112026449005e-05   6.156104723003056e-06   3.115305980339305e-06
-3.6257112026449005e-05   6.156104723003056e-06   3.115305980339305e-06
-3.6257112026449005e-05   6.156104723003056e-06   3.115305980339305e-06
-3.707734887347644e-05   6.466064018858467e-06   3.232957591060197e-05
-3.707734887347644e-05   6.466064018858467e-06   3.232957591060197e-05
-3.707734887347644e-05   6.466064018858467e-06   3.232957591060197e-05
-3.707734887347644e-05   6.466064018858467e-06   3.232957591060197e-05
-1.963376340338545e-05   5.6506865360995105e-06   3.746159950105679e-06
-1.963376340338545e-05   5.6506865360995105e-06   3.746159950105679e-06
-1.963376340338545e-05   5.6506865360995105e-06   3.746159950105679e-06
-1.963376340338545e-05   5.6506865360995105e-06   3.746159950105679e-06
-2.786750884597234e-05   6.2126381906212405e-06   1.713189802837121e-05
-2.786750884597234e-05   6.2126381906212405e-06   1.713189802837121e-05
-2.786750884597234e-05   6.2126381906212405e-06   1.713189802837121e-05
-2.786750884597234e-05   6.2126381906212405e-06   1.713189802837121e-05
-1.963376340338542e-05   6.466064018858901e-06   3.281880240025778e-05
-1.963376340338542e-05   6.466064018858901e-06   3.281880240025778e-05
-1.963376340338542e-05   6.466064018858901e-06   3.281880240025778e-05
-1.963376340338542e-05   6.466064018858901e-06   3.281880240025778e-05
-3.707734887347644e-05   5.6506865360995105e-06   3.2569334604503047e-06
-3.707734887347644e-05   5.6506865360995105e-06   3.2569334604503047e-06
-3.707734887347644e-05   5.6506865360995105e-06   3.2569334604503047e-06
-3.707734887347644e-05   5.6506865360995105e-06   3.2569334604503047e-06
-3.798021549539986e-05   6.0593544391343915e-06   3.354181223189545e-05
-3.798021549539986e-05   6.0593544391343915e-06   3.354181223189545e-05
-3.798021549539986e-05   6.0593544391343915e-06   3.354181223189545e-05
-3.798021549539986e-05   6.0593544391343915e-06   3.354181223189545e-05
-2.041499486067557e-05   5.179587406595925e-06   4.794304726878193e-06
-2.041499486067557e-05   5.179587406595925e-06   4.794304726878193e-06
-2.041499486067557e-05   5.179587406595925e-06   4.794304726878193e-06
-2.041499486067557e-05   5.179587406595925e-06   4.794304726878193e-06
-2.8455926041121916e-05   5.8900412879441325e-06   1.7769584365480862e-05
-2.8455926041121916e-05   5.8900412879441325e-06   1.7769584365480862e-05
-2.8455926041121916e-05   5.8900412879441325e-06   1.7769584365480862e-05
-2.8455926041121916e-05   5.8900412879441325e-06   1.7769584365480862e-05
-2.041499486067554e-05   6.0593544391343915e-06   3.406967245141862e-05
-2.041499486067554e-05   6.0593544391343915e-06   3.406967245141862e-05
-2.041499486067554e-05   6.0593544391343915e-06   3.406967245141862e-05
-2.041499486067554e-05   6.0593544391343915e-06   3.406967245141862e-05
-3.798021549539986e-05   5.179587406595925e-06   4.2664445073548095e-06
-3.798021549539986e-05   5.179587406595925e-06   4.2664445073548095e-06
-3.798021549539986e-05   5.179587406595925e-06   4.2664445073548095e-06
-3.798021549539986e-05   5.179587406595925e-06   4.2664445073548095e-06
-3.880565463376876e-05   5.562448814627145e-06   3.445257899602856e-05
-3.880565463376876e-05   5.562448814627145e-06   3.445257899602856e-05
-3.880565463376876e-05   5.562448814627145e-06   3.445257899602856e-05
-3.880565463376876e-05   5.562448814627145e-06   3.445257899602856e-05
-2.1195881594810638e-05   4.630828446034688e-06   5.66192948558736e-06
-2.1195881594810638e-05   4.630828446034688e-06   5.66192948558736e-06
-2.1195881594810638e-05   4.630828446034688e-06   5.66192948558736e-06
-2.1195881594810638e-05   4.630828446034688e-06   5.66192948558736e-06
-2.9392875385181476e-05   5.5259644083888e-06   1.8786504225460883e-05
-2.9392875385181476e-05   5.5259644083888e-06   1.8786504225460883e-05
-2.9392875385181476e-05   5.5259644083888e-06   1.8786504225460883e-05
-2.9392875385181476e-05   5.5259644083888e-06   1.8786504225460883e-05
-3.6257112026449005e-05   9.947025241875164e-06   1.5738239761082466e-05
-3.6257112026449005e-05   9.947025241875164e-06   1.5738239761082466e-05
-3.6257112026449005e-05   9.947025241875164e-06   1.5738239761082466e-05
-3.6257112026449005e-05   9.947025241875164e-06   1.5738239761082466e-05
-5.277078468151166e-05   8.48632515181285e-06   -1.266096805139236e-05
-5.277078468151166e-05   8.48632515181285e-06   -1.266096805139236e-05
-5.277078468151166e-05   8.48632515181285e-06   -1.266096805139236e-05
-5.277078468151166e-05   8.48632515181285e-06   -1.266096805139236e-05
-5.424509951890193e-05   1.0053364585178338e-05   2.0918108562732133e-05
-5.424509951890193e-05   1.0053364585178338e-05   2.0918108562732133e-05
-5.424509951890193e-05   1.0053364585178338e-05   2.0918108562732133e-05
-5.424509951890193e-05   1.0053364585178338e-05   2.0918108562732133e-05
-3.707734887347644e-05   8.444535540915463e-06   -6.7295117530861656e-06
-3.707734887347644e-05   8.444535540915463e-06   -6.7295117530861656e-06
-3.707734887347644e-05   8.444535540915463e-06   -6.7295117530861656e-06
-3.707734887347644e-05   8.444535540915463e-06   -6.7295117530861656e-06
-4.337211527930175e-05   9.097334211085467e-06   3.370086387854271e-06
-4.337211527930175e-05   9.097334211085467e-06   3.370086387854271e-06
-4.337211527930175e-05   9.097334211085467e-06   3.370086387854271e-06
-4.337211527930175e-05   9.097334211085467e-06   3.370086387854271e-06
-3.707734887347641e-05   1.0053364585177905e-05   2.1883405989289815e-05
-3.707734887347641e-05   1.0053364585177905e-05   2.1883405989289815e-05
-3.707734887347641e-05   1.0053364585177905e-05   2.1883405989289815e-05
-3.707734887347641e-05   1.0053364585177905e-05   2.1883405989289815e-05
-5.424509951890198e-05   8.444535540915463e-06   -7.694809179643793e-06
-5.424509951890198e-05   8.444535540915463e-06   -7.694809179643793e-06
-5.424509951890198e-05   8.444535540915463e-06   -7.694809179643793e-06
-5.424509951890198e-05   8.444535540915463e-06   -7.694809179643793e-06
-5.5564945729188835e-05   9.942949315263315e-06   2.5101844632341528e-05
-5.5564945729188835e-05   9.942949315263315e-06   2.5101844632341528e-05
-5.5564945729188835e-05   9.942949315263315e-06   2.5101844632341528e-05
-5.5564945729188835e-05   9.942949315263315e-06   2.5101844632341528e-05
-3.798021549539986e-05   8.272665784476302e-06   -3.2038689721684897e-06
-3.798021549539986e-05   8.272665784476302e-06   -3.2038689721684897e-06
-3.798021549539986e-05   8.272665784476302e-06   -3.2038689721684897e-06
-3.798021549539986e-05   8.272665784476302e-06   -3.2038689721684897e-06
-4.5067572160992746e-05   9.198035985153851e-06   8.053170016748129e-06
-4.5067572160992746e-05   9.198035985153851e-06   8.053170016748129e-06
-4.5067572160992746e-05   9.198035985153851e-06   8.053170016748129e-06
-4.5067572160992746e-05   9.198035985153851e-06   8.053170016748129e-06
-3.798021549539986e-05   9.942949315263315e-06   2.610401475081352e-05
-3.798021549539986e-05   9.942949315263315e-06   2.610401475081352e-05
-3.798021549539986e-05   9.942949315263315e-06   2.610401475081352e-05
-3.798021549539986e-05   9.942949315263315e-06   2.610401475081352e-05
-5.556494572918894e-05   8.272665784476302e-06   -4.206039090640752e-06
-5.556494572918894e-05   8.272665784476302e-06   -4.206039090640752e-06
-5.556494572918894e-05   8.272665784476302e-06   -4.206039090640752e-06
-5.556494572918894e-05   8.272665784476302e-06   -4.206039090640752e-06
-5.708133785417032e-05   9.1768634929313e-06   3.229931063852354e-05
-5.708133785417032e-05   9.1768634929313e-06   3.229931063852354e-05
-5.708133785417032e-05   9.1768634929313e-06   3.229931063852354e-05
-5.708133785417032e-05   9.1768634929313e-06   3.229931063852354e-05
-3.880565463376876e-05   7.514003843568607e-06   2.837554394138507e-06
-3.880565463376876e-05   7.514003843568607e-06   2.837554394138507e-06
-3.880565463376876e-05   7.514003843568607e-06   2.837554394138507e-06
-3.880565463376876e-05   7.514003843568607e-06   2.837554394138507e-06
-4.542865383878616e-05   8.88342287719301e-06   1.305423498232719e-05
-4.542865383878616e-05   8.88342287719301e-06   1.305423498232719e-05
-4.542865383878616e-05   8.88342287719301e-06   1.305423498232719e-05
-4.542865383878616e-05   8.88342287719301e-06   1.305423498232719e-05
2.499221163016781e-05   -3.2387739747465148e-06   2.5039748436847357e-05
2.499221163016781e-05   -3.2387739747465148e-06   2.5039748436847357e-05
2.499221163016781e-05   -3.2387739747465148e-06   2.5039748436847357e-05
2.499221163016781e-05   -3.2387739747465148e-06   2.5039748436847357e-05
1.0371469186799102e-05   -1.5948805292189273e-06   1.658180431883061e-06
1.0371469186799102e-05   -1.5948805292189273e-06   1.658180431883061e-06
1.0371469186799102e-05   -1.5948805292189273e-06   1.658180431883061e-06
1.0371469186799102e-05   -1.5948805292189273e-06   1.658180431883061e-06
9.722749780762904e-06   -3.930089097102171e-06   2.2510709641261444e-05
9.722749780762904e-06   -3.930089097102171e-06   2.2510709641261444e-05
9.722749780762904e-06   -3.930089097102171e-06   2.2510709641261444e-05
9.722749780762904e-06   -3.930089097102171e-06   2.2510709641261444e-05
2.361104204467719e-05   -2.213496056064756e-06   -1.6663999565512432e-06
2.361104204467719e-05   -2.213496056064756e-06   -1.6663999565512432e-06
2.361104204467719e-05   -2.213496056064756e-06   -1.6663999565512432e-06
2.361104204467719e-05   -2.213496056064756e-06   -1.6663999565512432e-06
1.6320001271526487e-05   -2.8100765490815353e-06   1.0843282961177124e-05
1.6320001271526487e-05   -2.8100765490815353e-06   1.0843282961177124e-05
1.6320001271526487e-05   -2.8100765490815353e-06   1.0843282961177124e-05
1.6320001271526487e-05   -2.8100765490815353e-06   1.0843282961177124e-05
2.361104204467723e-05   -3.930089097101954e-06   2.148075381663947e-05
2.361104204467723e-05   -3.930089097101954e-06   2.148075381663947e-05
2.361104204467723e-05   -3.930089097101954e-06   2.148075381663947e-05
2.361104204467723e-05   -3.930089097101954e-06   2.148075381663947e-05
9.72274978076287e-06   -2.213496056064756e-06   -6.364441319291897e-07
9.72274978076287e-06   -2.213496056064756e-06   -6.364441319291897e-07
9.72274978076287e-06   -2.213496056064756e-06   -6.364441319291897e-07
9.72274978076287e-06   -2.213496056064756e-06   -6.364441319291897e-07
8.994010573778167e-06   -4.114640097823644e-06   2.06329074946682e-05
8.994010573778167e-06   -4.114640097823644e-06   2.06329074946682e-05
8.994010573778167e-06   -4.114640097823644e-06   2.06329074946682e-05
8.994010573778167e-06   -4.114640097823644e-06   2.06329074946682e-05
2.2425266222070067e-05   -2.4263264120317693e-06   -2.765506797293291e-06
2.2425266222070067e-05   -2.4263264120317693e-06   -2.765506797293291e-06
2.2425266222070067e-05   -2.4263264120317693e-06   -2.765506797293291e-06
2.2425266222070067e-05   -2.4263264120317693e-06   -2.765506797293291e-06
1.570622693701235e-05   -3.0725160540616935e-06   8.82060579635487e-06
1.570622693701235e-05   -3.0725160540616935e-06   8.82060579635487e-06
1.570622693701235e-05   -3.0725160540616935e-06   8.82060579635487e-06
1.570622693701235e-05   -3.0725160540616935e-06   8.82060579635487e-06
2.2425266222070108e-05   -4.114640097823644e-06   1.9619919283193205e-05
2.2425266222070108e-05   -4.114640097823644e-06   1.9619919283193205e-05
2.2425266222070108e-05   -4.114640097823644e-06   1.9619919283193205e-05
2.2425266222070108e-05   -4.114640097823644e-06   1.9619919283193205e-05
8.99401057377815e-06   -2.4263264120317693e-06   -1.752518585818215e-06
8.99401057377815e-06   -2.4263264120317693e-06   -1.752518585818215e-06
8.99401057377815e-06   -2.4263264120317693e-06   -1.752518585818215e-06
8.99401057377815e-06   -2.4263264120317693e-06   -1.752518585818215e-06
8.340715166142938e-06   -4.286496130045513e-06   1.8193618597913026e-05
8.340715166142938e-06   -4.286496130045513e-06   1.8193618597913026e-05
8.340715166142938e-06   -4.286496130045513e-06   1.8193618597913026e-05
8.340715166142938e-06   -4.286496130045513e-06   1.8193618597913026e-05
2.108011465885862e-05   -2.7072620288981584e-06   -3.986254350635062e-06
2.108011465885862e-05   -2.7072620288981584e-06   -3.986254350635062e-06
2.108011465885862e-05   -2.7072620288981584e-06   -3.986254350635062e-06
2.108011465885862e-05   -2.7072620288981584e-06   -3.986254350635062e-06
1.4567415490615593e-05   -3.123665341971246e-06   7.11808625094727e-06
1.4567415490615593e-05   -3.123665341971246e-06   7.11808625094727e-06
1.4567415490615593e-05   -3.123665341971246e-06   7.11808625094727e-06
1.4567415490615593e-05   -3.123665341971246e-06   7.11808625094727e-06
1.037146918679914e-05   -1.7934603013195632e-08   3.094021822466113e-05
1.037146918679914e-05   -1.7934603013195632e-08   3.094021822466113e-05
1.037146918679914e-05   -1.7934603013195632e-08   3.094021822466113e-05
1.037146918679914e-05   -1.7934603013195632e-08   3.094021822466113e-05
-3.347227339562479e-06   8.169850290596758e-07   8.576675793302443e-06
-3.347227339562479e-06   8.169850290596758e-07   8.576675793302443e-06
-3.347227339562479e-06   8.169850290596758e-07   8.576675793302443e-06
-3.347227339562479e-06   8.169850290596758e-07   8.576675793302443e-06
-3.943368034108993e-06   -6.190294343157588e-07   3.099914746683896e-05
-3.943368034108993e-06   -6.190294343157588e-07   3.099914746683896e-05
-3.943368034108993e-06   -6.190294343157588e-07   3.099914746683896e-05
-3.943368034108993e-06   -6.190294343157588e-07   3.099914746683896e-05
9.72274978076287e-06   1.909486402826028e-07   7.736297597293571e-06
9.72274978076287e-06   1.909486402826028e-07   7.736297597293571e-06
9.72274978076287e-06   1.909486402826028e-07   7.736297597293571e-06
9.72274978076287e-06   1.909486402826028e-07   7.736297597293571e-06
3.1030663205026757e-06   3.891528271350066e-08   1.886032337893609e-05
3.1030663205026757e-06   3.891528271350066e-08   1.886032337893609e-05
3.1030663205026757e-06   3.891528271350066e-08   1.886032337893609e-05
3.1030663205026757e-06   3.891528271350066e-08   1.886032337893609e-05
9.722749780762897e-06   -6.190294343157588e-07   3.0513160622080114e-05
9.722749780762897e-06   -6.190294343157588e-07   3.0513160622080114e-05
9.722749780762897e-06   -6.190294343157588e-07   3.0513160622080114e-05
9.722749780762897e-06   -6.190294343157588e-07   3.0513160622080114e-05
-3.9433680341090065e-06   1.909486402826028e-07   8.222284442052706e-06
-3.9433680341090065e-06   1.909486402826028e-07   8.222284442052706e-06
-3.9433680341090065e-06   1.909486402826028e-07   8.222284442052706e-06
-3.9433680341090065e-06   1.909486402826028e-07   8.222284442052706e-06
-4.552907476709168e-06   -1.0926355956130968e-06   3.062788075545108e-05
-4.552907476709168e-06   -1.0926355956130968e-06   3.062788075545108e-05
-4.552907476709168e-06   -1.0926355956130968e-06   3.062788075545108e-05
-4.552907476709168e-06   -1.0926355956130968e-06   3.062788075545108e-05
8.99401057377815e-06   -3.211382009185495e-07   7.586785567822311e-06
8.99401057377815e-06   -3.211382009185495e-07   7.586785567822311e-06
8.99401057377815e-06   -3.211382009185495e-07   7.586785567822311e-06
8.99401057377815e-06   -3.211382009185495e-07   7.586785567822311e-06
2.4475089327558105e-06   -3.7853179473464754e-07   1.853205779248349e-05
2.4475089327558105e-06   -3.7853179473464754e-07   1.853205779248349e-05
2.4475089327558105e-06   -3.7853179473464754e-07   1.853205779248349e-05
2.4475089327558105e-06   -3.7853179473464754e-07   1.853205779248349e-05
8.994010573778177e-06   -1.0926355956130968e-06   3.016498231863448e-05
8.994010573778177e-06   -1.0926355956130968e-06   3.016498231863448e-05
8.994010573778177e-06   -1.0926355956130968e-06   3.016498231863448e-05
8.994010573778177e-06   -1.0926355956130968e-06   3.016498231863448e-05
-4.552907476709181e-06   -3.211382009187663e-07   8.049684004639269e-06
-4.552907476709181e-06   -3.211382009187663e-07   8.049684004639269e-06
-4.552907476709181e-06   -3.211382009187663e-07   8.049684004639269e-06
-4.552907476709181e-06   -3.211382009187663e-07   8.049684004639269e-06
-5.157347785728891e-06   -1.5310078306802598e-06   3.0905824877844974e-05
-5.157347785728891e-06   -1.5310078306802598e-06   3.0905824877844974e-05
-5.157347785728891e-06   -1.5310078306802598e-06   3.0905824877844974e-05
-5.157347785728891e-06   -1.5310078306802598e-06   3.0905824877844974e-05
8.340715166142901e-06   -8.25550340617133e-07   7.985778797354208e-06
8.340715166142901e-06   -8.25550340617133e-07   7.985778797354208e-06
8.340715166142901e-06   -8.25550340617133e-07   7.985778797354208e-06
8.340715166142901e-06   -8.25550340617133e-07   7.985778797354208e-06
1.929813279112144e-06   -7.263470390476111e-07   1.8611093294797088e-05
1.929813279112144e-06   -7.263470390476111e-07   1.8611093294797088e-05
1.929813279112144e-06   -7.263470390476111e-07   1.8611093294797088e-05
1.929813279112144e-06   -7.263470390476111e-07   1.8611093294797088e-05
-3.3472273395624655e-06   3.1281785165396866e-06   3.357300718747616e-05
-3.3472273395624655e-06   3.1281785165396866e-06   3.357300718747616e-05
-3.3472273395624655e-06   3.1281785165396866e-06   3.357300718747616e-05
-3.3472273395624655e-06   3.1281785165396866e-06   3.357300718747616e-05
-1.6839480268344916e-05   3.0790047849814546e-06   1.1056414733903968e-05
-1.6839480268344916e-05   3.0790047849814546e-06   1.1056414733903968e-05
-1.6839480268344916e-05   3.0790047849814546e-06   1.1056414733903968e-05
-1.6839480268344916e-05   3.0790047849814546e-06   1.1056414733903968e-05
-1.7427684155735165e-05   2.600235786778945e-06   3.3353923394336326e-05
-1.7427684155735165e-05   2.600235786778945e-06   3.3353923394336326e-05
-1.7427684155735165e-05   2.600235786778945e-06   3.3353923394336326e-05
-1.7427684155735165e-05   2.600235786778945e-06   3.3353923394336326e-05
-3.9433680341090065e-06   2.5103267329573686e-06   1.0934008623918813e-05
-3.9433680341090065e-06   2.5103267329573686e-06   1.0934008623918813e-05
-3.9433680341090065e-06   2.5103267329573686e-06   1.0934008623918813e-05
-3.9433680341090065e-06   2.5103267329573686e-06   1.0934008623918813e-05
-1.0415374750625633e-05   2.759190110090178e-06   2.1571368458500812e-05
-1.0415374750625633e-05   2.759190110090178e-06   2.1571368458500812e-05
-1.0415374750625633e-05   2.759190110090178e-06   2.1571368458500812e-05
-1.0415374750625633e-05   2.759190110090178e-06   2.1571368458500812e-05
-3.943368034108993e-06   2.600235786778945e-06   3.340786882662897e-05
-3.943368034108993e-06   2.600235786778945e-06   3.340786882662897e-05
-3.943368034108993e-06   2.600235786778945e-06   3.340786882662897e-05
-3.943368034108993e-06   2.600235786778945e-06   3.340786882662897e-05
-1.7427684155735165e-05   2.5103267329573686e-06   1.0880063191625981e-05
-1.7427684155735165e-05   2.5103267329573686e-06   1.0880063191625981e-05
-1.7427684155735165e-05   2.5103267329573686e-06   1.0880063191625981e-05
-1.7427684155735165e-05   2.5103267329573686e-06   1.0880063191625981e-05
-1.80300112481053e-05   2.0806828521520004e-06   3.352405792538546e-05
-1.80300112481053e-05   2.0806828521520004e-06   3.352405792538546e-05
-1.80300112481053e-05   2.0806828521520004e-06   3.352405792538546e-05
-1.80300112481053e-05   2.0806828521520004e-06   3.352405792538546e-05
-4.552907476709168e-06   1.9481782230583704e-06   1.1141721083848035e-05
-4.552907476709168e-06   1.9481782230583704e-06   1.1141721083848035e-05
-4.552907476709168e-06   1.9481782230583704e-06   1.1141721083848035e-05
-4.552907476709168e-06   1.9481782230583704e-06   1.1141721083848035e-05
-1.0954014284098139e-05   2.346518687849474e-06   2.1571228150622378e-05
-1.0954014284098139e-05   2.346518687849474e-06   2.1571228150622378e-05
-1.0954014284098139e-05   2.346518687849474e-06   2.1571228150622378e-05
-1.0954014284098139e-05   2.346518687849474e-06   2.1571228150622378e-05
-4.552907476709168e-06   2.0806828521520004e-06   3.360356070284147e-05
-4.552907476709168e-06   2.0806828521520004e-06   3.360356070284147e-05
-4.552907476709168e-06   2.0806828521520004e-06   3.360356070284147e-05
-4.552907476709168e-06   2.0806828521520004e-06   3.360356070284147e-05
-1.80300112481053e-05   1.9481782230583704e-06   1.1062218306391786e-05
-1.80300112481053e-05   1.9481782230583704e-06   1.1062218306391786e-05
-1.80300112481053e-05   1.9481782230583704e-06   1.1062218306391786e-05
-1.80300112481053e-05   1.9481782230583704e-06   1.1062218306391786e-05
-1.862530290883623e-05   1.5876881862067482e-06   3.397365918700822e-05
-1.862530290883623e-05   1.5876881862067482e-06   3.397365918700822e-05
-1.862530290883623e-05   1.5876881862067482e-06   3.397365918700822e-05
-1.862530290883623e-05   1.5876881862067482e-06   3.397365918700822e-05
-5.1573477857288775e-06   1.4070084183380027e-06   1.163547517588393e-05
-5.1573477857288775e-06   1.4070084183380027e-06   1.163547517588393e-05
-5.1573477857288775e-06   1.4070084183380027e-06   1.163547517588393e-05
-5.1573477857288775e-06   1.4070084183380027e-06   1.163547517588393e-05
-1.1517454640936896e-05   1.9435716119965783e-06   2.191371535170217e-05
-1.1517454640936896e-05   1.9435716119965783e-06   2.191371535170217e-05
-1.1517454640936896e-05   1.9435716119965783e-06   2.191371535170217e-05
-1.1517454640936896e-05   1.9435716119965783e-06   2.191371535170217e-05
-1.6839480268344916e-05   6.156104723003056e-06   2.9695092807633912e-05
-1.6839480268344916e-05   6.156104723003056e-06   2.9695092807633912e-05
-1.6839480268344916e-05   6.156104723003056e-06   2.9695092807633912e-05
-1.6839480268344916e-05   6.156104723003056e-06   2.9695092807633912e-05
-3.0106183145843773e-05   5.279731035224286e-06   7.058097132467975e-06
-3.0106183145843773e-05   5.279731035224286e-06   7.058097132467975e-06
-3.0106183145843773e-05   5.279731035224286e-06   7.058097132467975e-06
-3.0106183145843773e-05   5.279731035224286e-06   7.058097132467975e-06
-3.073720458969184e-05   5.6506865360995105e-06   2.9302520168872316e-05
-3.073720458969184e-05   5.6506865360995105e-06   2.9302520168872316e-05
-3.073720458969184e-05   5.6506865360995105e-06   2.9302520168872316e-05
-3.073720458969184e-05   5.6506865360995105e-06   2.9302520168872316e-05
-1.742768415573511e-05   4.724320995607269e-06   7.67580543657335e-06
-1.742768415573511e-05   4.724320995607269e-06   7.67580543657335e-06
-1.742768415573511e-05   4.724320995607269e-06   7.67580543657335e-06
-1.742768415573511e-05   4.724320995607269e-06   7.67580543657335e-06
-2.3710413560073477e-05   5.359782683515141e-06   1.7765744097726405e-05
-2.3710413560073477e-05   5.359782683515141e-06   1.7765744097726405e-05
-2.3710413560073477e-05   5.359782683515141e-06   1.7765744097726405e-05
-2.3710413560073477e-05   5.359782683515141e-06   1.7765744097726405e-05
-1.7427684155735165e-05   5.6506865360995105e-06   2.9858339493167747e-05
-1.7427684155735165e-05   5.6506865360995105e-06   2.9858339493167747e-05
-1.7427684155735165e-05   5.6506865360995105e-06   2.9858339493167747e-05
-1.7427684155735165e-05   5.6506865360995105e-06   2.9858339493167747e-05
-3.073720458969179e-05   4.724320995607269e-06   7.119986112277864e-06
-3.073720458969179e-05   4.724320995607269e-06   7.119986112277864e-06
-3.073720458969179e-05   4.724320995607269e-06   7.119986112277864e-06
-3.073720458969179e-05   4.724320995607269e-06   7.119986112277864e-06
-3.144731275346824e-05   5.179587406595925e-06   3.0305453789379556e-05
-3.144731275346824e-05   5.179587406595925e-06   3.0305453789379556e-05
-3.144731275346824e-05   5.179587406595925e-06   3.0305453789379556e-05
-3.144731275346824e-05   5.179587406595925e-06   3.0305453789379556e-05
-1.8030011248105246e-05   4.210273298838789e-06   8.524873078428932e-06
-1.8030011248105246e-05   4.210273298838789e-06   8.524873078428932e-06
-1.8030011248105246e-05   4.210273298838789e-06   8.524873078428932e-06
-1.8030011248105246e-05   4.210273298838789e-06   8.524873078428932e-06
-2.4147252628647613e-05   4.981493812763723e-06   1.8257543070978525e-05
-2.4147252628647613e-05   4.981493812763723e-06   1.8257543070978525e-05
-2.4147252628647613e-05   4.981493812763723e-06   1.8257543070978525e-05
-2.4147252628647613e-05   4.981493812763723e-06   1.8257543070978525e-05
-1.8030011248105273e-05   5.179587406595925e-06   3.0887042254033664e-05
-1.8030011248105273e-05   5.179587406595925e-06   3.0887042254033664e-05
-1.8030011248105273e-05   5.179587406595925e-06   3.0887042254033664e-05
-1.8030011248105273e-05   5.179587406595925e-06   3.0887042254033664e-05
-3.144731275346818e-05   4.210273298838789e-06   7.943284613774661e-06
-3.144731275346818e-05   4.210273298838789e-06   7.943284613774661e-06
-3.144731275346818e-05   4.210273298838789e-06   7.943284613774661e-06
-3.144731275346818e-05   4.210273298838789e-06   7.943284613774661e-06
-3.2078566471720877e-05   4.630828446034688e-06   3.115119325054565e-05
-3.2078566471720877e-05   4.630828446034688e-06   3.115119325054565e-05
-3.2078566471720877e-05   4.630828446034688e-06   3.115119325054565e-05
-3.2078566471720877e-05   4.630828446034688e-06   3.115119325054565e-05
-1.8625302908836176e-05   3.63550795925093e-06   9.326279604474975e-06
-1.8625302908836176e-05   3.63550795925093e-06   9.326279604474975e-06
-1.8625302908836176e-05   3.63550795925093e-06   9.326279604474975e-06
-1.8625302908836176e-05   3.63550795925093e-06   9.326279604474975e-06
-2.485911569998933e-05   4.583186090287338e-06   1.9147360711108618e-05
-2.485911569998933e-05   4.583186090287338e-06   1.9147360711108618e-05
-2.485911569998933e-05   4.583186090287338e-06   1.9147360711108618e-05
-2.485911569998933e-05   4.583186090287338e-06   1.9147360711108618e-05
-3.0106183145843773e-05   8.48632515181285e-06   1.4269414617271853e-05
-3.0106183145843773e-05   8.48632515181285e-06   1.4269414617271853e-05
-3.0106183145843773e-05   8.48632515181285e-06   1.4269414617271853e-05
-3.0106183145843773e-05   8.48632515181285e-06   1.4269414617271853e-05
-4.254897764637157e-05   6.927255296249957e-06   -7.404018130278663e-06
-4.254897764637157e-05   6.927255296249957e-06   -7.404018130278663e-06
-4.254897764637157e-05   6.927255296249957e-06   -7.404018130278663e-06
-4.254897764637157e-05   6.927255296249957e-06   -7.404018130278663e-06
-4.386858473327647e-05   8.444535540915246e-06   1.8298982321661873e-05
-4.386858473327647e-05   8.444535540915246e-06   1.8298982321661873e-05
-4.386858473327647e-05   8.444535540915246e-06   1.8298982321661873e-05
-4.386858473327647e-05   8.444535540915246e-06   1.8298982321661873e-05
-3.073720458969168e-05   6.749381151458823e-06   -2.569558617305525e-06
-3.073720458969168e-05   6.749381151458823e-06   -2.569558617305525e-06
-3.073720458969168e-05   6.749381151458823e-06   -2.569558617305525e-06
-3.073720458969168e-05   6.749381151458823e-06   -2.569558617305525e-06
-3.54354324413679e-05   7.512427049489187e-06   4.802993596670691e-06
-3.54354324413679e-05   7.512427049489187e-06   4.802993596670691e-06
-3.54354324413679e-05   7.512427049489187e-06   4.802993596670691e-06
-3.54354324413679e-05   7.512427049489187e-06   4.802993596670691e-06
-3.073720458969179e-05   8.444535540915463e-06   1.93160749553359e-05
-3.073720458969179e-05   8.444535540915463e-06   1.93160749553359e-05
-3.073720458969179e-05   8.444535540915463e-06   1.93160749553359e-05
-3.073720458969179e-05   8.444535540915463e-06   1.93160749553359e-05
-4.3868584733276577e-05   6.749381151458823e-06   -3.5866512509791725e-06
-4.3868584733276577e-05   6.749381151458823e-06   -3.5866512509791725e-06
-4.3868584733276577e-05   6.749381151458823e-06   -3.5866512509791725e-06
-4.3868584733276577e-05   6.749381151458823e-06   -3.5866512509791725e-06
-4.501976694047541e-05   8.272665784476302e-06   2.1790399712828855e-05
-4.501976694047541e-05   8.272665784476302e-06   2.1790399712828855e-05
-4.501976694047541e-05   8.272665784476302e-06   2.1790399712828855e-05
-4.501976694047541e-05   8.272665784476302e-06   2.1790399712828855e-05
-3.144731275346813e-05   6.531431456097787e-06   2.1438333151085637e-07
-3.144731275346813e-05   6.531431456097787e-06   2.1438333151085637e-07
-3.144731275346813e-05   6.531431456097787e-06   2.1438333151085637e-07
-3.144731275346813e-05   6.531431456097787e-06   2.1438333151085637e-07
-3.6833400418925506e-05   7.517523110168534e-06   8.599541114831738e-06
-3.6833400418925506e-05   7.517523110168534e-06   8.599541114831738e-06
-3.6833400418925506e-05   7.517523110168534e-06   8.599541114831738e-06
-3.6833400418925506e-05   7.517523110168534e-06   8.599541114831738e-06
-3.144731275346824e-05   8.272665784476302e-06   2.283514030985631e-05
-3.144731275346824e-05   8.272665784476302e-06   2.283514030985631e-05
-3.144731275346824e-05   8.272665784476302e-06   2.283514030985631e-05
-3.144731275346824e-05   8.272665784476302e-06   2.283514030985631e-05
-4.501976694047541e-05   6.531431456097787e-06   -8.303572655164911e-07
-4.501976694047541e-05   6.531431456097787e-06   -8.303572655164911e-07
-4.501976694047541e-05   6.531431456097787e-06   -8.303572655164911e-07
-4.501976694047541e-05   6.531431456097787e-06   -8.303572655164911e-07
-4.635500349292821e-05   7.514003843568607e-06   2.7857168169137308e-05
-4.635500349292821e-05   7.514003843568607e-06   2.7857168169137308e-05
-4.635500349292821e-05   7.514003843568607e-06   2.7857168169137308e-05
-4.635500349292821e-05   7.514003843568607e-06   2.7857168169137308e-05
-3.207856647172082e-05   5.7996334917099525e-06   5.091728678239963e-06
-3.207856647172082e-05   5.7996334917099525e-06   5.091728678239963e-06
-3.207856647172082e-05   5.7996334917099525e-06   5.091728678239963e-06
-3.207856647172082e-05   5.7996334917099525e-06   5.091728678239963e-06
-3.7144511780505557e-05   7.1987848559440515e-06   1.2695480041007771e-05
-3.7144511780505557e-05   7.1987848559440515e-06   1.2695480041007771e-05
-3.7144511780505557e-05   7.1987848559440515e-06   1.2695480041007771e-05
-3.7144511780505557e-05   7.1987848559440515e-06   1.2695480041007771e-05
1.3898173852128407e-05   -1.5948805292189273e-06   1.9712459436977358e-05
1.3898173852128407e-05   -1.5948805292189273e-06   1.9712459436977358e-05
1.3898173852128407e-05   -1.5948805292189273e-06   1.9712459436977358e-05
1.3898173852128407e-05   -1.5948805292189273e-06   1.9712459436977358e-05
3.6414314901597047e-06   3.2880621343928454e-08   3.594545524033925e-06
3.6414314901597047e-06   3.2880621343928454e-08   3.594545524033925e-06
3.6414314901597047e-06   3.2880621343928454e-08   3.594545524033925e-06
3.6414314901597047e-06   3.2880621343928454e-08   3.594545524033925e-06
3.155901839664002e-06   -2.2134960560649727e-06   1.837664769451029e-05
3.155901839664002e-06   -2.2134960560649727e-06   1.837664769451029e-05
3.155901839664002e-06   -2.2134960560649727e-06   1.837664769451029e-05
3.155901839664002e-06   -2.2134960560649727e-06   1.837664769451029e-05
1.2697825535866057e-05   -5.216239628842538e-07   1.45831827826526e-06
1.2697825535866057e-05   -5.216239628842538e-07   1.45831827826526e-06
1.2697825535866057e-05   -5.216239628842538e-07   1.45831827826526e-06
1.2697825535866057e-05   -5.216239628842538e-07   1.45831827826526e-06
7.855783501684523e-06   -1.1527693441083092e-06   9.90707556396963e-06
7.855783501684523e-06   -1.1527693441083092e-06   9.90707556396963e-06
7.855783501684523e-06   -1.1527693441083092e-06   9.90707556396963e-06
7.855783501684523e-06   -1.1527693441083092e-06   9.90707556396963e-06
1.269782553586607e-05   -2.2134960560649727e-06   1.7361524438601946e-05
1.269782553586607e-05   -2.2134960560649727e-06   1.7361524438601946e-05
1.269782553586607e-05   -2.2134960560649727e-06   1.7361524438601946e-05
1.269782553586607e-05   -2.2134960560649727e-06   1.7361524438601946e-05
3.155901839663995e-06   -5.216239628842538e-07   2.473441534173713e-06
3.155901839663995e-06   -5.216239628842538e-07   2.473441534173713e-06
3.155901839663995e-06   -5.216239628842538e-07   2.473441534173713e-06
3.155901839663995e-06   -5.216239628842538e-07   2.473441534173713e-06
2.589962362029e-06   -2.4263264120315525e-06   1.72456854026572e-05
2.589962362029e-06   -2.4263264120315525e-06   1.72456854026572e-05
2.589962362029e-06   -2.4263264120315525e-06   1.72456854026572e-05
2.589962362029e-06   -2.4263264120315525e-06   1.72456854026572e-05
1.168139805281979e-05   -7.605326599667388e-07   1.093816333433466e-06
1.168139805281979e-05   -7.605326599667388e-07   1.093816333433466e-06
1.168139805281979e-05   -7.605326599667388e-07   1.093816333433466e-06
1.168139805281979e-05   -7.605326599667388e-07   1.093816333433466e-06
7.276112884543384e-06   -1.3948296962132574e-06   8.816536502308594e-06
7.276112884543384e-06   -1.3948296962132574e-06   8.816536502308594e-06
7.276112884543384e-06   -1.3948296962132574e-06   8.816536502308594e-06
7.276112884543384e-06   -1.3948296962132574e-06   8.816536502308594e-06
1.1681398052819817e-05   -2.4263264120315525e-06   1.62462091514179e-05
1.1681398052819817e-05   -2.4263264120315525e-06   1.62462091514179e-05
1.1681398052819817e-05   -2.4263264120315525e-06   1.62462091514179e-05
1.1681398052819817e-05   -2.4263264120315525e-06   1.62462091514179e-05
2.5899623620289933e-06   -7.605326599667388e-07   2.0932925846725223e-06
2.5899623620289933e-06   -7.605326599667388e-07   2.0932925846725223e-06
2.5899623620289933e-06   -7.605326599667388e-07   2.0932925846725223e-06
2.5899623620289933e-06   -7.605326599667388e-07   2.0932925846725223e-06
2.0995755056342623e-06   -2.7072620288981584e-06   1.5937602717910134e-05
2.0995755056342623e-06   -2.7072620288981584e-06   1.5937602717910134e-05
2.0995755056342623e-06   -2.7072620288981584e-06   1.5937602717910134e-05
2.0995755056342623e-06   -2.7072620288981584e-06   1.5937602717910134e-05
1.0491010217230672e-05   -1.1581635170835724e-06   1.0224190914944094e-06
1.0491010217230672e-05   -1.1581635170835724e-06   1.0224190914944094e-06
1.0491010217230672e-05   -1.1581635170835724e-06   1.0224190914944094e-06
1.0491010217230672e-05   -1.1581635170835724e-06   1.0224190914944094e-06
6.420839653524221e-06   -1.5193908992129114e-06   8.022773126949591e-06
6.420839653524221e-06   -1.5193908992129114e-06   8.022773126949591e-06
6.420839653524221e-06   -1.5193908992129114e-06   8.022773126949591e-06
6.420839653524221e-06   -1.5193908992129114e-06   8.022773126949591e-06
3.641431490159715e-06   8.169850290594589e-07   2.7106659709490643e-05
3.641431490159715e-06   8.169850290594589e-07   2.7106659709490643e-05
3.641431490159715e-06   8.169850290594589e-07   2.7106659709490643e-05
3.641431490159715e-06   8.169850290594589e-07   2.7106659709490643e-05
-5.701682205685245e-06   1.5543856619496064e-06   1.1977243929483096e-05
-5.701682205685245e-06   1.5543856619496064e-06   1.1977243929483096e-05
-5.701682205685245e-06   1.5543856619496064e-06   1.1977243929483096e-05
-5.701682205685245e-06   1.5543856619496064e-06   1.1977243929483096e-05
-6.128256124563242e-06   1.909486402826028e-07   2.719163245268677e-05
-6.128256124563242e-06   1.909486402826028e-07   2.719163245268677e-05
-6.128256124563242e-06   1.909486402826028e-07   2.719163245268677e-05
-6.128256124563242e-06   1.909486402826028e-07   2.719163245268677e-05
3.155901839663995e-06   9.280203552052349e-07   1.1275792816687846e-05
3.155901839663995e-06   9.280203552052349e-07   1.1275792816687846e-05
3.155901839663995e-06   9.280203552052349e-07   1.1275792816687846e-05
3.155901839663995e-06   9.280203552052349e-07   1.1275792816687846e-05
-1.3281072172992917e-06   8.100410653845598e-07   1.8819928818853302e-05
-1.3281072172992917e-06   8.100410653845598e-07   1.8819928818853302e-05
-1.3281072172992917e-06   8.100410653845598e-07   1.8819928818853302e-05
-1.3281072172992917e-06   8.100410653845598e-07   1.8819928818853302e-05
3.155901839664002e-06   1.909486402826028e-07   2.674938942373291e-05
3.155901839664002e-06   1.909486402826028e-07   2.674938942373291e-05
3.155901839664002e-06   1.909486402826028e-07   2.674938942373291e-05
3.155901839664002e-06   1.909486402826028e-07   2.674938942373291e-05
-6.128256124563242e-06   9.280203552054517e-07   1.1718035845641639e-05
-6.128256124563242e-06   9.280203552054517e-07   1.1718035845641639e-05
-6.128256124563242e-06   9.280203552054517e-07   1.1718035845641639e-05
-6.128256124563242e-06   9.280203552054517e-07   1.1718035845641639e-05
-6.567306601107275e-06   -3.211382009187663e-07   2.7016081803740146e-05
-6.567306601107275e-06   -3.211382009187663e-07   2.7016081803740146e-05
-6.567306601107275e-06   -3.211382009187663e-07   2.7016081803740146e-05
-6.567306601107275e-06   -3.211382009187663e-07   2.7016081803740146e-05
2.5899623620289933e-06   3.9734887815234994e-07   1.1322874617737146e-05
2.5899623620289933e-06   3.9734887815234994e-07   1.1322874617737146e-05
2.5899623620289933e-06   3.9734887815234994e-07   1.1322874617737146e-05
2.5899623620289933e-06   3.9734887815234994e-07   1.1322874617737146e-05
-1.783514717800413e-06   3.7329425046244737e-07   1.8626435860733865e-05
-1.783514717800413e-06   3.7329425046244737e-07   1.8626435860733865e-05
-1.783514717800413e-06   3.7329425046244737e-07   1.8626435860733865e-05
-1.783514717800413e-06   3.7329425046244737e-07   1.8626435860733865e-05
2.589962362029e-06   -3.211382009187663e-07   2.6584989556297542e-05
2.589962362029e-06   -3.211382009187663e-07   2.6584989556297542e-05
2.589962362029e-06   -3.211382009187663e-07   2.6584989556297542e-05
2.589962362029e-06   -3.211382009187663e-07   2.6584989556297542e-05
-6.567306601107289e-06   3.973488781525668e-07   1.1753966865179913e-05
-6.567306601107289e-06   3.973488781525668e-07   1.1753966865179913e-05
-6.567306601107289e-06   3.973488781525668e-07   1.1753966865179913e-05
-6.567306601107289e-06   3.973488781525668e-07   1.1753966865179913e-05
-6.999829741750031e-06   -8.25550340617133e-07   2.7370578274168002e-05
-6.999829741750031e-06   -8.25550340617133e-07   2.7370578274168002e-05
-6.999829741750031e-06   -8.25550340617133e-07   2.7370578274168002e-05
-6.999829741750031e-06   -8.25550340617133e-07   2.7370578274168002e-05
2.099575505634259e-06   -1.4474555902173683e-07   1.1796419992903804e-05
2.099575505634259e-06   -1.4474555902173683e-07   1.1796419992903804e-05
2.099575505634259e-06   -1.4474555902173683e-07   1.1796419992903804e-05
2.099575505634259e-06   -1.4474555902173683e-07   1.1796419992903804e-05
-2.1690242554652586e-06   -1.843543475082282e-08   1.8834966853507524e-05
-2.1690242554652586e-06   -1.843543475082282e-08   1.8834966853507524e-05
-2.1690242554652586e-06   -1.843543475082282e-08   1.8834966853507524e-05
-2.1690242554652586e-06   -1.843543475082282e-08   1.8834966853507524e-05
-5.701682205685245e-06   3.0790047849814546e-06   3.0058343268761305e-05
-5.701682205685245e-06   3.0790047849814546e-06   3.0058343268761305e-05
-5.701682205685245e-06   3.0790047849814546e-06   3.0058343268761305e-05
-5.701682205685245e-06   3.0790047849814546e-06   3.0058343268761305e-05
-1.4885816419054558e-05   2.9030401993623486e-06   1.4645874161774305e-05
-1.4885816419054558e-05   2.9030401993623486e-06   1.4645874161774305e-05
-1.4885816419054558e-05   2.9030401993623486e-06   1.4645874161774305e-05
-1.4885816419054558e-05   2.9030401993623486e-06   1.4645874161774305e-05
-1.5295151031070864e-05   2.5103267329573686e-06   2.9792611193570203e-05
-1.5295151031070864e-05   2.5103267329573686e-06   2.9792611193570203e-05
-1.5295151031070864e-05   2.5103267329573686e-06   2.9792611193570203e-05
-1.5295151031070864e-05   2.5103267329573686e-06   2.9792611193570203e-05
-6.128256124563215e-06   2.325750997986308e-06   1.4625198457040369e-05
-6.128256124563215e-06   2.325750997986308e-06   1.4625198457040369e-05
-6.128256124563215e-06   2.325750997986308e-06   1.4625198457040369e-05
-6.128256124563215e-06   2.325750997986308e-06   1.4625198457040369e-05
-1.052236721777672e-05   2.639751805752228e-06   2.176031646107079e-05
-1.052236721777672e-05   2.639751805752228e-06   2.176031646107079e-05
-1.052236721777672e-05   2.639751805752228e-06   2.176031646107079e-05
-1.052236721777672e-05   2.639751805752228e-06   2.176031646107079e-05
-6.128256124563242e-06   2.5103267329573686e-06   2.9903356634552905e-05
-6.128256124563242e-06   2.5103267329573686e-06   2.9903356634552905e-05
-6.128256124563242e-06   2.5103267329573686e-06   2.9903356634552905e-05
-6.128256124563242e-06   2.5103267329573686e-06   2.9903356634552905e-05
-1.5295151031070837e-05   2.325750997986308e-06   1.4514453016057694e-05
-1.5295151031070837e-05   2.325750997986308e-06   1.4514453016057694e-05
-1.5295151031070837e-05   2.325750997986308e-06   1.4514453016057694e-05
-1.5295151031070837e-05   2.325750997986308e-06   1.4514453016057694e-05
-1.5717890733991474e-05   1.9481782230585873e-06   2.999006566879606e-05
-1.5717890733991474e-05   1.9481782230585873e-06   2.999006566879606e-05
-1.5717890733991474e-05   1.9481782230585873e-06   2.999006566879606e-05
-1.5717890733991474e-05   1.9481782230585873e-06   2.999006566879606e-05
-6.567306601107262e-06   1.7514228661372113e-06   1.4857145328142244e-05
-6.567306601107262e-06   1.7514228661372113e-06   1.4857145328142244e-05
-6.567306601107262e-06   1.7514228661372113e-06   1.4857145328142244e-05
-6.567306601107262e-06   1.7514228661372113e-06   1.4857145328142244e-05
-1.0886791897153324e-05   2.2007279728661778e-06   2.1786704424181405e-05
-1.0886791897153324e-05   2.2007279728661778e-06   2.1786704424181405e-05
-1.0886791897153324e-05   2.2007279728661778e-06   2.1786704424181405e-05
-1.0886791897153324e-05   2.2007279728661778e-06   2.1786704424181405e-05
-6.567306601107289e-06   1.9481782230585873e-06   3.0108118882949102e-05
-6.567306601107289e-06   1.9481782230585873e-06   3.0108118882949102e-05
-6.567306601107289e-06   1.9481782230585873e-06   3.0108118882949102e-05
-6.567306601107289e-06   1.9481782230585873e-06   3.0108118882949102e-05
-1.5717890733991447e-05   1.7514228661372113e-06   1.4739092113989446e-05
-1.5717890733991447e-05   1.7514228661372113e-06   1.4739092113989446e-05
-1.5717890733991447e-05   1.7514228661372113e-06   1.4739092113989446e-05
-1.5717890733991447e-05   1.7514228661372113e-06   1.4739092113989446e-05
-1.6134017166503006e-05   1.4070084183380027e-06   3.0473713959424395e-05
-1.6134017166503006e-05   1.4070084183380027e-06   3.0473713959424395e-05
-1.6134017166503006e-05   1.4070084183380027e-06   3.0473713959424395e-05
-1.6134017166503006e-05   1.4070084183380027e-06   3.0473713959424395e-05
-6.999829741750018e-06   1.201531419611811e-06   1.5373354450738945e-05
-6.999829741750018e-06   1.201531419611811e-06   1.5373354450738945e-05
-6.999829741750018e-06   1.201531419611811e-06   1.5373354450738945e-05
-6.999829741750018e-06   1.201531419611811e-06   1.5373354450738945e-05
-1.127443700782494e-05   1.7705201178167679e-06   2.2156306675274377e-05
-1.127443700782494e-05   1.7705201178167679e-06   2.2156306675274377e-05
-1.127443700782494e-05   1.7705201178167679e-06   2.2156306675274377e-05
-1.127443700782494e-05   1.7705201178167679e-06   2.2156306675274377e-05
-1.4885816419054558e-05   5.279731035224286e-06   2.6480271128621457e-05
-1.4885816419054558e-05   5.279731035224286e-06   2.6480271128621457e-05
-1.4885816419054558e-05   5.279731035224286e-06   2.6480271128621457e-05
-1.4885816419054558e-05   5.279731035224286e-06   2.6480271128621457e-05
-2.3903764600925303e-05   4.313393901603756e-06   1.0870555211997968e-05
-2.3903764600925303e-05   4.313393901603756e-06   1.0870555211997968e-05
-2.3903764600925303e-05   4.313393901603756e-06   1.0870555211997968e-05
-2.3903764600925303e-05   4.313393901603756e-06   1.0870555211997968e-05
-2.4349972579776216e-05   4.724320995607486e-06   2.599252765417455e-05
-2.4349972579776216e-05   4.724320995607486e-06   2.599252765417455e-05
-2.4349972579776216e-05   4.724320995607486e-06   2.599252765417455e-05
-2.4349972579776216e-05   4.724320995607486e-06   2.599252765417455e-05
-1.529515103107081e-05   3.7312780217023216e-06   1.1496984190675463e-05
-1.529515103107081e-05   3.7312780217023216e-06   1.1496984190675463e-05
-1.529515103107081e-05   3.7312780217023216e-06   1.1496984190675463e-05
-1.529515103107081e-05   3.7312780217023216e-06   1.1496984190675463e-05
-1.9561374408699354e-05   4.438572868055565e-06   1.818297957891207e-05
-1.9561374408699354e-05   4.438572868055565e-06   1.818297957891207e-05
-1.9561374408699354e-05   4.438572868055565e-06   1.818297957891207e-05
-1.9561374408699354e-05   4.438572868055565e-06   1.818297957891207e-05
-1.5295151031070864e-05   4.724320995607486e-06   2.6588353438517626e-05
-1.5295151031070864e-05   4.724320995607486e-06   2.6588353438517626e-05
-1.5295151031070864e-05   4.724320995607486e-06   2.6588353438517626e-05
-1.5295151031070864e-05   4.724320995607486e-06   2.6588353438517626e-05
-2.4349972579776108e-05   3.7312780217023216e-06   1.0901158406332603e-05
-2.4349972579776108e-05   3.7312780217023216e-06   1.0901158406332603e-05
-2.4349972579776108e-05   3.7312780217023216e-06   1.0901158406332603e-05
-2.4349972579776108e-05   3.7312780217023216e-06   1.0901158406332603e-05
-2.4878359467526967e-05   4.210273298838789e-06   2.6847727880617307e-05
-2.4878359467526967e-05   4.210273298838789e-06   2.6847727880617307e-05
-2.4878359467526967e-05   4.210273298838789e-06   2.6847727880617307e-05
-2.4878359467526967e-05   4.210273298838789e-06   2.6847727880617307e-05
-1.571789073399142e-05   3.2019523651450645e-06   1.2185272551607591e-05
-1.571789073399142e-05   3.2019523651450645e-06   1.2185272551607591e-05
-1.571789073399142e-05   3.2019523651450645e-06   1.2185272551607591e-05
-1.571789073399142e-05   3.2019523651450645e-06   1.2185272551607591e-05
-1.9850399959047958e-05   4.026900042720114e-06   1.857781932015684e-05
-1.9850399959047958e-05   4.026900042720114e-06   1.857781932015684e-05
-1.9850399959047958e-05   4.026900042720114e-06   1.857781932015684e-05
-1.9850399959047958e-05   4.026900042720114e-06   1.857781932015684e-05
-1.5717890733991474e-05   4.210273298838789e-06   2.745272044083315e-05
-1.5717890733991474e-05   4.210273298838789e-06   2.745272044083315e-05
-1.5717890733991474e-05   4.210273298838789e-06   2.745272044083315e-05
-1.5717890733991474e-05   4.210273298838789e-06   2.745272044083315e-05
-2.487835946752686e-05   3.2019523651450645e-06   1.1580279991391421e-05
-2.487835946752686e-05   3.2019523651450645e-06   1.1580279991391421e-05
-2.487835946752686e-05   3.2019523651450645e-06   1.1580279991391421e-05
-2.487835946752686e-05   3.2019523651450645e-06   1.1580279991391421e-05
-2.5331719050561787e-05   3.635507959250713e-06   2.7673337253453006e-05
-2.5331719050561787e-05   3.635507959250713e-06   2.7673337253453006e-05
-2.5331719050561787e-05   3.635507959250713e-06   2.7673337253453006e-05
-2.5331719050561787e-05   3.635507959250713e-06   2.7673337253453006e-05
-1.6134017166502952e-05   2.6361929671117786e-06   1.294342310863896e-05
-1.6134017166502952e-05   2.6361929671117786e-06   1.294342310863896e-05
-1.6134017166502952e-05   2.6361929671117786e-06   1.294342310863896e-05
-1.6134017166502952e-05   2.6361929671117786e-06   1.294342310863896e-05
-2.0347612761113728e-05   3.6145376085545532e-06   1.937907564812549e-05
-2.0347612761113728e-05   3.6145376085545532e-06   1.937907564812549e-05
-2.0347612761113728e-05   3.6145376085545532e-06   1.937907564812549e-05
-2.0347612761113728e-05   3.6145376085545532e-06   1.937907564812549e-05
-2.3903764600925357e-05   6.927255296249957e-06   1.237379549903989e-05
-2.3903764600925357e-05   6.927255296249957e-06   1.237379549903989e-05
-2.3903764600925357e-05   6.927255296249957e-06   1.237379549903989e-05
-2.3903764600925357e-05   6.927255296249957e-06   1.237379549903989e-05
-3.203921305691091e-05   5.308170960146305e-06   -2.1567358625982974e-06
-3.203921305691091e-05   5.308170960146305e-06   -2.1567358625982974e-06
-3.203921305691091e-05   5.308170960146305e-06   -2.1567358625982974e-06
-3.203921305691091e-05   5.308170960146305e-06   -2.1567358625982974e-06
-3.318321806425182e-05   6.749381151458823e-06   1.5259290259617446e-05
-3.318321806425182e-05   6.749381151458823e-06   1.5259290259617446e-05
-3.318321806425182e-05   6.749381151458823e-06   1.5259290259617446e-05
-3.318321806425182e-05   6.749381151458823e-06   1.5259290259617446e-05
-2.4349972579776108e-05   5.009893376502813e-06   1.5809071171317846e-06
-2.4349972579776108e-05   5.009893376502813e-06   1.5809071171317846e-06
-2.4349972579776108e-05   5.009893376502813e-06   1.5809071171317846e-06
-2.4349972579776108e-05   5.009893376502813e-06   1.5809071171317846e-06
-2.733583265592481e-05   5.888289755826654e-06   6.030302749786471e-06
-2.733583265592481e-05   5.888289755826654e-06   6.030302749786471e-06
-2.733583265592481e-05   5.888289755826654e-06   6.030302749786471e-06
-2.733583265592481e-05   5.888289755826654e-06   6.030302749786471e-06
-2.4349972579776108e-05   6.749381151458823e-06   1.6302982924590943e-05
-2.4349972579776108e-05   6.749381151458823e-06   1.6302982924590943e-05
-2.4349972579776108e-05   6.749381151458823e-06   1.6302982924590943e-05
-2.4349972579776108e-05   6.749381151458823e-06   1.6302982924590943e-05
-3.318321806425182e-05   5.009893376502813e-06   5.372144521580699e-07
-3.318321806425182e-05   5.009893376502813e-06   5.372144521580699e-07
-3.318321806425182e-05   5.009893376502813e-06   5.372144521580699e-07
-3.318321806425182e-05   5.009893376502813e-06   5.372144521580699e-07
-3.4168068379420184e-05   6.531431456097787e-06   1.805627535418435e-05
-3.4168068379420184e-05   6.531431456097787e-06   1.805627535418435e-05
-3.4168068379420184e-05   6.531431456097787e-06   1.805627535418435e-05
-3.4168068379420184e-05   6.531431456097787e-06   1.805627535418435e-05
-2.487835946752686e-05   4.760512715816772e-06   3.6359784118643193e-06
-2.487835946752686e-05   4.760512715816772e-06   3.6359784118643193e-06
-2.487835946752686e-05   4.760512715816772e-06   3.6359784118643193e-06
-2.487835946752686e-05   4.760512715816772e-06   3.6359784118643193e-06
-2.8434472155151273e-05   5.8110713160874645e-06   8.932497731076422e-06
-2.8434472155151273e-05   5.8110713160874645e-06   8.932497731076422e-06
-2.8434472155151273e-05   5.8110713160874645e-06   8.932497731076422e-06
-2.8434472155151273e-05   5.8110713160874645e-06   8.932497731076422e-06
-2.4878359467526913e-05   6.531431456097787e-06   1.9118826598353068e-05
-2.4878359467526913e-05   6.531431456097787e-06   1.9118826598353068e-05
-2.4878359467526913e-05   6.531431456097787e-06   1.9118826598353068e-05
-2.4878359467526913e-05   6.531431456097787e-06   1.9118826598353068e-05
-3.4168068379420184e-05   4.760512715816772e-06   2.5734271676957103e-06
-3.4168068379420184e-05   4.760512715816772e-06   2.5734271676957103e-06
-3.4168068379420184e-05   4.760512715816772e-06   2.5734271676957103e-06
-3.4168068379420184e-05   4.760512715816772e-06   2.5734271676957103e-06
-3.5346641121178346e-05   5.7996334917099525e-06   2.3005372899777233e-05
-3.5346641121178346e-05   5.7996334917099525e-06   2.3005372899777233e-05
-3.5346641121178346e-05   5.7996334917099525e-06   2.3005372899777233e-05
-3.5346641121178346e-05   5.7996334917099525e-06   2.3005372899777233e-05
-2.533171905056168e-05   4.0819572925245105e-06   7.344441834927751e-06
-2.533171905056168e-05   4.0819572925245105e-06   7.344441834927751e-06
-2.533171905056168e-05   4.0819572925245105e-06   7.344441834927751e-06
-2.533171905056168e-05   4.0819572925245105e-06   7.344441834927751e-06
-2.870784536876007e-05   5.502501820667596e-06   1.211899231503969e-05
-2.870784536876007e-05   5.502501820667596e-06   1.211899231503969e-05
-2.870784536876007e-05   5.502501820667596e-06   1.211899231503969e-05
-2.870784536876007e-05   5.502501820667596e-06   1.211899231503969e-05
2.803848556404579e-06   3.2880621343928454e-08   1.4717856207437335e-05
2.803848556404579e-06   3.2880621343928454e-08   1.4717856207437335e-05
2.803848556404579e-06   3.2880621343928454e-08   1.4717856207437335e-05
2.803848556404579e-06   3.2880621343928454e-08   1.4717856207437335e-05
-3.0708846109347826e-06   1.5961537521346977e-06   5.864598140346237e-06
-3.0708846109347826e-06   1.5961537521346977e-06   5.864598140346237e-06
-3.0708846109347826e-06   1.5961537521346977e-06   5.864598140346237e-06
-3.0708846109347826e-06   1.5961537521346977e-06   5.864598140346237e-06
-3.4150353745288917e-06   -5.216239628842538e-07   1.4514476961606038e-05
-3.4150353745288917e-06   -5.216239628842538e-07   1.4514476961606038e-05
-3.4150353745288917e-06   -5.216239628842538e-07   1.4514476961606038e-05
-3.4150353745288917e-06   -5.216239628842538e-07   1.4514476961606038e-05
1.7566949763384287e-06   1.0788518994682373e-06   4.934640859415832e-06
1.7566949763384287e-06   1.0788518994682373e-06   4.934640859415832e-06
1.7566949763384287e-06   1.0788518994682373e-06   4.934640859415832e-06
1.7566949763384287e-06   1.0788518994682373e-06   4.934640859415832e-06
-6.194384203905258e-07   4.5793732250491714e-07   9.267411933475372e-06
-6.194384203905258e-07   4.5793732250491714e-07   9.267411933475372e-06
-6.194384203905258e-07   4.5793732250491714e-07   9.267411933475372e-06
-6.194384203905258e-07   4.5793732250491714e-07   9.267411933475372e-06
1.7566949763384287e-06   -5.216239628842538e-07   1.355419144419463e-05
1.7566949763384287e-06   -5.216239628842538e-07   1.355419144419463e-05
1.7566949763384287e-06   -5.216239628842538e-07   1.355419144419463e-05
1.7566949763384287e-06   -5.216239628842538e-07   1.355419144419463e-05
-3.4150353745288917e-06   1.0788518994682373e-06   5.8949263768272395e-06
-3.4150353745288917e-06   1.0788518994682373e-06   5.8949263768272395e-06
-3.4150353745288917e-06   1.0788518994682373e-06   5.8949263768272395e-06
-3.4150353745288917e-06   1.0788518994682373e-06   5.8949263768272395e-06
-3.840219153826648e-06   -7.605326599667388e-07   1.4133399376948879e-05
-3.840219153826648e-06   -7.605326599667388e-07   1.4133399376948879e-05
-3.840219153826648e-06   -7.605326599667388e-07   1.4133399376948879e-05
-3.840219153826648e-06   -7.605326599667388e-07   1.4133399376948879e-05
8.479087105994575e-07   7.943307863873556e-07   5.3869348684262896e-06
8.479087105994575e-07   7.943307863873556e-07   5.3869348684262896e-06
8.479087105994575e-07   7.943307863873556e-07   5.3869348684262896e-06
8.479087105994575e-07   7.943307863873556e-07   5.3869348684262896e-06
-1.1842991504426318e-06   2.3753124836576461e-07   9.108027692976108e-06
-1.1842991504426318e-06   2.3753124836576461e-07   9.108027692976108e-06
-1.1842991504426318e-06   2.3753124836576461e-07   9.108027692976108e-06
-1.1842991504426318e-06   2.3753124836576461e-07   9.108027692976108e-06
8.479087105994575e-07   -7.605326599667388e-07   1.3200481309136422e-05
8.479087105994575e-07   -7.605326599667388e-07   1.3200481309136422e-05
8.479087105994575e-07   -7.605326599667388e-07   1.3200481309136422e-05
8.479087105994575e-07   -7.605326599667388e-07   1.3200481309136422e-05
-3.840219153826641e-06   7.943307863873556e-07   6.319852936238638e-06
-3.840219153826641e-06   7.943307863873556e-07   6.319852936238638e-06
-3.840219153826641e-06   7.943307863873556e-07   6.319852936238638e-06
-3.840219153826641e-06   7.943307863873556e-07   6.319852936238638e-06
-4.195651288987483e-06   -1.1581635170837892e-06   1.3995884573041813e-05
-4.195651288987483e-06   -1.1581635170837892e-06   1.3995884573041813e-05
-4.195651288987483e-06   -1.1581635170837892e-06   1.3995884573041813e-05
-4.195651288987483e-06   -1.1581635170837892e-06   1.3995884573041813e-05
-2.9232129342672227e-07   1.9110060543226816e-07   6.6807761069310925e-06
-2.9232129342672227e-07   1.9110060543226816e-07   6.6807761069310925e-06
-2.9232129342672227e-07   1.9110060543226816e-07   6.6807761069310925e-06
-2.9232129342672227e-07   1.9110060543226816e-07   6.6807761069310925e-06
-1.7935179252996358e-06   3.5839731689357723e-08   9.275927017631652e-06
-1.7935179252996358e-06   3.5839731689357723e-08   9.275927017631652e-06
-1.7935179252996358e-06   3.5839731689357723e-08   9.275927017631652e-06
-1.7935179252996358e-06   3.5839731689357723e-08   9.275927017631652e-06
-3.0708846109347826e-06   1.5543856619496064e-06   2.3596078111626836e-05
-3.0708846109347826e-06   1.5543856619496064e-06   2.3596078111626836e-05
-3.0708846109347826e-06   1.5543856619496064e-06   2.3596078111626836e-05
-3.0708846109347826e-06   1.5543856619496064e-06   2.3596078111626836e-05
-7.987646706480918e-06   1.8632637200135518e-06   1.558680145388833e-05
-7.987646706480918e-06   1.8632637200135518e-06   1.558680145388833e-05
-7.987646706480918e-06   1.8632637200135518e-06   1.558680145388833e-05
-7.987646706480918e-06   1.8632637200135518e-06   1.558680145388833e-05
-8.24728899015855e-06   9.280203552052349e-07   2.3531434098361778e-05
-8.24728899015855e-06   9.280203552052349e-07   2.3531434098361778e-05
-8.24728899015855e-06   9.280203552052349e-07   2.3531434098361778e-05
-8.24728899015855e-06   9.280203552052349e-07   2.3531434098361778e-05
-3.4150353745288917e-06   1.2856967789413604e-06   1.526307221807081e-05
-3.4150353745288917e-06   1.2856967789413604e-06   1.526307221807081e-05
-3.4150353745288917e-06   1.2856967789413604e-06   1.526307221807081e-05
-3.4150353745288917e-06   1.2856967789413604e-06   1.526307221807081e-05
-5.7143038348353225e-06   1.3407136483249617e-06   1.906217619695133e-05
-5.7143038348353225e-06   1.3407136483249617e-06   1.906217619695133e-05
-5.7143038348353225e-06   1.3407136483249617e-06   1.906217619695133e-05
-5.7143038348353225e-06   1.3407136483249617e-06   1.906217619695133e-05
-3.415035374528895e-06   9.280203552052349e-07   2.3316828244119995e-05
-3.415035374528895e-06   9.280203552052349e-07   2.3316828244119995e-05
-3.415035374528895e-06   9.280203552052349e-07   2.3316828244119995e-05
-3.415035374528895e-06   9.280203552052349e-07   2.3316828244119995e-05
-8.247288990158522e-06   1.2856967789413604e-06   1.5477678072312452e-05
-8.247288990158522e-06   1.2856967789413604e-06   1.5477678072312452e-05
-8.247288990158522e-06   1.2856967789413604e-06   1.5477678072312452e-05
-8.247288990158522e-06   1.2856967789413604e-06   1.5477678072312452e-05
-8.515109536743536e-06   3.9734887815234994e-07   2.35762207882092e-05
-8.515109536743536e-06   3.9734887815234994e-07   2.35762207882092e-05
-8.515109536743536e-06   3.9734887815234994e-07   2.35762207882092e-05
-8.515109536743536e-06   3.9734887815234994e-07   2.35762207882092e-05
-3.840219153826641e-06   7.527478418119368e-07   1.5571497438485365e-05
-3.840219153826641e-06   7.527478418119368e-07   1.5571497438485365e-05
-3.840219153826641e-06   7.527478418119368e-07   1.5571497438485365e-05
-3.840219153826641e-06   7.527478418119368e-07   1.5571497438485365e-05
-5.979440292169511e-06   9.187557271233843e-07   1.903726127120354e-05
-5.979440292169511e-06   9.187557271233843e-07   1.903726127120354e-05
-5.979440292169511e-06   9.187557271233843e-07   1.903726127120354e-05
-5.979440292169511e-06   9.187557271233843e-07   1.903726127120354e-05
-3.840219153826648e-06   3.973488781525668e-07   2.3362981410013448e-05
-3.840219153826648e-06   3.973488781525668e-07   2.3362981410013448e-05
-3.840219153826648e-06   3.973488781525668e-07   2.3362981410013448e-05
-3.840219153826648e-06   3.973488781525668e-07   2.3362981410013448e-05
-8.515109536743536e-06   7.527478418119368e-07   1.578473681668115e-05
-8.515109536743536e-06   7.527478418119368e-07   1.578473681668115e-05
-8.515109536743536e-06   7.527478418119368e-07   1.578473681668115e-05
-8.515109536743536e-06   7.527478418119368e-07   1.578473681668115e-05
-8.777864316986947e-06   -1.4474555902195367e-07   2.4032616471642075e-05
-8.777864316986947e-06   -1.4474555902195367e-07   2.4032616471642075e-05
-8.777864316986947e-06   -1.4474555902195367e-07   2.4032616471642075e-05
-8.777864316986947e-06   -1.4474555902195367e-07   2.4032616471642075e-05
-4.195651288987476e-06   1.7557128144363686e-07   1.6203404654030445e-05
-4.195651288987476e-06   1.7557128144363686e-07   1.6203404654030445e-05
-4.195651288987476e-06   1.7557128144363686e-07   1.6203404654030445e-05
-4.195651288987476e-06   1.7557128144363686e-07   1.6203404654030445e-05
-6.244200443135566e-06   5.042161768356763e-07   1.9420466307041957e-05
-6.244200443135566e-06   5.042161768356763e-07   1.9420466307041957e-05
-6.244200443135566e-06   5.042161768356763e-07   1.9420466307041957e-05
-6.244200443135566e-06   5.042161768356763e-07   1.9420466307041957e-05
-7.987646706480905e-06   2.9030401993623486e-06   2.655561393012781e-05
-7.987646706480905e-06   2.9030401993623486e-06   2.655561393012781e-05
-7.987646706480905e-06   2.9030401993623486e-06   2.655561393012781e-05
-7.987646706480905e-06   2.9030401993623486e-06   2.655561393012781e-05
-1.2886447419821202e-05   2.235737520387706e-06   1.7990564467176026e-05
-1.2886447419821202e-05   2.235737520387706e-06   1.7990564467176026e-05
-1.2886447419821202e-05   2.235737520387706e-06   1.7990564467176026e-05
-1.2886447419821202e-05   2.235737520387706e-06   1.7990564467176026e-05
-1.3106260254448668e-05   2.325750997986308e-06   2.6063545305368566e-05
-1.3106260254448668e-05   2.325750997986308e-06   2.6063545305368566e-05
-1.3106260254448668e-05   2.325750997986308e-06   2.6063545305368566e-05
-1.3106260254448668e-05   2.325750997986308e-06   2.6063545305368566e-05
-8.247288990158522e-06   1.7006653239995482e-06   1.834031126927708e-05
-8.247288990158522e-06   1.7006653239995482e-06   1.834031126927708e-05
-8.247288990158522e-06   1.7006653239995482e-06   1.834031126927708e-05
-8.247288990158522e-06   1.7006653239995482e-06   1.834031126927708e-05
-1.056228442643262e-05   2.246924372396571e-06   2.18708815673623e-05
-1.056228442643262e-05   2.246924372396571e-06   2.18708815673623e-05
-1.056228442643262e-05   2.246924372396571e-06   2.18708815673623e-05
-1.056228442643262e-05   2.246924372396571e-06   2.18708815673623e-05
-8.247288990158522e-06   2.325750997986308e-06   2.6438596709760643e-05
-8.247288990158522e-06   2.325750997986308e-06   2.6438596709760643e-05
-8.247288990158522e-06   2.325750997986308e-06   2.6438596709760643e-05
-8.247288990158522e-06   2.325750997986308e-06   2.6438596709760643e-05
-1.3106260254448668e-05   1.7006653239995482e-06   1.7965259864884976e-05
-1.3106260254448668e-05   1.7006653239995482e-06   1.7965259864884976e-05
-1.3106260254448668e-05   1.7006653239995482e-06   1.7965259864884976e-05
-1.3106260254448668e-05   1.7006653239995482e-06   1.7965259864884976e-05
-1.334177904452734e-05   1.7514228661372113e-06   2.6322663038353886e-05
-1.334177904452734e-05   1.7514228661372113e-06   2.6322663038353886e-05
-1.334177904452734e-05   1.7514228661372113e-06   2.6322663038353886e-05
-1.334177904452734e-05   1.7514228661372113e-06   2.6322663038353886e-05
-8.515109536743536e-06   1.1568625114406197e-06   1.8634950071532038e-05
-8.515109536743536e-06   1.1568625114406197e-06   1.8634950071532038e-05
-8.515109536743536e-06   1.1568625114406197e-06   1.8634950071532038e-05
-8.515109536743536e-06   1.1568625114406197e-06   1.8634950071532038e-05
-1.07500970984072e-05   1.8185396532901556e-06   2.196292305586177e-05
-1.07500970984072e-05   1.8185396532901556e-06   2.196292305586177e-05
-1.07500970984072e-05   1.8185396532901556e-06   2.196292305586177e-05
-1.07500970984072e-05   1.8185396532901556e-06   2.196292305586177e-05
-8.515109536743536e-06   1.7514228661372113e-06   2.667939925117156e-05
-8.515109536743536e-06   1.7514228661372113e-06   2.667939925117156e-05
-8.515109536743536e-06   1.7514228661372113e-06   2.667939925117156e-05
-8.515109536743536e-06   1.7514228661372113e-06   2.667939925117156e-05
-1.3341779044527313e-05   1.1568625114406197e-06   1.8278213858714094e-05
-1.3341779044527313e-05   1.1568625114406197e-06   1.8278213858714094e-05
-1.3341779044527313e-05   1.1568625114406197e-06   1.8278213858714094e-05
-1.3341779044527313e-05   1.1568625114406197e-06   1.8278213858714094e-05
-1.3572436438762163e-05   1.201531419611811e-06   2.6864999002611028e-05
-1.3572436438762163e-05   1.201531419611811e-06   2.6864999002611028e-05
-1.3572436438762163e-05   1.201531419611811e-06   2.6864999002611028e-05
-1.3572436438762163e-05   1.201531419611811e-06   2.6864999002611028e-05
-8.777864316986947e-06   6.414163230974252e-07   1.9210114524227694e-05
-8.777864316986947e-06   6.414163230974252e-07   1.9210114524227694e-05
-8.777864316986947e-06   6.414163230974252e-07   1.9210114524227694e-05
-8.777864316986947e-06   6.414163230974252e-07   1.9210114524227694e-05
-1.0959349757707037e-05   1.3966346300577862e-06   2.2392792607918248e-05
-1.0959349757707037e-05   1.3966346300577862e-06   2.2392792607918248e-05
-1.0959349757707037e-05   1.3966346300577862e-06   2.2392792607918248e-05
-1.0959349757707037e-05   1.3966346300577862e-06   2.2392792607918248e-05
-1.2886447419821256e-05   4.313393901603756e-06   2.2959715653139202e-05
-1.2886447419821256e-05   4.313393901603756e-06   2.2959715653139202e-05
-1.2886447419821256e-05   4.313393901603756e-06   2.2959715653139202e-05
-1.2886447419821256e-05   4.313393901603756e-06   2.2959715653139202e-05
-1.7705127371249094e-05   3.0233531630483946e-06   1.4154557957626282e-05
-1.7705127371249094e-05   3.0233531630483946e-06   1.4154557957626282e-05
-1.7705127371249094e-05   3.0233531630483946e-06   1.4154557957626282e-05
-1.7705127371249094e-05   3.0233531630483946e-06   1.4154557957626282e-05
-1.7946675108691736e-05   3.7312780217023216e-06   2.2283568422327982e-05
-1.7946675108691736e-05   3.7312780217023216e-06   2.2283568422327982e-05
-1.7946675108691736e-05   3.7312780217023216e-06   2.2283568422327982e-05
-1.7946675108691736e-05   3.7312780217023216e-06   2.2283568422327982e-05
-1.3106260254448668e-05   2.46043125893831e-06   1.4978718389581402e-05
-1.3106260254448668e-05   2.46043125893831e-06   1.4978718389581402e-05
-1.3106260254448668e-05   2.46043125893831e-06   1.4978718389581402e-05
-1.3106260254448668e-05   2.46043125893831e-06   1.4978718389581402e-05
-1.5378477856957753e-05   3.3530926934804885e-06   1.8230150866371147e-05
-1.5378477856957753e-05   3.3530926934804885e-06   1.8230150866371147e-05
-1.5378477856957753e-05   3.3530926934804885e-06   1.8230150866371147e-05
-1.5378477856957753e-05   3.3530926934804885e-06   1.8230150866371147e-05
-1.3106260254448668e-05   3.7312780217023216e-06   2.3046076479986497e-05
-1.3106260254448668e-05   3.7312780217023216e-06   2.3046076479986497e-05
-1.3106260254448668e-05   3.7312780217023216e-06   2.3046076479986497e-05
-1.3106260254448668e-05   3.7312780217023216e-06   2.3046076479986497e-05
-1.7946675108691736e-05   2.4604312589382015e-06   1.421621033192294e-05
-1.7946675108691736e-05   2.4604312589382015e-06   1.421621033192294e-05
-1.7946675108691736e-05   2.4604312589382015e-06   1.421621033192294e-05
-1.7946675108691736e-05   2.4604312589382015e-06   1.421621033192294e-05
-1.8280340418229868e-05   3.2019523651452813e-06   2.3023414574345827e-05
-1.8280340418229868e-05   3.2019523651452813e-06   2.3023414574345827e-05
-1.8280340418229868e-05   3.2019523651452813e-06   2.3023414574345827e-05
-1.8280340418229868e-05   3.2019523651452813e-06   2.3023414574345827e-05
-1.334177904452734e-05   1.959570862434851e-06   1.553790785313445e-05
-1.334177904452734e-05   1.959570862434851e-06   1.553790785313445e-05
-1.334177904452734e-05   1.959570862434851e-06   1.553790785313445e-05
-1.334177904452734e-05   1.959570862434851e-06   1.553790785313445e-05
-1.5509768638503435e-05   2.937920000290091e-06   1.8564214360381436e-05
-1.5509768638503435e-05   2.937920000290091e-06   1.8564214360381436e-05
-1.5509768638503435e-05   2.937920000290091e-06   1.8564214360381436e-05
-1.5509768638503435e-05   2.937920000290091e-06   1.8564214360381436e-05
-1.3341779044527313e-05   3.2019523651452813e-06   2.376884347597176e-05
-1.3341779044527313e-05   3.2019523651452813e-06   2.376884347597176e-05
-1.3341779044527313e-05   3.2019523651452813e-06   2.376884347597176e-05
-1.3341779044527313e-05   3.2019523651452813e-06   2.376884347597176e-05
-1.8280340418229814e-05   1.959570862434851e-06   1.4792478951508353e-05
-1.8280340418229814e-05   1.959570862434851e-06   1.4792478951508353e-05
-1.8280340418229814e-05   1.959570862434851e-06   1.4792478951508353e-05
-1.8280340418229814e-05   1.959570862434851e-06   1.4792478951508353e-05
-1.8547797410771634e-05   2.6361929671117786e-06   2.3846200884712187e-05
-1.8547797410771634e-05   2.6361929671117786e-06   2.3846200884712187e-05
-1.8547797410771634e-05   2.6361929671117786e-06   2.3846200884712187e-05
-1.8547797410771634e-05   2.6361929671117786e-06   2.3846200884712187e-05
-1.3572436438762136e-05   1.4492713420540156e-06   1.6266085573064446e-05
-1.3572436438762136e-05   1.4492713420540156e-06   1.6266085573064446e-05
-1.3572436438762136e-05   1.4492713420540156e-06   1.6266085573064446e-05
-1.3572436438762136e-05   1.4492713420540156e-06   1.6266085573064446e-05
-1.578621267174824e-05   2.543049518131165e-06   1.929944572239532e-05
-1.578621267174824e-05   2.543049518131165e-06   1.929944572239532e-05
-1.578621267174824e-05   2.543049518131165e-06   1.929944572239532e-05
-1.578621267174824e-05   2.543049518131165e-06   1.929944572239532e-05
-1.7705127371249094e-05   5.308170960146305e-06   1.012985073707204e-05
-1.7705127371249094e-05   5.308170960146305e-06   1.012985073707204e-05
-1.7705127371249094e-05   5.308170960146305e-06   1.012985073707204e-05
-1.7705127371249094e-05   5.308170960146305e-06   1.012985073707204e-05
-2.149150297607881e-05   3.573483893229727e-06   2.7784124888726412e-06
-2.149150297607881e-05   3.573483893229727e-06   2.7784124888726412e-06
-2.149150297607881e-05   3.573483893229727e-06   2.7784124888726412e-06
-2.149150297607881e-05   3.573483893229727e-06   2.7784124888726412e-06
-2.2407623672893824e-05   5.009893376502813e-06   1.1876734262991628e-05
-2.2407623672893824e-05   5.009893376502813e-06   1.1876734262991628e-05
-2.2407623672893824e-05   5.009893376502813e-06   1.1876734262991628e-05
-2.2407623672893824e-05   5.009893376502813e-06   1.1876734262991628e-05
-1.7946675108691736e-05   3.1989219262767944e-06   5.528402859457035e-06
-1.7946675108691736e-05   3.1989219262767944e-06   5.528402859457035e-06
-1.7946675108691736e-05   3.1989219262767944e-06   5.528402859457035e-06
-1.7946675108691736e-05   3.1989219262767944e-06   5.528402859457035e-06
-1.919761535965276e-05   4.22932354431668e-06   6.995062306901483e-06
-1.919761535965276e-05   4.22932354431668e-06   6.995062306901483e-06
-1.919761535965276e-05   4.22932354431668e-06   6.995062306901483e-06
-1.919761535965276e-05   4.22932354431668e-06   6.995062306901483e-06
-1.7946675108691736e-05   5.009893376502813e-06   1.296331713312711e-05
-1.7946675108691736e-05   5.009893376502813e-06   1.296331713312711e-05
-1.7946675108691736e-05   5.009893376502813e-06   1.296331713312711e-05
-1.7946675108691736e-05   5.009893376502813e-06   1.296331713312711e-05
-2.2407623672893932e-05   3.198921926276903e-06   4.441819989321554e-06
-2.2407623672893932e-05   3.198921926276903e-06   4.441819989321554e-06
-2.2407623672893932e-05   3.198921926276903e-06   4.441819989321554e-06
-2.2407623672893932e-05   3.198921926276903e-06   4.441819989321554e-06
-2.3194045126181636e-05   4.760512715816772e-06   1.3987795705893346e-05
-2.3194045126181636e-05   4.760512715816772e-06   1.3987795705893346e-05
-2.3194045126181636e-05   4.760512715816772e-06   1.3987795705893346e-05
-2.3194045126181636e-05   4.760512715816772e-06   1.3987795705893346e-05
-1.8280340418229814e-05   2.9416505676075006e-06   6.889605148232463e-06
-1.8280340418229814e-05   2.9416505676075006e-06   6.889605148232463e-06
-1.8280340418229814e-05   2.9416505676075006e-06   6.889605148232463e-06
-1.8280340418229814e-05   2.9416505676075006e-06   6.889605148232463e-06
-1.9974043506698565e-05   4.082500160303669e-06   9.027933873396359e-06
-1.9974043506698565e-05   4.082500160303669e-06   9.027933873396359e-06
-1.9974043506698565e-05   4.082500160303669e-06   9.027933873396359e-06
-1.9974043506698565e-05   4.082500160303669e-06   9.027933873396359e-06
-1.8280340418229814e-05   4.760512715816555e-06   1.507911299481867e-05
-1.8280340418229814e-05   4.760512715816555e-06   1.507911299481867e-05
-1.8280340418229814e-05   4.760512715816555e-06   1.507911299481867e-05
-1.8280340418229814e-05   4.760512715816555e-06   1.507911299481867e-05
-2.319404512618169e-05   2.941650567607392e-06   5.798287859306813e-06
-2.319404512618169e-05   2.941650567607392e-06   5.798287859306813e-06
-2.319404512618169e-05   2.941650567607392e-06   5.798287859306813e-06
-2.319404512618169e-05   2.941650567607392e-06   5.798287859306813e-06
-2.419518665533108e-05   4.081957292524727e-06   1.7808066389409828e-05
-2.419518665533108e-05   4.081957292524727e-06   1.7808066389409828e-05
-2.419518665533108e-05   4.081957292524727e-06   1.7808066389409828e-05
-2.419518665533108e-05   4.081957292524727e-06   1.7808066389409828e-05
-1.854779741077158e-05   2.3507202644004526e-06   9.434493198685347e-06
-1.854779741077158e-05   2.3507202644004526e-06   9.434493198685347e-06
-1.854779741077158e-05   2.3507202644004526e-06   9.434493198685347e-06
-1.854779741077158e-05   2.3507202644004526e-06   9.434493198685347e-06
-2.0195715190549584e-05   3.800784093466571e-06   1.1310984534208877e-05
-2.0195715190549584e-05   3.800784093466571e-06   1.1310984534208877e-05
-2.0195715190549584e-05   3.800784093466571e-06   1.1310984534208877e-05
-2.0195715190549584e-05   3.800784093466571e-06   1.1310984534208877e-05
-8.774855050340503e-06   1.5961537521346977e-06   1.0506837249044804e-05
-8.774855050340503e-06   1.5961537521346977e-06   1.0506837249044804e-05
-8.774855050340503e-06   1.5961537521346977e-06   1.0506837249044804e-05
-8.774855050340503e-06   1.5961537521346977e-06   1.0506837249044804e-05
-9.606261436316439e-06   3.016631778838554e-06   9.973446755107227e-06
-9.606261436316439e-06   3.016631778838554e-06   9.973446755107227e-06
-9.606261436316439e-06   3.016631778838554e-06   9.973446755107227e-06
-9.606261436316439e-06   3.016631778838554e-06   9.973446755107227e-06
-9.853828458901868e-06   1.0788518994682373e-06   1.1283874104073039e-05
-9.853828458901868e-06   1.0788518994682373e-06   1.1283874104073039e-05
-9.853828458901868e-06   1.0788518994682373e-06   1.1283874104073039e-05
-9.853828458901868e-06   1.0788518994682373e-06   1.1283874104073039e-05
-9.815711896529533e-06   2.356426622509146e-06   1.0453801666294494e-05
-9.815711896529533e-06   2.356426622509146e-06   1.0453801666294494e-05
-9.815711896529533e-06   2.356426622509146e-06   1.0453801666294494e-05
-9.815711896529533e-06   2.356426622509146e-06   1.0453801666294494e-05
-9.276685357713534e-06   1.8804324358037477e-06   9.841020613624458e-06
-9.276685357713534e-06   1.8804324358037477e-06   9.841020613624458e-06
-9.276685357713534e-06   1.8804324358037477e-06   9.841020613624458e-06
-9.276685357713534e-06   1.8804324358037477e-06   9.841020613624458e-06
-9.815711896529533e-06   1.078851899468129e-06   1.0517329270248363e-05
-9.815711896529533e-06   1.078851899468129e-06   1.0517329270248363e-05
-9.815711896529533e-06   1.078851899468129e-06   1.0517329270248363e-05
-9.815711896529533e-06   1.078851899468129e-06   1.0517329270248363e-05
-9.853828458901868e-06   2.356426622509146e-06   1.1220346500119115e-05
-9.853828458901868e-06   2.356426622509146e-06   1.1220346500119115e-05
-9.853828458901868e-06   2.356426622509146e-06   1.1220346500119115e-05
-9.853828458901868e-06   2.356426622509146e-06   1.1220346500119115e-05
-1.0175126212439192e-05   7.943307863873556e-07   1.1639158117248164e-05
-1.0175126212439192e-05   7.943307863873556e-07   1.1639158117248164e-05
-1.0175126212439192e-05   7.943307863873556e-07   1.1639158117248164e-05
-1.0175126212439192e-05   7.943307863873556e-07   1.1639158117248164e-05
-1.0828159848135581e-05   1.9001755312545625e-06   1.2064040663154903e-05
-1.0828159848135581e-05   1.9001755312545625e-06   1.2064040663154903e-05
-1.0828159848135581e-05   1.9001755312545625e-06   1.2064040663154903e-05
-1.0828159848135581e-05   1.9001755312545625e-06   1.2064040663154903e-05
-9.896154872962289e-06   1.5957148778654147e-06   1.0693375429899206e-05
-9.896154872962289e-06   1.5957148778654147e-06   1.0693375429899206e-05
-9.896154872962289e-06   1.5957148778654147e-06   1.0693375429899206e-05
-9.896154872962289e-06   1.5957148778654147e-06   1.0693375429899206e-05
-1.0828159848135595e-05   7.943307863873556e-07   1.0975651270327363e-05
-1.0828159848135595e-05   7.943307863873556e-07   1.0975651270327363e-05
-1.0828159848135595e-05   7.943307863873556e-07   1.0975651270327363e-05
-1.0828159848135595e-05   7.943307863873556e-07   1.0975651270327363e-05
-1.0175126212439192e-05   1.9001755312545625e-06   1.2727547510075284e-05
-1.0175126212439192e-05   1.9001755312545625e-06   1.2727547510075284e-05
-1.0175126212439192e-05   1.9001755312545625e-06   1.2727547510075284e-05
-1.0175126212439192e-05   1.9001755312545625e-06   1.2727547510075284e-05
-1.0379806560142656e-05   1.9110060543226816e-07   1.27893316705153e-05
-1.0379806560142656e-05   1.9110060543226816e-07   1.27893316705153e-05
-1.0379806560142656e-05   1.9110060543226816e-07   1.27893316705153e-05
-1.0379806560142656e-05   1.9110060543226816e-07   1.27893316705153e-05
-1.1906213037618963e-05   7.780658586461174e-07   1.4981163314380558e-05
-1.1906213037618963e-05   7.780658586461174e-07   1.4981163314380558e-05
-1.1906213037618963e-05   7.780658586461174e-07   1.4981163314380558e-05
-1.1906213037618963e-05   7.780658586461174e-07   1.4981163314380558e-05
-1.033123090581207e-05   1.2464707562680546e-06   1.2075150156128954e-05
-1.033123090581207e-05   1.2464707562680546e-06   1.2075150156128954e-05
-1.033123090581207e-05   1.2464707562680546e-06   1.2075150156128954e-05
-1.033123090581207e-05   1.2464707562680546e-06   1.2075150156128954e-05
-9.606261436316422e-06   1.8632637200134434e-06   2.089600054377104e-05
-9.606261436316422e-06   1.8632637200134434e-06   2.089600054377104e-05
-9.606261436316422e-06   1.8632637200134434e-06   2.089600054377104e-05
-9.606261436316422e-06   1.8632637200134434e-06   2.089600054377104e-05
-9.743487800975819e-06   7.809194846654117e-07   2.001788339479649e-05
-9.743487800975819e-06   7.809194846654117e-07   2.001788339479649e-05
-9.743487800975819e-06   7.809194846654117e-07   2.001788339479649e-05
-9.743487800975819e-06   7.809194846654117e-07   2.001788339479649e-05
-9.820289365384909e-06   1.2856967789413604e-06   2.0104988337725418e-05
-9.820289365384909e-06   1.2856967789413604e-06   2.0104988337725418e-05
-9.820289365384909e-06   1.2856967789413604e-06   2.0104988337725418e-05
-9.820289365384909e-06   1.2856967789413604e-06   2.0104988337725418e-05
-9.853828458901868e-06   3.739774329558805e-07   2.0707918434511586e-05
-9.853828458901868e-06   3.739774329558805e-07   2.0707918434511586e-05
-9.853828458901868e-06   3.739774329558805e-07   2.0707918434511586e-05
-9.853828458901868e-06   3.739774329558805e-07   2.0707918434511586e-05
-9.726238195181113e-06   9.51311173135014e-07   2.014886775086953e-05
-9.726238195181113e-06   9.51311173135014e-07   2.014886775086953e-05
-9.726238195181113e-06   9.51311173135014e-07   2.014886775086953e-05
-9.726238195181113e-06   9.51311173135014e-07   2.014886775086953e-05
-9.853828458901855e-06   1.2856967789414689e-06   2.065201994531625e-05
-9.853828458901855e-06   1.2856967789414689e-06   2.065201994531625e-05
-9.853828458901855e-06   1.2856967789414689e-06   2.065201994531625e-05
-9.853828458901855e-06   1.2856967789414689e-06   2.065201994531625e-05
-9.820289365384909e-06   3.739774329558805e-07   2.0160886826920245e-05
-9.820289365384909e-06   3.739774329558805e-07   2.0160886826920245e-05
-9.820289365384909e-06   3.739774329558805e-07   2.0160886826920245e-05
-9.820289365384909e-06   3.739774329558805e-07   2.0160886826920245e-05
-9.91539622394462e-06   7.527478418120452e-07   2.038065953072698e-05
-9.91539622394462e-06   7.527478418120452e-07   2.038065953072698e-05
-9.91539622394462e-06   7.527478418120452e-07   2.038065953072698e-05
-9.91539622394462e-06   7.527478418120452e-07   2.038065953072698e-05
-1.0175126212439192e-05   -9.749063946775695e-08   2.132368593365234e-05
-1.0175126212439192e-05   -9.749063946775695e-08   2.132368593365234e-05
-1.0175126212439192e-05   -9.749063946775695e-08   2.132368593365234e-05
-1.0175126212439192e-05   -9.749063946775695e-08   2.132368593365234e-05
-9.820298561600147e-06   6.144392431539115e-07   2.030514858601391e-05
-9.820298561600147e-06   6.144392431539115e-07   2.030514858601391e-05
-9.820298561600147e-06   6.144392431539115e-07   2.030514858601391e-05
-9.820298561600147e-06   6.144392431539115e-07   2.030514858601391e-05
-1.0175126212439192e-05   7.527478418120452e-07   2.0890802619494492e-05
-1.0175126212439192e-05   7.527478418120452e-07   2.0890802619494492e-05
-1.0175126212439192e-05   7.527478418120452e-07   2.0890802619494492e-05
-1.0175126212439192e-05   7.527478418120452e-07   2.0890802619494492e-05
-9.915396223944567e-06   -9.749063946775695e-08   2.0813542844884446e-05
-9.915396223944567e-06   -9.749063946775695e-08   2.0813542844884446e-05
-9.915396223944567e-06   -9.749063946775695e-08   2.0813542844884446e-05
-9.915396223944567e-06   -9.749063946775695e-08   2.0813542844884446e-05
-9.984739752940807e-06   1.7557128144352844e-07   2.0966986832199374e-05
-9.984739752940807e-06   1.7557128144352844e-07   2.0966986832199374e-05
-9.984739752940807e-06   1.7557128144352844e-07   2.0966986832199374e-05
-9.984739752940807e-06   1.7557128144352844e-07   2.0966986832199374e-05
-1.0379806560142649e-05   -7.167869050657373e-07   2.2160846422774594e-05
-1.0379806560142649e-05   -7.167869050657373e-07   2.2160846422774594e-05
-1.0379806560142649e-05   -7.167869050657373e-07   2.2160846422774594e-05
-1.0379806560142649e-05   -7.167869050657373e-07   2.2160846422774594e-05
-9.968753012960053e-06   2.1881315629779328e-07   2.091439714065158e-05
-9.968753012960053e-06   2.1881315629779328e-07   2.091439714065158e-05
-9.968753012960053e-06   2.1881315629779328e-07   2.091439714065158e-05
-9.968753012960053e-06   2.1881315629779328e-07   2.091439714065158e-05
-9.743487800975873e-06   2.235737520387706e-06   2.305073862323456e-05
-9.743487800975873e-06   2.235737520387706e-06   2.305073862323456e-05
-9.743487800975873e-06   2.235737520387706e-06   2.305073862323456e-05
-9.743487800975873e-06   2.235737520387706e-06   2.305073862323456e-05
-1.0497950216219176e-05   2.1740545291316134e-07   2.058230202401097e-05
-1.0497950216219176e-05   2.1740545291316134e-07   2.058230202401097e-05
-1.0497950216219176e-05   2.1740545291316134e-07   2.058230202401097e-05
-1.0497950216219176e-05   2.1740545291316134e-07   2.058230202401097e-05
-1.0523974774933996e-05   1.7006653239995482e-06   2.1871570182513097e-05
-1.0523974774933996e-05   1.7006653239995482e-06   2.1871570182513097e-05
-1.0523974774933996e-05   1.7006653239995482e-06   2.1871570182513097e-05
-1.0523974774933996e-05   1.7006653239995482e-06   2.1871570182513097e-05
-9.820289365384909e-06   -1.2608692962856691e-07   2.179481251877481e-05
-9.820289365384909e-06   -1.2608692962856691e-07   2.179481251877481e-05
-9.820289365384909e-06   -1.2608692962856691e-07   2.179481251877481e-05
-9.820289365384909e-06   -1.2608692962856691e-07   2.179481251877481e-05
-1.0129147509397652e-05   9.728283367111974e-07   2.1650226932325536e-05
-1.0129147509397652e-05   9.728283367111974e-07   2.1650226932325536e-05
-1.0129147509397652e-05   9.728283367111974e-07   2.1650226932325536e-05
-1.0129147509397652e-05   9.728283367111974e-07   2.1650226932325536e-05
-9.820289365384909e-06   1.7006653239995482e-06   2.2967621534689857e-05
-9.820289365384909e-06   1.7006653239995482e-06   2.2967621534689857e-05
-9.820289365384909e-06   1.7006653239995482e-06   2.2967621534689857e-05
-9.820289365384909e-06   1.7006653239995482e-06   2.2967621534689857e-05
-1.0523974774933969e-05   -1.2608692962856691e-07   2.0698761166597997e-05
-1.0523974774933969e-05   -1.2608692962856691e-07   2.0698761166597997e-05
-1.0523974774933969e-05   -1.2608692962856691e-07   2.0698761166597997e-05
-1.0523974774933969e-05   -1.2608692962856691e-07   2.0698761166597997e-05
-1.0571028890449079e-05   1.1568625114406197e-06   2.2214321784640276e-05
-1.0571028890449079e-05   1.1568625114406197e-06   2.2214321784640276e-05
-1.0571028890449079e-05   1.1568625114406197e-06   2.2214321784640276e-05
-1.0571028890449079e-05   1.1568625114406197e-06   2.2214321784640276e-05
-9.915396223944594e-06   -5.373891567886065e-07   2.2138151674736922e-05
-9.915396223944594e-06   -5.373891567886065e-07   2.2138151674736922e-05
-9.915396223944594e-06   -5.373891567886065e-07   2.2138151674736922e-05
-9.915396223944594e-06   -5.373891567886065e-07   2.2138151674736922e-05
-1.0135071330728064e-05   6.327146893753653e-07   2.1802214545010303e-05
-1.0135071330728064e-05   6.327146893753653e-07   2.1802214545010303e-05
-1.0135071330728064e-05   6.327146893753653e-07   2.1802214545010303e-05
-1.0135071330728064e-05   6.327146893753653e-07   2.1802214545010303e-05
-9.91539622394462e-06   1.1568625114406197e-06   2.3230872785577595e-05
-9.91539622394462e-06   1.1568625114406197e-06   2.3230872785577595e-05
-9.91539622394462e-06   1.1568625114406197e-06   2.3230872785577595e-05
-9.91539622394462e-06   1.1568625114406197e-06   2.3230872785577595e-05
-1.0571028890449025e-05   -5.373891567886065e-07   2.112160067379944e-05
-1.0571028890449025e-05   -5.373891567886065e-07   2.112160067379944e-05
-1.0571028890449025e-05   -5.373891567886065e-07   2.112160067379944e-05
-1.0571028890449025e-05   -5.373891567886065e-07   2.112160067379944e-05
-1.0601265225330741e-05   6.414163230975337e-07   2.2826512111025882e-05
-1.0601265225330741e-05   6.414163230975337e-07   2.2826512111025882e-05
-1.0601265225330741e-05   6.414163230975337e-07   2.2826512111025882e-05
-1.0601265225330741e-05   6.414163230975337e-07   2.2826512111025882e-05
-9.984739752940807e-06   -9.502411553885147e-07   2.2753964144134055e-05
-9.984739752940807e-06   -9.502411553885147e-07   2.2753964144134055e-05
-9.984739752940807e-06   -9.502411553885147e-07   2.2753964144134055e-05
-9.984739752940807e-06   -9.502411553885147e-07   2.2753964144134055e-05
-1.0157858801587561e-05   2.8308351333579743e-07   2.230250109064335e-05
-1.0157858801587561e-05   2.8308351333579743e-07   2.230250109064335e-05
-1.0157858801587561e-05   2.8308351333579743e-07   2.230250109064335e-05
-1.0157858801587561e-05   2.8308351333579743e-07   2.230250109064335e-05
-1.0497950216219176e-05   3.0233531630483946e-06   1.8777757316333437e-05
-1.0497950216219176e-05   3.0233531630483946e-06   1.8777757316333437e-05
-1.0497950216219176e-05   3.0233531630483946e-06   1.8777757316333437e-05
-1.0497950216219176e-05   3.0233531630483946e-06   1.8777757316333437e-05
-1.1585833650889794e-05   9.932409353872237e-07   1.574655092195234e-05
-1.1585833650889794e-05   9.932409353872237e-07   1.574655092195234e-05
-1.1585833650889794e-05   9.932409353872237e-07   1.574655092195234e-05
-1.1585833650889794e-05   9.932409353872237e-07   1.574655092195234e-05
-1.1605198618620284e-05   2.4604312589382015e-06   1.7733136876028986e-05
-1.1605198618620284e-05   2.4604312589382015e-06   1.7733136876028986e-05
-1.1605198618620284e-05   2.4604312589382015e-06   1.7733136876028986e-05
-1.1605198618620284e-05   2.4604312589382015e-06   1.7733136876028986e-05
-1.0523974774933996e-05   5.406115403042274e-07   1.7082988967732275e-05
-1.0523974774933996e-05   5.406115403042274e-07   1.7082988967732275e-05
-1.0523974774933996e-05   5.406115403042274e-07   1.7082988967732275e-05
-1.0523974774933996e-05   5.406115403042274e-07   1.7082988967732275e-05
-1.1024358461528603e-05   1.7957752999312078e-06   1.716386352294721e-05
-1.1024358461528603e-05   1.7957752999312078e-06   1.716386352294721e-05
-1.1024358461528603e-05   1.7957752999312078e-06   1.716386352294721e-05
-1.1024358461528603e-05   1.7957752999312078e-06   1.716386352294721e-05
-1.0523974774933996e-05   2.4604312589382015e-06   1.8885028707209413e-05
-1.0523974774933996e-05   2.4604312589382015e-06   1.8885028707209413e-05
-1.0523974774933996e-05   2.4604312589382015e-06   1.8885028707209413e-05
-1.0523974774933996e-05   2.4604312589382015e-06   1.8885028707209413e-05
-1.1605198618620284e-05   5.406115403042274e-07   1.5931097136551956e-05
-1.1605198618620284e-05   5.406115403042274e-07   1.5931097136551956e-05
-1.1605198618620284e-05   5.406115403042274e-07   1.5931097136551956e-05
-1.1605198618620284e-05   5.406115403042274e-07   1.5931097136551956e-05
-1.1731312042391234e-05   1.959570862434851e-06   1.8390067629018778e-05
-1.1731312042391234e-05   1.959570862434851e-06   1.8390067629018778e-05
-1.1731312042391234e-05   1.959570862434851e-06   1.8390067629018778e-05
-1.1731312042391234e-05   1.959570862434851e-06   1.8390067629018778e-05
-1.0571028890449025e-05   1.529906123647149e-07   1.7540210525823633e-05
-1.0571028890449025e-05   1.529906123647149e-07   1.7540210525823633e-05
-1.0571028890449025e-05   1.529906123647149e-07   1.7540210525823633e-05
-1.0571028890449025e-05   1.529906123647149e-07   1.7540210525823633e-05
-1.0993184970556471e-05   1.424037834121014e-06   1.7481175659614747e-05
-1.0993184970556471e-05   1.424037834121014e-06   1.7481175659614747e-05
-1.0993184970556471e-05   1.424037834121014e-06   1.7481175659614747e-05
-1.0993184970556471e-05   1.424037834121014e-06   1.7481175659614747e-05
-1.0571028890449025e-05   1.959570862434851e-06   1.9474015779060144e-05
-1.0571028890449025e-05   1.959570862434851e-06   1.9474015779060144e-05
-1.0571028890449025e-05   1.959570862434851e-06   1.9474015779060144e-05
-1.0571028890449025e-05   1.959570862434851e-06   1.9474015779060144e-05
-1.1731312042391234e-05   1.529906123647149e-07   1.6456262375781616e-05
-1.1731312042391234e-05   1.529906123647149e-07   1.6456262375781616e-05
-1.1731312042391234e-05   1.529906123647149e-07   1.6456262375781616e-05
-1.1731312042391234e-05   1.529906123647149e-07   1.6456262375781616e-05
-1.1806587941003285e-05   1.4492713420539071e-06   1.9206318833742413e-05
-1.1806587941003285e-05   1.4492713420539071e-06   1.9206318833742413e-05
-1.1806587941003285e-05   1.4492713420539071e-06   1.9206318833742413e-05
-1.1806587941003285e-05   1.4492713420539071e-06   1.9206318833742413e-05
-1.0601265225330741e-05   -2.3778429799421654e-07   1.8209681024983465e-05
-1.0601265225330741e-05   -2.3778429799421654e-07   1.8209681024983465e-05
-1.0601265225330741e-05   -2.3778429799421654e-07   1.8209681024983465e-05
-1.0601265225330741e-05   -2.3778429799421654e-07   1.8209681024983465e-05
-1.1048632658978408e-05   1.091963212401922e-06   1.8157444908158365e-05
-1.1048632658978408e-05   1.091963212401922e-06   1.8157444908158365e-05
-1.1048632658978408e-05   1.091963212401922e-06   1.8157444908158365e-05
-1.1048632658978408e-05   1.091963212401922e-06   1.8157444908158365e-05
-1.1585833650889794e-05   3.5734838932298353e-06   7.224356751132661e-06
-1.1585833650889794e-05   3.5734838932298353e-06   7.224356751132661e-06
-1.1585833650889794e-05   3.5734838932298353e-06   7.224356751132661e-06
-1.1585833650889794e-05   3.5734838932298353e-06   7.224356751132661e-06
-1.1447485164060118e-05   1.6376616636242522e-06   6.293444224752295e-06
-1.1447485164060118e-05   1.6376616636242522e-06   6.293444224752295e-06
-1.1447485164060118e-05   1.6376616636242522e-06   6.293444224752295e-06
-1.1447485164060118e-05   1.6376616636242522e-06   6.293444224752295e-06
-1.2036163891776227e-05   3.198921926276903e-06   7.916331118266876e-06
-1.2036163891776227e-05   3.198921926276903e-06   7.916331118266876e-06
-1.2036163891776227e-05   3.198921926276903e-06   7.916331118266876e-06
-1.2036163891776227e-05   3.198921926276903e-06   7.916331118266876e-06
-1.1605198618620284e-05   1.3172581174497513e-06   8.327053948303104e-06
-1.1605198618620284e-05   1.3172581174497513e-06   8.327053948303104e-06
-1.1605198618620284e-05   1.3172581174497513e-06   8.327053948303104e-06
-1.1605198618620284e-05   1.3172581174497513e-06   8.327053948303104e-06
-1.128952508860055e-05   2.514310208108126e-06   7.08270014387522e-06
-1.128952508860055e-05   2.514310208108126e-06   7.08270014387522e-06
-1.128952508860055e-05   2.514310208108126e-06   7.08270014387522e-06
-1.128952508860055e-05   2.514310208108126e-06   7.08270014387522e-06
-1.160519861862023e-05   3.1989219262767944e-06   9.045329403562755e-06
-1.160519861862023e-05   3.1989219262767944e-06   9.045329403562755e-06
-1.160519861862023e-05   3.1989219262767944e-06   9.045329403562755e-06
-1.160519861862023e-05   3.1989219262767944e-06   9.045329403562755e-06
-1.2036163891776227e-05   1.3172581174497513e-06   7.198055663006845e-06
-1.2036163891776227e-05   1.3172581174497513e-06   7.198055663006845e-06
-1.2036163891776227e-05   1.3172581174497513e-06   7.198055663006845e-06
-1.2036163891776227e-05   1.3172581174497513e-06   7.198055663006845e-06
-1.2553037313253995e-05   2.9416505676075006e-06   9.386867723951402e-06
-1.2553037313253995e-05   2.9416505676075006e-06   9.386867723951402e-06
-1.2553037313253995e-05   2.9416505676075006e-06   9.386867723951402e-06
-1.2553037313253995e-05   2.9416505676075006e-06   9.386867723951402e-06
-1.173131204239118e-05   1.107773731288974e-06   9.117651707637726e-06
-1.173131204239118e-05   1.107773731288974e-06   9.117651707637726e-06
-1.173131204239118e-05   1.107773731288974e-06   9.117651707637726e-06
-1.173131204239118e-05   1.107773731288974e-06   9.117651707637726e-06
-1.1709179427073885e-05   2.327294461534359e-06   8.349051577294462e-06
-1.1709179427073885e-05   2.327294461534359e-06   8.349051577294462e-06
-1.1709179427073885e-05   2.327294461534359e-06   8.349051577294462e-06
-1.1709179427073885e-05   2.327294461534359e-06   8.349051577294462e-06
-1.1731312042391126e-05   2.9416505676075006e-06   1.0487193825742236e-05
-1.1731312042391126e-05   2.9416505676075006e-06   1.0487193825742236e-05
-1.1731312042391126e-05   2.9416505676075006e-06   1.0487193825742236e-05
-1.1731312042391126e-05   2.9416505676075006e-06   1.0487193825742236e-05
-1.2553037313254049e-05   1.107773731288974e-06   8.017325605846567e-06
-1.2553037313254049e-05   1.107773731288974e-06   8.017325605846567e-06
-1.2553037313254049e-05   1.107773731288974e-06   8.017325605846567e-06
-1.2553037313254049e-05   1.107773731288974e-06   8.017325605846567e-06
-1.332127574827296e-05   2.3507202644004526e-06   1.2088174755609232e-05
-1.332127574827296e-05   2.3507202644004526e-06   1.2088174755609232e-05
-1.332127574827296e-05   2.3507202644004526e-06   1.2088174755609232e-05
-1.332127574827296e-05   2.3507202644004526e-06   1.2088174755609232e-05
-1.1806587941003285e-05   6.862124664195257e-07   1.056239975561488e-05
-1.1806587941003285e-05   6.862124664195257e-07   1.056239975561488e-05
-1.1806587941003285e-05   6.862124664195257e-07   1.056239975561488e-05
-1.1806587941003285e-05   6.862124664195257e-07   1.056239975561488e-05
-1.1851087817404992e-05   2.1047637522059615e-06   9.78543544481172e-06
-1.1851087817404992e-05   2.1047637522059615e-06   9.78543544481172e-06
-1.1851087817404992e-05   2.1047637522059615e-06   9.78543544481172e-06
-1.1851087817404992e-05   2.1047637522059615e-06   9.78543544481172e-06
-2.2780657165686325e-05   3.0166317788386625e-06   8.791862694262616e-06
-2.2780657165686325e-05   3.0166317788386625e-06   8.791862694262616e-06
-2.2780657165686325e-05   3.0166317788386625e-06   8.791862694262616e-06
-2.2780657165686325e-05   3.0166317788386625e-06   8.791862694262616e-06
-1.5381494344454844e-05   4.1768465366367915e-06   2.1819929584327336e-05
-1.5381494344454844e-05   4.1768465366367915e-06   2.1819929584327336e-05
-1.5381494344454844e-05   4.1768465366367915e-06   2.1819929584327336e-05
-1.5381494344454844e-05   4.1768465366367915e-06   2.1819929584327336e-05
-1.5374247372398768e-05   2.356426622509146e-06   9.985731795172318e-06
-1.5374247372398768e-05   2.356426622509146e-06   9.985731795172318e-06
-1.5374247372398768e-05   2.356426622509146e-06   9.985731795172318e-06
-1.5374247372398768e-05   2.356426622509146e-06   9.985731795172318e-06
-2.5093863349037076e-05   1.6916090037554735e-06   2.6583982327488585e-05
-2.5093863349037076e-05   1.6916090037554735e-06   2.6583982327488585e-05
-2.5093863349037076e-05   1.6916090037554735e-06   2.6583982327488585e-05
-2.5093863349037076e-05   1.6916090037554735e-06   2.6583982327488585e-05
-1.864315096033313e-05   2.475027593906048e-06   1.5362743858891695e-05
-1.864315096033313e-05   2.475027593906048e-06   1.5362743858891695e-05
-1.864315096033313e-05   2.475027593906048e-06   1.5362743858891695e-05
-1.864315096033313e-05   2.475027593906048e-06   1.5362743858891695e-05
-2.509386334903711e-05   2.356426622509146e-06   1.0384622366424619e-05
-2.509386334903711e-05   2.356426622509146e-06   1.0384622366424619e-05
-2.509386334903711e-05   2.356426622509146e-06   1.0384622366424619e-05
-2.509386334903711e-05   2.356426622509146e-06   1.0384622366424619e-05
-1.5374247372398768e-05   1.6916090037554735e-06   2.618509175623631e-05
-1.5374247372398768e-05   1.6916090037554735e-06   2.618509175623631e-05
-1.5374247372398768e-05   1.6916090037554735e-06   2.618509175623631e-05
-1.5374247372398768e-05   1.6916090037554735e-06   2.618509175623631e-05
-1.5584237254708906e-05   1.9001755312545625e-06   1.1168765605799825e-05
-1.5584237254708906e-05   1.9001755312545625e-06   1.1168765605799825e-05
-1.5584237254708906e-05   1.9001755312545625e-06   1.1168765605799825e-05
-1.5584237254708906e-05   1.9001755312545625e-06   1.1168765605799825e-05
-2.518242091973215e-05   1.2137010320937744e-06   2.7577623080334937e-05
-2.518242091973215e-05   1.2137010320937744e-06   2.7577623080334937e-05
-2.518242091973215e-05   1.2137010320937744e-06   2.7577623080334937e-05
-2.518242091973215e-05   1.2137010320937744e-06   2.7577623080334937e-05
-1.989421102131656e-05   1.5460891081482708e-06   1.8564507070676003e-05
-1.989421102131656e-05   1.5460891081482708e-06   1.8564507070676003e-05
-1.989421102131656e-05   1.5460891081482708e-06   1.8564507070676003e-05
-1.989421102131656e-05   1.5460891081482708e-06   1.8564507070676003e-05
-2.5182420919732192e-05   1.9001755312545625e-06   1.1580650305296287e-05
-2.5182420919732192e-05   1.9001755312545625e-06   1.1580650305296287e-05
-2.5182420919732192e-05   1.9001755312545625e-06   1.1580650305296287e-05
-2.5182420919732192e-05   1.9001755312545625e-06   1.1580650305296287e-05
-1.5584237254708872e-05   1.2137010320937744e-06   2.7165738380838516e-05
-1.5584237254708872e-05   1.2137010320937744e-06   2.7165738380838516e-05
-1.5584237254708872e-05   1.2137010320937744e-06   2.7165738380838516e-05
-1.5584237254708872e-05   1.2137010320937744e-06   2.7165738380838516e-05
-1.5418140651778304e-05   7.780658586461174e-07   1.3237953263219753e-05
-1.5418140651778304e-05   7.780658586461174e-07   1.3237953263219753e-05
-1.5418140651778304e-05   7.780658586461174e-07   1.3237953263219753e-05
-1.5418140651778304e-05   7.780658586461174e-07   1.3237953263219753e-05
-2.545537683567593e-05   -8.187584015029799e-07   3.092477479247186e-05
-2.545537683567593e-05   -8.187584015029799e-07   3.092477479247186e-05
-2.545537683567593e-05   -8.187584015029799e-07   3.092477479247186e-05
-2.545537683567593e-05   -8.187584015029799e-07   3.092477479247186e-05
-1.959084206653824e-05   7.495433842837247e-07   2.0209569105770345e-05
-1.959084206653824e-05   7.495433842837247e-07   2.0209569105770345e-05
-1.959084206653824e-05   7.495433842837247e-07   2.0209569105770345e-05
-1.959084206653824e-05   7.495433842837247e-07   2.0209569105770345e-05
-1.538149434445487e-05   7.809194846654117e-07   2.0181834729839586e-05
-1.538149434445487e-05   7.809194846654117e-07   2.0181834729839586e-05
-1.538149434445487e-05   7.809194846654117e-07   2.0181834729839586e-05
-1.538149434445487e-05   7.809194846654117e-07   2.0181834729839586e-05
-9.438861844252147e-06   -4.7180457487544666e-06   2.678684309012553e-05
-9.438861844252147e-06   -4.7180457487544666e-06   2.678684309012553e-05
-9.438861844252147e-06   -4.7180457487544666e-06   2.678684309012553e-05
-9.438861844252147e-06   -4.7180457487544666e-06   2.678684309012553e-05
-9.458208372000945e-06   3.7397743295598893e-07   1.6930371312561443e-05
-9.458208372000945e-06   3.7397743295598893e-07   1.6930371312561443e-05
-9.458208372000945e-06   3.7397743295598893e-07   1.6930371312561443e-05
-9.458208372000945e-06   3.7397743295598893e-07   1.6930371312561443e-05
-1.5374247372398768e-05   -3.864243262049626e-06   2.9333368730228044e-05
-1.5374247372398768e-05   -3.864243262049626e-06   2.9333368730228044e-05
-1.5374247372398768e-05   -3.864243262049626e-06   2.9333368730228044e-05
-1.5374247372398768e-05   -3.864243262049626e-06   2.9333368730228044e-05
-1.2347431423470142e-05   -2.333270874359055e-06   2.3370092049399422e-05
-1.2347431423470142e-05   -2.333270874359055e-06   2.3370092049399422e-05
-1.2347431423470142e-05   -2.333270874359055e-06   2.3370092049399422e-05
-1.2347431423470142e-05   -2.333270874359055e-06   2.3370092049399422e-05
-1.5374247372398782e-05   3.7397743295598893e-07   1.947330372956466e-05
-1.5374247372398782e-05   3.7397743295598893e-07   1.947330372956466e-05
-1.5374247372398782e-05   3.7397743295598893e-07   1.947330372956466e-05
-1.5374247372398782e-05   3.7397743295598893e-07   1.947330372956466e-05
-9.458208372000918e-06   -3.864243262049626e-06   2.6790436313224746e-05
-9.458208372000918e-06   -3.864243262049626e-06   2.6790436313224746e-05
-9.458208372000918e-06   -3.864243262049626e-06   2.6790436313224746e-05
-9.458208372000918e-06   -3.864243262049626e-06   2.6790436313224746e-05
-9.495698928227241e-06   -9.749063946775695e-08   1.745247246010554e-05
-9.495698928227241e-06   -9.749063946775695e-08   1.745247246010554e-05
-9.495698928227241e-06   -9.749063946775695e-08   1.745247246010554e-05
-9.495698928227241e-06   -9.749063946775695e-08   1.745247246010554e-05
-1.5584237254708872e-05   -3.951543254920083e-06   2.9912467906846184e-05
-1.5584237254708872e-05   -3.951543254920083e-06   2.9912467906846184e-05
-1.5584237254708872e-05   -3.951543254920083e-06   2.9912467906846184e-05
-1.5584237254708872e-05   -3.951543254920083e-06   2.9912467906846184e-05
-1.2257563923001115e-05   -2.0385860703387945e-06   2.3220238043250975e-05
-1.2257563923001115e-05   -2.0385860703387945e-06   2.3220238043250975e-05
-1.2257563923001115e-05   -2.0385860703387945e-06   2.3220238043250975e-05
-1.2257563923001115e-05   -2.0385860703387945e-06   2.3220238043250975e-05
-1.5584237254708906e-05   -9.749063946775695e-08   1.9764904029376934e-05
-1.5584237254708906e-05   -9.749063946775695e-08   1.9764904029376934e-05
-1.5584237254708906e-05   -9.749063946775695e-08   1.9764904029376934e-05
-1.5584237254708906e-05   -9.749063946775695e-08   1.9764904029376934e-05
-9.495698928227214e-06   -3.951543254920083e-06   2.7600036337574788e-05
-9.495698928227214e-06   -3.951543254920083e-06   2.7600036337574788e-05
-9.495698928227214e-06   -3.951543254920083e-06   2.7600036337574788e-05
-9.495698928227214e-06   -3.951543254920083e-06   2.7600036337574788e-05
-9.403415870292174e-06   -7.167869050657373e-07   1.81036366077182e-05
-9.403415870292174e-06   -7.167869050657373e-07   1.81036366077182e-05
-9.403415870292174e-06   -7.167869050657373e-07   1.81036366077182e-05
-9.403415870292174e-06   -7.167869050657373e-07   1.81036366077182e-05
-1.5418140651778263e-05   -3.9864879250111436e-06   3.0089998522162066e-05
-1.5418140651778263e-05   -3.9864879250111436e-06   3.0089998522162066e-05
-1.5418140651778263e-05   -3.9864879250111436e-06   3.0089998522162066e-05
-1.5418140651778263e-05   -3.9864879250111436e-06   3.0089998522162066e-05
-1.2314978183416951e-05   -2.2883293433256444e-06   2.3899165925882025e-05
-1.2314978183416951e-05   -2.2883293433256444e-06   2.3899165925882025e-05
-1.2314978183416951e-05   -2.2883293433256444e-06   2.3899165925882025e-05
-1.2314978183416951e-05   -2.2883293433256444e-06   2.3899165925882025e-05
-9.438861844252147e-06   2.1740545291316134e-07   1.8657873459486808e-05
-9.438861844252147e-06   2.1740545291316134e-07   1.8657873459486808e-05
-9.438861844252147e-06   2.1740545291316134e-07   1.8657873459486808e-05
-9.438861844252147e-06   2.1740545291316134e-07   1.8657873459486808e-05
-6.94768397117344e-06   -3.685824117006099e-06   2.0467898839333156e-05
-6.94768397117344e-06   -3.685824117006099e-06   2.0467898839333156e-05
-6.94768397117344e-06   -3.685824117006099e-06   2.0467898839333156e-05
-6.94768397117344e-06   -3.685824117006099e-06   2.0467898839333156e-05
-6.886077459803384e-06   -1.2608692962856691e-07   1.6468000735032537e-05
-6.886077459803384e-06   -1.2608692962856691e-07   1.6468000735032537e-05
-6.886077459803384e-06   -1.2608692962856691e-07   1.6468000735032537e-05
-6.886077459803384e-06   -1.2608692962856691e-07   1.6468000735032537e-05
-9.458208372000918e-06   -3.619914045267759e-06   2.2851181858078728e-05
-9.458208372000918e-06   -3.619914045267759e-06   2.2851181858078728e-05
-9.458208372000918e-06   -3.619914045267759e-06   2.2851181858078728e-05
-9.458208372000918e-06   -3.619914045267759e-06   2.2851181858078728e-05
-8.132497370623388e-06   -1.8624910126370606e-06   1.9587209702871225e-05
-8.132497370623388e-06   -1.8624910126370606e-06   1.9587209702871225e-05
-8.132497370623388e-06   -1.8624910126370606e-06   1.9587209702871225e-05
-8.132497370623388e-06   -1.8624910126370606e-06   1.9587209702871225e-05
-9.458208372000918e-06   -1.2608692962856691e-07   1.856429700441601e-05
-9.458208372000918e-06   -1.2608692962856691e-07   1.856429700441601e-05
-9.458208372000918e-06   -1.2608692962856691e-07   1.856429700441601e-05
-9.458208372000918e-06   -1.2608692962856691e-07   1.856429700441601e-05
-6.886077459803411e-06   -3.619914045267759e-06   2.0754885588695284e-05
-6.886077459803411e-06   -3.619914045267759e-06   2.0754885588695284e-05
-6.886077459803411e-06   -3.619914045267759e-06   2.0754885588695284e-05
-6.886077459803411e-06   -3.619914045267759e-06   2.0754885588695284e-05
-6.833390895691962e-06   -5.373891567886065e-07   1.6861364284248234e-05
-6.833390895691962e-06   -5.373891567886065e-07   1.6861364284248234e-05
-6.833390895691962e-06   -5.373891567886065e-07   1.6861364284248234e-05
-6.833390895691962e-06   -5.373891567886065e-07   1.6861364284248234e-05
-9.495698928227214e-06   -3.730250832971601e-06   2.321426134418338e-05
-9.495698928227214e-06   -3.730250832971601e-06   2.321426134418338e-05
-9.495698928227214e-06   -3.730250832971601e-06   2.321426134418338e-05
-9.495698928227214e-06   -3.730250832971601e-06   2.321426134418338e-05
-8.061185465135223e-06   -1.9858880008801058e-06   1.9776787873108058e-05
-8.061185465135223e-06   -1.9858880008801058e-06   1.9776787873108058e-05
-8.061185465135223e-06   -1.9858880008801058e-06   1.9776787873108058e-05
-8.061185465135223e-06   -1.9858880008801058e-06   1.9776787873108058e-05
-9.495698928227214e-06   -5.373891567886065e-07   1.8777081289957987e-05
-9.495698928227214e-06   -5.373891567886065e-07   1.8777081289957987e-05
-9.495698928227214e-06   -5.373891567886065e-07   1.8777081289957987e-05
-9.495698928227214e-06   -5.373891567886065e-07   1.8777081289957987e-05
-6.833390895691962e-06   -3.730250832971601e-06   2.129854433847368e-05
-6.833390895691962e-06   -3.730250832971601e-06   2.129854433847368e-05
-6.833390895691962e-06   -3.730250832971601e-06   2.129854433847368e-05
-6.833390895691962e-06   -3.730250832971601e-06   2.129854433847368e-05
-6.700063756245428e-06   -9.502411553885147e-07   1.747056956455178e-05
-6.700063756245428e-06   -9.502411553885147e-07   1.747056956455178e-05
-6.700063756245428e-06   -9.502411553885147e-07   1.747056956455178e-05
-6.700063756245428e-06   -9.502411553885147e-07   1.747056956455178e-05
-9.403415870292147e-06   -3.88624061610775e-06   2.373775609772766e-05
-9.403415870292147e-06   -3.88624061610775e-06   2.373775609772766e-05
-9.403415870292147e-06   -3.88624061610775e-06   2.373775609772766e-05
-9.403415870292147e-06   -3.88624061610775e-06   2.373775609772766e-05
-7.97785582212898e-06   -2.1659791497809396e-06   2.0329665804326305e-05
-7.97785582212898e-06   -2.1659791497809396e-06   2.0329665804326305e-05
-7.97785582212898e-06   -2.1659791497809396e-06   2.0329665804326305e-05
-7.97785582212898e-06   -2.1659791497809396e-06   2.0329665804326305e-05
-6.947683971173413e-06   9.932409353872237e-07   1.2698251952073252e-05
-6.947683971173413e-06   9.932409353872237e-07   1.2698251952073252e-05
-6.947683971173413e-06   9.932409353872237e-07   1.2698251952073252e-05
-6.947683971173413e-06   9.932409353872237e-07   1.2698251952073252e-05
-5.79677785388262e-06   -1.512777262612625e-06   1.311281789542472e-05
-5.79677785388262e-06   -1.512777262612625e-06   1.311281789542472e-05
-5.79677785388262e-06   -1.512777262612625e-06   1.311281789542472e-05
-5.79677785388262e-06   -1.512777262612625e-06   1.311281789542472e-05
-5.672809911661848e-06   5.406115403042274e-07   1.1465553212999498e-05
-5.672809911661848e-06   5.406115403042274e-07   1.1465553212999498e-05
-5.672809911661848e-06   5.406115403042274e-07   1.1465553212999498e-05
-5.672809911661848e-06   5.406115403042274e-07   1.1465553212999498e-05
-6.886077459803384e-06   -1.7705139983082221e-06   1.4874341116403035e-05
-6.886077459803384e-06   -1.7705139983082221e-06   1.4874341116403035e-05
-6.886077459803384e-06   -1.7705139983082221e-06   1.4874341116403035e-05
-6.886077459803384e-06   -1.7705139983082221e-06   1.4874341116403035e-05
-6.279701190034338e-06   -3.4517202078022686e-07   1.3008508813604756e-05
-6.279701190034338e-06   -3.4517202078022686e-07   1.3008508813604756e-05
-6.279701190034338e-06   -3.4517202078022686e-07   1.3008508813604756e-05
-6.279701190034338e-06   -3.4517202078022686e-07   1.3008508813604756e-05
-6.886077459803384e-06   5.406115403042274e-07   1.285222853616687e-05
-6.886077459803384e-06   5.406115403042274e-07   1.285222853616687e-05
-6.886077459803384e-06   5.406115403042274e-07   1.285222853616687e-05
-6.886077459803384e-06   5.406115403042274e-07   1.285222853616687e-05
-5.672809911661848e-06   -1.7705139983082221e-06   1.3487665793235581e-05
-5.672809911661848e-06   -1.7705139983082221e-06   1.3487665793235581e-05
-5.672809911661848e-06   -1.7705139983082221e-06   1.3487665793235581e-05
-5.672809911661848e-06   -1.7705139983082221e-06   1.3487665793235581e-05
-5.61728877945415e-06   1.529906123647149e-07   1.2007485819878327e-05
-5.61728877945415e-06   1.529906123647149e-07   1.2007485819878327e-05
-5.61728877945415e-06   1.529906123647149e-07   1.2007485819878327e-05
-5.61728877945415e-06   1.529906123647149e-07   1.2007485819878327e-05
-6.833390895691935e-06   -1.967823248292253e-06   1.5306810996668562e-05
-6.833390895691935e-06   -1.967823248292253e-06   1.5306810996668562e-05
-6.833390895691935e-06   -1.967823248292253e-06   1.5306810996668562e-05
-6.833390895691935e-06   -1.967823248292253e-06   1.5306810996668562e-05
-6.156754335650598e-06   -6.208422538459902e-07   1.3370894799931486e-05
-6.156754335650598e-06   -6.208422538459902e-07   1.3370894799931486e-05
-6.156754335650598e-06   -6.208422538459902e-07   1.3370894799931486e-05
-6.156754335650598e-06   -6.208422538459902e-07   1.3370894799931486e-05
-6.833390895691935e-06   1.529906123647149e-07   1.327997413627229e-05
-6.833390895691935e-06   1.529906123647149e-07   1.327997413627229e-05
-6.833390895691935e-06   1.529906123647149e-07   1.327997413627229e-05
-6.833390895691935e-06   1.529906123647149e-07   1.327997413627229e-05
-5.61728877945415e-06   -1.967823248292253e-06   1.4034322680274355e-05
-5.61728877945415e-06   -1.967823248292253e-06   1.4034322680274355e-05
-5.61728877945415e-06   -1.967823248292253e-06   1.4034322680274355e-05
-5.61728877945415e-06   -1.967823248292253e-06   1.4034322680274355e-05
-5.5252347050331716e-06   -2.3778429799421654e-07   1.2688043804018204e-05
-5.5252347050331716e-06   -2.3778429799421654e-07   1.2688043804018204e-05
-5.5252347050331716e-06   -2.3778429799421654e-07   1.2688043804018204e-05
-5.5252347050331716e-06   -2.3778429799421654e-07   1.2688043804018204e-05
-6.700063756245428e-06   -2.22651284545179e-06   1.5839329351179652e-05
-6.700063756245428e-06   -2.22651284545179e-06   1.5839329351179652e-05
-6.700063756245428e-06   -2.22651284545179e-06   1.5839329351179652e-05
-6.700063756245428e-06   -2.22651284545179e-06   1.5839329351179652e-05
-6.0616568254800274e-06   -8.624942721444464e-07   1.3956906655919802e-05
-6.0616568254800274e-06   -8.624942721444464e-07   1.3956906655919802e-05
-6.0616568254800274e-06   -8.624942721444464e-07   1.3956906655919802e-05
-6.0616568254800274e-06   -8.624942721444464e-07   1.3956906655919802e-05
-5.79677785388262e-06   1.6376616636241438e-06   2.90302767383681e-06
-5.79677785388262e-06   1.6376616636241438e-06   2.90302767383681e-06
-5.79677785388262e-06   1.6376616636241438e-06   2.90302767383681e-06
-5.79677785388262e-06   1.6376616636241438e-06   2.90302767383681e-06
-3.358969113091551e-06   -1.6872827938925776e-07   5.882208276013754e-06
-3.358969113091551e-06   -1.6872827938925776e-07   5.882208276013754e-06
-3.358969113091551e-06   -1.6872827938925776e-07   5.882208276013754e-06
-3.358969113091551e-06   -1.6872827938925776e-07   5.882208276013754e-06
-3.5501801824424305e-06   1.3172581174497513e-06   2.9298664918431597e-06
-3.5501801824424305e-06   1.3172581174497513e-06   2.9298664918431597e-06
-3.5501801824424305e-06   1.3172581174497513e-06   2.9298664918431597e-06
-3.5501801824424305e-06   1.3172581174497513e-06   2.9298664918431597e-06
-5.672809911661848e-06   -2.3548110406290635e-07   7.3992262401165404e-06
-5.672809911661848e-06   -2.3548110406290635e-07   7.3992262401165404e-06
-5.672809911661848e-06   -2.3548110406290635e-07   7.3992262401165404e-06
-5.672809911661848e-06   -2.3548110406290635e-07   7.3992262401165404e-06
-4.436662215422902e-06   8.420011201546178e-07   4.692490745188127e-06
-4.436662215422902e-06   8.420011201546178e-07   4.692490745188127e-06
-4.436662215422902e-06   8.420011201546178e-07   4.692490745188127e-06
-4.436662215422902e-06   8.420011201546178e-07   4.692490745188127e-06
-5.672809911661848e-06   1.3172581174497513e-06   3.861510024750483e-06
-5.672809911661848e-06   1.3172581174497513e-06   3.861510024750483e-06
-5.672809911661848e-06   1.3172581174497513e-06   3.861510024750483e-06
-5.672809911661848e-06   1.3172581174497513e-06   3.861510024750483e-06
-3.5501801824424847e-06   -2.3548110406296056e-07   6.467582707209e-06
-3.5501801824424847e-06   -2.3548110406296056e-07   6.467582707209e-06
-3.5501801824424847e-06   -2.3548110406296056e-07   6.467582707209e-06
-3.5501801824424847e-06   -2.3548110406296056e-07   6.467582707209e-06
-3.707193164216539e-06   1.107773731288974e-06   3.8087490215407563e-06
-3.707193164216539e-06   1.107773731288974e-06   3.8087490215407563e-06
-3.707193164216539e-06   1.107773731288974e-06   3.8087490215407563e-06
-3.707193164216539e-06   1.107773731288974e-06   3.8087490215407563e-06
-5.61728877945415e-06   -3.257698190338443e-07   7.852367843797013e-06
-5.61728877945415e-06   -3.257698190338443e-07   7.852367843797013e-06
-5.61728877945415e-06   -3.257698190338443e-07   7.852367843797013e-06
-5.61728877945415e-06   -3.257698190338443e-07   7.852367843797013e-06
-4.515442997929321e-06   6.83663588333717e-07   5.410298163501448e-06
-4.515442997929321e-06   6.83663588333717e-07   5.410298163501448e-06
-4.515442997929321e-06   6.83663588333717e-07   5.410298163501448e-06
-4.515442997929321e-06   6.83663588333717e-07   5.410298163501448e-06
-5.61728877945415e-06   1.107773731288974e-06   4.6688751517344365e-06
-5.61728877945415e-06   1.107773731288974e-06   4.6688751517344365e-06
-5.61728877945415e-06   1.107773731288974e-06   4.6688751517344365e-06
-5.61728877945415e-06   1.107773731288974e-06   4.6688751517344365e-06
-3.7071931642164847e-06   -3.257698190338443e-07   6.992241713603387e-06
-3.7071931642164847e-06   -3.257698190338443e-07   6.992241713603387e-06
-3.7071931642164847e-06   -3.257698190338443e-07   6.992241713603387e-06
-3.7071931642164847e-06   -3.257698190338443e-07   6.992241713603387e-06
-4.092637186712221e-06   6.862124664195257e-07   5.379911166108185e-06
-4.092637186712221e-06   6.862124664195257e-07   5.379911166108185e-06
-4.092637186712221e-06   6.862124664195257e-07   5.379911166108185e-06
-4.092637186712221e-06   6.862124664195257e-07   5.379911166108185e-06
-5.5252347050331716e-06   -4.355954545309706e-07   8.440658449213306e-06
-5.5252347050331716e-06   -4.355954545309706e-07   8.440658449213306e-06
-5.5252347050331716e-06   -4.355954545309706e-07   8.440658449213306e-06
-5.5252347050331716e-06   -4.355954545309706e-07   8.440658449213306e-06
-4.526238173359538e-06   5.763986393778173e-07   6.168467773411991e-06
-4.526238173359538e-06   5.763986393778173e-07   6.168467773411991e-06
-4.526238173359538e-06   5.763986393778173e-07   6.168467773411991e-06
-4.526238173359538e-06   5.763986393778173e-07   6.168467773411991e-06
-5.337169054376976e-05   4.1768465366367915e-06   2.2874254331373736e-05
-5.337169054376976e-05   4.1768465366367915e-06   2.2874254331373736e-05
-5.337169054376976e-05   4.1768465366367915e-06   2.2874254331373736e-05
-5.337169054376976e-05   4.1768465366367915e-06   2.2874254331373736e-05
-1.2546767479177329e-05   -2.6083827870293353e-05   7.275938812820304e-05
-1.2546767479177329e-05   -2.6083827870293353e-05   7.275938812820304e-05
-1.2546767479177329e-05   -2.6083827870293353e-05   7.275938812820304e-05
-1.2546767479177329e-05   -2.6083827870293353e-05   7.275938812820304e-05
-1.4726938263533438e-05   1.6916090037554735e-06   1.2556110881183283e-05
-1.4726938263533438e-05   1.6916090037554735e-06   1.2556110881183283e-05
-1.4726938263533438e-05   1.6916090037554735e-06   1.2556110881183283e-05
-1.4726938263533438e-05   1.6916090037554735e-06   1.2556110881183283e-05
-4.867652803394465e-05   -2.0274179718607444e-05   8.231823373195295e-05
-4.867652803394465e-05   -2.0274179718607444e-05   8.231823373195295e-05
-4.867652803394465e-05   -2.0274179718607444e-05   8.231823373195295e-05
-4.867652803394465e-05   -2.0274179718607444e-05   8.231823373195295e-05
-3.245478651723869e-05   -1.009346923388726e-05   4.917357157994421e-05
-3.245478651723869e-05   -1.009346923388726e-05   4.917357157994421e-05
-3.245478651723869e-05   -1.009346923388726e-05   4.917357157994421e-05
-3.245478651723869e-05   -1.009346923388726e-05   4.917357157994421e-05
-4.867652803394457e-05   1.6916090037554735e-06   2.573558411460099e-05
-4.867652803394457e-05   1.6916090037554735e-06   2.573558411460099e-05
-4.867652803394457e-05   1.6916090037554735e-06   2.573558411460099e-05
-4.867652803394457e-05   1.6916090037554735e-06   2.573558411460099e-05
-1.4726938263533471e-05   -2.0274179718607444e-05   6.913876049853517e-05
-1.4726938263533471e-05   -2.0274179718607444e-05   6.913876049853517e-05
-1.4726938263533471e-05   -2.0274179718607444e-05   6.913876049853517e-05
-1.4726938263533471e-05   -2.0274179718607444e-05   6.913876049853517e-05
-1.5060061948651952e-05   1.2137010320937744e-06   1.3797708149536843e-05
-1.5060061948651952e-05   1.2137010320937744e-06   1.3797708149536843e-05
-1.5060061948651952e-05   1.2137010320937744e-06   1.3797708149536843e-05
-1.5060061948651952e-05   1.2137010320937744e-06   1.3797708149536843e-05
-4.5927678138594584e-05   -1.7474842073058966e-05   7.64568609958661e-05
-4.5927678138594584e-05   -1.7474842073058966e-05   7.64568609958661e-05
-4.5927678138594584e-05   -1.7474842073058966e-05   7.64568609958661e-05
-4.5927678138594584e-05   -1.7474842073058966e-05   7.64568609958661e-05
-3.1484171866549325e-05   -9.56258363282031e-06   4.76369954783142e-05
-3.1484171866549325e-05   -9.56258363282031e-06   4.76369954783142e-05
-3.1484171866549325e-05   -9.56258363282031e-06   4.76369954783142e-05
-3.1484171866549325e-05   -9.56258363282031e-06   4.76369954783142e-05
-4.592767813859451e-05   1.2137010320937744e-06   2.501083401262847e-05
-4.592767813859451e-05   1.2137010320937744e-06   2.501083401262847e-05
-4.592767813859451e-05   1.2137010320937744e-06   2.501083401262847e-05
-4.592767813859451e-05   1.2137010320937744e-06   2.501083401262847e-05
-1.5060061948651986e-05   -1.7474842073058966e-05   6.524373513277445e-05
-1.5060061948651986e-05   -1.7474842073058966e-05   6.524373513277445e-05
-1.5060061948651986e-05   -1.7474842073058966e-05   6.524373513277445e-05
-1.5060061948651986e-05   -1.7474842073058966e-05   6.524373513277445e-05
-1.649686449621915e-05   -8.187584015029799e-07   1.7277837315763956e-05
-1.649686449621915e-05   -8.187584015029799e-07   1.7277837315763956e-05
-1.649686449621915e-05   -8.187584015029799e-07   1.7277837315763956e-05
-1.649686449621915e-05   -8.187584015029799e-07   1.7277837315763956e-05
-4.2404055478500214e-05   -1.375729375764574e-05   6.821961016658458e-05
-4.2404055478500214e-05   -1.375729375764574e-05   6.821961016658458e-05
-4.2404055478500214e-05   -1.375729375764574e-05   6.821961016658458e-05
-4.2404055478500214e-05   -1.375729375764574e-05   6.821961016658458e-05
-3.0283306338752628e-05   -8.827150872797805e-06   4.50602758694299e-05
-3.0283306338752628e-05   -8.827150872797805e-06   4.50602758694299e-05
-3.0283306338752628e-05   -8.827150872797805e-06   4.50602758694299e-05
-3.0283306338752628e-05   -8.827150872797805e-06   4.50602758694299e-05
-1.2546767479177302e-05   -4.7180457487544666e-06   1.2984142333065672e-05
-1.2546767479177302e-05   -4.7180457487544666e-06   1.2984142333065672e-05
-1.2546767479177302e-05   -4.7180457487544666e-06   1.2984142333065672e-05
-1.2546767479177302e-05   -4.7180457487544666e-06   1.2984142333065672e-05
-4.370456018999269e-06   -8.086927558535744e-06   2.4589999014160396e-05
-4.370456018999269e-06   -8.086927558535744e-06   2.4589999014160396e-05
-4.370456018999269e-06   -8.086927558535744e-06   2.4589999014160396e-05
-4.370456018999269e-06   -8.086927558535744e-06   2.4589999014160396e-05
-4.882387327272792e-06   -3.864243262049626e-06   1.1590057337667237e-05
-4.882387327272792e-06   -3.864243262049626e-06   1.1590057337667237e-05
-4.882387327272792e-06   -3.864243262049626e-06   1.1590057337667237e-05
-4.882387327272792e-06   -3.864243262049626e-06   1.1590057337667237e-05
-1.4726938263533471e-05   -1.0721460791229142e-05   3.211197274894264e-05
-1.4726938263533471e-05   -1.0721460791229142e-05   3.211197274894264e-05
-1.4726938263533471e-05   -1.0721460791229142e-05   3.211197274894264e-05
-1.4726938263533471e-05   -1.0721460791229142e-05   3.211197274894264e-05
-8.655454218369718e-06   -5.617113070610137e-06   1.893022404129822e-05
-8.655454218369718e-06   -5.617113070610137e-06   1.893022404129822e-05
-8.655454218369718e-06   -5.617113070610137e-06   1.893022404129822e-05
-8.655454218369718e-06   -5.617113070610137e-06   1.893022404129822e-05
-1.472693826353343e-05   -3.864243262049626e-06   1.57043878551748e-05
-1.472693826353343e-05   -3.864243262049626e-06   1.57043878551748e-05
-1.472693826353343e-05   -3.864243262049626e-06   1.57043878551748e-05
-1.472693826353343e-05   -3.864243262049626e-06   1.57043878551748e-05
-4.8823873272728195e-06   -1.0721460791229142e-05   2.7997642231434954e-05
-4.8823873272728195e-06   -1.0721460791229142e-05   2.7997642231434954e-05
-4.8823873272728195e-06   -1.0721460791229142e-05   2.7997642231434954e-05
-4.8823873272728195e-06   -1.0721460791229142e-05   2.7997642231434954e-05
-5.320995693068993e-06   -3.951543254920083e-06   1.3031893158314985e-05
-5.320995693068993e-06   -3.951543254920083e-06   1.3031893158314985e-05
-5.320995693068993e-06   -3.951543254920083e-06   1.3031893158314985e-05
-5.320995693068993e-06   -3.951543254920083e-06   1.3031893158314985e-05
-1.5060061948651986e-05   -9.805784116969466e-06   3.27762147681827e-05
-1.5060061948651986e-05   -9.805784116969466e-06   3.27762147681827e-05
-1.5060061948651986e-05   -9.805784116969466e-06   3.27762147681827e-05
-1.5060061948651986e-05   -9.805784116969466e-06   3.27762147681827e-05
-9.760308087947404e-06   -6.867357979073034e-06   2.218023598427076e-05
-9.760308087947404e-06   -6.867357979073034e-06   2.218023598427076e-05
-9.760308087947404e-06   -6.867357979073034e-06   2.218023598427076e-05
-9.760308087947404e-06   -6.867357979073034e-06   2.218023598427076e-05
-1.5060061948651952e-05   -3.951543254920083e-06   1.6544437675544552e-05
-1.5060061948651952e-05   -3.951543254920083e-06   1.6544437675544552e-05
-1.5060061948651952e-05   -3.951543254920083e-06   1.6544437675544552e-05
-1.5060061948651952e-05   -3.951543254920083e-06   1.6544437675544552e-05
-5.32099569306902e-06   -9.805784116969466e-06   2.9263670250953094e-05
-5.32099569306902e-06   -9.805784116969466e-06   2.9263670250953094e-05
-5.32099569306902e-06   -9.805784116969466e-06   2.9263670250953094e-05
-5.32099569306902e-06   -9.805784116969466e-06   2.9263670250953094e-05
-6.034490607981978e-06   -3.9864879250111436e-06   1.4256120896474886e-05
-6.034490607981978e-06   -3.9864879250111436e-06   1.4256120896474886e-05
-6.034490607981978e-06   -3.9864879250111436e-06   1.4256120896474886e-05
-6.034490607981978e-06   -3.9864879250111436e-06   1.4256120896474886e-05
-1.6496864496219157e-05   -9.228212433459287e-06   3.4838445415272354e-05
-1.6496864496219157e-05   -9.228212433459287e-06   3.4838445415272354e-05
-1.6496864496219157e-05   -9.228212433459287e-06   3.4838445415272354e-05
-1.6496864496219157e-05   -9.228212433459287e-06   3.4838445415272354e-05
-1.0405334671731127e-05   -6.270228479706542e-06   2.2911105335540662e-05
-1.0405334671731127e-05   -6.270228479706542e-06   2.2911105335540662e-05
-1.0405334671731127e-05   -6.270228479706542e-06   2.2911105335540662e-05
-1.0405334671731127e-05   -6.270228479706542e-06   2.2911105335540662e-05
-4.370456018999269e-06   -3.685824117006099e-06   6.985806738356092e-06
-4.370456018999269e-06   -3.685824117006099e-06   6.985806738356092e-06
-4.370456018999269e-06   -3.685824117006099e-06   6.985806738356092e-06
-4.370456018999269e-06   -3.685824117006099e-06   6.985806738356092e-06
-2.4384499334126363e-06   -2.259902403008275e-06   1.1061369909399208e-05
-2.4384499334126363e-06   -2.259902403008275e-06   1.1061369909399208e-05
-2.4384499334126363e-06   -2.259902403008275e-06   1.1061369909399208e-05
-2.4384499334126363e-06   -2.259902403008275e-06   1.1061369909399208e-05
-2.343945036110322e-06   -3.619914045267759e-06   8.047990590037636e-06
-2.343945036110322e-06   -3.619914045267759e-06   8.047990590037636e-06
-2.343945036110322e-06   -3.619914045267759e-06   8.047990590037636e-06
-2.343945036110322e-06   -3.619914045267759e-06   8.047990590037636e-06
-4.8823873272728195e-06   -2.957934532740431e-06   1.1881540034458656e-05
-4.8823873272728195e-06   -2.957934532740431e-06   1.1881540034458656e-05
-4.8823873272728195e-06   -2.957934532740431e-06   1.1881540034458656e-05
-4.8823873272728195e-06   -2.957934532740431e-06   1.1881540034458656e-05
-3.286751726590991e-06   -2.9634069851907253e-06   9.225430838125668e-06
-3.286751726590991e-06   -2.9634069851907253e-06   9.225430838125668e-06
-3.286751726590991e-06   -2.9634069851907253e-06   9.225430838125668e-06
-3.286751726590991e-06   -2.9634069851907253e-06   9.225430838125668e-06
-4.882387327272792e-06   -3.619914045267759e-06   7.650802882521287e-06
-4.882387327272792e-06   -3.619914045267759e-06   7.650802882521287e-06
-4.882387327272792e-06   -3.619914045267759e-06   7.650802882521287e-06
-4.882387327272792e-06   -3.619914045267759e-06   7.650802882521287e-06
-2.343945036110322e-06   -2.957934532740431e-06   1.2278727741975006e-05
-2.343945036110322e-06   -2.957934532740431e-06   1.2278727741975006e-05
-2.343945036110322e-06   -2.957934532740431e-06   1.2278727741975006e-05
-2.343945036110322e-06   -2.957934532740431e-06   1.2278727741975006e-05
-2.348360231040796e-06   -3.730250832971601e-06   8.605163953517663e-06
-2.348360231040796e-06   -3.730250832971601e-06   8.605163953517663e-06
-2.348360231040796e-06   -3.730250832971601e-06   8.605163953517663e-06
-2.348360231040796e-06   -3.730250832971601e-06   8.605163953517663e-06
-5.32099569306902e-06   -3.798507851981236e-06   1.3600510601637094e-05
-5.32099569306902e-06   -3.798507851981236e-06   1.3600510601637094e-05
-5.32099569306902e-06   -3.798507851981236e-06   1.3600510601637094e-05
-5.32099569306902e-06   -3.798507851981236e-06   1.3600510601637094e-05
-3.485671050276691e-06   -3.240066904622931e-06   1.0206571628568228e-05
-3.485671050276691e-06   -3.240066904622931e-06   1.0206571628568228e-05
-3.485671050276691e-06   -3.240066904622931e-06   1.0206571628568228e-05
-3.485671050276691e-06   -3.240066904622931e-06   1.0206571628568228e-05
-5.320995693068993e-06   -3.730250832971601e-06   8.646118164923469e-06
-5.320995693068993e-06   -3.730250832971601e-06   8.646118164923469e-06
-5.320995693068993e-06   -3.730250832971601e-06   8.646118164923469e-06
-5.320995693068993e-06   -3.730250832971601e-06   8.646118164923469e-06
-2.348360231040796e-06   -3.798507851981236e-06   1.3559556390231288e-05
-2.348360231040796e-06   -3.798507851981236e-06   1.3559556390231288e-05
-2.348360231040796e-06   -3.798507851981236e-06   1.3559556390231288e-05
-2.348360231040796e-06   -3.798507851981236e-06   1.3559556390231288e-05
-2.3848994949926734e-06   -3.88624061610775e-06   9.439067914682805e-06
-2.3848994949926734e-06   -3.88624061610775e-06   9.439067914682805e-06
-2.3848994949926734e-06   -3.88624061610775e-06   9.439067914682805e-06
-2.3848994949926734e-06   -3.88624061610775e-06   9.439067914682805e-06
-6.034490607981978e-06   -4.597292564982413e-06   1.5948350938989623e-05
-6.034490607981978e-06   -4.597292564982413e-06   1.5948350938989623e-05
-6.034490607981978e-06   -4.597292564982413e-06   1.5948350938989623e-05
-6.034490607981978e-06   -4.597292564982413e-06   1.5948350938989623e-05
-3.7124000331677454e-06   -3.5378641576932557e-06   1.1442542936592511e-05
-3.7124000331677454e-06   -3.5378641576932557e-06   1.1442542936592511e-05
-3.7124000331677454e-06   -3.5378641576932557e-06   1.1442542936592511e-05
-3.7124000331677454e-06   -3.5378641576932557e-06   1.1442542936592511e-05
-2.4384499334126363e-06   -1.5127772626126793e-06   1.98988974164631e-06
-2.4384499334126363e-06   -1.5127772626126793e-06   1.98988974164631e-06
-2.4384499334126363e-06   -1.5127772626126793e-06   1.98988974164631e-06
-2.4384499334126363e-06   -1.5127772626126793e-06   1.98988974164631e-06
-1.8115987884366946e-06   3.882314558250298e-07   4.175246881002112e-06
-1.8115987884366946e-06   3.882314558250298e-07   4.175246881002112e-06
-1.8115987884366946e-06   3.882314558250298e-07   4.175246881002112e-06
-1.8115987884366946e-06   3.882314558250298e-07   4.175246881002112e-06
-1.4664209820382267e-06   -1.7705139983082221e-06   3.3125255885453403e-06
-1.4664209820382267e-06   -1.7705139983082221e-06   3.3125255885453403e-06
-1.4664209820382267e-06   -1.7705139983082221e-06   3.3125255885453403e-06
-1.4664209820382267e-06   -1.7705139983082221e-06   3.3125255885453403e-06
-2.343945036110322e-06   1.3795178635832078e-07   3.6299862078654284e-06
-2.343945036110322e-06   1.3795178635832078e-07   3.6299862078654284e-06
-2.343945036110322e-06   1.3795178635832078e-07   3.6299862078654284e-06
-2.343945036110322e-06   1.3795178635832078e-07   3.6299862078654284e-06
-1.890708990916754e-06   -7.109114991798841e-07   3.383910770532266e-06
-1.890708990916754e-06   -7.109114991798841e-07   3.383910770532266e-06
-1.890708990916754e-06   -7.109114991798841e-07   3.383910770532266e-06
-1.890708990916754e-06   -7.109114991798841e-07   3.383910770532266e-06
-2.343945036110322e-06   -1.7705139983082221e-06   2.1674461177453874e-06
-2.343945036110322e-06   -1.7705139983082221e-06   2.1674461177453874e-06
-2.343945036110322e-06   -1.7705139983082221e-06   2.1674461177453874e-06
-2.343945036110322e-06   -1.7705139983082221e-06   2.1674461177453874e-06
-1.4664209820382267e-06   1.3795178635832078e-07   4.775065678665354e-06
-1.4664209820382267e-06   1.3795178635832078e-07   4.775065678665354e-06
-1.4664209820382267e-06   1.3795178635832078e-07   4.775065678665354e-06
-1.4664209820382267e-06   1.3795178635832078e-07   4.775065678665354e-06
-1.2772738050170654e-06   -1.967823248292253e-06   3.639022590762645e-06
-1.2772738050170654e-06   -1.967823248292253e-06   3.639022590762645e-06
-1.2772738050170654e-06   -1.967823248292253e-06   3.639022590762645e-06
-1.2772738050170654e-06   -1.967823248292253e-06   3.639022590762645e-06
-2.348360231040796e-06   -2.585032832092056e-07   4.3985746550853654e-06
-2.348360231040796e-06   -2.585032832092056e-07   4.3985746550853654e-06
-2.348360231040796e-06   -2.585032832092056e-07   4.3985746550853654e-06
-2.348360231040796e-06   -2.585032832092056e-07   4.3985746550853654e-06
-1.7142633525373864e-06   -9.104828625256423e-07   3.7329342718363245e-06
-1.7142633525373864e-06   -9.104828625256423e-07   3.7329342718363245e-06
-1.7142633525373864e-06   -9.104828625256423e-07   3.7329342718363245e-06
-1.7142633525373864e-06   -9.104828625256423e-07   3.7329342718363245e-06
-2.348360231040796e-06   -1.967823248292253e-06   2.6134306117126525e-06
-2.348360231040796e-06   -1.967823248292253e-06   2.6134306117126525e-06
-2.348360231040796e-06   -1.967823248292253e-06   2.6134306117126525e-06
-2.348360231040796e-06   -1.967823248292253e-06   2.6134306117126525e-06
-1.2772738050170654e-06   -2.585032832092056e-07   5.424166634135277e-06
-1.2772738050170654e-06   -2.585032832092056e-07   5.424166634135277e-06
-1.2772738050170654e-06   -2.585032832092056e-07   5.424166634135277e-06
-1.2772738050170654e-06   -2.585032832092056e-07   5.424166634135277e-06
-9.871822766365835e-07   -2.22651284545179e-06   3.994712732499541e-06
-9.871822766365835e-07   -2.22651284545179e-06   3.994712732499541e-06
-9.871822766365835e-07   -2.22651284545179e-06   3.994712732499541e-06
-9.871822766365835e-07   -2.22651284545179e-06   3.994712732499541e-06
-2.3848994949926734e-06   -1.0723930322298045e-06   5.63176954182634e-06
-2.3848994949926734e-06   -1.0723930322298045e-06   5.63176954182634e-06
-2.3848994949926734e-06   -1.0723930322298045e-06   5.63176954182634e-06
-2.3848994949926734e-06   -1.0723930322298045e-06   5.63176954182634e-06
-1.5707518114689285e-06   -1.2155980639097779e-06   4.360779754961682e-06
-1.5707518114689285e-06   -1.2155980639097779e-06   4.360779754961682e-06
-1.5707518114689285e-06   -1.2155980639097779e-06   4.360779754961682e-06
-1.5707518114689285e-06   -1.2155980639097779e-06   4.360779754961682e-06
-1.8115987884366946e-06   -1.6872827938925776e-07   -3.0162806808939455e-06
-1.8115987884366946e-06   -1.6872827938925776e-07   -3.0162806808939455e-06
-1.8115987884366946e-06   -1.6872827938925776e-07   -3.0162806808939455e-06
-1.8115987884366946e-06   -1.6872827938925776e-07   -3.0162806808939455e-06
-3.3783117985188146e-07   2.590551197402527e-07   -3.033312937748573e-07
-3.3783117985188146e-07   2.590551197402527e-07   -3.033312937748573e-07
-3.3783117985188146e-07   2.590551197402527e-07   -3.033312937748573e-07
-3.3783117985188146e-07   2.590551197402527e-07   -3.033312937748573e-07
1.093598566250572e-09   -2.3548110406290635e-07   -2.365802273028117e-06
1.093598566250572e-09   -2.3548110406290635e-07   -2.365802273028117e-06
1.093598566250572e-09   -2.3548110406290635e-07   -2.365802273028117e-06
1.093598566250572e-09   -2.3548110406290635e-07   -2.365802273028117e-06
-1.4664209820382267e-06   4.480383818463663e-07   -3.300563302330046e-07
-1.4664209820382267e-06   4.480383818463663e-07   -3.300563302330046e-07
-1.4664209820382267e-06   4.480383818463663e-07   -3.300563302330046e-07
-1.4664209820382267e-06   4.480383818463663e-07   -3.300563302330046e-07
-8.260252979813969e-07   1.1988482329026973e-07   -1.2004903351942433e-06
-8.260252979813969e-07   1.1988482329026973e-07   -1.2004903351942433e-06
-8.260252979813969e-07   1.1988482329026973e-07   -1.2004903351942433e-06
-8.260252979813969e-07   1.1988482329026973e-07   -1.2004903351942433e-06
-1.4664209820382267e-06   -2.3548110406296056e-07   -2.7759139645738362e-06
-1.4664209820382267e-06   -2.3548110406296056e-07   -2.7759139645738362e-06
-1.4664209820382267e-06   -2.3548110406296056e-07   -2.7759139645738362e-06
-1.4664209820382267e-06   -2.3548110406296056e-07   -2.7759139645738362e-06
1.093598566304782e-09   4.480383818463663e-07   8.005536131249803e-08
1.093598566304782e-09   4.480383818463663e-07   8.005536131249803e-08
1.093598566304782e-09   4.480383818463663e-07   8.005536131249803e-08
1.093598566304782e-09   4.480383818463663e-07   8.005536131249803e-08
1.7835188124287749e-07   -3.257698190338443e-07   -2.117622237080485e-06
1.7835188124287749e-07   -3.257698190338443e-07   -2.117622237080485e-06
1.7835188124287749e-07   -3.257698190338443e-07   -2.117622237080485e-06
1.7835188124287749e-07   -3.257698190338443e-07   -2.117622237080485e-06
-1.2772738050170654e-06   3.830801953567432e-07   -1.168894352817024e-07
-1.2772738050170654e-06   3.830801953567432e-07   -1.168894352817024e-07
-1.2772738050170654e-06   3.830801953567432e-07   -1.168894352817024e-07
-1.2772738050170654e-06   3.830801953567432e-07   -1.168894352817024e-07
-5.757430673787058e-07   7.825241408822878e-08   -1.1032106625841849e-06
-5.757430673787058e-07   7.825241408822878e-08   -1.1032106625841849e-06
-5.757430673787058e-07   7.825241408822878e-08   -1.1032106625841849e-06
-5.757430673787058e-07   7.825241408822878e-08   -1.1032106625841849e-06
-1.2772738050170654e-06   -3.257698190338443e-07   -2.542932245714832e-06
-1.2772738050170654e-06   -3.257698190338443e-07   -2.542932245714832e-06
-1.2772738050170654e-06   -3.257698190338443e-07   -2.542932245714832e-06
-1.2772738050170654e-06   -3.257698190338443e-07   -2.542932245714832e-06
1.7835188124287749e-07   3.830801953567432e-07   3.0842057335269887e-07
1.7835188124287749e-07   3.830801953567432e-07   3.0842057335269887e-07
1.7835188124287749e-07   3.830801953567432e-07   3.0842057335269887e-07
1.7835188124287749e-07   3.830801953567432e-07   3.0842057335269887e-07
3.987445552233889e-07   -4.355954545310248e-07   -1.7528762113567728e-06
3.987445552233889e-07   -4.355954545310248e-07   -1.7528762113567728e-06
3.987445552233889e-07   -4.355954545310248e-07   -1.7528762113567728e-06
3.987445552233889e-07   -4.355954545310248e-07   -1.7528762113567728e-06
-9.871822766365835e-07   3.274792615279911e-07   9.915701210756658e-08
-9.871822766365835e-07   3.274792615279911e-07   9.915701210756658e-08
-9.871822766365835e-07   3.274792615279911e-07   9.915701210756658e-08
-9.871822766365835e-07   3.274792615279911e-07   9.915701210756658e-08
-3.492888636315208e-07   2.776472166778998e-08   -7.841699523180451e-07
-3.492888636315208e-07   2.776472166778998e-08   -7.841699523180451e-07
-3.492888636315208e-07   2.776472166778998e-08   -7.841699523180451e-07
-3.492888636315208e-07   2.776472166778998e-08   -7.841699523180451e-07
              </DataArray>   
             <DataArray type="Float64" NumberOfComponents="3" Name="Stress" format="ascii">   
-2.7707180333010335   -0.6926795083252584   -0.6926795083252584
-2.7707180333010335   -0.6926795083252584   -0.6926795083252584
-2.7707180333010335   -0.6926795083252584   -0.6926795083252584
-2.7707180333010335   -0.6926795083252584   -0.6926795083252584
-1.6033294461027048   -0.05092357501138872   -0.03219548894913789
-1.6033294461027048   -0.05092357501138872   -0.03219548894913789
-1.6033294461027048   -0.05092357501138872   -0.03219548894913789
-1.6033294461027048   -0.05092357501138872   -0.03219548894913789
-1.728106492801574   -0.4320266232003935   -0.4320266232003935
-1.728106492801574   -0.4320266232003935   -0.4320266232003935
-1.728106492801574   -0.4320266232003935   -0.4320266232003935
-1.728106492801574   -0.4320266232003935   -0.4320266232003935
-2.6703470538951333   -0.21939250769189061   -0.08393357980762152
-2.6703470538951333   -0.21939250769189061   -0.08393357980762152
-2.6703470538951333   -0.21939250769189061   -0.08393357980762152
-2.6703470538951333   -0.21939250769189061   -0.08393357980762152
-2.0943107847674107   -0.34340881139448637   -0.005789928711717306
-2.0943107847674107   -0.34340881139448637   -0.005789928711717306
-2.0943107847674107   -0.34340881139448637   -0.005789928711717306
-2.0943107847674107   -0.34340881139448637   -0.005789928711717306
-2.8996464848835943   -0.7249116212208986   -0.7249116212208986
-2.8996464848835943   -0.7249116212208986   -0.7249116212208986
-2.8996464848835943   -0.7249116212208986   -0.7249116212208986
-2.8996464848835943   -0.7249116212208986   -0.7249116212208986
-1.55319608377032   0.019103468371411303   -0.008604669615928623
-1.55319608377032   0.019103468371411303   -0.008604669615928623
-1.55319608377032   0.019103468371411303   -0.008604669615928623
-1.55319608377032   0.019103468371411303   -0.008604669615928623
-1.7329441501829168   -0.4332360375457292   -0.4332360375457292
-1.7329441501829168   -0.4332360375457292   -0.4332360375457292
-1.7329441501829168   -0.4332360375457292   -0.4332360375457292
-1.7329441501829168   -0.4332360375457292   -0.4332360375457292
-2.760051985093997   -0.22148561510778825   -0.12298596359242407
-2.760051985093997   -0.22148561510778825   -0.12298596359242407
-2.760051985093997   -0.22148561510778825   -0.12298596359242407
-2.760051985093997   -0.22148561510778825   -0.12298596359242407
-2.1723852644549067   -0.3233117429013468   -0.11528565047355399
-2.1723852644549067   -0.3233117429013468   -0.11528565047355399
-2.1723852644549067   -0.3233117429013468   -0.11528565047355399
-2.1723852644549067   -0.3233117429013468   -0.11528565047355399
-2.9901751881710656   -0.7475437970427664   -0.7475437970427664
-2.9901751881710656   -0.7475437970427664   -0.7475437970427664
-2.9901751881710656   -0.7475437970427664   -0.7475437970427664
-2.9901751881710656   -0.7475437970427664   -0.7475437970427664
-1.548648244427461   0.046994847067640455   0.008012606618179985
-1.548648244427461   0.046994847067640455   0.008012606618179985
-1.548648244427461   0.046994847067640455   0.008012606618179985
-1.548648244427461   0.046994847067640455   0.008012606618179985
-1.7319927972995859   -0.43299819932489647   -0.43299819932489647
-1.7319927972995859   -0.43299819932489647   -0.43299819932489647
-1.7319927972995859   -0.43299819932489647   -0.43299819932489647
-1.7319927972995859   -0.43299819932489647   -0.43299819932489647
-2.92032057512932   -0.19424149197330337   -0.07380572626746533
-2.92032057512932   -0.19424149197330337   -0.07380572626746533
-2.92032057512932   -0.19424149197330337   -0.07380572626746533
-2.92032057512932   -0.19424149197330337   -0.07380572626746533
-2.230299352445371   -0.3182696168730294   -0.2083491780448783
-2.230299352445371   -0.3182696168730294   -0.2083491780448783
-2.230299352445371   -0.3182696168730294   -0.2083491780448783
-2.230299352445371   -0.3182696168730294   -0.2083491780448783
-1.7630062592340026   -0.44075156480850064   -0.44075156480850064
-1.7630062592340026   -0.44075156480850064   -0.44075156480850064
-1.7630062592340026   -0.44075156480850064   -0.44075156480850064
-1.7630062592340026   -0.44075156480850064   -0.44075156480850064
-0.7356231568384259   -0.04903040854889634   -0.01592688116449357
-0.7356231568384259   -0.04903040854889634   -0.01592688116449357
-0.7356231568384259   -0.04903040854889634   -0.01592688116449357
-0.7356231568384259   -0.04903040854889634   -0.01592688116449357
-0.7722060516977916   -0.1930515129244479   -0.1930515129244479
-0.7722060516977916   -0.1930515129244479   -0.1930515129244479
-0.7722060516977916   -0.1930515129244479   -0.1930515129244479
-0.7722060516977916   -0.1930515129244479   -0.1930515129244479
-1.6050876351610541   -0.18883045536638177   -0.06012850283180579
-1.6050876351610541   -0.18883045536638177   -0.06012850283180579
-1.6050876351610541   -0.18883045536638177   -0.06012850283180579
-1.6050876351610541   -0.18883045536638177   -0.06012850283180579
-1.183855653595789   -0.22429519414808083   0.009244625765663686
-1.183855653595789   -0.22429519414808083   0.009244625765663686
-1.183855653595789   -0.22429519414808083   0.009244625765663686
-1.183855653595789   -0.22429519414808083   0.009244625765663686
-1.7281064928015724   -0.4320266232003931   -0.4320266232003931
-1.7281064928015724   -0.4320266232003931   -0.4320266232003931
-1.7281064928015724   -0.4320266232003931   -0.4320266232003931
-1.7281064928015724   -0.4320266232003931   -0.4320266232003931
-0.6940050868234804   0.0053267621433552015   -0.0004249636206947738
-0.6940050868234804   0.0053267621433552015   -0.0004249636206947738
-0.6940050868234804   0.0053267621433552015   -0.0004249636206947738
-0.6940050868234804   0.0053267621433552015   -0.0004249636206947738
-0.7549391658382751   -0.18873479145956878   -0.18873479145956878
-0.7549391658382751   -0.18873479145956878   -0.18873479145956878
-0.7549391658382751   -0.18873479145956878   -0.18873479145956878
-0.7549391658382751   -0.18873479145956878   -0.18873479145956878
-1.6010162771303762   -0.15403608988877743   -0.0527966199399776
-1.6010162771303762   -0.15403608988877743   -0.0527966199399776
-1.6010162771303762   -0.15403608988877743   -0.0527966199399776
-1.6010162771303762   -0.15403608988877743   -0.0527966199399776
-1.167340478303832   -0.18882012687833905   -0.061029532701171785
-1.167340478303832   -0.18882012687833905   -0.061029532701171785
-1.167340478303832   -0.18882012687833905   -0.061029532701171785
-1.167340478303832   -0.18882012687833905   -0.061029532701171785
-1.7329441501829168   -0.4332360375457292   -0.4332360375457292
-1.7329441501829168   -0.4332360375457292   -0.4332360375457292
-1.7329441501829168   -0.4332360375457292   -0.4332360375457292
-1.7329441501829168   -0.4332360375457292   -0.4332360375457292
-0.6664198662546064   0.0470565827285111   0.018070332270695086
-0.6664198662546064   0.0470565827285111   0.018070332270695086
-0.6664198662546064   0.0470565827285111   0.018070332270695086
-0.6664198662546064   0.0470565827285111   0.018070332270695086
-0.7392103818595472   -0.1848025954648868   -0.1848025954648868
-0.7392103818595472   -0.1848025954648868   -0.1848025954648868
-0.7392103818595472   -0.1848025954648868   -0.1848025954648868
-0.7392103818595472   -0.1848025954648868   -0.1848025954648868
-1.5892170061241957   -0.11884777303180688   -0.03326966974105701
-1.5892170061241957   -0.11884777303180688   -0.03326966974105701
-1.5892170061241957   -0.11884777303180688   -0.03326966974105701
-1.5892170061241957   -0.11884777303180688   -0.03326966974105701
-1.173079755167846   -0.16708523650117707   -0.1359658422425111
-1.173079755167846   -0.16708523650117707   -0.1359658422425111
-1.173079755167846   -0.16708523650117707   -0.1359658422425111
-1.173079755167846   -0.16708523650117707   -0.1359658422425111
-0.8029241098841658   -0.20073102747104146   -0.20073102747104146
-0.8029241098841658   -0.20073102747104146   -0.20073102747104146
-0.8029241098841658   -0.20073102747104146   -0.20073102747104146
-0.8029241098841658   -0.20073102747104146   -0.20073102747104146
0.09512366265941886   0.006195888313838096   0.0007812848397644226
0.09512366265941886   0.006195888313838096   0.0007812848397644226
0.09512366265941886   0.006195888313838096   0.0007812848397644226
0.09512366265941886   0.006195888313838096   0.0007812848397644226
0.1237664071734385   0.030941601793359624   0.030941601793359624
0.1237664071734385   0.030941601793359624   0.030941601793359624
0.1237664071734385   0.030941601793359624   0.030941601793359624
0.1237664071734385   0.030941601793359624   0.030941601793359624
-0.7259352305411081   -0.12547142155852334   -0.029277498506955203
-0.7259352305411081   -0.12547142155852334   -0.029277498506955203
-0.7259352305411081   -0.12547142155852334   -0.029277498506955203
-0.7259352305411081   -0.12547142155852334   -0.029277498506955203
-0.31084626315130115   -0.0788514796200748   0.052724994962701846
-0.31084626315130115   -0.0788514796200748   0.052724994962701846
-0.31084626315130115   -0.0788514796200748   0.052724994962701846
-0.31084626315130115   -0.0788514796200748   0.052724994962701846
-0.7722060516977916   -0.1930515129244479   -0.1930515129244479
-0.7722060516977916   -0.1930515129244479   -0.1930515129244479
-0.7722060516977916   -0.1930515129244479   -0.1930515129244479
-0.7722060516977916   -0.1930515129244479   -0.1930515129244479
0.12597841046187797   0.054462875291039686   0.018480344737875846
0.12597841046187797   0.054462875291039686   0.018480344737875846
0.12597841046187797   0.054462875291039686   0.018480344737875846
0.12597841046187797   0.054462875291039686   0.018480344737875846
0.13925960411522914   0.034814901028807285   0.034814901028807285
0.13925960411522914   0.034814901028807285   0.034814901028807285
0.13925960411522914   0.034814901028807285   0.034814901028807285
0.13925960411522914   0.034814901028807285   0.034814901028807285
-0.7002635060552992   -0.08445773675711148   -0.019633547247152067
-0.7002635060552992   -0.08445773675711148   -0.019633547247152067
-0.7002635060552992   -0.08445773675711148   -0.019633547247152067
-0.7002635060552992   -0.08445773675711148   -0.019633547247152067
-0.2981768355933939   -0.04873164595138621   -0.01802302495481816
-0.2981768355933939   -0.04873164595138621   -0.01802302495481816
-0.2981768355933939   -0.04873164595138621   -0.01802302495481816
-0.2981768355933939   -0.04873164595138621   -0.01802302495481816
-0.7549391658382751   -0.18873479145956878   -0.18873479145956878
-0.7549391658382751   -0.18873479145956878   -0.18873479145956878
-0.7549391658382751   -0.18873479145956878   -0.18873479145956878
-0.7549391658382751   -0.18873479145956878   -0.18873479145956878
0.1507633125828162   0.0959200044158768   0.03122833997967192
0.1507633125828162   0.0959200044158768   0.03122833997967192
0.1507633125828162   0.0959200044158768   0.03122833997967192
0.1507633125828162   0.0959200044158768   0.03122833997967192
0.16009385450229624   0.04002346362557406   0.04002346362557406
0.16009385450229624   0.04002346362557406   0.04002346362557406
0.16009385450229624   0.04002346362557406   0.04002346362557406
0.16009385450229624   0.04002346362557406   0.04002346362557406
-0.6723253455994143   -0.035548274570952124   0.0003682649418407062
-0.6723253455994143   -0.035548274570952124   0.0003682649418407062
-0.6723253455994143   -0.035548274570952124   0.0003682649418407062
-0.6723253455994143   -0.035548274570952124   0.0003682649418407062
-0.2892472756721643   -0.019695109755732063   -0.08813931809913989
-0.2892472756721643   -0.019695109755732063   -0.08813931809913989
-0.2892472756721643   -0.019695109755732063   -0.08813931809913989
-0.2892472756721643   -0.019695109755732063   -0.08813931809913989
0.1041424755874428   0.0260356188968607   0.0260356188968607
0.1041424755874428   0.0260356188968607   0.0260356188968607
0.1041424755874428   0.0260356188968607   0.0260356188968607
0.1041424755874428   0.0260356188968607   0.0260356188968607
1.00453455933522   0.09217227077528511   0.03099016704907802
1.00453455933522   0.09217227077528511   0.03099016704907802
1.00453455933522   0.09217227077528511   0.03099016704907802
1.00453455933522   0.09217227077528511   0.03099016704907802
1.090744582871063   0.2726861457177657   0.2726861457177657
1.090744582871063   0.2726861457177657   0.2726861457177657
1.090744582871063   0.2726861457177657   0.2726861457177657
1.090744582871063   0.2726861457177657   0.2726861457177657
0.09428931184946852   -0.07073125837344943   -0.01477101465968315
0.09428931184946852   -0.07073125837344943   -0.01477101465968315
0.09428931184946852   -0.07073125837344943   -0.01477101465968315
0.09428931184946852   -0.07073125837344943   -0.01477101465968315
0.5727706404779238   0.07131121497676854   0.10404610588121241
0.5727706404779238   0.07131121497676854   0.10404610588121241
0.5727706404779238   0.07131121497676854   0.10404610588121241
0.5727706404779238   0.07131121497676854   0.10404610588121241
0.12376640717343892   0.03094160179335973   0.03094160179335973
0.12376640717343892   0.03094160179335973   0.03094160179335973
0.12376640717343892   0.03094160179335973   0.03094160179335973
0.12376640717343892   0.03094160179335973   0.03094160179335973
1.0164821978548375   0.1262279958587017   0.04783237049570327
1.0164821978548375   0.1262279958587017   0.04783237049570327
1.0164821978548375   0.1262279958587017   0.04783237049570327
1.0164821978548375   0.1262279958587017   0.04783237049570327
1.0860976160225975   0.27152440400564937   0.27152440400564937
1.0860976160225975   0.27152440400564937   0.27152440400564937
1.0860976160225975   0.27152440400564937   0.27152440400564937
1.0860976160225975   0.27152440400564937   0.27152440400564937
0.11923118574136467   -0.03062551212272842   0.00011322231101957257
0.11923118574136467   -0.03062551212272842   0.00011322231101957257
0.11923118574136467   -0.03062551212272842   0.00011322231101957257
0.11923118574136467   -0.03062551212272842   0.00011322231101957257
0.5685686172953304   0.0935992479019075   0.02704978638366252
0.5685686172953304   0.0935992479019075   0.02704978638366252
0.5685686172953304   0.0935992479019075   0.02704978638366252
0.5685686172953304   0.0935992479019075   0.02704978638366252
0.13925960411522928   0.03481490102880732   0.03481490102880732
0.13925960411522928   0.03481490102880732   0.03481490102880732
0.13925960411522928   0.03481490102880732   0.03481490102880732
0.13925960411522928   0.03481490102880732   0.03481490102880732
1.0217144487188936   0.16172924192427446   0.05940372956850505
1.0217144487188936   0.16172924192427446   0.05940372956850505
1.0217144487188936   0.16172924192427446   0.05940372956850505
1.0217144487188936   0.16172924192427446   0.05940372956850505
1.1071556326617393   0.27678890816543483   0.27678890816543483
1.1071556326617393   0.27678890816543483   0.27678890816543483
1.1071556326617393   0.27678890816543483   0.27678890816543483
1.1071556326617393   0.27678890816543483   0.27678890816543483
0.15192319485624217   0.0224310945580789   0.016762534462797532
0.15192319485624217   0.0224310945580789   0.016762534462797532
0.15192319485624217   0.0224310945580789   0.016762534462797532
0.15192319485624217   0.0224310945580789   0.016762534462797532
0.5774148438508392   0.12698275205445533   -0.0443428155484368
0.5774148438508392   0.12698275205445533   -0.0443428155484368
0.5774148438508392   0.12698275205445533   -0.0443428155484368
0.5774148438508392   0.12698275205445533   -0.0443428155484368
1.0887800797448304   0.2721950199362076   0.2721950199362076
1.0887800797448304   0.2721950199362076   0.2721950199362076
1.0887800797448304   0.2721950199362076   0.2721950199362076
1.0887800797448304   0.2721950199362076   0.2721950199362076
2.2586561778479424   0.17217670716734762   0.05908253941637867
2.2586561778479424   0.17217670716734762   0.05908253941637867
2.2586561778479424   0.17217670716734762   0.05908253941637867
2.2586561778479424   0.17217670716734762   0.05908253941637867
2.3087088670105342   0.5771772167526336   0.5771772167526336
2.3087088670105342   0.5771772167526336   0.5771772167526336
2.3087088670105342   0.5771772167526336   0.5771772167526336
2.3087088670105342   0.5771772167526336   0.5771772167526336
0.9695645681555802   -0.05507458066664589   -0.005453201475236133
0.9695645681555802   -0.05507458066664589   -0.005453201475236133
0.9695645681555802   -0.05507458066664589   -0.005453201475236133
0.9695645681555802   -0.05507458066664589   -0.005453201475236133
1.6108350095646984   0.22799813449341255   0.18182678313050954
1.6108350095646984   0.22799813449341255   0.18182678313050954
1.6108350095646984   0.22799813449341255   0.18182678313050954
1.6108350095646984   0.22799813449341255   0.18182678313050954
1.090744582871062   0.2726861457177655   0.2726861457177655
1.090744582871062   0.2726861457177655   0.2726861457177655
1.090744582871062   0.2726861457177655   0.2726861457177655
1.090744582871062   0.2726861457177655   0.2726861457177655
2.139523388657176   0.20141102673035294   0.10701601500815847
2.139523388657176   0.20141102673035294   0.10701601500815847
2.139523388657176   0.20141102673035294   0.10701601500815847
2.139523388657176   0.20141102673035294   0.10701601500815847
2.2397711446227437   0.5599427861556859   0.5599427861556859
2.2397711446227437   0.5599427861556859   0.5599427861556859
2.2397711446227437   0.5599427861556859   0.5599427861556859
2.2397711446227437   0.5599427861556859   0.5599427861556859
0.9729790654412078   -0.030358408114071367   0.007814463218422343
0.9729790654412078   -0.030358408114071367   0.007814463218422343
0.9729790654412078   -0.030358408114071367   0.007814463218422343
0.9729790654412078   -0.030358408114071367   0.007814463218422343
1.563086971780107   0.23458896492727488   0.08718550711220097
1.563086971780107   0.23458896492727488   0.08718550711220097
1.563086971780107   0.23458896492727488   0.08718550711220097
1.563086971780107   0.23458896492727488   0.08718550711220097
1.0860976160225975   0.27152440400564937   0.27152440400564937
1.0860976160225975   0.27152440400564937   0.27152440400564937
1.0860976160225975   0.27152440400564937   0.27152440400564937
1.0860976160225975   0.27152440400564937   0.27152440400564937
2.070673599395133   0.20208097938975011   0.07231686678360287
2.070673599395133   0.20208097938975011   0.07231686678360287
2.070673599395133   0.20208097938975011   0.07231686678360287
2.070673599395133   0.20208097938975011   0.07231686678360287
2.1371251189210634   0.5342812797302658   0.5342812797302658
2.1371251189210634   0.5342812797302658   0.5342812797302658
2.1371251189210634   0.5342812797302658   0.5342812797302658
2.1371251189210634   0.5342812797302658   0.5342812797302658
1.0090101710638582   0.0319445689073512   0.030905939434113128
1.0090101710638582   0.0319445689073512   0.030905939434113128
1.0090101710638582   0.0319445689073512   0.030905939434113128
1.0090101710638582   0.0319445689073512   0.030905939434113128
1.4967459080473864   0.2543675629972254   -0.02288917638353813
1.4967459080473864   0.2543675629972254   -0.02288917638353813
1.4967459080473864   0.2543675629972254   -0.02288917638353813
1.4967459080473864   0.2543675629972254   -0.02288917638353813
-2.1896344843984012   -0.15679999766112585   0.02472743609787692
-2.1896344843984012   -0.15679999766112585   0.02472743609787692
-2.1896344843984012   -0.15679999766112585   0.02472743609787692
-2.1896344843984012   -0.15679999766112585   0.02472743609787692
-1.3938120834451622   -0.03222800954464794   -0.009041222810229746
-1.3938120834451622   -0.03222800954464794   -0.009041222810229746
-1.3938120834451622   -0.03222800954464794   -0.009041222810229746
-1.3938120834451622   -0.03222800954464794   -0.009041222810229746
-1.4031971031148767   0.05669514307898499   0.02935472326650211
-1.4031971031148767   0.05669514307898499   0.02935472326650211
-1.4031971031148767   0.05669514307898499   0.02935472326650211
-1.4031971031148767   0.05669514307898499   0.02935472326650211
-2.2222051481225535   -0.15162243077334042   -0.026347796092368328
-2.2222051481225535   -0.15162243077334042   -0.026347796092368328
-2.2222051481225535   -0.15162243077334042   -0.026347796092368328
-2.2222051481225535   -0.15162243077334042   -0.026347796092368328
-1.731301104243852   -0.059148484597348616   -0.006902905981306912
-1.731301104243852   -0.059148484597348616   -0.006902905981306912
-1.731301104243852   -0.059148484597348616   -0.006902905981306912
-1.731301104243852   -0.059148484597348616   -0.006902905981306912
-2.206016454305849   -0.10762085280745554   0.010594095025271297
-2.206016454305849   -0.10762085280745554   0.010594095025271297
-2.206016454305849   -0.10762085280745554   0.010594095025271297
-2.206016454305849   -0.10762085280745554   0.010594095025271297
-1.4217137613052917   0.010365600739395298   -0.01689902534595887
-1.4217137613052917   0.010365600739395298   -0.01689902534595887
-1.4217137613052917   0.010365600739395298   -0.01689902534595887
-1.4217137613052917   0.010365600739395298   -0.01689902534595887
-1.4048454129676   0.08083525646879369   0.03341182216409107
-1.4048454129676   0.08083525646879369   0.03341182216409107
-1.4048454129676   0.08083525646879369   0.03341182216409107
-1.4048454129676   0.08083525646879369   0.03341182216409107
-2.235641967495517   -0.13354382307113344   -0.0347794679052367
-2.235641967495517   -0.13354382307113344   -0.0347794679052367
-2.235641967495517   -0.13354382307113344   -0.0347794679052367
-2.235641967495517   -0.13354382307113344   -0.0347794679052367
-1.779889153870192   -0.039587199309155774   -0.01689859472160582
-1.779889153870192   -0.039587199309155774   -0.01689859472160582
-1.779889153870192   -0.039587199309155774   -0.01689859472160582
-1.779889153870192   -0.039587199309155774   -0.01689859472160582
-2.1954668265051116   -0.06455075656366627   0.09710317053930285
-2.1954668265051116   -0.06455075656366627   0.09710317053930285
-2.1954668265051116   -0.06455075656366627   0.09710317053930285
-2.1954668265051116   -0.06455075656366627   0.09710317053930285
-1.428293687517472   0.02856905640185825   -0.03156335051832329
-1.428293687517472   0.02856905640185825   -0.03156335051832329
-1.428293687517472   0.02856905640185825   -0.03156335051832329
-1.428293687517472   0.02856905640185825   -0.03156335051832329
-1.3792648731096953   0.14086339164349454   0.06066298979690324
-1.3792648731096953   0.14086339164349454   0.06066298979690324
-1.3792648731096953   0.14086339164349454   0.06066298979690324
-1.3792648731096953   0.14086339164349454   0.06066298979690324
-2.1738061116689718   -0.10773205773241534   -0.05687869077263219
-2.1738061116689718   -0.10773205773241534   -0.05687869077263219
-2.1738061116689718   -0.10773205773241534   -0.05687869077263219
-2.1738061116689718   -0.10773205773241534   -0.05687869077263219
-1.7117819569733403   0.015988348716892198   0.03794631385593046
-1.7117819569733403   0.015988348716892198   0.03794631385593046
-1.7117819569733403   0.015988348716892198   0.03794631385593046
-1.7117819569733403   0.015988348716892198   0.03794631385593046
-1.4284161759920495   -0.1893846459704878   -0.02490504911882705
-1.4284161759920495   -0.1893846459704878   -0.02490504911882705
-1.4284161759920495   -0.1893846459704878   -0.02490504911882705
-1.4284161759920495   -0.1893846459704878   -0.02490504911882705
-0.6581565202033743   -0.014678024824298669   0.0069745524499178965
-0.6581565202033743   -0.014678024824298669   0.0069745524499178965
-0.6581565202033743   -0.014678024824298669   0.0069745524499178965
-0.6581565202033743   -0.014678024824298669   0.0069745524499178965
-0.6677625327457869   0.012656802870619932   0.009982685937937497
-0.6677625327457869   0.012656802870619932   0.009982685937937497
-0.6677625327457869   0.012656802870619932   0.009982685937937497
-0.6677625327457869   0.012656802870619932   0.009982685937937497
-1.4567109444492548   -0.13861995602023755   -0.04289938430616618
-1.4567109444492548   -0.13861995602023755   -0.04289938430616618
-1.4567109444492548   -0.13861995602023755   -0.04289938430616618
-1.4567109444492548   -0.13861995602023755   -0.04289938430616618
-1.0527358637160829   -0.08549741462193894   -0.024151391700632206
-1.0527358637160829   -0.08549741462193894   -0.024151391700632206
-1.0527358637160829   -0.08549741462193894   -0.024151391700632206
-1.0527358637160829   -0.08549741462193894   -0.024151391700632206
-1.4553337999555136   -0.15148392610871142   -0.0231496917489927
-1.4553337999555136   -0.15148392610871142   -0.0231496917489927
-1.4553337999555136   -0.15148392610871142   -0.0231496917489927
-1.4553337999555136   -0.15148392610871142   -0.0231496917489927
-0.666544258468214   0.028116191730407664   0.0006146684660193538
-0.666544258468214   0.028116191730407664   0.0006146684660193538
-0.666544258468214   0.028116191730407664   0.0006146684660193538
-0.666544258468214   0.028116191730407664   0.0006146684660193538
-0.6652270673000377   0.046389722537864914   0.013543232362895521
-0.6652270673000377   0.046389722537864914   0.013543232362895521
-0.6652270673000377   0.046389722537864914   0.013543232362895521
-0.6652270673000377   0.046389722537864914   0.013543232362895521
-1.457289097358323   -0.10157010884690434   -0.046401234473825805
-1.457289097358323   -0.10157010884690434   -0.046401234473825805
-1.457289097358323   -0.10157010884690434   -0.046401234473825805
-1.457289097358323   -0.10157010884690434   -0.046401234473825805
-1.050675173556655   -0.047576030382331796   -0.011483223032460542
-1.050675173556655   -0.047576030382331796   -0.011483223032460542
-1.050675173556655   -0.047576030382331796   -0.011483223032460542
-1.050675173556655   -0.047576030382331796   -0.011483223032460542
-1.451585983100353   -0.11456821791746113   -0.0048875541134194705
-1.451585983100353   -0.11456821791746113   -0.0048875541134194705
-1.451585983100353   -0.11456821791746113   -0.0048875541134194705
-1.451585983100353   -0.11456821791746113   -0.0048875541134194705
-0.6661105043498968   0.06420750881653423   -0.008691739165058852
-0.6661105043498968   0.06420750881653423   -0.008691739165058852
-0.6661105043498968   0.06420750881653423   -0.008691739165058852
-0.6661105043498968   0.06420750881653423   -0.008691739165058852
-0.6540683516715057   0.08027266201590114   0.02718385104479308
-0.6540683516715057   0.08027266201590114   0.02718385104479308
-0.6540683516715057   0.08027266201590114   0.02718385104479308
-0.6540683516715057   0.08027266201590114   0.02718385104479308
-1.4416630750783148   -0.05876132424320213   -0.051703304159504304
-1.4416630750783148   -0.05876132424320213   -0.051703304159504304
-1.4416630750783148   -0.05876132424320213   -0.051703304159504304
-1.4416630750783148   -0.05876132424320213   -0.051703304159504304
-1.0462651587517575   -0.011690176048716028   0.0052513697698454015
-1.0462651587517575   -0.011690176048716028   0.0052513697698454015
-1.0462651587517575   -0.011690176048716028   0.0052513697698454015
-1.0462651587517575   -0.011690176048716028   0.0052513697698454015
-0.6940123811630604   -0.15765344404431175   -0.0293293331285037
-0.6940123811630604   -0.15765344404431175   -0.0293293331285037
-0.6940123811630604   -0.15765344404431175   -0.0293293331285037
-0.6940123811630604   -0.15765344404431175   -0.0293293331285037
0.07180037916941232   0.016319477539293855   0.027036279632425712
0.07180037916941232   0.016319477539293855   0.027036279632425712
0.07180037916941232   0.016319477539293855   0.027036279632425712
0.07180037916941232   0.016319477539293855   0.027036279632425712
0.06854672853393455   0.03971438961276688   0.002169598274453317
0.06854672853393455   0.03971438961276688   0.002169598274453317
0.06854672853393455   0.03971438961276688   0.002169598274453317
0.06854672853393455   0.03971438961276688   0.002169598274453317
-0.6969224355896884   -0.10443083312372048   -0.01872919228722965
-0.6969224355896884   -0.10443083312372048   -0.01872919228722965
-0.6969224355896884   -0.10443083312372048   -0.01872919228722965
-0.6969224355896884   -0.10443083312372048   -0.01872919228722965
-0.3156709868416973   -0.05228184853243234   -0.009996563895186196
-0.3156709868416973   -0.05228184853243234   -0.009996563895186196
-0.3156709868416973   -0.05228184853243234   -0.009996563895186196
-0.3156709868416973   -0.05228184853243234   -0.009996563895186196
-0.7017444156843262   -0.1201931200521698   -0.027076805831969326
-0.7017444156843262   -0.1201931200521698   -0.027076805831969326
-0.7017444156843262   -0.1201931200521698   -0.027076805831969326
-0.7017444156843262   -0.1201931200521698   -0.027076805831969326
0.07604550703360527   0.05815347494624913   0.021224405439324717
0.07604550703360527   0.05815347494624913   0.021224405439324717
0.07604550703360527   0.05815347494624913   0.021224405439324717
0.07604550703360527   0.05815347494624913   0.021224405439324717
0.07402215546593156   0.07683896742985502   0.012564312166449638
0.07402215546593156   0.07683896742985502   0.012564312166449638
0.07402215546593156   0.07683896742985502   0.012564312166449638
0.07402215546593156   0.07683896742985502   0.012564312166449638
-0.6946314517092306   -0.06371913218078182   -0.023369834964421847
-0.6946314517092306   -0.06371913218078182   -0.023369834964421847
-0.6946314517092306   -0.06371913218078182   -0.023369834964421847
-0.6946314517092306   -0.06371913218078182   -0.023369834964421847
-0.31069744101525637   -0.012830691429147327   0.0037066138198180738
-0.31069744101525637   -0.012830691429147327   0.0037066138198180738
-0.31069744101525637   -0.012830691429147327   0.0037066138198180738
-0.31069744101525637   -0.012830691429147327   0.0037066138198180738
-0.6964972139559629   -0.08255110380298906   -0.013866674575876415
-0.6964972139559629   -0.08255110380298906   -0.013866674575876415
-0.6964972139559629   -0.08255110380298906   -0.013866674575876415
-0.6964972139559629   -0.08255110380298906   -0.013866674575876415
0.07876852389643679   0.09855154523583506   0.014583576512995218
0.07876852389643679   0.09855154523583506   0.014583576512995218
0.07876852389643679   0.09855154523583506   0.014583576512995218
0.07876852389643679   0.09855154523583506   0.014583576512995218
0.07578531015070161   0.11813536595074756   0.020675811800223348
0.07578531015070161   0.11813536595074756   0.020675811800223348
0.07578531015070161   0.11813536595074756   0.020675811800223348
0.07578531015070161   0.11813536595074756   0.020675811800223348
-0.6854894515345031   -0.02019996324083656   -0.02944902301345427
-0.6854894515345031   -0.02019996324083656   -0.02944902301345427
-0.6854894515345031   -0.02019996324083656   -0.02944902301345427
-0.6854894515345031   -0.02019996324083656   -0.02944902301345427
-0.3028709643559761   0.02842599952688804   0.01870833847367251
-0.3028709643559761   0.02842599952688804   0.01870833847367251
-0.3028709643559761   0.02842599952688804   0.01870833847367251
-0.3028709643559761   0.02842599952688804   0.01870833847367251
0.032806003078836826   -0.11557891545169859   -0.03603720782945932
0.032806003078836826   -0.11557891545169859   -0.03603720782945932
0.032806003078836826   -0.11557891545169859   -0.03603720782945932
0.032806003078836826   -0.11557891545169859   -0.03603720782945932
0.8261629736799547   0.056998218807057854   0.049632180099307976
0.8261629736799547   0.056998218807057854   0.049632180099307976
0.8261629736799547   0.056998218807057854   0.049632180099307976
0.8261629736799547   0.056998218807057854   0.049632180099307976
0.8252111858510036   0.07681825728982355   -0.007945310344857195
0.8252111858510036   0.07681825728982355   -0.007945310344857195
0.8252111858510036   0.07681825728982355   -0.007945310344857195
0.8252111858510036   0.07681825728982355   -0.007945310344857195
0.047286394112046146   -0.06940605944609654   0.004988375223874783
0.047286394112046146   -0.06940605944609654   0.004988375223874783
0.047286394112046146   -0.06940605944609654   0.004988375223874783
0.047286394112046146   -0.06940605944609654   0.004988375223874783
0.4275299129308945   -0.009922575901719105   0.0008912940979593081
0.4275299129308945   -0.009922575901719105   0.0008912940979593081
0.4275299129308945   -0.009922575901719105   0.0008912940979593081
0.4275299129308945   -0.009922575901719105   0.0008912940979593081
0.03789913711162439   -0.08443823686162272   -0.026915732362707345
0.03789913711162439   -0.08443823686162272   -0.026915732362707345
0.03789913711162439   -0.08443823686162272   -0.026915732362707345
0.03789913711162439   -0.08443823686162272   -0.026915732362707345
0.8394120333002593   0.09666402515418238   0.043213159037056206
0.8394120333002593   0.09666402515418238   0.043213159037056206
0.8394120333002593   0.09666402515418238   0.043213159037056206
0.8394120333002593   0.09666402515418238   0.043213159037056206
0.8318077352789434   0.11353909279618812   0.008359697368021708
0.8318077352789434   0.11353909279618812   0.008359697368021708
0.8318077352789434   0.11353909279618812   0.008359697368021708
0.8318077352789434   0.11353909279618812   0.008359697368021708
0.04905643299750688   -0.03301769032389497   -0.002407642421923782
0.04905643299750688   -0.03301769032389497   -0.002407642421923782
0.04905643299750688   -0.03301769032389497   -0.002407642421923782
0.04905643299750688   -0.03301769032389497   -0.002407642421923782
0.4333176441083224   0.02517583353459729   0.01773298502860761
0.4333176441083224   0.02517583353459729   0.01773298502860761
0.4333176441083224   0.02517583353459729   0.01773298502860761
0.4333176441083224   0.02517583353459729   0.01773298502860761
0.04221202250928072   -0.049984555223949165   -0.019662829963000172
0.04221202250928072   -0.049984555223949165   -0.019662829963000172
0.04221202250928072   -0.049984555223949165   -0.019662829963000172
0.04221202250928072   -0.049984555223949165   -0.019662829963000172
0.8421358971522108   0.13398970908128108   0.039549890449252494
0.8421358971522108   0.13398970908128108   0.039549890449252494
0.8421358971522108   0.13398970908128108   0.039549890449252494
0.8421358971522108   0.13398970908128108   0.039549890449252494
0.8185206417454355   0.15591864687619766   0.01760284916419806
0.8185206417454355   0.15591864687619766   0.01760284916419806
0.8185206417454355   0.15591864687619766   0.01760284916419806
0.8185206417454355   0.15591864687619766   0.01760284916419806
0.048683431353660156   0.012037945673742004   -0.008736161907978336
0.048683431353660156   0.012037945673742004   -0.008736161907978336
0.048683431353660156   0.012037945673742004   -0.008736161907978336
0.048683431353660156   0.012037945673742004   -0.008736161907978336
0.4398047071629658   0.06529956092658734   0.033325895611003305
0.4398047071629658   0.06529956092658734   0.033325895611003305
0.4398047071629658   0.06529956092658734   0.033325895611003305
0.4398047071629658   0.06529956092658734   0.033325895611003305
0.7610070389822743   -0.15249956950455767   -0.0666497050774793
0.7610070389822743   -0.15249956950455767   -0.0666497050774793
0.7610070389822743   -0.15249956950455767   -0.0666497050774793
0.7610070389822743   -0.15249956950455767   -0.0666497050774793
1.567229842422376   0.1035210437301686   0.04839267519554669
1.567229842422376   0.1035210437301686   0.04839267519554669
1.567229842422376   0.1035210437301686   0.04839267519554669
1.567229842422376   0.1035210437301686   0.04839267519554669
1.5850431016310866   0.049059044657718875   -0.10026360832891885
1.5850431016310866   0.049059044657718875   -0.10026360832891885
1.5850431016310866   0.049059044657718875   -0.10026360832891885
1.5850431016310866   0.049059044657718875   -0.10026360832891885
0.8109831903266324   -0.031219675286778686   0.02895264460987619
0.8109831903266324   -0.031219675286778686   0.02895264460987619
0.8109831903266324   -0.031219675286778686   0.02895264460987619
0.8109831903266324   -0.031219675286778686   0.02895264460987619
1.1223403066360236   -0.019652314465248233   -0.028112420426324003
1.1223403066360236   -0.019652314465248233   -0.028112420426324003
1.1223403066360236   -0.019652314465248233   -0.028112420426324003
1.1223403066360236   -0.019652314465248233   -0.028112420426324003
0.7825388509995348   -0.10023902438773635   -0.044249702924644696
0.7825388509995348   -0.10023902438773635   -0.044249702924644696
0.7825388509995348   -0.10023902438773635   -0.044249702924644696
0.7825388509995348   -0.10023902438773635   -0.044249702924644696
1.6278894343518215   0.13248038715231564   0.030546712780158566
1.6278894343518215   0.13248038715231564   0.030546712780158566
1.6278894343518215   0.13248038715231564   0.030546712780158566
1.6278894343518215   0.13248038715231564   0.030546712780158566
1.6026197973017176   0.0894556915547346   -0.02275577029805749
1.6026197973017176   0.0894556915547346   -0.02275577029805749
1.6026197973017176   0.0894556915547346   -0.02275577029805749
1.6026197973017176   0.0894556915547346   -0.02275577029805749
0.807802956281177   -0.013069702855864868   0.014944598031229911
0.807802956281177   -0.013069702855864868   0.014944598031229911
0.807802956281177   -0.013069702855864868   0.014944598031229911
0.807802956281177   -0.013069702855864868   0.014944598031229911
1.181213446019998   0.02951178985868444   0.019418616423808203
1.181213446019998   0.02951178985868444   0.019418616423808203
1.181213446019998   0.02951178985868444   0.019418616423808203
1.181213446019998   0.02951178985868444   0.019418616423808203
0.7849749407161907   -0.07664596852722552   -0.035619214122335166
0.7849749407161907   -0.07664596852722552   -0.035619214122335166
0.7849749407161907   -0.07664596852722552   -0.035619214122335166
0.7849749407161907   -0.07664596852722552   -0.035619214122335166
1.6235466167687234   0.15113076112811652   0.020203257463590613
1.6235466167687234   0.15113076112811652   0.020203257463590613
1.6235466167687234   0.15113076112811652   0.020203257463590613
1.6235466167687234   0.15113076112811652   0.020203257463590613
1.6000694208650255   0.13701166460488345   -0.03481783187939291
1.6000694208650255   0.13701166460488345   -0.03481783187939291
1.6000694208650255   0.13701166460488345   -0.03481783187939291
1.6000694208650255   0.13701166460488345   -0.03481783187939291
0.7912292002946354   0.028744732937417   0.008319555848964592
0.7912292002946354   0.028744732937417   0.008319555848964592
0.7912292002946354   0.028744732937417   0.008319555848964592
0.7912292002946354   0.028744732937417   0.008319555848964592
1.1511001464905037   0.05176400269539261   0.014424246108888178
1.1511001464905037   0.05176400269539261   0.014424246108888178
1.1511001464905037   0.05176400269539261   0.014424246108888178
1.1511001464905037   0.05176400269539261   0.014424246108888178
-1.7207823773661843   -0.07808497387926211   0.08864424943772158
-1.7207823773661843   -0.07808497387926211   0.08864424943772158
-1.7207823773661843   -0.07808497387926211   0.08864424943772158
-1.7207823773661843   -0.07808497387926211   0.08864424943772158
-1.1428936834282686   -0.04345987697882864   -0.023065522403744265
-1.1428936834282686   -0.04345987697882864   -0.023065522403744265
-1.1428936834282686   -0.04345987697882864   -0.023065522403744265
-1.1428936834282686   -0.04345987697882864   -0.023065522403744265
-1.1016480098499934   0.09263124464915831   0.07436344274756528
-1.1016480098499934   0.09263124464915831   0.07436344274756528
-1.1016480098499934   0.09263124464915831   0.07436344274756528
-1.1016480098499934   0.09263124464915831   0.07436344274756528
-1.7286942041371705   -0.12343059653762473   -0.03613809083611759
-1.7286942041371705   -0.12343059653762473   -0.03613809083611759
-1.7286942041371705   -0.12343059653762473   -0.03613809083611759
-1.7286942041371705   -0.12343059653762473   -0.03613809083611759
-1.3657091861396016   -0.021115825072754446   -0.002546374775612134
-1.3657091861396016   -0.021115825072754446   -0.002546374775612134
-1.3657091861396016   -0.021115825072754446   -0.002546374775612134
-1.3657091861396016   -0.021115825072754446   -0.002546374775612134
-1.6805488939922086   -0.018158373382153703   0.09931623673322053
-1.6805488939922086   -0.018158373382153703   0.09931623673322053
-1.6805488939922086   -0.018158373382153703   0.09931623673322053
-1.6805488939922086   -0.018158373382153703   0.09931623673322053
-1.1422110329310629   -0.005058691442417829   -0.0307617365662059
-1.1422110329310629   -0.005058691442417829   -0.0307617365662059
-1.1422110329310629   -0.005058691442417829   -0.0307617365662059
-1.1422110329310629   -0.005058691442417829   -0.0307617365662059
-1.0971296101577772   0.11489945721311948   0.0689245761782881
-1.0971296101577772   0.11489945721311948   0.0689245761782881
-1.0971296101577772   0.11489945721311948   0.0689245761782881
-1.0971296101577772   0.11489945721311948   0.0689245761782881
-1.7018716377316896   -0.10324260764697146   -0.04947474411791128
-1.7018716377316896   -0.10324260764697146   -0.04947474411791128
-1.7018716377316896   -0.10324260764697146   -0.04947474411791128
-1.7018716377316896   -0.10324260764697146   -0.04947474411791128
-1.3685757104443799   0.005046721284137745   0.015760946349814883
-1.3685757104443799   0.005046721284137745   0.015760946349814883
-1.3685757104443799   0.005046721284137745   0.015760946349814883
-1.3685757104443799   0.005046721284137745   0.015760946349814883
-1.6570397951106082   0.002850731045833721   0.06859113029469024
-1.6570397951106082   0.002850731045833721   0.06859113029469024
-1.6570397951106082   0.002850731045833721   0.06859113029469024
-1.6570397951106082   0.002850731045833721   0.06859113029469024
-1.1394627929110621   0.011304778388112002   -0.039146658763121595
-1.1394627929110621   0.011304778388112002   -0.039146658763121595
-1.1394627929110621   0.011304778388112002   -0.039146658763121595
-1.1394627929110621   0.011304778388112002   -0.039146658763121595
-1.0981682859303812   0.12970919715997253   0.05468975795071701
-1.0981682859303812   0.12970919715997253   0.05468975795071701
-1.0981682859303812   0.12970919715997253   0.05468975795071701
-1.0981682859303812   0.12970919715997253   0.05468975795071701
-1.6670682965992922   -0.08177938866904827   -0.06308694223729304
-1.6670682965992922   -0.08177938866904827   -0.06308694223729304
-1.6670682965992922   -0.08177938866904827   -0.06308694223729304
-1.6670682965992922   -0.08177938866904827   -0.06308694223729304
-1.329207603600659   0.028481043654324856   0.03281901995463295
-1.329207603600659   0.028481043654324856   0.03281901995463295
-1.329207603600659   0.028481043654324856   0.03281901995463295
-1.329207603600659   0.028481043654324856   0.03281901995463295
-1.1462859026924699   -0.10866342579401422   0.025176930090435472
-1.1462859026924699   -0.10866342579401422   0.025176930090435472
-1.1462859026924699   -0.10866342579401422   0.025176930090435472
-1.1462859026924699   -0.10866342579401422   0.025176930090435472
-0.578970741869573   -0.020956613947645017   0.0011055322614536185
-0.578970741869573   -0.020956613947645017   0.0011055322614536185
-0.578970741869573   -0.020956613947645017   0.0011055322614536185
-0.578970741869573   -0.020956613947645017   0.0011055322614536185
-0.5625253301436757   0.056879502903598805   0.04041229600743674
-0.5625253301436757   0.056879502903598805   0.04041229600743674
-0.5625253301436757   0.056879502903598805   0.04041229600743674
-0.5625253301436757   0.056879502903598805   0.04041229600743674
-1.164504770046278   -0.10716112437760592   -0.04012798920710201
-1.164504770046278   -0.10716112437760592   -0.04012798920710201
-1.164504770046278   -0.10716112437760592   -0.04012798920710201
-1.164504770046278   -0.10716112437760592   -0.04012798920710201
-0.8600093118628389   -0.04220271001653994   -0.017439858626906946
-0.8600093118628389   -0.04220271001653994   -0.017439858626906946
-0.8600093118628389   -0.04220271001653994   -0.017439858626906946
-0.8600093118628389   -0.04220271001653994   -0.017439858626906946
-1.1426430757831345   -0.06235219489964766   0.024371552630663214
-1.1426430757831345   -0.06235219489964766   0.024371552630663214
-1.1426430757831345   -0.06235219489964766   0.024371552630663214
-1.1426430757831345   -0.06235219489964766   0.024371552630663214
-0.5799578612424368   0.01649973659002471   -0.006370593172790394
-0.5799578612424368   0.01649973659002471   -0.006370593172790394
-0.5799578612424368   0.01649973659002471   -0.006370593172790394
-0.5799578612424368   0.01649973659002471   -0.006370593172790394
-0.5607165010270698   0.09401672253723403   0.03496032611561308
-0.5607165010270698   0.09401672253723403   0.03496032611561308
-0.5607165010270698   0.09401672253723403   0.03496032611561308
-0.5607165010270698   0.09401672253723403   0.03496032611561308
-1.157871106711701   -0.07250119695363469   -0.04738225242457655
-1.157871106711701   -0.07250119695363469   -0.04738225242457655
-1.157871106711701   -0.07250119695363469   -0.04738225242457655
-1.157871106711701   -0.07250119695363469   -0.04738225242457655
-0.8505911518467397   -0.004634963939566361   -7.018371240041787e-05
-0.8505911518467397   -0.004634963939566361   -7.018371240041787e-05
-0.8505911518467397   -0.004634963939566361   -7.018371240041787e-05
-0.8505911518467397   -0.004634963939566361   -7.018371240041787e-05
-1.1355633705888644   -0.02467805862587738   0.016333289861850418
-1.1355633705888644   -0.02467805862587738   0.016333289861850418
-1.1355633705888644   -0.02467805862587738   0.016333289861850418
-1.1355633705888644   -0.02467805862587738   0.016333289861850418
-0.5794177856728528   0.049800035686535016   -0.014329410262591574
-0.5794177856728528   0.049800035686535016   -0.014329410262591574
-0.5794177856728528   0.049800035686535016   -0.014329410262591574
-0.5794177856728528   0.049800035686535016   -0.014329410262591574
-0.5605237908713799   0.1330458476912029   0.026193271305578275
-0.5605237908713799   0.1330458476912029   0.026193271305578275
-0.5605237908713799   0.1330458476912029   0.026193271305578275
-0.5605237908713799   0.1330458476912029   0.026193271305578275
-1.152264643210007   -0.03509570565576045   -0.05098712563168505
-1.152264643210007   -0.03509570565576045   -0.05098712563168505
-1.152264643210007   -0.03509570565576045   -0.05098712563168505
-1.152264643210007   -0.03509570565576045   -0.05098712563168505
-0.8511119744660758   0.029823681259380702   0.01320899346222134
-0.8511119744660758   0.029823681259380702   0.01320899346222134
-0.8511119744660758   0.029823681259380702   0.01320899346222134
-0.8511119744660758   0.029823681259380702   0.01320899346222134
-0.6005301374708212   -0.12423624471143786   -0.003411814980999316
-0.6005301374708212   -0.12423624471143786   -0.003411814980999316
-0.6005301374708212   -0.12423624471143786   -0.003411814980999316
-0.6005301374708212   -0.12423624471143786   -0.003411814980999316
-0.020263936042002686   0.006115405361955122   0.02564398469117071
-0.020263936042002686   0.006115405361955122   0.02564398469117071
-0.020263936042002686   0.006115405361955122   0.02564398469117071
-0.020263936042002686   0.006115405361955122   0.02564398469117071
-0.022434269291045653   0.036664301541612015   0.01225831474079775
-0.022434269291045653   0.036664301541612015   0.01225831474079775
-0.022434269291045653   0.036664301541612015   0.01225831474079775
-0.022434269291045653   0.036664301541612015   0.01225831474079775
-0.6009068547052109   -0.079604546983746   -0.015011276912894158
-0.6009068547052109   -0.079604546983746   -0.015011276912894158
-0.6009068547052109   -0.079604546983746   -0.015011276912894158
-0.6009068547052109   -0.079604546983746   -0.015011276912894158
-0.31198873368534313   -0.03895720885343715   -0.00976464952383213
-0.31198873368534313   -0.03895720885343715   -0.00976464952383213
-0.31198873368534313   -0.03895720885343715   -0.00976464952383213
-0.31198873368534313   -0.03895720885343715   -0.00976464952383213
-0.6002597181773022   -0.0830237328626805   -0.00835640839441591
-0.6002597181773022   -0.0830237328626805   -0.00835640839441591
-0.6002597181773022   -0.0830237328626805   -0.00835640839441591
-0.6002597181773022   -0.0830237328626805   -0.00835640839441591
-0.01977989051688695   0.043385002722615265   0.01880950743058817
-0.01977989051688695   0.043385002722615265   0.01880950743058817
-0.01977989051688695   0.043385002722615265   0.01880950743058817
-0.01977989051688695   0.043385002722615265   0.01880950743058817
-0.019667515779560045   0.07712275330783856   0.005875656549009539
-0.019667515779560045   0.07712275330783856   0.005875656549009539
-0.019667515779560045   0.07712275330783856   0.005875656549009539
-0.019667515779560045   0.07712275330783856   0.005875656549009539
-0.5993673271045111   -0.042270540059285905   -0.022006541675067395
-0.5993673271045111   -0.042270540059285905   -0.022006541675067395
-0.5993673271045111   -0.042270540059285905   -0.022006541675067395
-0.5993673271045111   -0.042270540059285905   -0.022006541675067395
-0.3089319673338988   -0.001549734483852816   0.0042709261640942915
-0.3089319673338988   -0.001549734483852816   0.0042709261640942915
-0.3089319673338988   -0.001549734483852816   0.0042709261640942915
-0.3089319673338988   -0.001549734483852816   0.0042709261640942915
-0.5984660160930555   -0.043138486166731244   -0.016632040510344052
-0.5984660160930555   -0.043138486166731244   -0.016632040510344052
-0.5984660160930555   -0.043138486166731244   -0.016632040510344052
-0.5984660160930555   -0.043138486166731244   -0.016632040510344052
-0.01784286426584176   0.08071666194045783   0.011405005484981932
-0.01784286426584176   0.08071666194045783   0.011405005484981932
-0.01784286426584176   0.08071666194045783   0.011405005484981932
-0.01784286426584176   0.08071666194045783   0.011405005484981932
-0.019057332699541497   0.11878946287309711   -0.0009340112787476484
-0.019057332699541497   0.11878946287309711   -0.0009340112787476484
-0.019057332699541497   0.11878946287309711   -0.0009340112787476484
-0.019057332699541497   0.11878946287309711   -0.0009340112787476484
-0.599047229504528   -0.0043023066689413525   -0.02907576750002188
-0.599047229504528   -0.0043023066689413525   -0.02907576750002188
-0.599047229504528   -0.0043023066689413525   -0.02907576750002188
-0.599047229504528   -0.0043023066689413525   -0.02907576750002188
-0.30655178157373075   0.03589338062605821   0.01714231888342302
-0.30655178157373075   0.03589338062605821   0.01714231888342302
-0.30655178157373075   0.03589338062605821   0.01714231888342302
-0.30655178157373075   0.03589338062605821   0.01714231888342302
-0.0597810444079504   -0.13606854265475607   -0.029757609121856432
-0.0597810444079504   -0.13606854265475607   -0.029757609121856432
-0.0597810444079504   -0.13606854265475607   -0.029757609121856432
-0.0597810444079504   -0.13606854265475607   -0.029757609121856432
0.5362985870257426   0.037799262372512854   0.04875507435819754
0.5362985870257426   0.037799262372512854   0.04875507435819754
0.5362985870257426   0.037799262372512854   0.04875507435819754
0.5362985870257426   0.037799262372512854   0.04875507435819754
0.5187498515458729   0.020040561852197797   -0.019241975718480395
0.5187498515458729   0.020040561852197797   -0.019241975718480395
0.5187498515458729   0.020040561852197797   -0.019241975718480395
0.5187498515458729   0.020040561852197797   -0.019241975718480395
-0.04007822912679529   -0.04979602324846652   0.01049884035212824
-0.04007822912679529   -0.04979602324846652   0.01049884035212824
-0.04007822912679529   -0.04979602324846652   0.01049884035212824
-0.04007822912679529   -0.04979602324846652   0.01049884035212824
0.23541402885411128   -0.03151628112253145   -0.005513159593465374
0.23541402885411128   -0.03151628112253145   -0.005513159593465374
0.23541402885411128   -0.03151628112253145   -0.005513159593465374
0.23541402885411128   -0.03151628112253145   -0.005513159593465374
-0.05954210401667707   -0.09924395465480465   -0.03737260269094251
-0.05954210401667707   -0.09924395465480465   -0.03737260269094251
-0.05954210401667707   -0.09924395465480465   -0.03737260269094251
-0.05954210401667707   -0.09924395465480465   -0.03737260269094251
0.5419688064238807   0.0732435732466593   0.04364978727709663
0.5419688064238807   0.0732435732466593   0.04364978727709663
0.5419688064238807   0.0732435732466593   0.04364978727709663
0.5419688064238807   0.0732435732466593   0.04364978727709663
0.527174993033041   0.0576813951647415   -0.027030775014275622
0.527174993033041   0.0576813951647415   -0.027030775014275622
0.527174993033041   0.0576813951647415   -0.027030775014275622
0.527174993033041   0.0576813951647415   -0.027030775014275622
-0.03892973975454232   -0.016346039213830578   0.0030333291957679257
-0.03892973975454232   -0.016346039213830578   0.0030333291957679257
-0.03892973975454232   -0.016346039213830578   0.0030333291957679257
-0.03892973975454232   -0.016346039213830578   0.0030333291957679257
0.23751233433626875   0.002327847399993997   0.008434471186099607
0.23751233433626875   0.002327847399993997   0.008434471186099607
0.23751233433626875   0.002327847399993997   0.008434471186099607
0.23751233433626875   0.002327847399993997   0.008434471186099607
-0.05786018798783028   -0.06292706356123189   -0.045037887623271204
-0.05786018798783028   -0.06292706356123189   -0.045037887623271204
-0.05786018798783028   -0.06292706356123189   -0.045037887623271204
-0.05786018798783028   -0.06292706356123189   -0.045037887623271204
0.5501977187338974   0.10835469697971375   0.037409551675034375
0.5501977187338974   0.10835469697971375   0.037409551675034375
0.5501977187338974   0.10835469697971375   0.037409551675034375
0.5501977187338974   0.10835469697971375   0.037409551675034375
0.5323763909575937   0.10487893693222808   -0.028224165219481522
0.5323763909575937   0.10487893693222808   -0.028224165219481522
0.5323763909575937   0.10487893693222808   -0.028224165219481522
0.5323763909575937   0.10487893693222808   -0.028224165219481522
-0.03896298491113105   0.02274128464047494   -0.004414094104072888
-0.03896298491113105   0.02274128464047494   -0.004414094104072888
-0.03896298491113105   0.02274128464047494   -0.004414094104072888
-0.03896298491113105   0.02274128464047494   -0.004414094104072888
0.24575535783915078   0.04006428043871721   0.024996461936041773
0.24575535783915078   0.04006428043871721   0.024996461936041773
0.24575535783915078   0.04006428043871721   0.024996461936041773
0.24575535783915078   0.04006428043871721   0.024996461936041773
0.4803742668130242   -0.1351183827478219   -0.05794888158505409
0.4803742668130242   -0.1351183827478219   -0.05794888158505409
0.4803742668130242   -0.1351183827478219   -0.05794888158505409
0.4803742668130242   -0.1351183827478219   -0.05794888158505409
1.0563558126816512   0.07848712022675136   0.054237078510962024
1.0563558126816512   0.07848712022675136   0.054237078510962024
1.0563558126816512   0.07848712022675136   0.054237078510962024
1.0563558126816512   0.07848712022675136   0.054237078510962024
1.048126681201764   -0.0050082699923429674   -0.07713381979307683
1.048126681201764   -0.0050082699923429674   -0.07713381979307683
1.048126681201764   -0.0050082699923429674   -0.07713381979307683
1.048126681201764   -0.0050082699923429674   -0.07713381979307683
0.5236201272777051   -0.011257970951002866   0.0364079357438869
0.5236201272777051   -0.011257970951002866   0.0364079357438869
0.5236201272777051   -0.011257970951002866   0.0364079357438869
0.5236201272777051   -0.011257970951002866   0.0364079357438869
0.7393959052414193   -0.026367886862070783   -0.024266664350528294
0.7393959052414193   -0.026367886862070783   -0.024266664350528294
0.7393959052414193   -0.026367886862070783   -0.024266664350528294
0.7393959052414193   -0.026367886862070783   -0.024266664350528294
0.4808754562079443   -0.11728869095306271   -0.07128469960285581
0.4808754562079443   -0.11728869095306271   -0.07128469960285581
0.4808754562079443   -0.11728869095306271   -0.07128469960285581
0.4808754562079443   -0.11728869095306271   -0.07128469960285581
1.0939419252442315   0.10409302298242368   0.04284110744449342
1.0939419252442315   0.10409302298242368   0.04284110744449342
1.0939419252442315   0.10409302298242368   0.04284110744449342
1.0939419252442315   0.10409302298242368   0.04284110744449342
1.073865406873937   0.01646149336173447   -0.10346187147353339
1.073865406873937   0.01646149336173447   -0.10346187147353339
1.073865406873937   0.01646149336173447   -0.10346187147353339
1.073865406873937   0.01646149336173447   -0.10346187147353339
0.5274950485258177   0.005120480471838801   0.027130417142519937
0.5274950485258177   0.005120480471838801   0.027130417142519937
0.5274950485258177   0.005120480471838801   0.027130417142519937
0.5274950485258177   0.005120480471838801   0.027130417142519937
0.7728883412723059   -0.003155510037407522   -0.0073986704285455215
0.7728883412723059   -0.003155510037407522   -0.0073986704285455215
0.7728883412723059   -0.003155510037407522   -0.0073986704285455215
0.7728883412723059   -0.003155510037407522   -0.0073986704285455215
0.4863569531933324   -0.09586311574107875   -0.07757646330699478
0.4863569531933324   -0.09586311574107875   -0.07757646330699478
0.4863569531933324   -0.09586311574107875   -0.07757646330699478
0.4863569531933324   -0.09586311574107875   -0.07757646330699478
1.121786486919348   0.12422807428758093   0.028376947827685267
1.121786486919348   0.12422807428758093   0.028376947827685267
1.121786486919348   0.12422807428758093   0.028376947827685267
1.121786486919348   0.12422807428758093   0.028376947827685267
1.1147327868827108   0.07231709055978355   -0.09732224262727815
1.1147327868827108   0.07231709055978355   -0.09732224262727815
1.1147327868827108   0.07231709055978355   -0.09732224262727815
1.1147327868827108   0.07231709055978355   -0.09732224262727815
0.5292676427701967   0.04129869474118293   0.019812336034588044
0.5292676427701967   0.04129869474118293   0.019812336034588044
0.5292676427701967   0.04129869474118293   0.019812336034588044
0.5292676427701967   0.04129869474118293   0.019812336034588044
0.7786344377562546   0.02338529582958565   0.011268082524909628
0.7786344377562546   0.02338529582958565   0.011268082524909628
0.7786344377562546   0.02338529582958565   0.011268082524909628
0.7786344377562546   0.02338529582958565   0.011268082524909628
-1.2297712442970363   -0.040162250608277605   0.08030017031777864
-1.2297712442970363   -0.040162250608277605   0.08030017031777864
-1.2297712442970363   -0.040162250608277605   0.08030017031777864
-1.2297712442970363   -0.040162250608277605   0.08030017031777864
-0.8605013303245536   -0.05749837903946392   -0.030324090555527455
-0.8605013303245536   -0.05749837903946392   -0.030324090555527455
-0.8605013303245536   -0.05749837903946392   -0.030324090555527455
-0.8605013303245536   -0.05749837903946392   -0.030324090555527455
-0.8099231246243024   0.08124515675284932   0.06846959610338459
-0.8099231246243024   0.08124515675284932   0.06846959610338459
-0.8099231246243024   0.08124515675284932   0.06846959610338459
-0.8099231246243024   0.08124515675284932   0.06846959610338459
-1.229866169728617   -0.10123759883472674   -0.04435787779258047
-1.229866169728617   -0.10123759883472674   -0.04435787779258047
-1.229866169728617   -0.10123759883472674   -0.04435787779258047
-1.229866169728617   -0.10123759883472674   -0.04435787779258047
-0.9902196267746269   -0.01577754816262117   -0.0021972718101120198
-0.9902196267746269   -0.01577754816262117   -0.0021972718101120198
-0.9902196267746269   -0.01577754816262117   -0.0021972718101120198
-0.9902196267746269   -0.01577754816262117   -0.0021972718101120198
-1.1838623139438245   0.008040133439665809   0.0763836688569892
-1.1838623139438245   0.008040133439665809   0.0763836688569892
-1.1838623139438245   0.008040133439665809   0.0763836688569892
-1.1838623139438245   0.008040133439665809   0.0763836688569892
-0.8521838234135112   -0.024289418525955814   -0.037299322563846896
-0.8521838234135112   -0.024289418525955814   -0.037299322563846896
-0.8521838234135112   -0.024289418525955814   -0.037299322563846896
-0.8521838234135112   -0.024289418525955814   -0.037299322563846896
-0.8022948525497096   0.09813994351324634   0.05786122650119757
-0.8022948525497096   0.09813994351324634   0.05786122650119757
-0.8022948525497096   0.09813994351324634   0.05786122650119757
-0.8022948525497096   0.09813994351324634   0.05786122650119757
-1.2007510140640425   -0.08240493829678402   -0.05607364409690177
-1.2007510140640425   -0.08240493829678402   -0.05607364409690177
-1.2007510140640425   -0.08240493829678402   -0.05607364409690177
-1.2007510140640425   -0.08240493829678402   -0.05607364409690177
-0.983293237062331   0.006505376505444999   0.010382273658013183
-0.983293237062331   0.006505376505444999   0.010382273658013183
-0.983293237062331   0.006505376505444999   0.010382273658013183
-0.983293237062331   0.006505376505444999   0.010382273658013183
-1.155142201889416   0.02825943670079567   0.06130604177865065
-1.155142201889416   0.02825943670079567   0.06130604177865065
-1.155142201889416   0.02825943670079567   0.06130604177865065
-1.155142201889416   0.02825943670079567   0.06130604177865065
-0.8445199821858114   -0.009140748945807409   -0.045983729220249625
-0.8445199821858114   -0.009140748945807409   -0.045983729220249625
-0.8445199821858114   -0.009140748945807409   -0.045983729220249625
-0.8445199821858114   -0.009140748945807409   -0.045983729220249625
-0.7980712657107306   0.11459535849581987   0.04978976269848627
-0.7980712657107306   0.11459535849581987   0.04978976269848627
-0.7980712657107306   0.11459535849581987   0.04978976269848627
-0.7980712657107306   0.11459535849581987   0.04978976269848627
-1.1617571488592489   -0.05750493769319487   -0.06713485708260425
-1.1617571488592489   -0.05750493769319487   -0.06713485708260425
-1.1617571488592489   -0.05750493769319487   -0.06713485708260425
-1.1617571488592489   -0.05750493769319487   -0.06713485708260425
-0.9463919462624087   0.02738467992999738   0.02802902107225487
-0.9463919462624087   0.02738467992999738   0.02802902107225487
-0.9463919462624087   0.02738467992999738   0.02802902107225487
-0.9463919462624087   0.02738467992999738   0.02802902107225487
-0.8508127022140447   -0.06951831523110087   0.030138986188646067
-0.8508127022140447   -0.06951831523110087   0.030138986188646067
-0.8508127022140447   -0.06951831523110087   0.030138986188646067
-0.8508127022140447   -0.06951831523110087   0.030138986188646067
-0.4934228590321703   -0.037257545476112805   -0.0048945018760914345
-0.4934228590321703   -0.037257545476112805   -0.0048945018760914345
-0.4934228590321703   -0.037257545476112805   -0.0048945018760914345
-0.4934228590321703   -0.037257545476112805   -0.0048945018760914345
-0.4683501402538489   0.047478744267836215   0.03691672422769468
-0.4683501402538489   0.047478744267836215   0.03691672422769468
-0.4683501402538489   0.047478744267836215   0.03691672422769468
-0.4683501402538489   0.047478744267836215   0.03691672422769468
-0.8636119156159475   -0.08273555858006457   -0.03599364352192714
-0.8636119156159475   -0.08273555858006457   -0.03599364352192714
-0.8636119156159475   -0.08273555858006457   -0.03599364352192714
-0.8636119156159475   -0.08273555858006457   -0.03599364352192714
-0.6663601278909282   -0.0324887651818927   -0.01361138985990562
-0.6663601278909282   -0.0324887651818927   -0.01361138985990562
-0.6663601278909282   -0.0324887651818927   -0.01361138985990562
-0.6663601278909282   -0.0324887651818927   -0.01361138985990562
-0.840835184722398   -0.029475599165216   0.024630051530967416
-0.840835184722398   -0.029475599165216   0.024630051530967416
-0.840835184722398   -0.029475599165216   0.024630051530967416
-0.840835184722398   -0.029475599165216   0.024630051530967416
-0.4882052004791941   -0.0028595444788062363   -0.01202028815238889
-0.4882052004791941   -0.0028595444788062363   -0.01202028815238889
-0.4882052004791941   -0.0028595444788062363   -0.01202028815238889
-0.4882052004791941   -0.0028595444788062363   -0.01202028815238889
-0.46239346725457575   0.08212421779590005   0.030267181865956477
-0.46239346725457575   0.08212421779590005   0.030267181865956477
-0.46239346725457575   0.08212421779590005   0.030267181865956477
-0.46239346725457575   0.08212421779590005   0.030267181865956477
-0.8519853867541952   -0.050041457900993624   -0.042410043106990904
-0.8519853867541952   -0.050041457900993624   -0.042410043106990904
-0.8519853867541952   -0.050041457900993624   -0.042410043106990904
-0.8519853867541952   -0.050041457900993624   -0.042410043106990904
-0.6535639909130101   0.0015627902443716146   0.0010171558236949374
-0.6535639909130101   0.0015627902443716146   0.0010171558236949374
-0.6535639909130101   0.0015627902443716146   0.0010171558236949374
-0.6535639909130101   0.0015627902443716146   0.0010171558236949374
-0.8274849797764725   0.007552154745379347   0.022498379135249796
-0.8274849797764725   0.007552154745379347   0.022498379135249796
-0.8274849797764725   0.007552154745379347   0.022498379135249796
-0.8274849797764725   0.007552154745379347   0.022498379135249796
-0.4832656664621034   0.02815881291972533   -0.020128409295503184
-0.4832656664621034   0.02815881291972533   -0.020128409295503184
-0.4832656664621034   0.02815881291972533   -0.020128409295503184
-0.4832656664621034   0.02815881291972533   -0.020128409295503184
-0.4566381557994754   0.11904199861211995   0.024074908297200895
-0.4566381557994754   0.11904199861211995   0.024074908297200895
-0.4566381557994754   0.11904199861211995   0.024074908297200895
-0.4566381557994754   0.11904199861211995   0.024074908297200895
-0.8432836476758241   -0.014807063418388555   -0.04686972521276839
-0.8432836476758241   -0.014807063418388555   -0.04686972521276839
-0.8432836476758241   -0.014807063418388555   -0.04686972521276839
-0.8432836476758241   -0.014807063418388555   -0.04686972521276839
-0.6486058772160256   0.03360646377560733   0.014948287255690147
-0.6486058772160256   0.03360646377560733   0.014948287255690147
-0.6486058772160256   0.03360646377560733   0.014948287255690147
-0.6486058772160256   0.03360646377560733   0.014948287255690147
-0.5038442775527481   -0.09548440655787031   0.0012252666027735522
-0.5038442775527481   -0.09548440655787031   0.0012252666027735522
-0.5038442775527481   -0.09548440655787031   0.0012252666027735522
-0.5038442775527481   -0.09548440655787031   0.0012252666027735522
-0.13012626540549074   -0.011159920482036423   0.02054109504856487
-0.13012626540549074   -0.011159920482036423   0.02054109504856487
-0.13012626540549074   -0.011159920482036423   0.02054109504856487
-0.13012626540549074   -0.011159920482036423   0.02054109504856487
-0.1269354849648012   0.01959302199349873   0.007005198232919731
-0.1269354849648012   0.01959302199349873   0.007005198232919731
-0.1269354849648012   0.01959302199349873   0.007005198232919731
-0.1269354849648012   0.01959302199349873   0.007005198232919731
-0.49831798006128786   -0.05585142796248125   -0.009592302579188633
-0.49831798006128786   -0.05585142796248125   -0.009592302579188633
-0.49831798006128786   -0.05585142796248125   -0.009592302579188633
-0.49831798006128786   -0.05585142796248125   -0.009592302579188633
-0.31534308043275483   -0.03419868652910544   -0.009674719101965197
-0.31534308043275483   -0.03419868652910544   -0.009674719101965197
-0.31534308043275483   -0.03419868652910544   -0.009674719101965197
-0.31534308043275483   -0.03419868652910544   -0.009674719101965197
-0.49750467353173583   -0.05683107912104505   -0.004546118772864557
-0.49750467353173583   -0.05683107912104505   -0.004546118772864557
-0.49750467353173583   -0.05683107912104505   -0.004546118772864557
-0.49750467353173583   -0.05683107912104505   -0.004546118772864557
-0.12481974350962051   0.02350172113679528   0.013675206365526644
-0.12481974350962051   0.02350172113679528   0.013675206365526644
-0.12481974350962051   0.02350172113679528   0.013675206365526644
-0.12481974350962051   0.02350172113679528   0.013675206365526644
-0.11974239155276631   0.05842057991859832   0.0018241226626089097
-0.11974239155276631   0.05842057991859832   0.0018241226626089097
-0.11974239155276631   0.05842057991859832   0.0018241226626089097
-0.11974239155276631   0.05842057991859832   0.0018241226626089097
-0.4923550826253497   -0.0209486012551285   -0.01646807593688484
-0.4923550826253497   -0.0209486012551285   -0.01646807593688484
-0.4923550826253497   -0.0209486012551285   -0.01646807593688484
-0.4923550826253497   -0.0209486012551285   -0.01646807593688484
-0.3076601192639414   0.0006926600098963454   0.004112428812117184
-0.3076601192639414   0.0006926600098963454   0.004112428812117184
-0.3076601192639414   0.0006926600098963454   0.004112428812117184
-0.3076601192639414   0.0006926600098963454   0.004112428812117184
-0.49052461536569153   -0.018127964629380044   -0.010136376264342321
-0.49052461536569153   -0.018127964629380044   -0.010136376264342321
-0.49052461536569153   -0.018127964629380044   -0.010136376264342321
-0.49052461536569153   -0.018127964629380044   -0.010136376264342321
-0.11886845741706911   0.05830434468820036   0.006310028571494146
-0.11886845741706911   0.05830434468820036   0.006310028571494146
-0.11886845741706911   0.05830434468820036   0.006310028571494146
-0.11886845741706911   0.05830434468820036   0.006310028571494146
-0.1132895696572388   0.09781129708775639   -0.0042654085638377665
-0.1132895696572388   0.09781129708775639   -0.0042654085638377665
-0.1132895696572388   0.09781129708775639   -0.0042654085638377665
-0.1132895696572388   0.09781129708775639   -0.0042654085638377665
-0.4871217568166888   0.014358576478014251   -0.023659674654762083
-0.4871217568166888   0.014358576478014251   -0.023659674654762083
-0.4871217568166888   0.014358576478014251   -0.023659674654762083
-0.4871217568166888   0.014358576478014251   -0.023659674654762083
-0.30064550418675534   0.035751291187833656   0.017395000574785133
-0.30064550418675534   0.035751291187833656   0.017395000574785133
-0.30064550418675534   0.035751291187833656   0.017395000574785133
-0.30064550418675534   0.035751291187833656   0.017395000574785133
-0.16076327232007764   -0.11677074697464343   -0.02703311303176361
-0.16076327232007764   -0.11677074697464343   -0.02703311303176361
-0.16076327232007764   -0.11677074697464343   -0.02703311303176361
-0.16076327232007764   -0.11677074697464343   -0.02703311303176361
0.22834865984173763   0.018103968766897266   0.0445431825043365
0.22834865984173763   0.018103968766897266   0.0445431825043365
0.22834865984173763   0.018103968766897266   0.0445431825043365
0.22834865984173763   0.018103968766897266   0.0445431825043365
0.212413219510368   -0.006368616578477676   -0.024855574935075484
0.212413219510368   -0.006368616578477676   -0.024855574935075484
0.212413219510368   -0.006368616578477676   -0.024855574935075484
0.212413219510368   -0.006368616578477676   -0.024855574935075484
-0.13437495924933457   -0.027102076310376436   0.016502925114128104
-0.13437495924933457   -0.027102076310376436   0.016502925114128104
-0.13437495924933457   -0.027102076310376436   0.016502925114128104
-0.13437495924933457   -0.027102076310376436   0.016502925114128104
0.03496226193805514   -0.03211775886110454   -0.006887092340700769
0.03496226193805514   -0.03211775886110454   -0.006887092340700769
0.03496226193805514   -0.03211775886110454   -0.006887092340700769
0.03496226193805514   -0.03211775886110454   -0.006887092340700769
-0.15522560459567505   -0.08157978499854857   -0.03327259292940222
-0.15522560459567505   -0.08157978499854857   -0.03327259292940222
-0.15522560459567505   -0.08157978499854857   -0.03327259292940222
-0.15522560459567505   -0.08157978499854857   -0.03327259292940222
0.23674961564968067   0.05159484290266886   0.038862946280339344
0.23674961564968067   0.05159484290266886   0.038862946280339344
0.23674961564968067   0.05159484290266886   0.038862946280339344
0.23674961564968067   0.05159484290266886   0.038862946280339344
0.2257965363517239   0.03036028530306128   -0.028161324326054338
0.2257965363517239   0.03036028530306128   -0.028161324326054338
0.2257965363517239   0.03036028530306128   -0.028161324326054338
0.2257965363517239   0.03036028530306128   -0.028161324326054338
-0.12918418331137205   0.004111474675302061   0.008924269112877692
-0.12918418331137205   0.004111474675302061   0.008924269112877692
-0.12918418331137205   0.004111474675302061   0.008924269112877692
-0.12918418331137205   0.004111474675302061   0.008924269112877692
0.04208100585650221   -0.00047964991699475483   0.007138629659158197
0.04208100585650221   -0.00047964991699475483   0.007138629659158197
0.04208100585650221   -0.00047964991699475483   0.007138629659158197
0.04208100585650221   -0.00047964991699475483   0.007138629659158197
-0.14930606650779052   -0.04711892070201114   -0.040454751491901995
-0.14930606650779052   -0.04711892070201114   -0.040454751491901995
-0.14930606650779052   -0.04711892070201114   -0.040454751491901995
-0.14930606650779052   -0.04711892070201114   -0.040454751491901995
0.2489414370634496   0.08461369819568382   0.03330976633994955
0.2489414370634496   0.08461369819568382   0.03330976633994955
0.2489414370634496   0.08461369819568382   0.03330976633994955
0.2489414370634496   0.08461369819568382   0.03330976633994955
0.23657354168943018   0.07222308766191812   -0.03254160559741823
0.23657354168943018   0.07222308766191812   -0.03254160559741823
0.23657354168943018   0.07222308766191812   -0.03254160559741823
0.23657354168943018   0.07222308766191812   -0.03254160559741823
-0.12363654549939958   0.04009622274643809   0.0017147865666755982
-0.12363654549939958   0.04009622274643809   0.0017147865666755982
-0.12363654549939958   0.04009622274643809   0.0017147865666755982
-0.12363654549939958   0.04009622274643809   0.0017147865666755982
0.05307797248128116   0.033937302527402714   0.021662845000543534
0.05307797248128116   0.033937302527402714   0.021662845000543534
0.05307797248128116   0.033937302527402714   0.021662845000543534
0.05307797248128116   0.033937302527402714   0.021662845000543534
0.1815502680046489   -0.11799197166140549   -0.05335283625280448
0.1815502680046489   -0.11799197166140549   -0.05335283625280448
0.1815502680046489   -0.11799197166140549   -0.05335283625280448
0.1815502680046489   -0.11799197166140549   -0.05335283625280448
0.546939168718104   0.05393207922047863   0.057694130999746025
0.546939168718104   0.05393207922047863   0.057694130999746025
0.546939168718104   0.05393207922047863   0.057694130999746025
0.546939168718104   0.05393207922047863   0.057694130999746025
0.541483716453827   -0.029014367938069358   -0.07023763836756737
0.541483716453827   -0.029014367938069358   -0.07023763836756737
0.541483716453827   -0.029014367938069358   -0.07023763836756737
0.541483716453827   -0.029014367938069358   -0.07023763836756737
0.22922569818135152   0.009783671185401917   0.04305453065596058
0.22922569818135152   0.009783671185401917   0.04305453065596058
0.22922569818135152   0.009783671185401917   0.04305453065596058
0.22922569818135152   0.009783671185401917   0.04305453065596058
0.35526182013537033   -0.024410156521391488   -0.018775420344474884
0.35526182013537033   -0.024410156521391488   -0.018775420344474884
0.35526182013537033   -0.024410156521391488   -0.018775420344474884
0.35526182013537033   -0.024410156521391488   -0.018775420344474884
0.18665998862221722   -0.09827471251811606   -0.061715633436191145
0.18665998862221722   -0.09827471251811606   -0.061715633436191145
0.18665998862221722   -0.09827471251811606   -0.061715633436191145
0.18665998862221722   -0.09827471251811606   -0.061715633436191145
0.5876033768507196   0.08259796660320853   0.048748329075625554
0.5876033768507196   0.08259796660320853   0.048748329075625554
0.5876033768507196   0.08259796660320853   0.048748329075625554
0.5876033768507196   0.08259796660320853   0.048748329075625554
0.57106823465037   -0.00843897165198701   -0.08424002960116139
0.57106823465037   -0.00843897165198701   -0.08424002960116139
0.57106823465037   -0.00843897165198701   -0.08424002960116139
0.57106823465037   -0.00843897165198701   -0.08424002960116139
0.23704256931093254   0.024855464450826897   0.03357366132222134
0.23704256931093254   0.024855464450826897   0.03357366132222134
0.23704256931093254   0.024855464450826897   0.03357366132222134
0.23704256931093254   0.024855464450826897   0.03357366132222134
0.38514729740673864   -0.003662940913778237   -0.002251770260709801
0.38514729740673864   -0.003662940913778237   -0.002251770260709801
0.38514729740673864   -0.003662940913778237   -0.002251770260709801
0.38514729740673864   -0.003662940913778237   -0.002251770260709801
0.19481150902660457   -0.08115628832185223   -0.07156988732673741
0.19481150902660457   -0.08115628832185223   -0.07156988732673741
0.19481150902660457   -0.08115628832185223   -0.07156988732673741
0.19481150902660457   -0.08115628832185223   -0.07156988732673741
0.6170027959978992   0.10127628218389756   0.035717523300607915
0.6170027959978992   0.10127628218389756   0.035717523300607915
0.6170027959978992   0.10127628218389756   0.035717523300607915
0.6170027959978992   0.10127628218389756   0.035717523300607915
0.6164951615698785   0.036746192577350664   -0.09017769358425504
0.6164951615698785   0.036746192577350664   -0.09017769358425504
0.6164951615698785   0.036746192577350664   -0.09017769358425504
0.6164951615698785   0.036746192577350664   -0.09017769358425504
0.24504216739444104   0.055347864852117915   0.02667674573743427
0.24504216739444104   0.055347864852117915   0.02667674573743427
0.24504216739444104   0.055347864852117915   0.02667674573743427
0.24504216739444104   0.055347864852117915   0.02667674573743427
0.4000516881005834   0.01920284588413121   0.011968567151405467
0.4000516881005834   0.01920284588413121   0.011968567151405467
0.4000516881005834   0.01920284588413121   0.011968567151405467
0.4000516881005834   0.01920284588413121   0.011968567151405467
-0.7370390281455466   -0.012343840035796139   0.07198630228381972
-0.7370390281455466   -0.012343840035796139   0.07198630228381972
-0.7370390281455466   -0.012343840035796139   0.07198630228381972
-0.7370390281455466   -0.012343840035796139   0.07198630228381972
-0.574956843520943   -0.07298590270608689   -0.03561052896767404
-0.574956843520943   -0.07298590270608689   -0.03561052896767404
-0.574956843520943   -0.07298590270608689   -0.03561052896767404
-0.574956843520943   -0.07298590270608689   -0.03561052896767404
-0.5204353068818839   0.06183115341803777   0.06155502062450912
-0.5204353068818839   0.06183115341803777   0.06155502062450912
-0.5204353068818839   0.06183115341803777   0.06155502062450912
-0.5204353068818839   0.06183115341803777   0.06155502062450912
-0.7339285592128921   -0.07995027519983572   -0.048471637478138284
-0.7339285592128921   -0.07995027519983572   -0.048471637478138284
-0.7339285592128921   -0.07995027519983572   -0.048471637478138284
-0.7339285592128921   -0.07995027519983572   -0.048471637478138284
-0.6170369535152588   -0.016980232301318662   -0.009090842682475033
-0.6170369535152588   -0.016980232301318662   -0.009090842682475033
-0.6170369535152588   -0.016980232301318662   -0.009090842682475033
-0.6170369535152588   -0.016980232301318662   -0.009090842682475033
-0.6885588749067815   0.029650614548893645   0.06877589430368597
-0.6885588749067815   0.029650614548893645   0.06877589430368597
-0.6885588749067815   0.029650614548893645   0.06877589430368597
-0.6885588749067815   0.029650614548893645   0.06877589430368597
-0.5626523722596726   -0.0446171174023689   -0.04308203544402372
-0.5626523722596726   -0.0446171174023689   -0.04308203544402372
-0.5626523722596726   -0.0446171174023689   -0.04308203544402372
-0.5626523722596726   -0.0446171174023689   -0.04308203544402372
-0.5075263605641231   0.0778674291300262   0.05206353953723017
-0.5075263605641231   0.0778674291300262   0.05206353953723017
-0.5075263605641231   0.0778674291300262   0.05206353953723017
-0.5075263605641231   0.0778674291300262   0.05206353953723017
-0.7002391080227579   -0.06177813559647531   -0.060560267609348545
-0.7002391080227579   -0.06177813559647531   -0.060560267609348545
-0.7002391080227579   -0.06177813559647531   -0.060560267609348545
-0.7002391080227579   -0.06177813559647531   -0.060560267609348545
-0.5994256381917139   0.004009882573425327   0.00430415742816552
-0.5994256381917139   0.004009882573425327   0.00430415742816552
-0.5994256381917139   0.004009882573425327   0.00430415742816552
-0.5994256381917139   0.004009882573425327   0.00430415742816552
-0.6548355988786344   0.04910725171886385   0.05557189079592961
-0.6548355988786344   0.04910725171886385   0.05557189079592961
-0.6548355988786344   0.04910725171886385   0.05557189079592961
-0.6548355988786344   0.04910725171886385   0.05557189079592961
-0.5499458684056574   -0.030033956882722354   -0.05213261365768419
-0.5499458684056574   -0.030033956882722354   -0.05213261365768419
-0.5499458684056574   -0.030033956882722354   -0.05213261365768419
-0.5499458684056574   -0.030033956882722354   -0.05213261365768419
-0.497070976234936   0.09783970062500673   0.04490216188409096
-0.497070976234936   0.09783970062500673   0.04490216188409096
-0.497070976234936   0.09783970062500673   0.04490216188409096
-0.497070976234936   0.09783970062500673   0.04490216188409096
-0.6549785820632595   -0.03268522819420826   -0.07008429185774774
-0.6549785820632595   -0.03268522819420826   -0.07008429185774774
-0.6549785820632595   -0.03268522819420826   -0.07008429185774774
-0.6549785820632595   -0.03268522819420826   -0.07008429185774774
-0.563881950478933   0.02470650689423874   0.020923422179550233
-0.563881950478933   0.02470650689423874   0.020923422179550233
-0.563881950478933   0.02470650689423874   0.020923422179550233
-0.563881950478933   0.02470650689423874   0.020923422179550233
-0.554796791867208   -0.041760555290765944   0.03396438188568049
-0.554796791867208   -0.041760555290765944   0.03396438188568049
-0.554796791867208   -0.041760555290765944   0.03396438188568049
-0.554796791867208   -0.041760555290765944   0.03396438188568049
-0.4073531280757323   -0.05533641668533627   -0.010542961811371345
-0.4073531280757323   -0.05533641668533627   -0.010542961811371345
-0.4073531280757323   -0.05533641668533627   -0.010542961811371345
-0.4073531280757323   -0.05533641668533627   -0.010542961811371345
-0.37695431723632744   0.028088367620737298   0.03146838910244677
-0.37695431723632744   0.028088367620737298   0.03146838910244677
-0.37695431723632744   0.028088367620737298   0.03146838910244677
-0.37695431723632744   0.028088367620737298   0.03146838910244677
-0.5630012888582877   -0.059017915287952985   -0.03042582055151544
-0.5630012888582877   -0.059017915287952985   -0.03042582055151544
-0.5630012888582877   -0.059017915287952985   -0.03042582055151544
-0.5630012888582877   -0.059017915287952985   -0.03042582055151544
-0.4742141473532299   -0.029483230899115823   -0.01277526892949989
-0.4742141473532299   -0.029483230899115823   -0.01277526892949989
-0.4742141473532299   -0.029483230899115823   -0.01277526892949989
-0.4742141473532299   -0.029483230899115823   -0.01277526892949989
-0.5403525799138909   -0.005104167465636522   0.028903976348141028
-0.5403525799138909   -0.005104167465636522   0.028903976348141028
-0.5403525799138909   -0.005104167465636522   0.028903976348141028
-0.5403525799138909   -0.005104167465636522   0.028903976348141028
-0.39706031806602987   -0.0232826720868866   -0.01769057533844132
-0.39706031806602987   -0.0232826720868866   -0.01769057533844132
-0.39706031806602987   -0.0232826720868866   -0.01769057533844132
-0.39706031806602987   -0.0232826720868866   -0.01769057533844132
-0.36582310133295687   0.060706891582478356   0.025169418889115468
-0.36582310133295687   0.060706891582478356   0.025169418889115468
-0.36582310133295687   0.060706891582478356   0.025169418889115468
-0.36582310133295687   0.060706891582478356   0.025169418889115468
-0.5463291452946509   -0.027657490345687707   -0.03642546463968316
-0.5463291452946509   -0.027657490345687707   -0.03642546463968316
-0.5463291452946509   -0.027657490345687707   -0.03642546463968316
-0.5463291452946509   -0.027657490345687707   -0.03642546463968316
-0.45811755999158976   0.0019674940636376925   0.0013110681418250884
-0.45811755999158976   0.0019674940636376925   0.0013110681418250884
-0.45811755999158976   0.0019674940636376925   0.0013110681418250884
-0.45811755999158976   0.0019674940636376925   0.0013110681418250884
-0.5223511589202724   0.029607326387076027   0.026199650499434478
-0.5223511589202724   0.029607326387076027   0.026199650499434478
-0.5223511589202724   0.029607326387076027   0.026199650499434478
-0.5223511589202724   0.029607326387076027   0.026199650499434478
-0.3868656511163117   0.006377511440728498   -0.025713949885910692
-0.3868656511163117   0.006377511440728498   -0.025713949885910692
-0.3868656511163117   0.006377511440728498   -0.025713949885910692
-0.3868656511163117   0.006377511440728498   -0.025713949885910692
-0.35472732368485427   0.09611213099745447   0.01916992287549247
-0.35472732368485427   0.09611213099745447   0.01916992287549247
-0.35472732368485427   0.09611213099745447   0.01916992287549247
-0.35472732368485427   0.09611213099745447   0.01916992287549247
-0.5325666180221066   0.006594688148068045   -0.04133103457481596
-0.5325666180221066   0.006594688148068045   -0.04133103457481596
-0.5325666180221066   0.006594688148068045   -0.04133103457481596
-0.5325666180221066   0.006594688148068045   -0.04133103457481596
-0.44647733647998367   0.03279890322287288   0.015089180539835517
-0.44647733647998367   0.03279890322287288   0.015089180539835517
-0.44647733647998367   0.03279890322287288   0.015089180539835517
-0.44647733647998367   0.03279890322287288   0.015089180539835517
-0.4068639769140676   -0.06941867194261928   0.005985049254227423
-0.4068639769140676   -0.06941867194261928   0.005985049254227423
-0.4068639769140676   -0.06941867194261928   0.005985049254227423
-0.4068639769140676   -0.06941867194261928   0.005985049254227423
-0.24200837485098167   -0.029200867199332774   0.01494596857144892
-0.24200837485098167   -0.029200867199332774   0.01494596857144892
-0.24200837485098167   -0.029200867199332774   0.01494596857144892
-0.24200837485098167   -0.029200867199332774   0.01494596857144892
-0.23372294812156857   -0.0006283463941128622   0.0019280733229340135
-0.23372294812156857   -0.0006283463941128622   0.0019280733229340135
-0.23372294812156857   -0.0006283463941128622   0.0019280733229340135
-0.23372294812156857   -0.0006283463941128622   0.0019280733229340135
-0.39590079777998266   -0.03165869464994818   -0.0035169513451437963
-0.39590079777998266   -0.03165869464994818   -0.0035169513451437963
-0.39590079777998266   -0.03165869464994818   -0.0035169513451437963
-0.39590079777998266   -0.03165869464994818   -0.0035169513451437963
-0.32013253409262543   -0.031195813607317074   -0.009303831293172842
-0.32013253409262543   -0.031195813607317074   -0.009303831293172842
-0.32013253409262543   -0.031195813607317074   -0.009303831293172842
-0.32013253409262543   -0.031195813607317074   -0.009303831293172842
-0.39542760692195295   -0.03326402596647134   0.0004543342615259457
-0.39542760692195295   -0.03326402596647134   0.0004543342615259457
-0.39542760692195295   -0.03326402596647134   0.0004543342615259457
-0.39542760692195295   -0.03326402596647134   0.0004543342615259457
-0.23166744934908293   0.0035056745529253447   0.008071546238324071
-0.23166744934908293   0.0035056745529253447   0.008071546238324071
-0.23166744934908293   0.0035056745529253447   0.008071546238324071
-0.23166744934908293   0.0035056745529253447   0.008071546238324071
-0.22163184346568848   0.0358459897849704   -0.0032183598960515425
-0.22163184346568848   0.0358459897849704   -0.0032183598960515425
-0.22163184346568848   0.0358459897849704   -0.0032183598960515425
-0.22163184346568848   0.0358459897849704   -0.0032183598960515425
-0.38474921837468173   0.001514621871468405   -0.010268896608500697
-0.38474921837468173   0.001514621871468405   -0.010268896608500697
-0.38474921837468173   0.001514621871468405   -0.010268896608500697
-0.38474921837468173   0.001514621871468405   -0.010268896608500697
-0.30737853621350575   0.0015963635863853881   0.004357045056317871
-0.30737853621350575   0.0015963635863853881   0.004357045056317871
-0.30737853621350575   0.0015963635863853881   0.004357045056317871
-0.30737853621350575   0.0015963635863853881   0.004357045056317871
-0.3834123505107794   0.0030996443930477596   -0.005169579810573886
-0.3834123505107794   0.0030996443930477596   -0.005169579810573886
-0.3834123505107794   0.0030996443930477596   -0.005169579810573886
-0.3834123505107794   0.0030996443930477596   -0.005169579810573886
-0.22068185778505633   0.03654782080791986   0.0008297374841618119
-0.22068185778505633   0.03654782080791986   0.0008297374841618119
-0.22068185778505633   0.03654782080791986   0.0008297374841618119
-0.22068185778505633   0.03654782080791986   0.0008297374841618119
-0.21021139252339432   0.07265489457306912   -0.009088448472797536
-0.21021139252339432   0.07265489457306912   -0.009088448472797536
-0.21021139252339432   0.07265489457306912   -0.009088448472797536
-0.21021139252339432   0.07265489457306912   -0.009088448472797536
-0.3742921988962704   0.03494369962159671   -0.017486021805728405
-0.3742921988962704   0.03494369962159671   -0.017486021805728405
-0.3742921988962704   0.03494369962159671   -0.017486021805728405
-0.3742921988962704   0.03494369962159671   -0.017486021805728405
-0.2953149683099058   0.03450632387323557   0.017468087074571842
-0.2953149683099058   0.03450632387323557   0.017468087074571842
-0.2953149683099058   0.03450632387323557   0.017468087074571842
-0.2953149683099058   0.03450632387323557   0.017468087074571842
-0.26230712443829474   -0.09340462825238671   -0.02234401831206637
-0.26230712443829474   -0.09340462825238671   -0.02234401831206637
-0.26230712443829474   -0.09340462825238671   -0.02234401831206637
-0.26230712443829474   -0.09340462825238671   -0.02234401831206637
-0.08131766616458344   -0.0014513677611667315   0.03918647792273185
-0.08131766616458344   -0.0014513677611667315   0.03918647792273185
-0.08131766616458344   -0.0014513677611667315   0.03918647792273185
-0.08131766616458344   -0.0014513677611667315   0.03918647792273185
-0.092436458673406   -0.027772800217115295   -0.028789194995494746
-0.092436458673406   -0.027772800217115295   -0.028789194995494746
-0.092436458673406   -0.027772800217115295   -0.028789194995494746
-0.092436458673406   -0.027772800217115295   -0.028789194995494746
-0.23020936797054628   -0.003565263086226879   0.022432890770157178
-0.23020936797054628   -0.003565263086226879   0.022432890770157178
-0.23020936797054628   -0.003565263086226879   0.022432890770157178
-0.23020936797054628   -0.003565263086226879   0.022432890770157178
-0.16653685474800983   -0.030172104770555777   -0.006714441527338173
-0.16653685474800983   -0.030172104770555777   -0.006714441527338173
-0.16653685474800983   -0.030172104770555777   -0.006714441527338173
-0.16653685474800983   -0.030172104770555777   -0.006714441527338173
-0.25153345352015866   -0.05948743350016125   -0.028265366563971904
-0.25153345352015866   -0.05948743350016125   -0.028265366563971904
-0.25153345352015866   -0.05948743350016125   -0.028265366563971904
-0.25153345352015866   -0.05948743350016125   -0.028265366563971904
-0.06827909090348534   0.030982652417126798   0.033242191219864596
-0.06827909090348534   0.030982652417126798   0.033242191219864596
-0.06827909090348534   0.030982652417126798   0.033242191219864596
-0.06827909090348534   0.030982652417126798   0.033242191219864596
-0.0747523204380772   0.006730949503996143   -0.03241021961694676
-0.0747523204380772   0.006730949503996143   -0.03241021961694676
-0.0747523204380772   0.006730949503996143   -0.03241021961694676
-0.0747523204380772   0.006730949503996143   -0.03241021961694676
-0.2199203962641534   0.026220869959891147   0.014963995936703136
-0.2199203962641534   0.026220869959891147   0.014963995936703136
-0.2199203962641534   0.026220869959891147   0.014963995936703136
-0.2199203962641534   0.026220869959891147   0.014963995936703136
-0.15296822612664612   0.0003703507050405036   0.00720768328860754
-0.15296822612664612   0.0003703507050405036   0.00720768328860754
-0.15296822612664612   0.0003703507050405036   0.00720768328860754
-0.15296822612664612   0.0003703507050405036   0.00720768328860754
-0.24056754698378283   -0.026966857851722342   -0.035084029849833526
-0.24056754698378283   -0.026966857851722342   -0.035084029849833526
-0.24056754698378283   -0.026966857851722342   -0.035084029849833526
-0.24056754698378283   -0.026966857851722342   -0.035084029849833526
-0.05146767130040139   0.06255617573366062   0.028187799841767766
-0.05146767130040139   0.06255617573366062   0.028187799841767766
-0.05146767130040139   0.06255617573366062   0.028187799841767766
-0.05146767130040139   0.06255617573366062   0.028187799841767766
-0.05979399432560563   0.045260170575478084   -0.036308025461903023
-0.05979399432560563   0.045260170575478084   -0.036308025461903023
-0.05979399432560563   0.045260170575478084   -0.036308025461903023
-0.05979399432560563   0.045260170575478084   -0.036308025461903023
-0.2093872162858532   0.05992352138796567   0.007763805900011599
-0.2093872162858532   0.05992352138796567   0.007763805900011599
-0.2093872162858532   0.05992352138796567   0.007763805900011599
-0.2093872162858532   0.05992352138796567   0.007763805900011599
-0.13892446526495603   0.03220630857464781   0.021131124187346216
-0.13892446526495603   0.03220630857464781   0.021131124187346216
-0.13892446526495603   0.03220630857464781   0.021131124187346216
-0.13892446526495603   0.03220630857464781   0.021131124187346216
-0.11866685464668536   -0.10044176508518114   -0.04856906716376341
-0.11866685464668536   -0.10044176508518114   -0.04856906716376341
-0.11866685464668536   -0.10044176508518114   -0.04856906716376341
-0.11866685464668536   -0.10044176508518114   -0.04856906716376341
0.039997856023436355   0.02967410801899546   0.05975978443932448
0.039997856023436355   0.02967410801899546   0.05975978443932448
0.039997856023436355   0.02967410801899546   0.05975978443932448
0.039997856023436355   0.02967410801899546   0.05975978443932448
0.04029278747777135   -0.04947721802603071   -0.06431700469762237
0.04029278747777135   -0.04947721802603071   -0.06431700469762237
0.04029278747777135   -0.04947721802603071   -0.06431700469762237
0.04029278747777135   -0.04947721802603071   -0.06431700469762237
-0.06514251534749682   0.030996616482128383   0.04891110493480742
-0.06514251534749682   0.030996616482128383   0.04891110493480742
-0.06514251534749682   0.030996616482128383   0.04891110493480742
-0.06514251534749682   0.030996616482128383   0.04891110493480742
-0.027181351364712152   -0.02132943634338578   -0.01135939636905965
-0.027181351364712152   -0.02132943634338578   -0.01135939636905965
-0.027181351364712152   -0.02132943634338578   -0.01135939636905965
-0.027181351364712152   -0.02132943634338578   -0.01135939636905965
-0.10777071070436821   -0.0773943064970156   -0.055838948870407315
-0.10777071070436821   -0.0773943064970156   -0.055838948870407315
-0.10777071070436821   -0.0773943064970156   -0.055838948870407315
-0.10777071070436821   -0.0773943064970156   -0.055838948870407315
0.0859499454942394   0.061942667612709654   0.05254889974597754
0.0859499454942394   0.061942667612709654   0.05254889974597754
0.0859499454942394   0.061942667612709654   0.05254889974597754
0.0859499454942394   0.061942667612709654   0.05254889974597754
0.07415607852963989   -0.029717407033044086   -0.07640420531584093
0.07415607852963989   -0.029717407033044086   -0.07640420531584093
0.07415607852963989   -0.029717407033044086   -0.07640420531584093
0.07415607852963989   -0.029717407033044086   -0.07640420531584093
-0.05270400497458719   0.0453346910685671   0.039227616135932286
-0.05270400497458719   0.0453346910685671   0.039227616135932286
-0.05270400497458719   0.0453346910685671   0.039227616135932286
-0.05270400497458719   0.0453346910685671   0.039227616135932286
0.0006587008295115631   -0.0009983557745837312   0.0037269629708183982
0.0006587008295115631   -0.0009983557745837312   0.0037269629708183982
0.0006587008295115631   -0.0009983557745837312   0.0037269629708183982
0.0006587008295115631   -0.0009983557745837312   0.0037269629708183982
-0.09475969668045268   -0.06113579273071669   -0.06458035859411139
-0.09475969668045268   -0.06113579273071669   -0.06458035859411139
-0.09475969668045268   -0.06113579273071669   -0.06458035859411139
-0.09475969668045268   -0.06113579273071669   -0.06458035859411139
0.11924369378814541   0.07978500031888484   0.03953146362475774
0.11924369378814541   0.07978500031888484   0.03953146362475774
0.11924369378814541   0.07978500031888484   0.03953146362475774
0.11924369378814541   0.07978500031888484   0.03953146362475774
0.12161427087403512   0.008962342467042712   -0.08182296966753587
0.12161427087403512   0.008962342467042712   -0.08182296966753587
0.12161427087403512   0.008962342467042712   -0.08182296966753587
0.12161427087403512   0.008962342467042712   -0.08182296966753587
-0.04108403210374505   0.07062388640709413   0.03187806981578574
-0.04108403210374505   0.07062388640709413   0.03187806981578574
-0.04108403210374505   0.07062388640709413   0.03187806981578574
-0.04108403210374505   0.07062388640709413   0.03187806981578574
0.025749039132262248   0.020361983091755305   0.018474560799385704
0.025749039132262248   0.020361983091755305   0.018474560799385704
0.025749039132262248   0.020361983091755305   0.018474560799385704
0.025749039132262248   0.020361983091755305   0.018474560799385704
-0.24410726476427402   0.013961098051137731   0.06827489606178004
-0.24410726476427402   0.013961098051137731   0.06827489606178004
-0.24410726476427402   0.013961098051137731   0.06827489606178004
-0.24410726476427402   0.013961098051137731   0.06827489606178004
-0.29026143510255187   -0.08900256373610843   -0.04023489759050086
-0.29026143510255187   -0.08900256373610843   -0.04023489759050086
-0.29026143510255187   -0.08900256373610843   -0.04023489759050086
-0.29026143510255187   -0.08900256373610843   -0.04023489759050086
-0.23173748583218334   0.041362887077284125   0.055903100526752104
-0.23173748583218334   0.041362887077284125   0.055903100526752104
-0.23173748583218334   0.041362887077284125   0.055903100526752104
-0.23173748583218334   0.041362887077284125   0.055903100526752104
-0.23704803711497133   -0.05852256630533142   -0.05184967870901565
-0.23704803711497133   -0.05852256630533142   -0.05184967870901565
-0.23704803711497133   -0.05852256630533142   -0.05184967870901565
-0.23704803711497133   -0.05852256630533142   -0.05184967870901565
-0.2444506060997132   -0.018802599647225457   -0.01867820556794618
-0.2444506060997132   -0.018802599647225457   -0.01867820556794618
-0.2444506060997132   -0.018802599647225457   -0.01867820556794618
-0.2444506060997132   -0.018802599647225457   -0.01867820556794618
-0.19208927977653867   0.05083018043218823   0.063591361245628
-0.19208927977653867   0.05083018043218823   0.063591361245628
-0.19208927977653867   0.05083018043218823   0.063591361245628
-0.19208927977653867   0.05083018043218823   0.063591361245628
-0.2738782764395795   -0.06517189292919845   -0.04826607250374255
-0.2738782764395795   -0.06517189292919845   -0.04826607250374255
-0.2738782764395795   -0.06517189292919845   -0.04826607250374255
-0.2738782764395795   -0.06517189292919845   -0.04826607250374255
-0.213686197896051   0.05705356722142776   0.04704533635345992
-0.213686197896051   0.05705356722142776   0.04704533635345992
-0.213686197896051   0.05705356722142776   0.04704533635345992
-0.213686197896051   0.05705356722142776   0.04704533635345992
-0.198367999800566   -0.04079005928332357   -0.06458640765455975
-0.198367999800566   -0.04079005928332357   -0.06458640765455975
-0.198367999800566   -0.04079005928332357   -0.06458640765455975
-0.198367999800566   -0.04079005928332357   -0.06458640765455975
-0.21591535482384777   0.0012439551968667292   -0.003889504228087516
-0.21591535482384777   0.0012439551968667292   -0.003889504228087516
-0.21591535482384777   0.0012439551968667292   -0.003889504228087516
-0.21591535482384777   0.0012439551968667292   -0.003889504228087516
-0.15315017109118487   0.06991186719459455   0.05080080941442776
-0.15315017109118487   0.06991186719459455   0.05080080941442776
-0.15315017109118487   0.06991186719459455   0.05080080941442776
-0.15315017109118487   0.06991186719459455   0.05080080941442776
-0.25624669907647096   -0.05099103172752916   -0.05771257059968279
-0.25624669907647096   -0.05099103172752916   -0.05771257059968279
-0.25624669907647096   -0.05099103172752916   -0.05771257059968279
-0.25624669907647096   -0.05099103172752916   -0.05771257059968279
-0.19717210708038904   0.08101949080281043   0.040632828144475275
-0.19717210708038904   0.08101949080281043   0.040632828144475275
-0.19717210708038904   0.08101949080281043   0.040632828144475275
-0.19717210708038904   0.08101949080281043   0.040632828144475275
-0.1467370769270286   -0.007083075390246947   -0.07275779305395054
-0.1467370769270286   -0.007083075390246947   -0.07275779305395054
-0.1467370769270286   -0.007083075390246947   -0.07275779305395054
-0.1467370769270286   -0.007083075390246947   -0.07275779305395054
-0.1816103720426465   0.022189202287744375   0.011943731298458046
-0.1816103720426465   0.022189202287744375   0.011943731298458046
-0.1816103720426465   0.022189202287744375   0.011943731298458046
-0.1816103720426465   0.022189202287744375   0.011943731298458046
-0.2598430416053058   -0.015962421497544302   0.03881692765716192
-0.2598430416053058   -0.015962421497544302   0.03881692765716192
-0.2598430416053058   -0.015962421497544302   0.03881692765716192
-0.2598430416053058   -0.015962421497544302   0.03881692765716192
-0.3225991980409091   -0.07259884221984104   -0.01571969899975888
-0.3225991980409091   -0.07259884221984104   -0.01571969899975888
-0.3225991980409091   -0.07259884221984104   -0.01571969899975888
-0.3225991980409091   -0.07259884221984104   -0.01571969899975888
-0.28760448373350705   0.007334812423050292   0.025941012878751016
-0.28760448373350705   0.007334812423050292   0.025941012878751016
-0.28760448373350705   0.007334812423050292   0.025941012878751016
-0.28760448373350705   0.007334812423050292   0.025941012878751016
-0.26280944320575667   -0.03429151066658566   -0.023802288597237264
-0.26280944320575667   -0.03429151066658566   -0.023802288597237264
-0.26280944320575667   -0.03429151066658566   -0.023802288597237264
-0.26280944320575667   -0.03429151066658566   -0.023802288597237264
-0.2834165232521852   -0.026665611686702353   -0.01314527372590607
-0.2834165232521852   -0.026665611686702353   -0.01314527372590607
-0.2834165232521852   -0.026665611686702353   -0.01314527372590607
-0.2834165232521852   -0.026665611686702353   -0.01314527372590607
-0.24075649009154812   0.018292001530951042   0.03387896477626516
-0.24075649009154812   0.018292001530951042   0.03387896477626516
-0.24075649009154812   0.018292001530951042   0.03387896477626516
-0.24075649009154812   0.018292001530951042   0.03387896477626516
-0.3074502624563259   -0.0430415253830925   -0.0229115429292023
-0.3074502624563259   -0.0430415253830925   -0.0229115429292023
-0.3074502624563259   -0.0430415253830925   -0.0229115429292023
-0.3074502624563259   -0.0430415253830925   -0.0229115429292023
-0.27148632897863967   0.03855449710909792   0.019791656318233625
-0.27148632897863967   0.03855449710909792   0.019791656318233625
-0.27148632897863967   0.03855449710909792   0.019791656318233625
-0.27148632897863967   0.03855449710909792   0.019791656318233625
-0.2412552440867371   -0.004199366609337375   -0.029546960769201845
-0.2412552440867371   -0.004199366609337375   -0.029546960769201845
-0.2412552440867371   -0.004199366609337375   -0.029546960769201845
-0.2412552440867371   -0.004199366609337375   -0.029546960769201845
-0.26416255654194165   0.002468394951761113   0.0005052348483322866
-0.26416255654194165   0.002468394951761113   0.0005052348483322866
-0.26416255654194165   0.002468394951761113   0.0005052348483322866
-0.26416255654194165   0.002468394951761113   0.0005052348483322866
-0.21812975872304   0.051369749820466375   0.03051134961947627
-0.21812975872304   0.051369749820466375   0.03051134961947627
-0.21812975872304   0.051369749820466375   0.03051134961947627
-0.21812975872304   0.051369749820466375   0.03051134961947627
-0.29225914765137856   -0.01466195262974923   -0.030855987306619648
-0.29225914765137856   -0.01466195262974923   -0.030855987306619648
-0.29225914765137856   -0.01466195262974923   -0.030855987306619648
-0.29225914765137856   -0.01466195262974923   -0.030855987306619648
-0.25528993147048396   0.07310559450456003   0.013946810656021172
-0.25528993147048396   0.07310559450456003   0.013946810656021172
-0.25528993147048396   0.07310559450456003   0.013946810656021172
-0.25528993147048396   0.07310559450456003   0.013946810656021172
-0.22265481603406467   0.02919563485383668   -0.03495686067492914
-0.22265481603406467   0.02919563485383668   -0.03495686067492914
-0.22265481603406467   0.02919563485383668   -0.03495686067492914
-0.22265481603406467   0.02919563485383668   -0.03495686067492914
-0.24595948796196299   0.032551711757592486   0.014397311969215617
-0.24595948796196299   0.032551711757592486   0.014397311969215617
-0.24595948796196299   0.032551711757592486   0.014397311969215617
-0.24595948796196299   0.032551711757592486   0.014397311969215617
-0.31153761055292695   -0.04391502400829189   0.010904420228598596
-0.31153761055292695   -0.04391502400829189   0.010904420228598596
-0.31153761055292695   -0.04391502400829189   0.010904420228598596
-0.31153761055292695   -0.04391502400829189   0.010904420228598596
-0.354832793040643   -0.04583663744813443   0.009508426322578936
-0.354832793040643   -0.04583663744813443   0.009508426322578936
-0.354832793040643   -0.04583663744813443   0.009508426322578936
-0.354832793040643   -0.04583663744813443   0.009508426322578936
-0.34191571520787206   -0.020830576123447728   -0.0033614412847521487
-0.34191571520787206   -0.020830576123447728   -0.0033614412847521487
-0.34191571520787206   -0.020830576123447728   -0.0033614412847521487
-0.34191571520787206   -0.020830576123447728   -0.0033614412847521487
-0.29488292145004463   -0.0062164067027240325   0.0031000434218374107
-0.29488292145004463   -0.0062164067027240325   0.0031000434218374107
-0.29488292145004463   -0.0062164067027240325   0.0031000434218374107
-0.29488292145004463   -0.0062164067027240325   0.0031000434218374107
-0.3262809155481682   -0.027544339449450506   -0.008722868186625977
-0.3262809155481682   -0.027544339449450506   -0.008722868186625977
-0.3262809155481682   -0.027544339449450506   -0.008722868186625977
-0.3262809155481682   -0.027544339449450506   -0.008722868186625977
-0.29512103258562356   -0.009717279278171134   0.005410360319382256
-0.29512103258562356   -0.009717279278171134   0.005410360319382256
-0.29512103258562356   -0.009717279278171134   0.005410360319382256
-0.29512103258562356   -0.009717279278171134   0.005410360319382256
-0.339596589339324   -0.01524868881503235   0.002652300749575275
-0.339596589339324   -0.01524868881503235   0.002652300749575275
-0.339596589339324   -0.01524868881503235   0.002652300749575275
-0.339596589339324   -0.01524868881503235   0.002652300749575275
-0.3249842359885618   0.013815425489953265   -0.008529860902165724
-0.3249842359885618   0.013815425489953265   -0.008529860902165724
-0.3249842359885618   0.013815425489953265   -0.008529860902165724
-0.3249842359885618   0.013815425489953265   -0.008529860902165724
-0.2788191207580314   0.025216003369414222   -0.0035338088390412803
-0.2788191207580314   0.025216003369414222   -0.0035338088390412803
-0.2788191207580314   0.025216003369414222   -0.0035338088390412803
-0.2788191207580314   0.025216003369414222   -0.0035338088390412803
-0.30859302669774047   0.003425753451903407   0.00475455468307389
-0.30859302669774047   0.003425753451903407   0.00475455468307389
-0.30859302669774047   0.003425753451903407   0.00475455468307389
-0.30859302669774047   0.003425753451903407   0.00475455468307389
-0.27825564326086505   0.024805860515971265   -0.000306278499772418
-0.27825564326086505   0.024805860515971265   -0.000306278499772418
-0.27825564326086505   0.024805860515971265   -0.000306278499772418
-0.27825564326086505   0.024805860515971265   -0.000306278499772418
-0.3237324667723628   0.01604081505676061   -0.004496404387978006
-0.3237324667723628   0.01604081505676061   -0.004496404387978006
-0.3237324667723628   0.01604081505676061   -0.004496404387978006
-0.3237324667723628   0.01604081505676061   -0.004496404387978006
-0.30877195048971556   0.048672275646225435   -0.014363390089108918
-0.30877195048971556   0.048672275646225435   -0.014363390089108918
-0.30877195048971556   0.048672275646225435   -0.014363390089108918
-0.30877195048971556   0.048672275646225435   -0.014363390089108918
-0.2635086031487125   0.0567771122079815   -0.010818065438541045
-0.2635086031487125   0.0567771122079815   -0.010818065438541045
-0.2635086031487125   0.0567771122079815   -0.010818065438541045
-0.2635086031487125   0.0567771122079815   -0.010818065438541045
-0.2917231859633253   0.03445247071908364   0.01760131036744848
-0.2917231859633253   0.03445247071908364   0.01760131036744848
-0.2917231859633253   0.03445247071908364   0.01760131036744848
-0.2917231859633253   0.03445247071908364   0.01760131036744848
-0.3650294212203912   -0.06957773730144592   -0.01773361472285638
-0.3650294212203912   -0.06957773730144592   -0.01773361472285638
-0.3650294212203912   -0.06957773730144592   -0.01773361472285638
-0.3650294212203912   -0.06957773730144592   -0.01773361472285638
-0.3898123760186431   -0.019625930543353924   0.03361813809588749
-0.3898123760186431   -0.019625930543353924   0.03361813809588749
-0.3898123760186431   -0.019625930543353924   0.03361813809588749
-0.3898123760186431   -0.019625930543353924   0.03361813809588749
-0.39608864938909355   -0.04783665266453659   -0.03304477570284415
-0.39608864938909355   -0.04783665266453659   -0.03304477570284415
-0.39608864938909355   -0.04783665266453659   -0.03304477570284415
-0.39608864938909355   -0.04783665266453659   -0.03304477570284415
-0.3272335693900865   0.020852594282009196   0.02836611739871898
-0.3272335693900865   0.020852594282009196   0.02836611739871898
-0.3272335693900865   0.020852594282009196   0.02836611739871898
-0.3272335693900865   0.020852594282009196   0.02836611739871898
-0.3680053483336517   -0.027167130877092563   -0.005482051281710365
-0.3680053483336517   -0.027167130877092563   -0.005482051281710365
-0.3680053483336517   -0.027167130877092563   -0.005482051281710365
-0.3680053483336517   -0.027167130877092563   -0.005482051281710365
-0.34905980926486646   -0.03650368919813104   -0.023408798495043515
-0.34905980926486646   -0.03650368919813104   -0.023408798495043515
-0.34905980926486646   -0.03650368919813104   -0.023408798495043515
-0.34905980926486646   -0.03650368919813104   -0.023408798495043515
-0.3720803654927562   0.011701674837160558   0.027458316277145508
-0.3720803654927562   0.011701674837160558   0.027458316277145508
-0.3720803654927562   0.011701674837160558   0.027458316277145508
-0.3720803654927562   0.011701674837160558   0.027458316277145508
-0.3738998612657712   -0.014982834265600806   -0.037075060189138864
-0.3738998612657712   -0.014982834265600806   -0.037075060189138864
-0.3738998612657712   -0.014982834265600806   -0.037075060189138864
-0.3738998612657712   -0.014982834265600806   -0.037075060189138864
-0.3119881141140633   0.04920203366886952   0.02106414029140704
-0.3119881141140633   0.04920203366886952   0.02106414029140704
-0.3119881141140633   0.04920203366886952   0.02106414029140704
-0.3119881141140633   0.04920203366886952   0.02106414029140704
-0.3479085740535313   0.0026569149478633813   0.008429791978106477
-0.3479085740535313   0.0026569149478633813   0.008429791978106477
-0.3479085740535313   0.0026569149478633813   0.008429791978106477
-0.3479085740535313   0.0026569149478633813   0.008429791978106477
-0.33313797242208365   -0.005426723312501172   -0.03005639426732824
-0.33313797242208365   -0.005426723312501172   -0.03005639426732824
-0.33313797242208365   -0.005426723312501172   -0.03005639426732824
-0.33313797242208365   -0.005426723312501172   -0.03005639426732824
-0.3505447930245667   0.04185113264895368   0.022866314102331232
-0.3505447930245667   0.04185113264895368   0.022866314102331232
-0.3505447930245667   0.04185113264895368   0.022866314102331232
-0.3505447930245667   0.04185113264895368   0.022866314102331232
-0.3544828352563072   0.021214940411086916   -0.04068348001392814
-0.3544828352563072   0.021214940411086916   -0.04068348001392814
-0.3544828352563072   0.021214940411086916   -0.04068348001392814
-0.3544828352563072   0.021214940411086916   -0.04068348001392814
-0.2967006754242447   0.08080289167848075   0.013862369205990002
-0.2967006754242447   0.08080289167848075   0.013862369205990002
-0.2967006754242447   0.08080289167848075   0.013862369205990002
-0.2967006754242447   0.08080289167848075   0.013862369205990002
-0.3308393697137988   0.03225383582405994   0.021732394901022897
-0.3308393697137988   0.03225383582405994   0.021732394901022897
-0.3308393697137988   0.03225383582405994   0.021732394901022897
-0.3308393697137988   0.03225383582405994   0.021732394901022897
-0.4180501126339636   -0.08277228142097057   -0.04442419410310572
-0.4180501126339636   -0.08277228142097057   -0.04442419410310572
-0.4180501126339636   -0.08277228142097057   -0.04442419410310572
-0.4180501126339636   -0.08277228142097057   -0.04442419410310572
-0.4623765648570668   0.006380652507020371   0.06048517221288097
-0.4623765648570668   0.006380652507020371   0.06048517221288097
-0.4623765648570668   0.006380652507020371   0.06048517221288097
-0.4623765648570668   0.006380652507020371   0.06048517221288097
-0.4561582336141716   -0.06882291580892427   -0.059170838253781055
-0.4561582336141716   -0.06882291580892427   -0.059170838253781055
-0.4561582336141716   -0.06882291580892427   -0.059170838253781055
-0.4561582336141716   -0.06882291580892427   -0.059170838253781055
-0.3586320808890345   0.0521850257520258   0.05421638838088516
-0.3586320808890345   0.0521850257520258   0.05421638838088516
-0.3586320808890345   0.0521850257520258   0.05421638838088516
-0.3586320808890345   0.0521850257520258   0.05421638838088516
-0.40682089726455495   -0.017782155284094006   -0.002711111348395287
-0.40682089726455495   -0.017782155284094006   -0.002711111348395287
-0.40682089726455495   -0.017782155284094006   -0.002711111348395287
-0.40682089726455495   -0.017782155284094006   -0.002711111348395287
-0.4013069659390725   -0.056177580705504035   -0.050795430411779
-0.4013069659390725   -0.056177580705504035   -0.050795430411779
-0.4013069659390725   -0.056177580705504035   -0.050795430411779
-0.4013069659390725   -0.056177580705504035   -0.050795430411779
-0.41117674280506117   0.04184629640767609   0.05506740357516331
-0.41117674280506117   0.04184629640767609   0.05506740357516331
-0.41117674280506117   0.04184629640767609   0.05506740357516331
-0.41117674280506117   0.04184629640767609   0.05506740357516331
-0.4178371801325085   -0.04964258226102113   -0.0705255753541182
-0.4178371801325085   -0.04964258226102113   -0.0705255753541182
-0.4178371801325085   -0.04964258226102113   -0.0705255753541182
-0.4178371801325085   -0.04964258226102113   -0.0705255753541182
-0.34147367392066885   0.06569476887220034   0.04437827339857169
-0.34147367392066885   0.06569476887220034   0.04437827339857169
-0.34147367392066885   0.06569476887220034   0.04437827339857169
-0.34147367392066885   0.06569476887220034   0.04437827339857169
-0.38088247805409614   0.002262928076366133   0.010637479532114292
-0.38088247805409614   0.002262928076366133   0.010637479532114292
-0.38088247805409614   0.002262928076366133   0.010637479532114292
-0.38088247805409614   0.002262928076366133   0.010637479532114292
-0.3833202949188527   -0.04038841890958048   -0.05877164381057073
-0.3833202949188527   -0.04038841890958048   -0.05877164381057073
-0.3833202949188527   -0.04038841890958048   -0.05877164381057073
-0.3833202949188527   -0.04038841890958048   -0.05877164381057073
-0.3735731691033188   0.05885799555176491   0.042293901979044445
-0.3735731691033188   0.05885799555176491   0.042293901979044445
-0.3735731691033188   0.05885799555176491   0.042293901979044445
-0.3735731691033188   0.05885799555176491   0.042293901979044445
-0.36754035099329074   -0.016457771263576504   -0.07707389964802175
-0.36754035099329074   -0.016457771263576504   -0.07707389964802175
-0.36754035099329074   -0.016457771263576504   -0.07707389964802175
-0.36754035099329074   -0.016457771263576504   -0.07707389964802175
-0.32610814495720036   0.08585124558889685   0.036553666303792365
-0.32610814495720036   0.08585124558889685   0.036553666303792365
-0.32610814495720036   0.08585124558889685   0.036553666303792365
-0.32610814495720036   0.08585124558889685   0.036553666303792365
-0.34540088076635955   0.022291767550049593   0.026090868940208078
-0.34540088076635955   0.022291767550049593   0.026090868940208078
-0.34540088076635955   0.022291767550049593   0.026090868940208078
-0.34540088076635955   0.022291767550049593   0.026090868940208078
0.2529775339209549   0.04090020764431278   0.06603999028809843
0.2529775339209549   0.04090020764431278   0.06603999028809843
0.2529775339209549   0.04090020764431278   0.06603999028809843
0.2529775339209549   0.04090020764431278   0.06603999028809843
-0.006121613597387658   -0.10613229073733083   -0.0436153642880718
-0.006121613597387658   -0.10613229073733083   -0.0436153642880718
-0.006121613597387658   -0.10613229073733083   -0.0436153642880718
-0.006121613597387658   -0.10613229073733083   -0.0436153642880718
0.056300450711296364   0.020721526526697367   0.05102229762482995
0.056300450711296364   0.020721526526697367   0.05102229762482995
0.056300450711296364   0.020721526526697367   0.05102229762482995
0.056300450711296364   0.020721526526697367   0.05102229762482995
0.2639335097343561   -0.0371832805295329   -0.05458947847489179
0.2639335097343561   -0.0371832805295329   -0.05458947847489179
0.2639335097343561   -0.0371832805295329   -0.05458947847489179
0.2639335097343561   -0.0371832805295329   -0.05458947847489179
0.12909404822038226   -0.02062118099055872   -0.031458130536122716
0.12909404822038226   -0.02062118099055872   -0.031458130536122716
0.12909404822038226   -0.02062118099055872   -0.031458130536122716
0.12909404822038226   -0.02062118099055872   -0.031458130536122716
0.3087928964340706   0.07293365920426323   0.059590515289884925
0.3087928964340706   0.07293365920426323   0.059590515289884925
0.3087928964340706   0.07293365920426323   0.059590515289884925
0.3087928964340706   0.07293365920426323   0.059590515289884925
0.014199820107371624   -0.08663665711130891   -0.05212267175678742
0.014199820107371624   -0.08663665711130891   -0.05212267175678742
0.014199820107371624   -0.08663665711130891   -0.05212267175678742
0.014199820107371624   -0.08663665711130891   -0.05212267175678742
0.0790630001909112   0.036129931799502996   0.04258254776809589
0.0790630001909112   0.036129931799502996   0.04258254776809589
0.0790630001909112   0.036129931799502996   0.04258254776809589
0.0790630001909112   0.036129931799502996   0.04258254776809589
0.3075142726942187   -0.019776758881151817   -0.0682941021050133
0.3075142726942187   -0.019776758881151817   -0.0682941021050133
0.3075142726942187   -0.019776758881151817   -0.0682941021050133
0.3075142726942187   -0.019776758881151817   -0.0682941021050133
0.16842082868736494   -0.0014097859579163471   -0.014784734463775612
0.16842082868736494   -0.0014097859579163471   -0.014784734463775612
0.16842082868736494   -0.0014097859579163471   -0.014784734463775612
0.16842082868736494   -0.0014097859579163471   -0.014784734463775612
0.35286689977305763   0.0917605475366005   0.04693172687143698
0.35286689977305763   0.0917605475366005   0.04693172687143698
0.35286689977305763   0.0917605475366005   0.04693172687143698
0.35286689977305763   0.0917605475366005   0.04693172687143698
0.036409182706954105   -0.0727085650233655   -0.0618480428288172
0.036409182706954105   -0.0727085650233655   -0.0618480428288172
0.036409182706954105   -0.0727085650233655   -0.0618480428288172
0.036409182706954105   -0.0727085650233655   -0.0618480428288172
0.10115424954198186   0.06441657667525814   0.03684914080456446
0.10115424954198186   0.06441657667525814   0.03684914080456446
0.10115424954198186   0.06441657667525814   0.03684914080456446
0.10115424954198186   0.06441657667525814   0.03684914080456446
0.36536488273341267   0.019183744872666247   -0.07531755476258296
0.36536488273341267   0.019183744872666247   -0.07531755476258296
0.36536488273341267   0.019183744872666247   -0.07531755476258296
0.36536488273341267   0.019183744872666247   -0.07531755476258296
0.2014354143104628   0.020118988551508763   0.000981794833521384
0.2014354143104628   0.020118988551508763   0.000981794833521384
0.2014354143104628   0.020118988551508763   0.000981794833521384
0.2014354143104628   0.020118988551508763   0.000981794833521384
0.03499847472119312   0.01102932453835952   0.04482346202914173
0.03499847472119312   0.01102932453835952   0.04482346202914173
0.03499847472119312   0.01102932453835952   0.04482346202914173
0.03499847472119312   0.01102932453835952   0.04482346202914173
-0.2404836441626369   -0.09010665390683419   -0.020008243556236704
-0.2404836441626369   -0.09010665390683419   -0.020008243556236704
-0.2404836441626369   -0.09010665390683419   -0.020008243556236704
-0.2404836441626369   -0.09010665390683419   -0.020008243556236704
-0.20109221150443474   -0.01309095130892379   0.020483276489719444
-0.20109221150443474   -0.01309095130892379   0.020483276489719444
-0.20109221150443474   -0.01309095130892379   0.020483276489719444
-0.20109221150443474   -0.01309095130892379   0.020483276489719444
0.03670371567094518   -0.010346675636073952   -0.015893175414154623
0.03670371567094518   -0.010346675636073952   -0.015893175414154623
0.03670371567094518   -0.010346675636073952   -0.015893175414154623
0.03670371567094518   -0.010346675636073952   -0.015893175414154623
-0.09445153833326529   -0.023321279554490724   -0.015123216306218809
-0.09445153833326529   -0.023321279554490724   -0.015123216306218809
-0.09445153833326529   -0.023321279554490724   -0.015123216306218809
-0.09445153833326529   -0.023321279554490724   -0.015123216306218809
0.05843931682999716   0.04267194167418236   0.03976621307084896
0.05843931682999716   0.04267194167418236   0.03976621307084896
0.05843931682999716   0.04267194167418236   0.03976621307084896
0.05843931682999716   0.04267194167418236   0.03976621307084896
-0.22081973185664028   -0.06410148781233879   -0.027143788767893313
-0.22081973185664028   -0.06410148781233879   -0.027143788767893313
-0.22081973185664028   -0.06410148781233879   -0.027143788767893313
-0.22081973185664028   -0.06410148781233879   -0.027143788767893313
-0.18033640298128897   0.016789271431330563   0.014477388328689694
-0.18033640298128897   0.016789271431330563   0.014477388328689694
-0.18033640298128897   0.016789271431330563   0.014477388328689694
-0.18033640298128897   0.016789271431330563   0.014477388328689694
0.06262226179191249   0.01801636630851907   -0.021507578735913652
0.06262226179191249   0.01801636630851907   -0.021507578735913652
0.06262226179191249   0.01801636630851907   -0.021507578735913652
0.06262226179191249   0.01801636630851907   -0.021507578735913652
-0.07245203344419161   0.0030431778104470057   -0.0018358784030898887
-0.07245203344419161   0.0030431778104470057   -0.0018358784030898887
-0.07245203344419161   0.0030431778104470057   -0.0018358784030898887
-0.07245203344419161   0.0030431778104470057   -0.0018358784030898887
0.08527168528681459   0.07413882702386376   0.03561707802325213
0.08527168528681459   0.07413882702386376   0.03561707802325213
0.08527168528681459   0.07413882702386376   0.03561707802325213
0.08527168528681459   0.07413882702386376   0.03561707802325213
-0.20105346028325552   -0.03740082309107858   -0.034917803658733905
-0.20105346028325552   -0.03740082309107858   -0.034917803658733905
-0.20105346028325552   -0.03740082309107858   -0.034917803658733905
-0.20105346028325552   -0.03740082309107858   -0.034917803658733905
-0.15945724313480444   0.050576956659587044   0.00875217545456243
-0.15945724313480444   0.050576956659587044   0.00875217545456243
-0.15945724313480444   0.050576956659587044   0.00875217545456243
-0.15945724313480444   0.050576956659587044   0.00875217545456243
0.08544295370572234   0.050174011602432754   -0.0274647733039039
0.08544295370572234   0.050174011602432754   -0.0274647733039039
0.08544295370572234   0.050174011602432754   -0.0274647733039039
0.08544295370572234   0.050174011602432754   -0.0274647733039039
-0.04812615821937291   0.032148199232013314   0.012328560073471094
-0.04812615821937291   0.032148199232013314   0.012328560073471094
-0.04812615821937291   0.032148199232013314   0.012328560073471094
-0.04812615821937291   0.032148199232013314   0.012328560073471094
-0.218692920481173   -0.017285503343255095   0.016124224287505526
-0.218692920481173   -0.017285503343255095   0.016124224287505526
-0.218692920481173   -0.017285503343255095   0.016124224287505526
-0.218692920481173   -0.017285503343255095   0.016124224287505526
-0.4706025215780732   -0.06401109741928102   0.004153918988732656
-0.4706025215780732   -0.06401109741928102   0.004153918988732656
-0.4706025215780732   -0.06401109741928102   0.004153918988732656
-0.4706025215780732   -0.06401109741928102   0.004153918988732656
-0.452427047929324   -0.0401186042875557   -0.00886681802304151
-0.452427047929324   -0.0401186042875557   -0.00886681802304151
-0.452427047929324   -0.0401186042875557   -0.00886681802304151
-0.452427047929324   -0.0401186042875557   -0.00886681802304151
-0.1972291294852943   0.016703120929917423   0.01000461434658213
-0.1972291294852943   0.016703120929917423   0.01000461434658213
-0.1972291294852943   0.016703120929917423   0.01000461434658213
-0.1972291294852943   0.016703120929917423   0.01000461434658213
-0.3352271036378449   -0.02403551203837808   -0.008803064726506752
-0.3352271036378449   -0.02403551203837808   -0.008803064726506752
-0.3352271036378449   -0.02403551203837808   -0.008803064726506752
-0.3352271036378449   -0.02403551203837808   -0.008803064726506752
-0.1974877007279937   0.014771337141599318   0.010643541921403267
-0.1974877007279937   0.014771337141599318   0.010643541921403267
-0.1974877007279937   0.014771337141599318   0.010643541921403267
-0.1974877007279937   0.014771337141599318   0.010643541921403267
-0.45044622394263045   -0.03646456775524343   -0.0026167346218859723
-0.45044622394263045   -0.03646456775524343   -0.0026167346218859723
-0.45044622394263045   -0.03646456775524343   -0.0026167346218859723
-0.45044622394263045   -0.03646456775524343   -0.0026167346218859723
-0.4306024682534557   -0.007222637308241103   -0.013943664731893568
-0.4306024682534557   -0.007222637308241103   -0.013943664731893568
-0.4306024682534557   -0.007222637308241103   -0.013943664731893568
-0.4306024682534557   -0.007222637308241103   -0.013943664731893568
-0.17667876849374708   0.04587510894214873   0.0036797232555828285
-0.17667876849374708   0.04587510894214873   0.0036797232555828285
-0.17667876849374708   0.04587510894214873   0.0036797232555828285
-0.17667876849374708   0.04587510894214873   0.0036797232555828285
-0.3126940854592626   0.004859875467086397   0.004582671349491738
-0.3126940854592626   0.004859875467086397   0.004582671349491738
-0.3126940854592626   0.004859875467086397   0.004582671349491738
-0.3126940854592626   0.004859875467086397   0.004582671349491738
-0.17615114380409436   0.047412459714340764   0.00478049593165443
-0.17615114380409436   0.047412459714340764   0.00478049593165443
-0.17615114380409436   0.047412459714340764   0.00478049593165443
-0.17615114380409436   0.047412459714340764   0.00478049593165443
-0.42975389649037943   -0.007383791627704722   -0.009539651597052175
-0.42975389649037943   -0.007383791627704722   -0.009539651597052175
-0.42975389649037943   -0.007383791627704722   -0.009539651597052175
-0.42975389649037943   -0.007383791627704722   -0.009539651597052175
-0.4096588888105662   0.02576322687700508   -0.019737206431569426
-0.4096588888105662   0.02576322687700508   -0.019737206431569426
-0.4096588888105662   0.02576322687700508   -0.019737206431569426
-0.4096588888105662   0.02576322687700508   -0.019737206431569426
-0.15701723189653005   0.07513298472391298   -0.003603796418389732
-0.15701723189653005   0.07513298472391298   -0.003603796418389732
-0.15701723189653005   0.07513298472391298   -0.003603796418389732
-0.15701723189653005   0.07513298472391298   -0.003603796418389732
-0.2913359238487685   0.03367564627233256   0.017094611447550923
-0.2913359238487685   0.03367564627233256   0.017094611447550923
-0.2913359238487685   0.03367564627233256   0.017094611447550923
-0.2913359238487685   0.03367564627233256   0.017094611447550923
-0.47035253169620156   -0.04514919591856697   -0.013458033102619274
-0.47035253169620156   -0.04514919591856697   -0.013458033102619274
-0.47035253169620156   -0.04514919591856697   -0.013458033102619274
-0.47035253169620156   -0.04514919591856697   -0.013458033102619274
-0.6983213950116468   -0.039485713099185346   0.02787782459662087
-0.6983213950116468   -0.039485713099185346   0.02787782459662087
-0.6983213950116468   -0.039485713099185346   0.02787782459662087
-0.6983213950116468   -0.039485713099185346   0.02787782459662087
-0.6985327584792886   -0.06658397653446792   -0.03751754759446441
-0.6985327584792886   -0.06658397653446792   -0.03751754759446441
-0.6985327584792886   -0.06658397653446792   -0.03751754759446441
-0.6985327584792886   -0.06658397653446792   -0.03751754759446441
-0.42730389544625513   0.04251206367149574   0.034118276433251625
-0.42730389544625513   0.04251206367149574   0.034118276433251625
-0.42730389544625513   0.04251206367149574   0.034118276433251625
-0.42730389544625513   0.04251206367149574   0.034118276433251625
-0.5704207580965883   -0.02438292898131665   -0.0037047762669597077
-0.5704207580965883   -0.02438292898131665   -0.0037047762669597077
-0.5704207580965883   -0.02438292898131665   -0.0037047762669597077
-0.5704207580965883   -0.02438292898131665   -0.0037047762669597077
-0.44896455911335914   -0.01291785232378577   -0.018755125906983184
-0.44896455911335914   -0.01291785232378577   -0.018755125906983184
-0.44896455911335914   -0.01291785232378577   -0.018755125906983184
-0.44896455911335914   -0.01291785232378577   -0.018755125906983184
-0.6754486883051082   -0.00973065403210821   0.021049480774084993
-0.6754486883051082   -0.00973065403210821   0.021049480774084993
-0.6754486883051082   -0.00973065403210821   0.021049480774084993
-0.6754486883051082   -0.00973065403210821   0.021049480774084993
-0.671193379830878   -0.03520080400453854   -0.04174478235881867
-0.671193379830878   -0.03520080400453854   -0.04174478235881867
-0.671193379830878   -0.03520080400453854   -0.04174478235881867
-0.671193379830878   -0.03520080400453854   -0.04174478235881867
-0.40712613374867407   0.0690626445965162   0.02715272588725723
-0.40712613374867407   0.0690626445965162   0.02715272588725723
-0.40712613374867407   0.0690626445965162   0.02715272588725723
-0.40712613374867407   0.0690626445965162   0.02715272588725723
-0.5434000107251532   0.0047439303006002465   0.010086876776452137
-0.5434000107251532   0.0047439303006002465   0.010086876776452137
-0.5434000107251532   0.0047439303006002465   0.010086876776452137
-0.5434000107251532   0.0047439303006002465   0.010086876776452137
-0.42806891027588073   0.01672778662314371   -0.025226298775404603
-0.42806891027588073   0.01672778662314371   -0.025226298775404603
-0.42806891027588073   0.01672778662314371   -0.025226298775404603
-0.42806891027588073   0.01672778662314371   -0.025226298775404603
-0.6486497663097204   0.018734890962784745   0.017037590279646228
-0.6486497663097204   0.018734890962784745   0.017037590279646228
-0.6486497663097204   0.018734890962784745   0.017037590279646228
-0.6486497663097204   0.018734890962784745   0.017037590279646228
-0.6467347919951034   -0.0009633207512524389   -0.04493457637181733
-0.6467347919951034   -0.0009633207512524389   -0.04493457637181733
-0.6467347919951034   -0.0009633207512524389   -0.04493457637181733
-0.6467347919951034   -0.0009633207512524389   -0.04493457637181733
-0.38715812039540226   0.09839466714480938   0.020135195376446084
-0.38715812039540226   0.09839466714480938   0.020135195376446084
-0.38715812039540226   0.09839466714480938   0.020135195376446084
-0.38715812039540226   0.09839466714480938   0.020135195376446084
-0.523164838271867   0.031915235198773595   0.022449678835854817
-0.523164838271867   0.031915235198773595   0.022449678835854817
-0.523164838271867   0.031915235198773595   0.022449678835854817
-0.523164838271867   0.031915235198773595   0.022449678835854817
-0.7171484830001086   -0.06484952604428244   -0.04089380240059132
-0.7171484830001086   -0.06484952604428244   -0.04089380240059132
-0.7171484830001086   -0.06484952604428244   -0.04089380240059132
-0.7171484830001086   -0.06484952604428244   -0.04089380240059132
-0.957883994161036   -0.01684508927033751   0.06037601199450704
-0.957883994161036   -0.01684508927033751   0.06037601199450704
-0.957883994161036   -0.01684508927033751   0.06037601199450704
-0.957883994161036   -0.01684508927033751   0.06037601199450704
-0.9445186547513756   -0.08674941869801697   -0.05456926000698749
-0.9445186547513756   -0.08674941869801697   -0.05456926000698749
-0.9445186547513756   -0.08674941869801697   -0.05456926000698749
-0.9445186547513756   -0.08674941869801697   -0.05456926000698749
-0.6514408981217021   0.07183892588712787   0.059518851771872446
-0.6514408981217021   0.07183892588712787   0.059518851771872446
-0.6514408981217021   0.07183892588712787   0.059518851771872446
-0.6514408981217021   0.07183892588712787   0.059518851771872446
-0.7824970408982741   -0.013882596318032042   0.006490218529057713
-0.7824970408982741   -0.013882596318032042   0.006490218529057713
-0.7824970408982741   -0.013882596318032042   0.006490218529057713
-0.7824970408982741   -0.013882596318032042   0.006490218529057713
-0.6939576655422477   -0.03497381728628213   -0.04625224215744132
-0.6939576655422477   -0.03497381728628213   -0.04625224215744132
-0.6939576655422477   -0.03497381728628213   -0.04625224215744132
-0.6939576655422477   -0.03497381728628213   -0.04625224215744132
-0.9007103223798821   0.02135488942633898   0.05636809372610816
-0.9007103223798821   0.02135488942633898   0.05636809372610816
-0.9007103223798821   0.02135488942633898   0.05636809372610816
-0.9007103223798821   0.02135488942633898   0.05636809372610816
-0.9012678655569791   -0.06812889602721564   -0.06494585946219789
-0.9012678655569791   -0.06812889602721564   -0.06494585946219789
-0.9012678655569791   -0.06812889602721564   -0.06494585946219789
-0.9012678655569791   -0.06812889602721564   -0.06494585946219789
-0.6291746678591744   0.0840812981878847   0.04906667530726957
-0.6291746678591744   0.0840812981878847   0.04906667530726957
-0.6291746678591744   0.0840812981878847   0.04906667530726957
-0.6291746678591744   0.0840812981878847   0.04906667530726957
-0.7579640004663554   0.0056572000806608125   0.01762960280688157
-0.7579640004663554   0.0056572000806608125   0.01762960280688157
-0.7579640004663554   0.0056572000806608125   0.01762960280688157
-0.7579640004663554   0.0056572000806608125   0.01762960280688157
-0.6704161541885424   -0.019651061242853762   -0.053408396908825394
-0.6704161541885424   -0.019651061242853762   -0.053408396908825394
-0.6704161541885424   -0.019651061242853762   -0.053408396908825394
-0.6704161541885424   -0.019651061242853762   -0.053408396908825394
-0.8584464475201675   0.03718339511096638   0.04384893958367097
-0.8584464475201675   0.03718339511096638   0.04384893958367097
-0.8584464475201675   0.03718339511096638   0.04384893958367097
-0.8584464475201675   0.03718339511096638   0.04384893958367097
-0.8479869499622213   -0.040320145139045444   -0.07242448233089815
-0.8479869499622213   -0.040320145139045444   -0.07242448233089815
-0.8479869499622213   -0.040320145139045444   -0.07242448233089815
-0.8479869499622213   -0.040320145139045444   -0.07242448233089815
-0.6096073025553757   0.09886703769800867   0.040872512377559934
-0.6096073025553757   0.09886703769800867   0.040872512377559934
-0.6096073025553757   0.09886703769800867   0.040872512377559934
-0.6096073025553757   0.09886703769800867   0.040872512377559934
-0.712046045713072   0.023962673870774498   0.033318165588959434
-0.712046045713072   0.023962673870774498   0.033318165588959434
-0.712046045713072   0.023962673870774498   0.033318165588959434
-0.712046045713072   0.023962673870774498   0.033318165588959434
0.7604436011307218   0.06909756692496147   0.06596870929528023
0.7604436011307218   0.06909756692496147   0.06596870929528023
0.7604436011307218   0.06909756692496147   0.06596870929528023
0.7604436011307218   0.06909756692496147   0.06596870929528023
0.27851431728597087   -0.1264160213836991   -0.0434229573936675
0.27851431728597087   -0.1264160213836991   -0.0434229573936675
0.27851431728597087   -0.1264160213836991   -0.0434229573936675
0.27851431728597087   -0.1264160213836991   -0.0434229573936675
0.3439219619779027   -0.0007747214489111781   0.047464864684670205
0.3439219619779027   -0.0007747214489111781   0.047464864684670205
0.3439219619779027   -0.0007747214489111781   0.047464864684670205
0.3439219619779027   -0.0007747214489111781   0.047464864684670205
0.7742451860438957   -0.017541124728991248   -0.05543717667357923
0.7742451860438957   -0.017541124728991248   -0.05543717667357923
0.7742451860438957   -0.017541124728991248   -0.05543717667357923
0.7742451860438957   -0.017541124728991248   -0.05543717667357923
0.5061105098735844   -0.022877028233733776   -0.048865725713159024
0.5061105098735844   -0.022877028233733776   -0.048865725713159024
0.5061105098735844   -0.022877028233733776   -0.048865725713159024
0.5061105098735844   -0.022877028233733776   -0.048865725713159024
0.8195749149023869   0.09633080398085601   0.05733953890902191
0.8195749149023869   0.09633080398085601   0.05733953890902191
0.8195749149023869   0.09633080398085601   0.05733953890902191
0.8195749149023869   0.09633080398085601   0.05733953890902191
0.3018012879372329   -0.11143759534093767   -0.052475631626648665
0.3018012879372329   -0.11143759534093767   -0.052475631626648665
0.3018012879372329   -0.11143759534093767   -0.052475631626648665
0.3018012879372329   -0.11143759534093767   -0.052475631626648665
0.3697290131001089   0.014153238826909637   0.03914114602940374
0.3697290131001089   0.014153238826909637   0.03914114602940374
0.3697290131001089   0.014153238826909637   0.03914114602940374
0.3697290131001089   0.014153238826909637   0.03914114602940374
0.8212983738104235   -0.0005746330745384498   -0.06983437267661866
0.8212983738104235   -0.0005746330745384498   -0.06983437267661866
0.8212983738104235   -0.0005746330745384498   -0.06983437267661866
0.8212983738104235   -0.0005746330745384498   -0.06983437267661866
0.5552455837364795   -0.004550723130329712   -0.029597151247822664
0.5552455837364795   -0.004550723130329712   -0.029597151247822664
0.5552455837364795   -0.004550723130329712   -0.029597151247822664
0.5552455837364795   -0.004550723130329712   -0.029597151247822664
0.8671312851555113   0.11463047852246883   0.04412507245179729
0.8671312851555113   0.11463047852246883   0.04412507245179729
0.8671312851555113   0.11463047852246883   0.04412507245179729
0.8671312851555113   0.11463047852246883   0.04412507245179729
0.3273100096423095   -0.09763796488280163   -0.061162667549881894
0.3273100096423095   -0.09763796488280163   -0.061162667549881894
0.3273100096423095   -0.09763796488280163   -0.061162667549881894
0.3273100096423095   -0.09763796488280163   -0.061162667549881894
0.395500329028596   0.04705908851276705   0.03392371714273768
0.395500329028596   0.04705908851276705   0.03392371714273768
0.395500329028596   0.04705908851276705   0.03392371714273768
0.395500329028596   0.04705908851276705   0.03392371714273768
0.8830871546953144   0.04367385049981967   -0.07533189141074365
0.8830871546953144   0.04367385049981967   -0.07533189141074365
0.8830871546953144   0.04367385049981967   -0.07533189141074365
0.8830871546953144   0.04367385049981967   -0.07533189141074365
0.5855641864015696   0.01774450921565683   -0.0129293500485014
0.5855641864015696   0.01774450921565683   -0.0129293500485014
0.5855641864015696   0.01774450921565683   -0.0129293500485014
0.5855641864015696   0.01774450921565683   -0.0129293500485014
0.3307654423282201   0.03869011782446639   0.05272652860940919
0.3307654423282201   0.03869011782446639   0.05272652860940919
0.3307654423282201   0.03869011782446639   0.05272652860940919
0.3307654423282201   0.03869011782446639   0.05272652860940919
-0.16115406608834396   -0.11795264717405315   -0.022747405117988673
-0.16115406608834396   -0.11795264717405315   -0.022747405117988673
-0.16115406608834396   -0.11795264717405315   -0.022747405117988673
-0.16115406608834396   -0.11795264717405315   -0.022747405117988673
-0.11617180455678833   -0.034550055801593496   0.015965443985981147
-0.11617180455678833   -0.034550055801593496   0.015965443985981147
-0.11617180455678833   -0.034550055801593496   0.015965443985981147
-0.11617180455678833   -0.034550055801593496   0.015965443985981147
0.33338511774112234   0.0009762625647953826   -0.006970340512938322
0.33338511774112234   0.0009762625647953826   -0.006970340512938322
0.33338511774112234   0.0009762625647953826   -0.006970340512938322
0.33338511774112234   0.0009762625647953826   -0.006970340512938322
0.09235468155202767   -0.024933439509028522   -0.02082048101724164
0.09235468155202767   -0.024933439509028522   -0.02082048101724164
0.09235468155202767   -0.024933439509028522   -0.02082048101724164
0.09235468155202767   -0.024933439509028522   -0.02082048101724164
0.3572754570221024   0.06636485950695054   0.04709275894981062
0.3572754570221024   0.06636485950695054   0.04709275894981062
0.3572754570221024   0.06636485950695054   0.04709275894981062
0.3572754570221024   0.06636485950695054   0.04709275894981062
-0.13812869450576853   -0.09800520341174816   -0.030363858148765167
-0.13812869450576853   -0.09800520341174816   -0.030363858148765167
-0.13812869450576853   -0.09800520341174816   -0.030363858148765167
-0.13812869450576853   -0.09800520341174816   -0.030363858148765167
-0.09212979940203932   -0.006614199089572533   0.01009165546758013
-0.09212979940203932   -0.006614199089572533   0.01009165546758013
-0.09212979940203932   -0.006614199089572533   0.01009165546758013
-0.09212979940203932   -0.006614199089572533   0.01009165546758013
0.3616777778204827   0.026042519199995152   -0.01300431074181292
0.3616777778204827   0.026042519199995152   -0.01300431074181292
0.3616777778204827   0.026042519199995152   -0.01300431074181292
0.3616777778204827   0.026042519199995152   -0.01300431074181292
0.11558333531197466   -0.0028583671139582358   -0.008279526988636522
0.11558333531197466   -0.0028583671139582358   -0.008279526988636522
0.11558333531197466   -0.0028583671139582358   -0.008279526988636522
0.11558333531197466   -0.0028583671139582358   -0.008279526988636522
0.3865238355131026   0.09545991348683015   0.041808583434451624
0.3865238355131026   0.09545991348683015   0.041808583434451624
0.3865238355131026   0.09545991348683015   0.041808583434451624
0.3865238355131026   0.09545991348683015   0.041808583434451624
-0.11503813132520768   -0.07409386760696621   -0.03697033563086803
-0.11503813132520768   -0.07409386760696621   -0.03697033563086803
-0.11503813132520768   -0.07409386760696621   -0.03697033563086803
-0.11503813132520768   -0.07409386760696621   -0.03697033563086803
-0.0683900775624925   0.025749341156559843   0.0042449057349463835
-0.0683900775624925   0.025749341156559843   0.0042449057349463835
-0.0683900775624925   0.025749341156559843   0.0042449057349463835
-0.0683900775624925   0.025749341156559843   0.0042449057349463835
0.38676859501915   0.05588957758852363   -0.018565441980248745
0.38676859501915   0.05588957758852363   -0.018565441980248745
0.38676859501915   0.05588957758852363   -0.018565441980248745
0.38676859501915   0.05588957758852363   -0.018565441980248745
0.14427842468917487   0.024213339971074877   0.006361738688829046
0.14427842468917487   0.024213339971074877   0.006361738688829046
0.14427842468917487   0.024213339971074877   0.006361738688829046
0.14427842468917487   0.024213339971074877   0.006361738688829046
-0.12685216204541566   0.00839173689501961   0.022417731027578304
-0.12685216204541566   0.00839173689501961   0.022417731027578304
-0.12685216204541566   0.00839173689501961   0.022417731027578304
-0.12685216204541566   0.00839173689501961   0.022417731027578304
-0.592094607728181   -0.10415073904422774   -0.003007446372736161
-0.592094607728181   -0.10415073904422774   -0.003007446372736161
-0.592094607728181   -0.10415073904422774   -0.003007446372736161
-0.592094607728181   -0.10415073904422774   -0.003007446372736161
-0.5635873129871873   -0.06135166937669205   -0.013911153684572356
-0.5635873129871873   -0.06135166937669205   -0.013911153684572356
-0.5635873129871873   -0.06135166937669205   -0.013911153684572356
-0.5635873129871873   -0.06135166937669205   -0.013911153684572356
-0.10636920797056465   0.015523562645940785   0.014904808469565215
-0.10636920797056465   0.015523562645940785   0.014904808469565215
-0.10636920797056465   0.015523562645940785   0.014904808469565215
-0.10636920797056465   0.015523562645940785   0.014904808469565215
-0.347836442550909   -0.03201916706131642   -0.012998500338110555
-0.347836442550909   -0.03201916706131642   -0.012998500338110555
-0.347836442550909   -0.03201916706131642   -0.012998500338110555
-0.347836442550909   -0.03201916706131642   -0.012998500338110555
-0.10161973601419473   0.037216019111910026   0.016959711785445558
-0.10161973601419473   0.037216019111910026   0.016959711785445558
-0.10161973601419473   0.037216019111910026   0.016959711785445558
-0.10161973601419473   0.037216019111910026   0.016959711785445558
-0.5670448981511509   -0.08175223905025497   -0.010798509830827412
-0.5670448981511509   -0.08175223905025497   -0.010798509830827412
-0.5670448981511509   -0.08175223905025497   -0.010798509830827412
-0.5670448981511509   -0.08175223905025497   -0.010798509830827412
-0.5370891863557232   -0.030701460408389947   -0.01879270563513457
-0.5370891863557232   -0.030701460408389947   -0.01879270563513457
-0.5370891863557232   -0.030701460408389947   -0.01879270563513457
-0.5370891863557232   -0.030701460408389947   -0.01879270563513457
-0.08296861790023184   0.040845138360295304   0.008438225526751627
-0.08296861790023184   0.040845138360295304   0.008438225526751627
-0.08296861790023184   0.040845138360295304   0.008438225526751627
-0.08296861790023184   0.040845138360295304   0.008438225526751627
-0.32111008670848634   -0.006374681290038209   -0.00019893578903939363
-0.32111008670848634   -0.006374681290038209   -0.00019893578903939363
-0.32111008670848634   -0.006374681290038209   -0.00019893578903939363
-0.32111008670848634   -0.006374681290038209   -0.00019893578903939363
-0.077236997695736   0.06717984286044967   0.010761622049076418
-0.077236997695736   0.06717984286044967   0.010761622049076418
-0.077236997695736   0.06717984286044967   0.010761622049076418
-0.077236997695736   0.06717984286044967   0.010761622049076418
-0.5416209500766183   -0.05583630842494367   -0.01631667622305677
-0.5416209500766183   -0.05583630842494367   -0.01631667622305677
-0.5416209500766183   -0.05583630842494367   -0.01631667622305677
-0.5416209500766183   -0.05583630842494367   -0.01631667622305677
-0.5124232678015586   -0.00015293404183769344   -0.02462735434211461
-0.5124232678015586   -0.00015293404183769344   -0.02462735434211461
-0.5124232678015586   -0.00015293404183769344   -0.02462735434211461
-0.5124232678015586   -0.00015293404183769344   -0.02462735434211461
-0.06063352618164017   0.06670637073044329   0.0020706330653266006
-0.06063352618164017   0.06670637073044329   0.0020706330653266006
-0.06063352618164017   0.06670637073044329   0.0020706330653266006
-0.06063352618164017   0.06670637073044329   0.0020706330653266006
-0.2965592912706896   0.01917339823469512   0.011980580873947416
-0.2965592912706896   0.01917339823469512   0.011980580873947416
-0.2965592912706896   0.01917339823469512   0.011980580873947416
-0.2965592912706896   0.01917339823469512   0.011980580873947416
-0.5769367330019813   -0.02254842331147379   -0.008820388474486743
-0.5769367330019813   -0.02254842331147379   -0.008820388474486743
-0.5769367330019813   -0.02254842331147379   -0.008820388474486743
-0.5769367330019813   -0.02254842331147379   -0.008820388474486743
-1.0132317029936595   -0.0843885614354628   0.019538155267678173
-1.0132317029936595   -0.0843885614354628   0.019538155267678173
-1.0132317029936595   -0.0843885614354628   0.019538155267678173
-1.0132317029936595   -0.0843885614354628   0.019538155267678173
-0.9993771885978724   -0.08709738390170363   -0.04185566828112792
-0.9993771885978724   -0.08709738390170363   -0.04185566828112792
-0.9993771885978724   -0.08709738390170363   -0.04185566828112792
-0.9993771885978724   -0.08709738390170363   -0.04185566828112792
-0.5331928901153123   0.039255205282859695   0.03745408601525505
-0.5331928901153123   0.039255205282859695   0.03745408601525505
-0.5331928901153123   0.039255205282859695   0.03745408601525505
-0.5331928901153123   0.039255205282859695   0.03745408601525505
-0.7752836550287218   -0.0338211064838492   -0.0045316633556963595
-0.7752836550287218   -0.0338211064838492   -0.0045316633556963595
-0.7752836550287218   -0.0338211064838492   -0.0045316633556963595
-0.7752836550287218   -0.0338211064838492   -0.0045316633556963595
-0.5495067728633211   0.008563173677538699   -0.013423296119467666
-0.5495067728633211   0.008563173677538699   -0.013423296119467666
-0.5495067728633211   0.008563173677538699   -0.013423296119467666
-0.5495067728633211   0.008563173677538699   -0.013423296119467666
-0.9829953482715895   -0.056337394718107225   0.009293544166697733
-0.9829953482715895   -0.056337394718107225   0.009293544166697733
-0.9829953482715895   -0.056337394718107225   0.009293544166697733
-0.9829953482715895   -0.056337394718107225   0.009293544166697733
-0.9647508421587507   -0.05715188135520308   -0.0462951954612625
-0.9647508421587507   -0.05715188135520308   -0.0462951954612625
-0.9647508421587507   -0.05715188135520308   -0.0462951954612625
-0.9647508421587507   -0.05715188135520308   -0.0462951954612625
-0.5085234452172858   0.0633985925688921   0.029935947079774226
-0.5085234452172858   0.0633985925688921   0.029935947079774226
-0.5085234452172858   0.0633985925688921   0.029935947079774226
-0.5085234452172858   0.0633985925688921   0.029935947079774226
-0.7400577834835314   -0.005476523689329743   0.008304751153141936
-0.7400577834835314   -0.005476523689329743   0.008304751153141936
-0.7400577834835314   -0.005476523689329743   0.008304751153141936
-0.7400577834835314   -0.005476523689329743   0.008304751153141936
-0.5238378334424196   0.03636856598742888   -0.01960596746443387
-0.5238378334424196   0.03636856598742888   -0.01960596746443387
-0.5238378334424196   0.03636856598742888   -0.01960596746443387
-0.5238378334424196   0.03636856598742888   -0.01960596746443387
-0.9486246495954539   -0.029310050435577134   0.0064939364355960025
-0.9486246495954539   -0.029310050435577134   0.0064939364355960025
-0.9486246495954539   -0.029310050435577134   0.0064939364355960025
-0.9486246495954539   -0.029310050435577134   0.0064939364355960025
-0.9337887422026456   -0.02469368011482051   -0.04867591911445989
-0.9337887422026456   -0.02469368011482051   -0.04867591911445989
-0.9337887422026456   -0.02469368011482051   -0.04867591911445989
-0.9337887422026456   -0.02469368011482051   -0.04867591911445989
-0.48463037450966745   0.08994623125015534   0.024237946825353206
-0.48463037450966745   0.08994623125015534   0.024237946825353206
-0.48463037450966745   0.08994623125015534   0.024237946825353206
-0.48463037450966745   0.08994623125015534   0.024237946825353206
-0.7162294738415682   0.01875568389408591   0.019378102406910486
-0.7162294738415682   0.01875568389408591   0.019378102406910486
-0.7162294738415682   0.01875568389408591   0.019378102406910486
-0.7162294738415682   0.01875568389408591   0.019378102406910486
-1.017486314905181   -0.0483878741359553   -0.0377355915894369
-1.017486314905181   -0.0483878741359553   -0.0377355915894369
-1.017486314905181   -0.0483878741359553   -0.0377355915894369
-1.017486314905181   -0.0483878741359553   -0.0377355915894369
-1.4502259534241735   -0.0523036089434121   0.06538952417427318
-1.4502259534241735   -0.0523036089434121   0.06538952417427318
-1.4502259534241735   -0.0523036089434121   0.06538952417427318
-1.4502259534241735   -0.0523036089434121   0.06538952417427318
-1.42236825751924   -0.10425070928267441   -0.05000196467960113
-1.42236825751924   -0.10425070928267441   -0.05000196467960113
-1.42236825751924   -0.10425070928267441   -0.05000196467960113
-1.42236825751924   -0.10425070928267441   -0.05000196467960113
-0.9440724600233847   0.0811023954506522   0.06646819523895463
-0.9440724600233847   0.0811023954506522   0.06646819523895463
-0.9440724600233847   0.0811023954506522   0.06646819523895463
-0.9440724600233847   0.0811023954506522   0.06646819523895463
-1.1549340599144822   -0.014276486088979301   0.013390793537737533
-1.1549340599144822   -0.014276486088979301   0.013390793537737533
-1.1549340599144822   -0.014276486088979301   0.013390793537737533
-1.1549340599144822   -0.014276486088979301   0.013390793537737533
-0.985010452290723   -0.015168857858722323   -0.0419505127883577
-0.985010452290723   -0.015168857858722323   -0.0419505127883577
-0.985010452290723   -0.015168857858722323   -0.0419505127883577
-0.985010452290723   -0.015168857858722323   -0.0419505127883577
-1.3807539302815404   -0.0073031210029446125   0.06112208322915663
-1.3807539302815404   -0.0073031210029446125   0.06112208322915663
-1.3807539302815404   -0.0073031210029446125   0.06112208322915663
-1.3807539302815404   -0.0073031210029446125   0.06112208322915663
-1.369965757518297   -0.08566775941954388   -0.05888752307075066
-1.369965757518297   -0.08566775941954388   -0.05888752307075066
-1.369965757518297   -0.08566775941954388   -0.05888752307075066
-1.369965757518297   -0.08566775941954388   -0.05888752307075066
-0.9150145959092619   0.09256415070682819   0.052670003724150344
-0.9150145959092619   0.09256415070682819   0.052670003724150344
-0.9150145959092619   0.09256415070682819   0.052670003724150344
-0.9150145959092619   0.09256415070682819   0.052670003724150344
-1.1278964430347016   0.006007347500072341   0.024072486578153834
-1.1278964430347016   0.006007347500072341   0.024072486578153834
-1.1278964430347016   0.006007347500072341   0.024072486578153834
-1.1278964430347016   0.006007347500072341   0.024072486578153834
-0.9536450680929246   -0.00017479851482182784   -0.04774340797251287
-0.9536450680929246   -0.00017479851482182784   -0.04774340797251287
-0.9536450680929246   -0.00017479851482182784   -0.04774340797251287
-0.9536450680929246   -0.00017479851482182784   -0.04774340797251287
-1.3306609579588573   0.007745517177879246   0.044223198129000885
-1.3306609579588573   0.007745517177879246   0.044223198129000885
-1.3306609579588573   0.007745517177879246   0.044223198129000885
-1.3306609579588573   0.007745517177879246   0.044223198129000885
-1.312689166694654   -0.0633448898542113   -0.06710526124426147
-1.312689166694654   -0.0633448898542113   -0.06710526124426147
-1.312689166694654   -0.0633448898542113   -0.06710526124426147
-1.312689166694654   -0.0633448898542113   -0.06710526124426147
-0.8894776460770243   0.1033337784770243   0.04485210292180221
-0.8894776460770243   0.1033337784770243   0.04485210292180221
-0.8894776460770243   0.1033337784770243   0.04485210292180221
-0.8894776460770243   0.1033337784770243   0.04485210292180221
-1.070111237230161   0.02287010413410298   0.04021586834225567
-1.070111237230161   0.02287010413410298   0.04021586834225567
-1.070111237230161   0.02287010413410298   0.04021586834225567
-1.070111237230161   0.02287010413410298   0.04021586834225567
1.276585568619279   0.09540692220745345   0.06762050922878715
1.276585568619279   0.09540692220745345   0.06762050922878715
1.276585568619279   0.09540692220745345   0.06762050922878715
1.276585568619279   0.09540692220745345   0.06762050922878715
0.5631025717956688   -0.1503268341938947   -0.031077738224963805
0.5631025717956688   -0.1503268341938947   -0.031077738224963805
0.5631025717956688   -0.1503268341938947   -0.031077738224963805
0.5631025717956688   -0.1503268341938947   -0.031077738224963805
0.6278762379214254   -0.02643849251742139   0.04644493250667894
0.6278762379214254   -0.02643849251742139   0.04644493250667894
0.6278762379214254   -0.02643849251742139   0.04644493250667894
0.6278762379214254   -0.02643849251742139   0.04644493250667894
1.290668957327001   -0.0023527019348222322   -0.04870828253378982
1.290668957327001   -0.0023527019348222322   -0.04870828253378982
1.290668957327001   -0.0023527019348222322   -0.04870828253378982
1.290668957327001   -0.0023527019348222322   -0.04870828253378982
0.8845267552043283   -0.026811350111572096   -0.06918035940597356
0.8845267552043283   -0.026811350111572096   -0.06918035940597356
0.8845267552043283   -0.026811350111572096   -0.06918035940597356
0.8845267552043283   -0.026811350111572096   -0.06918035940597356
1.3356229915155724   0.1171364241624332   0.056572762311804706
1.3356229915155724   0.1171364241624332   0.056572762311804706
1.3356229915155724   0.1171364241624332   0.056572762311804706
1.3356229915155724   0.1171364241624332   0.056572762311804706
0.5872393126506104   -0.14161050969692102   -0.04156767666789314
0.5872393126506104   -0.14161050969692102   -0.04156767666789314
0.5872393126506104   -0.14161050969692102   -0.04156767666789314
0.5872393126506104   -0.14161050969692102   -0.04156767666789314
0.6532065047269111   -0.012716193954190047   0.037549692008635734
0.6532065047269111   -0.012716193954190047   0.037549692008635734
0.6532065047269111   -0.012716193954190047   0.037549692008635734
0.6532065047269111   -0.012716193954190047   0.037549692008635734
1.3349343933860114   0.012778243040771575   -0.06085927119345666
1.3349343933860114   0.012778243040771575   -0.06085927119345666
1.3349343933860114   0.012778243040771575   -0.06085927119345666
1.3349343933860114   0.012778243040771575   -0.06085927119345666
0.9401139061047605   -0.010640439165406357   -0.04705795098469395
0.9401139061047605   -0.010640439165406357   -0.04705795098469395
0.9401139061047605   -0.010640439165406357   -0.04705795098469395
0.9401139061047605   -0.010640439165406357   -0.04705795098469395
1.3796252417542008   0.1334435481559945   0.041929665532268616
1.3796252417542008   0.1334435481559945   0.041929665532268616
1.3796252417542008   0.1334435481559945   0.041929665532268616
1.3796252417542008   0.1334435481559945   0.041929665532268616
0.6122941185341815   -0.12960303689395294   -0.05012539601524965
0.6122941185341815   -0.12960303689395294   -0.05012539601524965
0.6122941185341815   -0.12960303689395294   -0.05012539601524965
0.6122941185341815   -0.12960303689395294   -0.05012539601524965
0.6761529419357076   0.023937592299094534   0.03292103034517621
0.6761529419357076   0.023937592299094534   0.03292103034517621
0.6761529419357076   0.023937592299094534   0.03292103034517621
0.6761529419357076   0.023937592299094534   0.03292103034517621
1.3893943233963244   0.05705066494300201   -0.06373196095056496
1.3893943233963244   0.05705066494300201   -0.06373196095056496
1.3893943233963244   0.05705066494300201   -0.06373196095056496
1.3893943233963244   0.05705066494300201   -0.06373196095056496
0.9608996384146286   0.01113050871968091   -0.03174538302987492
0.9608996384146286   0.01113050871968091   -0.03174538302987492
0.9608996384146286   0.01113050871968091   -0.03174538302987492
0.9608996384146286   0.01113050871968091   -0.03174538302987492
0.6229219376696831   0.055792071659492654   0.061900185291713296
0.6229219376696831   0.055792071659492654   0.061900185291713296
0.6229219376696831   0.055792071659492654   0.061900185291713296
0.6229219376696831   0.055792071659492654   0.061900185291713296
-0.07704143274625778   -0.18521624910805992   -0.017698188470557534
-0.07704143274625778   -0.18521624910805992   -0.017698188470557534
-0.07704143274625778   -0.18521624910805992   -0.017698188470557534
-0.07704143274625778   -0.18521624910805992   -0.017698188470557534
-0.02125594711845652   -0.06540972154415131   0.015740803801968427
-0.02125594711845652   -0.06540972154415131   0.015740803801968427
-0.02125594711845652   -0.06540972154415131   0.015740803801968427
-0.02125594711845652   -0.06540972154415131   0.015740803801968427
0.617659179677021   -0.03414816785237504   0.0030693166196105806
0.617659179677021   -0.03414816785237504   0.0030693166196105806
0.617659179677021   -0.03414816785237504   0.0030693166196105806
0.617659179677021   -0.03414816785237504   0.0030693166196105806
0.2778326461408357   -0.051623740275436834   -0.03296896982831016
0.2778326461408357   -0.051623740275436834   -0.03296896982831016
0.2778326461408357   -0.051623740275436834   -0.03296896982831016
0.2778326461408357   -0.051623740275436834   -0.03296896982831016
0.6501790935187594   0.0766943911817363   0.05482632679419063
0.6501790935187594   0.0766943911817363   0.05482632679419063
0.6501790935187594   0.0766943911817363   0.05482632679419063
0.6501790935187594   0.0766943911817363   0.05482632679419063
-0.0515006257082274   -0.17397704532629524   -0.026915265364742046
-0.0515006257082274   -0.17397704532629524   -0.026915265364742046
-0.0515006257082274   -0.17397704532629524   -0.026915265364742046
-0.0515006257082274   -0.17397704532629524   -0.026915265364742046
0.0045738854086463596   -0.04085610149034183   0.009606478218399842
0.0045738854086463596   -0.04085610149034183   0.009606478218399842
0.0045738854086463596   -0.04085610149034183   0.009606478218399842
0.0045738854086463596   -0.04085610149034183   0.009606478218399842
0.64411332374593   -0.015634695284179212   -0.0049977115662808574
0.64411332374593   -0.015634695284179212   -0.0049977115662808574
0.64411332374593   -0.015634695284179212   -0.0049977115662808574
0.64411332374593   -0.015634695284179212   -0.0049977115662808574
0.3002687751923512   -0.03654823943325472   -0.021371220396029324
0.3002687751923512   -0.03654823943325472   -0.021371220396029324
0.3002687751923512   -0.03654823943325472   -0.021371220396029324
0.3002687751923512   -0.03654823943325472   -0.021371220396029324
0.6783805471518238   0.10177056437535648   0.048933145803652586
0.6783805471518238   0.10177056437535648   0.048933145803652586
0.6783805471518238   0.10177056437535648   0.048933145803652586
0.6783805471518238   0.10177056437535648   0.048933145803652586
-0.02833980495574176   -0.1569078281083616   -0.038910246985520994
-0.02833980495574176   -0.1569078281083616   -0.038910246985520994
-0.02833980495574176   -0.1569078281083616   -0.038910246985520994
-0.02833980495574176   -0.1569078281083616   -0.038910246985520994
0.024849610741507138   -0.012099930843952061   0.0034060001350769914
0.024849610741507138   -0.012099930843952061   0.0034060001350769914
0.024849610741507138   -0.012099930843952061   0.0034060001350769914
0.024849610741507138   -0.012099930843952061   0.0034060001350769914
0.6639201686538072   0.007978612372742389   -0.012283856137985438
0.6639201686538072   0.007978612372742389   -0.012283856137985438
0.6639201686538072   0.007978612372742389   -0.012283856137985438
0.6639201686538072   0.007978612372742389   -0.012283856137985438
0.32775287626711735   -0.0139988188160724   -0.008928156582935491
0.32775287626711735   -0.0139988188160724   -0.008928156582935491
0.32775287626711735   -0.0139988188160724   -0.008928156582935491
0.32775287626711735   -0.0139988188160724   -0.008928156582935491
-0.027191825447692077   0.015581688724382908   0.030751910189828157
-0.027191825447692077   0.015581688724382908   0.030751910189828157
-0.027191825447692077   0.015581688724382908   0.030751910189828157
-0.027191825447692077   0.015581688724382908   0.030751910189828157
-0.712242997634466   -0.23244233902407457   -0.014231478707425482
-0.712242997634466   -0.23244233902407457   -0.014231478707425482
-0.712242997634466   -0.23244233902407457   -0.014231478707425482
-0.712242997634466   -0.23244233902407457   -0.014231478707425482
-0.6558148271823304   -0.10034457435548907   -0.014990257325818317
-0.6558148271823304   -0.10034457435548907   -0.014990257325818317
-0.6558148271823304   -0.10034457435548907   -0.014990257325818317
-0.6558148271823304   -0.10034457435548907   -0.014990257325818317
-0.024522866398627136   -0.07987690730301378   0.013873393159977827
-0.024522866398627136   -0.07987690730301378   0.013873393159977827
-0.024522866398627136   -0.07987690730301378   0.013873393159977827
-0.024522866398627136   -0.07987690730301378   0.013873393159977827
-0.3565572172356754   -0.09394926008129663   -0.029450897646592523
-0.3565572172356754   -0.09394926008129663   -0.029450897646592523
-0.3565572172356754   -0.09394926008129663   -0.029450897646592523
-0.3565572172356754   -0.09394926008129663   -0.029450897646592523
0.0014974193613330744   0.03911292445813359   0.0249849901986315
0.0014974193613330744   0.03911292445813359   0.0249849901986315
0.0014974193613330744   0.03911292445813359   0.0249849901986315
0.0014974193613330744   0.03911292445813359   0.0249849901986315
-0.6801919408133615   -0.21769123398771761   -0.01952916584874546
-0.6801919408133615   -0.21769123398771761   -0.01952916584874546
-0.6801919408133615   -0.21769123398771761   -0.01952916584874546
-0.6801919408133615   -0.21769123398771761   -0.01952916584874546
-0.623777111061859   -0.0730865690603793   -0.0204118184149943
-0.623777111061859   -0.0730865690603793   -0.0204118184149943
-0.623777111061859   -0.0730865690603793   -0.0204118184149943
-0.623777111061859   -0.0730865690603793   -0.0204118184149943
-0.00045904787173758205   -0.062085624118063884   0.0056713344442021925
-0.00045904787173758205   -0.062085624118063884   0.0056713344442021925
-0.00045904787173758205   -0.062085624118063884   0.0056713344442021925
-0.00045904787173758205   -0.062085624118063884   0.0056713344442021925
-0.32545639190618547   -0.07435256427053687   -0.016353683586463535
-0.32545639190618547   -0.07435256427053687   -0.016353683586463535
-0.32545639190618547   -0.07435256427053687   -0.016353683586463535
-0.32545639190618547   -0.07435256427053687   -0.016353683586463535
0.027750700345193644   0.0651902059884908   0.019444245422303632
0.027750700345193644   0.0651902059884908   0.019444245422303632
0.027750700345193644   0.0651902059884908   0.019444245422303632
0.027750700345193644   0.0651902059884908   0.019444245422303632
-0.6519965237252524   -0.20037206361340548   -0.03422338717892956
-0.6519965237252524   -0.20037206361340548   -0.03422338717892956
-0.6519965237252524   -0.20037206361340548   -0.03422338717892956
-0.6519965237252524   -0.20037206361340548   -0.03422338717892956
-0.6011370876009569   -0.0471031214323545   -0.026473266329407028
-0.6011370876009569   -0.0471031214323545   -0.026473266329407028
-0.6011370876009569   -0.0471031214323545   -0.026473266329407028
-0.6011370876009569   -0.0471031214323545   -0.026473266329407028
0.015341651623252557   -0.04786778021008341   -0.008365946090066492
0.015341651623252557   -0.04786778021008341   -0.008365946090066492
0.015341651623252557   -0.04786778021008341   -0.008365946090066492
0.015341651623252557   -0.04786778021008341   -0.008365946090066492
-0.3026450711511168   -0.056074848303445   -0.00815327224565535
-0.3026450711511168   -0.056074848303445   -0.00815327224565535
-0.3026450711511168   -0.056074848303445   -0.00815327224565535
-0.3026450711511168   -0.056074848303445   -0.00815327224565535
-0.6669558792392168   -0.019240560740968193   -0.000997665014291424
-0.6669558792392168   -0.019240560740968193   -0.000997665014291424
-0.6669558792392168   -0.019240560740968193   -0.000997665014291424
-0.6669558792392168   -0.019240560740968193   -0.000997665014291424
-1.3503828966913223   -0.2499033232388584   -0.011442881279866719
-1.3503828966913223   -0.2499033232388584   -0.011442881279866719
-1.3503828966913223   -0.2499033232388584   -0.011442881279866719
-1.3503828966913223   -0.2499033232388584   -0.011442881279866719
-1.2897877492190701   -0.1284725542489639   -0.04458985254010494
-1.2897877492190701   -0.1284725542489639   -0.04458985254010494
-1.2897877492190701   -0.1284725542489639   -0.04458985254010494
-1.2897877492190701   -0.1284725542489639   -0.04458985254010494
-0.6434618015152128   -0.0829857763891369   0.02941607304341192
-0.6434618015152128   -0.0829857763891369   0.02941607304341192
-0.6434618015152128   -0.0829857763891369   0.02941607304341192
-0.6434618015152128   -0.0829857763891369   0.02941607304341192
-0.9789975196046494   -0.11294644529179121   -0.02075781789143366
-0.9789975196046494   -0.11294644529179121   -0.02075781789143366
-0.9789975196046494   -0.11294644529179121   -0.02075781789143366
-0.9789975196046494   -0.11294644529179121   -0.02075781789143366
-0.6315632110199851   0.011062478104130719   -0.0051392289737171234
-0.6315632110199851   0.011062478104130719   -0.0051392289737171234
-0.6315632110199851   0.011062478104130719   -0.0051392289737171234
-0.6315632110199851   0.011062478104130719   -0.0051392289737171234
-1.3022052996236195   -0.22303976865154113   -0.01211039016026359
-1.3022052996236195   -0.22303976865154113   -0.01211039016026359
-1.3022052996236195   -0.22303976865154113   -0.01211039016026359
-1.3022052996236195   -0.22303976865154113   -0.01211039016026359
-1.2439897465534477   -0.10000982127448502   -0.05163982080094948
-1.2439897465534477   -0.10000982127448502   -0.05163982080094948
-1.2439897465534477   -0.10000982127448502   -0.05163982080094948
-1.2439897465534477   -0.10000982127448502   -0.05163982080094948
-0.612349625776163   -0.06161542083593818   0.025254459789050117
-0.612349625776163   -0.06161542083593818   0.025254459789050117
-0.612349625776163   -0.06161542083593818   0.025254459789050117
-0.612349625776163   -0.06161542083593818   0.025254459789050117
-0.9319299238988926   -0.08563872324502822   -0.006816882177710627
-0.9319299238988926   -0.08563872324502822   -0.006816882177710627
-0.9319299238988926   -0.08563872324502822   -0.006816882177710627
-0.9319299238988926   -0.08563872324502822   -0.006816882177710627
-0.5994496851648573   0.03737825297112479   -0.009239510961490886
-0.5994496851648573   0.03737825297112479   -0.009239510961490886
-0.5994496851648573   0.03737825297112479   -0.009239510961490886
-0.5994496851648573   0.03737825297112479   -0.009239510961490886
-1.2590954344006817   -0.20120924231747536   -0.02596883899411733
-1.2590954344006817   -0.20120924231747536   -0.02596883899411733
-1.2590954344006817   -0.20120924231747536   -0.02596883899411733
-1.2590954344006817   -0.20120924231747536   -0.02596883899411733
-1.2068349501102378   -0.06999947494905287   -0.05328600857005627
-1.2068349501102378   -0.06999947494905287   -0.05328600857005627
-1.2068349501102378   -0.06999947494905287   -0.05328600857005627
-1.2068349501102378   -0.06999947494905287   -0.05328600857005627
-0.5944778603463473   -0.048029174756868256   0.007748923268158913
-0.5944778603463473   -0.048029174756868256   0.007748923268158913
-0.5944778603463473   -0.048029174756868256   0.007748923268158913
-0.5944778603463473   -0.048029174756868256   0.007748923268158913
-0.9059711065121403   -0.06899169403617528   -0.0022660578832584266
-0.9059711065121403   -0.06899169403617528   -0.0022660578832584266
-0.9059711065121403   -0.06899169403617528   -0.0022660578832584266
-0.9059711065121403   -0.06899169403617528   -0.0022660578832584266
-1.3135357605806184   -0.044554650002158885   -0.032555873963046676
-1.3135357605806184   -0.044554650002158885   -0.032555873963046676
-1.3135357605806184   -0.044554650002158885   -0.032555873963046676
-1.3135357605806184   -0.044554650002158885   -0.032555873963046676
-1.9806575069532646   -0.16899324980186115   0.07485713569606403
-1.9806575069532646   -0.16899324980186115   0.07485713569606403
-1.9806575069532646   -0.16899324980186115   0.07485713569606403
-1.9806575069532646   -0.16899324980186115   0.07485713569606403
-1.9127068812692551   -0.13463262059117803   -0.043572463724295574
-1.9127068812692551   -0.13463262059117803   -0.043572463724295574
-1.9127068812692551   -0.13463262059117803   -0.043572463724295574
-1.9127068812692551   -0.13463262059117803   -0.043572463724295574
-1.2343311681566207   0.03539364120693683   0.06882685731623109
-1.2343311681566207   0.03539364120693683   0.06882685731623109
-1.2343311681566207   0.03539364120693683   0.06882685731623109
-1.2343311681566207   0.03539364120693683   0.06882685731623109
-1.5382604802504773   -0.05302453249684064   0.00738125217083202
-1.5382604802504773   -0.05302453249684064   0.00738125217083202
-1.5382604802504773   -0.05302453249684064   0.00738125217083202
-1.5382604802504773   -0.05302453249684064   0.00738125217083202
-1.2630327028535708   -0.0032006059629127726   -0.03608656899865345
-1.2630327028535708   -0.0032006059629127726   -0.03608656899865345
-1.2630327028535708   -0.0032006059629127726   -0.03608656899865345
-1.2630327028535708   -0.0032006059629127726   -0.03608656899865345
-1.8793764534175017   -0.09140948026652251   0.07985653520981559
-1.8793764534175017   -0.09140948026652251   0.07985653520981559
-1.8793764534175017   -0.09140948026652251   0.07985653520981559
-1.8793764534175017   -0.09140948026652251   0.07985653520981559
-1.8398110124751583   -0.11330716161768378   -0.051890141332513295
-1.8398110124751583   -0.11330716161768378   -0.051890141332513295
-1.8398110124751583   -0.11330716161768378   -0.051890141332513295
-1.8398110124751583   -0.11330716161768378   -0.051890141332513295
-1.1890396763907618   0.056641683767816864   0.06645902497017958
-1.1890396763907618   0.056641683767816864   0.06645902497017958
-1.1890396763907618   0.056641683767816864   0.06645902497017958
-1.1890396763907618   0.056641683767816864   0.06645902497017958
-1.4952453552781892   -0.021388952435163755   0.03064340085627379
-1.4952453552781892   -0.021388952435163755   0.03064340085627379
-1.4952453552781892   -0.021388952435163755   0.03064340085627379
-1.4952453552781892   -0.021388952435163755   0.03064340085627379
-1.2187570352688333   0.013487037466339558   -0.03897312311869082
-1.2187570352688333   0.013487037466339558   -0.03897312311869082
-1.2187570352688333   0.013487037466339558   -0.03897312311869082
-1.2187570352688333   0.013487037466339558   -0.03897312311869082
-1.8091562669131673   -0.06921512863229362   0.057291553492032854
-1.8091562669131673   -0.06921512863229362   0.057291553492032854
-1.8091562669131673   -0.06921512863229362   0.057291553492032854
-1.8091562669131673   -0.06921512863229362   0.057291553492032854
-1.7644202227893202   -0.0931674053170028   -0.06271123933606781
-1.7644202227893202   -0.0931674053170028   -0.06271123933606781
-1.7644202227893202   -0.0931674053170028   -0.06271123933606781
-1.7644202227893202   -0.0931674053170028   -0.06271123933606781
-1.1554836534168251   0.08206302856817077   0.05140797137978287
-1.1554836534168251   0.08206302856817077   0.05140797137978287
-1.1554836534168251   0.08206302856817077   0.05140797137978287
-1.1554836534168251   0.08206302856817077   0.05140797137978287
-1.4141745984398482   0.005652916030013555   0.053953221948029595
-1.4141745984398482   0.005652916030013555   0.053953221948029595
-1.4141745984398482   0.005652916030013555   0.053953221948029595
-1.4141745984398482   0.005652916030013555   0.053953221948029595
1.7431963041765535   0.10454271392905412   0.06317627000889554
1.7431963041765535   0.10454271392905412   0.06317627000889554
1.7431963041765535   0.10454271392905412   0.06317627000889554
1.7431963041765535   0.10454271392905412   0.06317627000889554
0.8309629668406173   -0.15560569382708964   0.014117776398747783
0.8309629668406173   -0.15560569382708964   0.014117776398747783
0.8309629668406173   -0.15560569382708964   0.014117776398747783
0.8309629668406173   -0.15560569382708964   0.014117776398747783
0.8768032008356089   -0.06566525608539797   0.048594703204723574
0.8768032008356089   -0.06566525608539797   0.048594703204723574
0.8768032008356089   -0.06566525608539797   0.048594703204723574
0.8768032008356089   -0.06566525608539797   0.048594703204723574
1.7523752755684712   0.014917463863673042   -0.014073003197399223
1.7523752755684712   0.014917463863673042   -0.014073003197399223
1.7523752755684712   0.014917463863673042   -0.014073003197399223
1.7523752755684712   0.014917463863673042   -0.014073003197399223
1.2255588239260924   -0.03341692050750872   -0.08142739115257276
1.2255588239260924   -0.03341692050750872   -0.08142739115257276
1.2255588239260924   -0.03341692050750872   -0.08142739115257276
1.2255588239260924   -0.03341692050750872   -0.08142739115257276
1.7854663606579413   0.11634034371737373   0.04995954239624974
1.7854663606579413   0.11634034371737373   0.04995954239624974
1.7854663606579413   0.11634034371737373   0.04995954239624974
1.7854663606579413   0.11634034371737373   0.04995954239624974
0.8516510563558379   -0.1591491953293997   0.016317920049870302
0.8516510563558379   -0.1591491953293997   0.016317920049870302
0.8516510563558379   -0.1591491953293997   0.016317920049870302
0.8516510563558379   -0.1591491953293997   0.016317920049870302
0.8941638976167622   -0.05580847231400268   0.03697764780192089
0.8941638976167622   -0.05580847231400268   0.03697764780192089
0.8941638976167622   -0.05580847231400268   0.03697764780192089
0.8941638976167622   -0.05580847231400268   0.03697764780192089
1.783066147664139   0.026029661732306975   -0.00431177267640466
1.783066147664139   0.026029661732306975   -0.00431177267640466
1.783066147664139   0.026029661732306975   -0.00431177267640466
1.783066147664139   0.026029661732306975   -0.00431177267640466
1.2760980815275733   -0.02642391094866753   -0.05563084462305026
1.2760980815275733   -0.02642391094866753   -0.05563084462305026
1.2760980815275733   -0.02642391094866753   -0.05563084462305026
1.2760980815275733   -0.02642391094866753   -0.05563084462305026
1.8110645942765733   0.12709846823432508   0.03461165388374868
1.8110645942765733   0.12709846823432508   0.03461165388374868
1.8110645942765733   0.12709846823432508   0.03461165388374868
1.8110645942765733   0.12709846823432508   0.03461165388374868
0.8716879537673462   -0.15135477605300246   0.020144232293840977
0.8716879537673462   -0.15135477605300246   0.020144232293840977
0.8716879537673462   -0.15135477605300246   0.020144232293840977
0.8716879537673462   -0.15135477605300246   0.020144232293840977
0.9197154933908813   -0.017377928751026256   0.03380390058467564
0.9197154933908813   -0.017377928751026256   0.03380390058467564
0.9197154933908813   -0.017377928751026256   0.03380390058467564
0.9197154933908813   -0.017377928751026256   0.03380390058467564
1.8149887645889282   0.05149743612097074   -0.0007152985725206035
1.8149887645889282   0.05149743612097074   -0.0007152985725206035
1.8149887645889282   0.05149743612097074   -0.0007152985725206035
1.8149887645889282   0.05149743612097074   -0.0007152985725206035
1.2823606512954886   -0.012177474423094303   -0.04158853839091957
1.2823606512954886   -0.012177474423094303   -0.04158853839091957
1.2823606512954886   -0.012177474423094303   -0.04158853839091957
1.2823606512954886   -0.012177474423094303   -0.04158853839091957
0.8769836085264208   0.022376212533925105   0.06623907846675056
0.8769836085264208   0.022376212533925105   0.06623907846675056
0.8769836085264208   0.022376212533925105   0.06623907846675056
0.8769836085264208   0.022376212533925105   0.06623907846675056
0.0460395209091994   -0.3098687682875679   0.031790939692833683
0.0460395209091994   -0.3098687682875679   0.031790939692833683
0.0460395209091994   -0.3098687682875679   0.031790939692833683
0.0460395209091994   -0.3098687682875679   0.031790939692833683
0.10576827746666903   -0.13120709472877845   0.02966558444788412
0.10576827746666903   -0.13120709472877845   0.02966558444788412
0.10576827746666903   -0.13120709472877845   0.02966558444788412
0.10576827746666903   -0.13120709472877845   0.02966558444788412
0.8544910902121355   -0.14881303819709563   0.020181932199050234
0.8544910902121355   -0.14881303819709563   0.020181932199050234
0.8544910902121355   -0.14881303819709563   0.020181932199050234
0.8544910902121355   -0.14881303819709563   0.020181932199050234
0.4555280858798035   -0.1388714156949165   -0.052045908604224846
0.4555280858798035   -0.1388714156949165   -0.052045908604224846
0.4555280858798035   -0.1388714156949165   -0.052045908604224846
0.4555280858798035   -0.1388714156949165   -0.052045908604224846
0.8977449836879546   0.03231900158508497   0.055319359795976915
0.8977449836879546   0.03231900158508497   0.055319359795976915
0.8977449836879546   0.03231900158508497   0.055319359795976915
0.8977449836879546   0.03231900158508497   0.055319359795976915
0.0739339689897891   -0.3009195495120381   0.04020649684674593
0.0739339689897891   -0.3009195495120381   0.04020649684674593
0.0739339689897891   -0.3009195495120381   0.04020649684674593
0.0739339689897891   -0.3009195495120381   0.04020649684674593
0.12977908006214528   -0.1132029007674473   0.021495504701102078
0.12977908006214528   -0.1132029007674473   0.021495504701102078
0.12977908006214528   -0.1132029007674473   0.021495504701102078
0.12977908006214528   -0.1132029007674473   0.021495504701102078
0.8750443737599665   -0.1393790553271968   0.024950611531136604
0.8750443737599665   -0.1393790553271968   0.024950611531136604
0.8750443737599665   -0.1393790553271968   0.024950611531136604
0.8750443737599665   -0.1393790553271968   0.024950611531136604
0.47596269588835227   -0.13197581561395766   -0.026024613588215464
0.47596269588835227   -0.13197581561395766   -0.026024613588215464
0.47596269588835227   -0.13197581561395766   -0.026024613588215464
0.47596269588835227   -0.13197581561395766   -0.026024613588215464
0.9171107833370308   0.049287549804291064   0.046616054284969746
0.9171107833370308   0.049287549804291064   0.046616054284969746
0.9171107833370308   0.049287549804291064   0.046616054284969746
0.9171107833370308   0.049287549804291064   0.046616054284969746
0.09869877813581875   -0.2908833982482077   0.0437744925502299
0.09869877813581875   -0.2908833982482077   0.0437744925502299
0.09869877813581875   -0.2908833982482077   0.0437744925502299
0.09869877813581875   -0.2908833982482077   0.0437744925502299
0.16663475614591902   -0.08617547159368902   0.014231136537745673
0.16663475614591902   -0.08617547159368902   0.014231136537745673
0.16663475614591902   -0.08617547159368902   0.014231136537745673
0.16663475614591902   -0.08617547159368902   0.014231136537745673
0.8975375030620204   -0.125040897645022   0.030576917834371123
0.8975375030620204   -0.125040897645022   0.030576917834371123
0.8975375030620204   -0.125040897645022   0.030576917834371123
0.8975375030620204   -0.125040897645022   0.030576917834371123
0.5118089498772718   -0.11527753913993444   0.004259286275706681
0.5118089498772718   -0.11527753913993444   0.004259286275706681
0.5118089498772718   -0.11527753913993444   0.004259286275706681
0.5118089498772718   -0.11527753913993444   0.004259286275706681
0.09839618073810621   -0.05893926124843946   0.04264473179823936
0.09839618073810621   -0.05893926124843946   0.04264473179823936
0.09839618073810621   -0.05893926124843946   0.04264473179823936
0.09839618073810621   -0.05893926124843946   0.04264473179823936
-0.745327883010244   -0.5321938933459346   0.04607684058341423
-0.745327883010244   -0.5321938933459346   0.04607684058341423
-0.745327883010244   -0.5321938933459346   0.04607684058341423
-0.745327883010244   -0.5321938933459346   0.04607684058341423
-0.6509115862048933   -0.20731737043708537   0.0030597972958861103
-0.6509115862048933   -0.20731737043708537   0.0030597972958861103
-0.6509115862048933   -0.20731737043708537   0.0030597972958861103
-0.6509115862048933   -0.20731737043708537   0.0030597972958861103
0.05218553369276757   -0.3870409375478838   0.017585708397484134
0.05218553369276757   -0.3870409375478838   0.017585708397484134
0.05218553369276757   -0.3870409375478838   0.017585708397484134
0.05218553369276757   -0.3870409375478838   0.017585708397484134
-0.32115370698425305   -0.2984956427473837   -0.06245049549758718
-0.32115370698425305   -0.2984956427473837   -0.06245049549758718
-0.32115370698425305   -0.2984956427473837   -0.06245049549758718
-0.32115370698425305   -0.2984956427473837   -0.06245049549758718
0.12353877063285242   -0.046314222848923794   0.033625178398948206
0.12353877063285242   -0.046314222848923794   0.033625178398948206
0.12353877063285242   -0.046314222848923794   0.033625178398948206
0.12353877063285242   -0.046314222848923794   0.033625178398948206
-0.7057347584882839   -0.5315140204793504   0.053140585921202604
-0.7057347584882839   -0.5315140204793504   0.053140585921202604
-0.7057347584882839   -0.5315140204793504   0.053140585921202604
-0.7057347584882839   -0.5315140204793504   0.053140585921202604
-0.614491977390799   -0.18603818977505673   -5.856432170076378e-05
-0.614491977390799   -0.18603818977505673   -5.856432170076378e-05
-0.614491977390799   -0.18603818977505673   -5.856432170076378e-05
-0.614491977390799   -0.18603818977505673   -5.856432170076378e-05
0.07749919823574129   -0.3785085481639242   0.02540174296555915
0.07749919823574129   -0.3785085481639242   0.02540174296555915
0.07749919823574129   -0.3785085481639242   0.02540174296555915
0.07749919823574129   -0.3785085481639242   0.02540174296555915
-0.28426379095652715   -0.28828665423689465   -0.023276598207893406
-0.28426379095652715   -0.28828665423689465   -0.023276598207893406
-0.28426379095652715   -0.28828665423689465   -0.023276598207893406
-0.28426379095652715   -0.28828665423689465   -0.023276598207893406
0.14652595424900003   -0.029514579674309233   0.021541554542237832
0.14652595424900003   -0.029514579674309233   0.021541554542237832
0.14652595424900003   -0.029514579674309233   0.021541554542237832
0.14652595424900003   -0.029514579674309233   0.021541554542237832
-0.6686019720421782   -0.5201153969027903   0.06346866954914789
-0.6686019720421782   -0.5201153969027903   0.06346866954914789
-0.6686019720421782   -0.5201153969027903   0.06346866954914789
-0.6686019720421782   -0.5201153969027903   0.06346866954914789
-0.5543922911961765   -0.1615281303604611   -0.006933754022525862
-0.5543922911961765   -0.1615281303604611   -0.006933754022525862
-0.5543922911961765   -0.1615281303604611   -0.006933754022525862
-0.5543922911961765   -0.1615281303604611   -0.006933754022525862
0.11701307901754567   -0.3547222942283574   0.03466957353054535
0.11701307901754567   -0.3547222942283574   0.03466957353054535
0.11701307901754567   -0.3547222942283574   0.03466957353054535
0.11701307901754567   -0.3547222942283574   0.03466957353054535
-0.23639334772284026   -0.2654572493697238   0.017713541863665735
-0.23639334772284026   -0.2654572493697238   0.017713541863665735
-0.23639334772284026   -0.2654572493697238   0.017713541863665735
-0.23639334772284026   -0.2654572493697238   0.017713541863665735
-0.6653473524586893   -0.10654209844774726   0.020327698442994542
-0.6653473524586893   -0.10654209844774726   0.020327698442994542
-0.6653473524586893   -0.10654209844774726   0.020327698442994542
-0.6653473524586893   -0.10654209844774726   0.020327698442994542
-1.6579447865002714   -0.8283282795977805   -0.03892547891752046
-1.6579447865002714   -0.8283282795977805   -0.03892547891752046
-1.6579447865002714   -0.8283282795977805   -0.03892547891752046
-1.6579447865002714   -0.8283282795977805   -0.03892547891752046
-1.5021452020165162   -0.2697589652473901   -0.04576647074661187
-1.5021452020165162   -0.2697589652473901   -0.04576647074661187
-1.5021452020165162   -0.2697589652473901   -0.04576647074661187
-1.5021452020165162   -0.2697589652473901   -0.04576647074661187
-0.7457564053137286   -0.692426319564398   0.01394465087902308
-0.7457564053137286   -0.692426319564398   0.01394465087902308
-0.7457564053137286   -0.692426319564398   0.01394465087902308
-0.7457564053137286   -0.692426319564398   0.01394465087902308
-1.141511192721285   -0.4899547921922955   -0.06561015996958215
-1.141511192721285   -0.4899547921922955   -0.06561015996958215
-1.141511192721285   -0.4899547921922955   -0.06561015996958215
-1.141511192721285   -0.4899547921922955   -0.06561015996958215
-0.622324846636089   -0.08075531256785826   0.0194314372706813
-0.622324846636089   -0.08075531256785826   0.0194314372706813
-0.622324846636089   -0.08075531256785826   0.0194314372706813
-0.622324846636089   -0.08075531256785826   0.0194314372706813
-1.6217951886503212   -0.8776484002001157   -0.036126968962911316
-1.6217951886503212   -0.8776484002001157   -0.036126968962911316
-1.6217951886503212   -0.8776484002001157   -0.036126968962911316
-1.6217951886503212   -0.8776484002001157   -0.036126968962911316
-1.4536499732631305   -0.2442548505445058   -0.04664234126675944
-1.4536499732631305   -0.2442548505445058   -0.04664234126675944
-1.4536499732631305   -0.2442548505445058   -0.04664234126675944
-1.4536499732631305   -0.2442548505445058   -0.04664234126675944
-0.710438900318549   -0.6869449419887663   0.021113573253266016
-0.710438900318549   -0.6869449419887663   0.021113573253266016
-0.710438900318549   -0.6869449419887663   0.021113573253266016
-0.710438900318549   -0.6869449419887663   0.021113573253266016
-1.0906017641678614   -0.47665796500194474   -0.04596207914191318
-1.0906017641678614   -0.47665796500194474   -0.04596207914191318
-1.0906017641678614   -0.47665796500194474   -0.04596207914191318
-1.0906017641678614   -0.47665796500194474   -0.04596207914191318
-0.5880657121209772   -0.060502179676877085   0.006536751929231154
-0.5880657121209772   -0.060502179676877085   0.006536751929231154
-0.5880657121209772   -0.060502179676877085   0.006536751929231154
-0.5880657121209772   -0.060502179676877085   0.006536751929231154
-1.5759273502222415   -0.8706018016179334   -0.03168227498887702
-1.5759273502222415   -0.8706018016179334   -0.03168227498887702
-1.5759273502222415   -0.8706018016179334   -0.03168227498887702
-1.5759273502222415   -0.8706018016179334   -0.03168227498887702
-1.3779872102054562   -0.2168561442923178   -0.05287657455004144
-1.3779872102054562   -0.2168561442923178   -0.05287657455004144
-1.3779872102054562   -0.2168561442923178   -0.05287657455004144
-1.3779872102054562   -0.2168561442923178   -0.05287657455004144
-0.6340278309093796   -0.6175384667543841   0.05089888380538843
-0.6340278309093796   -0.6175384667543841   0.05089888380538843
-0.6340278309093796   -0.6175384667543841   0.05089888380538843
-0.6340278309093796   -0.6175384667543841   0.05089888380538843
-1.033827560849486   -0.431964730253231   -0.025496131299263973
-1.033827560849486   -0.431964730253231   -0.025496131299263973
-1.033827560849486   -0.431964730253231   -0.025496131299263973
-1.033827560849486   -0.431964730253231   -0.025496131299263973
-1.5047763755647492   -0.09089232619242393   -0.010519377645265199
-1.5047763755647492   -0.09089232619242393   -0.010519377645265199
-1.5047763755647492   -0.09089232619242393   -0.010519377645265199
-1.5047763755647492   -0.09089232619242393   -0.010519377645265199
-2.6549879004218324   -0.5255782873087151   0.02709646387825715
-2.6549879004218324   -0.5255782873087151   0.02709646387825715
-2.6549879004218324   -0.5255782873087151   0.02709646387825715
-2.6549879004218324   -0.5255782873087151   0.02709646387825715
-2.550537026640457   -0.25278846417633005   -0.055877811116267356
-2.550537026640457   -0.25278846417633005   -0.055877811116267356
-2.550537026640457   -0.25278846417633005   -0.055877811116267356
-2.550537026640457   -0.25278846417633005   -0.055877811116267356
-1.4716198124913236   -0.2724197168098955   0.10952122844184614
-1.4716198124913236   -0.2724197168098955   0.10952122844184614
-1.4716198124913236   -0.2724197168098955   0.10952122844184614
-1.4716198124913236   -0.2724197168098955   0.10952122844184614
-1.9626332763726047   -0.30480305091150367   0.028026425939312802
-1.9626332763726047   -0.30480305091150367   0.028026425939312802
-1.9626332763726047   -0.30480305091150367   0.028026425939312802
-1.9626332763726047   -0.30480305091150367   0.028026425939312802
-1.4429798145558546   -0.02003429939524648   0.00033580070454833355
-1.4429798145558546   -0.02003429939524648   0.00033580070454833355
-1.4429798145558546   -0.02003429939524648   0.00033580070454833355
-1.4429798145558546   -0.02003429939524648   0.00033580070454833355
-2.5891056569841697   -0.5151025139992258   0.013593086988040626
-2.5891056569841697   -0.5151025139992258   0.013593086988040626
-2.5891056569841697   -0.5151025139992258   0.013593086988040626
-2.5891056569841697   -0.5151025139992258   0.013593086988040626
-2.493058307653955   -0.23163899520384545   -0.07092573862493845
-2.493058307653955   -0.23163899520384545   -0.07092573862493845
-2.493058307653955   -0.23163899520384545   -0.07092573862493845
-2.493058307653955   -0.23163899520384545   -0.07092573862493845
-1.421700108554539   -0.2588079961371397   0.12766012786884073
-1.421700108554539   -0.2588079961371397   0.12766012786884073
-1.421700108554539   -0.2588079961371397   0.12766012786884073
-1.421700108554539   -0.2588079961371397   0.12766012786884073
-1.9323417165571175   -0.2510430706832777   0.02696519561321007
-1.9323417165571175   -0.2510430706832777   0.02696519561321007
-1.9323417165571175   -0.2510430706832777   0.02696519561321007
-1.9323417165571175   -0.2510430706832777   0.02696519561321007
-1.3985089525561305   -0.0013186617621200325   -0.013873426514136034
-1.3985089525561305   -0.0013186617621200325   -0.013873426514136034
-1.3985089525561305   -0.0013186617621200325   -0.013873426514136034
-1.3985089525561305   -0.0013186617621200325   -0.013873426514136034
-2.5198777470764746   -0.4927566130029798   0.05609468206157553
-2.5198777470764746   -0.4927566130029798   0.05609468206157553
-2.5198777470764746   -0.4927566130029798   0.05609468206157553
-2.5198777470764746   -0.4927566130029798   0.05609468206157553
-2.3736933679356578   -0.18772403834245155   -0.07931764865449609
-2.3736933679356578   -0.18772403834245155   -0.07931764865449609
-2.3736933679356578   -0.18772403834245155   -0.07931764865449609
-2.3736933679356578   -0.18772403834245155   -0.07931764865449609
-1.344038641769108   -0.24067141973828565   0.14068154307767955
-1.344038641769108   -0.24067141973828565   0.14068154307767955
-1.344038641769108   -0.24067141973828565   0.14068154307767955
-1.344038641769108   -0.24067141973828565   0.14068154307767955
-1.8168121762150626   -0.1919292984907243   0.05536294795672347
-1.8168121762150626   -0.1919292984907243   0.05536294795672347
-1.8168121762150626   -0.1919292984907243   0.05536294795672347
-1.8168121762150626   -0.1919292984907243   0.05536294795672347
1.9093415409346308   0.06261855951310741   0.02686046900571956
1.9093415409346308   0.06261855951310741   0.02686046900571956
1.9093415409346308   0.06261855951310741   0.02686046900571956
1.9093415409346308   0.06261855951310741   0.02686046900571956
0.9748352583704943   -0.05137565961796456   0.019746650172680125
0.9748352583704943   -0.05137565961796456   0.019746650172680125
0.9748352583704943   -0.05137565961796456   0.019746650172680125
0.9748352583704943   -0.05137565961796456   0.019746650172680125
0.9367679157332204   -0.13761398591183335   0.03887710776031965
0.9367679157332204   -0.13761398591183335   0.03887710776031965
0.9367679157332204   -0.13761398591183335   0.03887710776031965
0.9367679157332204   -0.13761398591183335   0.03887710776031965
1.8954841119053398   0.1067938632214227   0.014283910192188387
1.8954841119053398   0.1067938632214227   0.014283910192188387
1.8954841119053398   0.1067938632214227   0.014283910192188387
1.8954841119053398   0.1067938632214227   0.014283910192188387
1.352941863705293   -0.0192006624253917   -0.049963682420901226
1.352941863705293   -0.0192006624253917   -0.049963682420901226
1.352941863705293   -0.0192006624253917   -0.049963682420901226
1.352941863705293   -0.0192006624253917   -0.049963682420901226
1.8850556399233986   0.048379350062432935   0.020556063441472497
1.8850556399233986   0.048379350062432935   0.020556063441472497
1.8850556399233986   0.048379350062432935   0.020556063441472497
1.8850556399233986   0.048379350062432935   0.020556063441472497
0.9440826725097266   -0.08231318795827841   0.020150093689296183
0.9440826725097266   -0.08231318795827841   0.020150093689296183
0.9440826725097266   -0.08231318795827841   0.020150093689296183
0.9440826725097266   -0.08231318795827841   0.020150093689296183
0.9124895767396598   -0.14079188049875524   0.03215708709276359
0.9124895767396598   -0.14079188049875524   0.03215708709276359
0.9124895767396598   -0.14079188049875524   0.03215708709276359
0.9124895767396598   -0.14079188049875524   0.03215708709276359
1.8732996504445485   0.1021698960564516   0.024732167196872504
1.8732996504445485   0.1021698960564516   0.024732167196872504
1.8732996504445485   0.1021698960564516   0.024732167196872504
1.8732996504445485   0.1021698960564516   0.024732167196872504
1.3489183789791244   -0.026486135425047574   -0.05783016133584887
1.3489183789791244   -0.026486135425047574   -0.05783016133584887
1.3489183789791244   -0.026486135425047574   -0.05783016133584887
1.3489183789791244   -0.026486135425047574   -0.05783016133584887
1.8577619997766135   0.04306162389400753   0.006152186019623793
1.8577619997766135   0.04306162389400753   0.006152186019623793
1.8577619997766135   0.04306162389400753   0.006152186019623793
1.8577619997766135   0.04306162389400753   0.006152186019623793
0.9224335739551008   -0.08727726178880812   0.02836245446002149
0.9224335739551008   -0.08727726178880812   0.02836245446002149
0.9224335739551008   -0.08727726178880812   0.02836245446002149
0.9224335739551008   -0.08727726178880812   0.02836245446002149
0.8868773263437252   -0.12842831188502338   0.027767399642711812
0.8868773263437252   -0.12842831188502338   0.027767399642711812
0.8868773263437252   -0.12842831188502338   0.027767399642711812
0.8868773263437252   -0.12842831188502338   0.027767399642711812
1.8391152946255211   0.10333024972582672   0.03557769303575549
1.8391152946255211   0.10333024972582672   0.03557769303575549
1.8391152946255211   0.10333024972582672   0.03557769303575549
1.8391152946255211   0.10333024972582672   0.03557769303575549
1.2982449570841248   -0.026686797079698288   -0.07807355426027522
1.2982449570841248   -0.026686797079698288   -0.07807355426027522
1.2982449570841248   -0.026686797079698288   -0.07807355426027522
1.2982449570841248   -0.026686797079698288   -0.07807355426027522
0.9661821395628536   -0.12264779432675124   0.047753190843262724
0.9661821395628536   -0.12264779432675124   0.047753190843262724
0.9661821395628536   -0.12264779432675124   0.047753190843262724
0.9661821395628536   -0.12264779432675124   0.047753190843262724
0.18749491042349575   -0.11505412823757968   0.010205718166424543
0.18749491042349575   -0.11505412823757968   0.010205718166424543
0.18749491042349575   -0.11505412823757968   0.010205718166424543
0.18749491042349575   -0.11505412823757968   0.010205718166424543
0.12184716418209365   -0.289159339002022   0.051094354204521714
0.12184716418209365   -0.289159339002022   0.051094354204521714
0.12184716418209365   -0.289159339002022   0.051094354204521714
0.12184716418209365   -0.289159339002022   0.051094354204521714
0.9714329623787864   0.037705860148654485   0.03688249492766234
0.9714329623787864   0.037705860148654485   0.03688249492766234
0.9714329623787864   0.037705860148654485   0.03688249492766234
0.9714329623787864   0.037705860148654485   0.03688249492766234
0.5531045997960429   -0.1227793926991769   -0.002127420421904974
0.5531045997960429   -0.1227793926991769   -0.002127420421904974
0.5531045997960429   -0.1227793926991769   -0.002127420421904974
0.5531045997960429   -0.1227793926991769   -0.002127420421904974
0.9389252973942632   -0.12796048097478446   0.04001051112847842
0.9389252973942632   -0.12796048097478446   0.04001051112847842
0.9389252973942632   -0.12796048097478446   0.04001051112847842
0.9389252973942632   -0.12796048097478446   0.04001051112847842
0.14614434529864506   -0.13170348174654578   0.015124402531802472
0.14614434529864506   -0.13170348174654578   0.015124402531802472
0.14614434529864506   -0.13170348174654578   0.015124402531802472
0.14614434529864506   -0.13170348174654578   0.015124402531802472
0.09244021687363997   -0.29174133098490074   0.04574339012894356
0.09244021687363997   -0.29174133098490074   0.04574339012894356
0.09244021687363997   -0.29174133098490074   0.04574339012894356
0.09244021687363997   -0.29174133098490074   0.04574339012894356
0.9490437513365295   0.030442610443370155   0.04369346913498648
0.9490437513365295   0.030442610443370155   0.04369346913498648
0.9490437513365295   0.030442610443370155   0.04369346913498648
0.9490437513365295   0.030442610443370155   0.04369346913498648
0.5131631008213842   -0.130859023177891   -0.02651051727493786
0.5131631008213842   -0.130859023177891   -0.02651051727493786
0.5131631008213842   -0.130859023177891   -0.02651051727493786
0.5131631008213842   -0.130859023177891   -0.02651051727493786
0.9148793572358319   -0.12978279926939948   0.03309690834425792
0.9148793572358319   -0.12978279926939948   0.03309690834425792
0.9148793572358319   -0.12978279926939948   0.03309690834425792
0.9148793572358319   -0.12978279926939948   0.03309690834425792
0.11768145531745874   -0.1404390769290116   0.020647328292148395
0.11768145531745874   -0.1404390769290116   0.020647328292148395
0.11768145531745874   -0.1404390769290116   0.020647328292148395
0.11768145531745874   -0.1404390769290116   0.020647328292148395
0.059535184908258335   -0.2915969313872674   0.03579906727690628
0.059535184908258335   -0.2915969313872674   0.03579906727690628
0.059535184908258335   -0.2915969313872674   0.03579906727690628
0.059535184908258335   -0.2915969313872674   0.03579906727690628
0.9236341841390754   0.030887789899887608   0.052235586834555536
0.9236341841390754   0.030887789899887608   0.052235586834555536
0.9236341841390754   0.030887789899887608   0.052235586834555536
0.9236341841390754   0.030887789899887608   0.052235586834555536
0.48877275966949213   -0.1298515249833863   -0.04724876604880126
0.48877275966949213   -0.1298515249833863   -0.04724876604880126
0.48877275966949213   -0.1298515249833863   -0.04724876604880126
0.48877275966949213   -0.1298515249833863   -0.04724876604880126
0.1461309650163467   -0.35454259939889987   0.042874462291997525
0.1461309650163467   -0.35454259939889987   0.042874462291997525
0.1461309650163467   -0.35454259939889987   0.042874462291997525
0.1461309650163467   -0.35454259939889987   0.042874462291997525
-0.5694231497729878   -0.17850964175712317   0.000622121498719673
-0.5694231497729878   -0.17850964175712317   0.000622121498719673
-0.5694231497729878   -0.17850964175712317   0.000622121498719673
-0.5694231497729878   -0.17850964175712317   0.000622121498719673
-0.6881896387624575   -0.5269213126020771   0.05855900558174304
-0.6881896387624575   -0.5269213126020771   0.05855900558174304
-0.6881896387624575   -0.5269213126020771   0.05855900558174304
-0.6881896387624575   -0.5269213126020771   0.05855900558174304
0.16810959033393805   -0.03007694486192427   0.023324090823644082
0.16810959033393805   -0.03007694486192427   0.023324090823644082
0.16810959033393805   -0.03007694486192427   0.023324090823644082
0.16810959033393805   -0.03007694486192427   0.023324090823644082
-0.2326905703006469   -0.26867451855515045   0.010105793692637983
-0.2326905703006469   -0.26867451855515045   0.010105793692637983
-0.2326905703006469   -0.26867451855515045   0.010105793692637983
-0.2326905703006469   -0.26867451855515045   0.010105793692637983
0.10068029765323233   -0.37469915826970757   0.030799840827900687
0.10068029765323233   -0.37469915826970757   0.030799840827900687
0.10068029765323233   -0.37469915826970757   0.030799840827900687
0.10068029765323233   -0.37469915826970757   0.030799840827900687
-0.6322513014030416   -0.1937900545155745   0.005119434292311362
-0.6322513014030416   -0.1937900545155745   0.005119434292311362
-0.6322513014030416   -0.1937900545155745   0.005119434292311362
-0.6322513014030416   -0.1937900545155745   0.005119434292311362
-0.7291493973812867   -0.535381795242445   0.04768410318998313
-0.7291493973812867   -0.535381795242445   0.04768410318998313
-0.7291493973812867   -0.535381795242445   0.04768410318998313
-0.7291493973812867   -0.535381795242445   0.04768410318998313
0.14055575631520661   -0.038139687277123226   0.0327194436289993
0.14055575631520661   -0.038139687277123226   0.0327194436289993
0.14055575631520661   -0.038139687277123226   0.0327194436289993
0.14055575631520661   -0.038139687277123226   0.0327194436289993
-0.283874082137454   -0.28500793332291535   -0.024081311206606705
-0.283874082137454   -0.28500793332291535   -0.024081311206606705
-0.283874082137454   -0.28500793332291535   -0.024081311206606705
-0.283874082137454   -0.28500793332291535   -0.024081311206606705
0.06935608342995807   -0.3812510344442217   0.01983242636985498
0.06935608342995807   -0.3812510344442217   0.01983242636985498
0.06935608342995807   -0.3812510344442217   0.01983242636985498
0.06935608342995807   -0.3812510344442217   0.01983242636985498
-0.671619373691437   -0.2059400972707463   0.0058925236675274086
-0.671619373691437   -0.2059400972707463   0.0058925236675274086
-0.671619373691437   -0.2059400972707463   0.0058925236675274086
-0.671619373691437   -0.2059400972707463   0.0058925236675274086
-0.7735399971335545   -0.531735411856667   0.04015706154009731
-0.7735399971335545   -0.531735411856667   0.04015706154009731
-0.7735399971335545   -0.531735411856667   0.04015706154009731
-0.7735399971335545   -0.531735411856667   0.04015706154009731
0.10989861552797316   -0.04263273894320208   0.03865202793141319
0.10989861552797316   -0.04263273894320208   0.03865202793141319
0.10989861552797316   -0.04263273894320208   0.03865202793141319
0.10989861552797316   -0.04263273894320208   0.03865202793141319
-0.3254020991012351   -0.2912149761532216   -0.058233691717144126
-0.3254020991012351   -0.2912149761532216   -0.058233691717144126
-0.3254020991012351   -0.2912149761532216   -0.058233691717144126
-0.3254020991012351   -0.2912149761532216   -0.058233691717144126
-0.6452098926513341   -0.6078003766454297   0.05097914199529638
-0.6452098926513341   -0.6078003766454297   0.05097914199529638
-0.6452098926513341   -0.6078003766454297   0.05097914199529638
-0.6452098926513341   -0.6078003766454297   0.05097914199529638
-1.429916395757802   -0.22223865876855284   -0.03310903727184187
-1.429916395757802   -0.22223865876855284   -0.03310903727184187
-1.429916395757802   -0.22223865876855284   -0.03310903727184187
-1.429916395757802   -0.22223865876855284   -0.03310903727184187
-1.6374729206886598   -0.88269962789826   -0.045705375415293986
-1.6374729206886598   -0.88269962789826   -0.045705375415293986
-1.6374729206886598   -0.88269962789826   -0.045705375415293986
-1.6374729206886598   -0.88269962789826   -0.045705375415293986
-0.6004522002850331   -0.04982779531746247   0.020152680684242755
-0.6004522002850331   -0.04982779531746247   0.020152680684242755
-0.6004522002850331   -0.04982779531746247   0.020152680684242755
-0.6004522002850331   -0.04982779531746247   0.020152680684242755
-1.067930131507183   -0.42351878082351924   -0.036432216834363006
-1.067930131507183   -0.42351878082351924   -0.036432216834363006
-1.067930131507183   -0.42351878082351924   -0.036432216834363006
-1.067930131507183   -0.42351878082351924   -0.036432216834363006
-0.7287617601100842   -0.6883840862093162   0.017161172450849
-0.7287617601100842   -0.6883840862093162   0.017161172450849
-0.7287617601100842   -0.6883840862093162   0.017161172450849
-0.7287617601100842   -0.6883840862093162   0.017161172450849
-1.5058890548834407   -0.2408690310262368   -0.029616643261221345
-1.5058890548834407   -0.2408690310262368   -0.029616643261221345
-1.5058890548834407   -0.2408690310262368   -0.029616643261221345
-1.5058890548834407   -0.2408690310262368   -0.029616643261221345
-1.6861943401467592   -0.896889758801559   -0.05285507098248751
-1.6861943401467592   -0.896889758801559   -0.05285507098248751
-1.6861943401467592   -0.896889758801559   -0.05285507098248751
-1.6861943401467592   -0.896889758801559   -0.05285507098248751
-0.6382075099525287   -0.06306204866183884   0.030073793753161084
-0.6382075099525287   -0.06306204866183884   0.030073793753161084
-0.6382075099525287   -0.06306204866183884   0.030073793753161084
-0.6382075099525287   -0.06306204866183884   0.030073793753161084
-1.1274721133982326   -0.4692534655118473   -0.05159379938593349
-1.1274721133982326   -0.4692534655118473   -0.05159379938593349
-1.1274721133982326   -0.4692534655118473   -0.05159379938593349
-1.1274721133982326   -0.4692534655118473   -0.05159379938593349
-0.7706408803113167   -0.7018658949820809   0.006710788279461283
-0.7706408803113167   -0.7018658949820809   0.006710788279461283
-0.7706408803113167   -0.7018658949820809   0.006710788279461283
-0.7706408803113167   -0.7018658949820809   0.006710788279461283
-1.5539880258976362   -0.25831296859098507   -0.030400289947462182
-1.5539880258976362   -0.25831296859098507   -0.030400289947462182
-1.5539880258976362   -0.25831296859098507   -0.030400289947462182
-1.5539880258976362   -0.25831296859098507   -0.030400289947462182
-1.7277474899501648   -0.8583826706727018   -0.059602476745415356
-1.7277474899501648   -0.8583826706727018   -0.059602476745415356
-1.7277474899501648   -0.8583826706727018   -0.059602476745415356
-1.7277474899501648   -0.8583826706727018   -0.059602476745415356
-0.686004287632937   -0.08175280262239182   0.027852999808897945
-0.686004287632937   -0.08175280262239182   0.027852999808897945
-0.686004287632937   -0.08175280262239182   0.027852999808897945
-0.686004287632937   -0.08175280262239182   0.027852999808897945
-1.1823169255542307   -0.48484353318489176   -0.06608947634914555
-1.1823169255542307   -0.48484353318489176   -0.06608947634914555
-1.1823169255542307   -0.48484353318489176   -0.06608947634914555
-1.1823169255542307   -0.48484353318489176   -0.06608947634914555
-1.4047384144157737   -0.25569936729100834   0.12624157796073204
-1.4047384144157737   -0.25569936729100834   0.12624157796073204
-1.4047384144157737   -0.25569936729100834   0.12624157796073204
-1.4047384144157737   -0.25569936729100834   0.12624157796073204
-2.4733729572184244   -0.1850502159340533   -0.04390056900574314
-2.4733729572184244   -0.1850502159340533   -0.04390056900574314
-2.4733729572184244   -0.1850502159340533   -0.04390056900574314
-2.4733729572184244   -0.1850502159340533   -0.04390056900574314
-2.624788565688363   -0.5180284536253477   0.03464629756162452
-2.624788565688363   -0.5180284536253477   0.03464629756162452
-2.624788565688363   -0.5180284536253477   0.03464629756162452
-2.624788565688363   -0.5180284536253477   0.03464629756162452
-1.4451250211416273   0.020864604180408086   0.012469890241184514
-1.4451250211416273   0.020864604180408086   0.012469890241184514
-1.4451250211416273   0.020864604180408086   0.012469890241184514
-1.4451250211416273   0.020864604180408086   0.012469890241184514
-1.8923798616288083   -0.18196994824615284   0.038028748172650444
-1.8923798616288083   -0.18196994824615284   0.038028748172650444
-1.8923798616288083   -0.18196994824615284   0.038028748172650444
-1.8923798616288083   -0.18196994824615284   0.038028748172650444
-1.4842794253601679   -0.2744528253385472   0.11201529866743187
-1.4842794253601679   -0.2744528253385472   0.11201529866743187
-1.4842794253601679   -0.2744528253385472   0.11201529866743187
-1.4842794253601679   -0.2744528253385472   0.11201529866743187
-2.579013378771457   -0.21609024140802463   -0.038415980071149256
-2.579013378771457   -0.21609024140802463   -0.038415980071149256
-2.579013378771457   -0.21609024140802463   -0.038415980071149256
-2.579013378771457   -0.21609024140802463   -0.038415980071149256
-2.689027437769985   -0.5400829591956797   -0.01138735820841319
-2.689027437769985   -0.5400829591956797   -0.01138735820841319
-2.689027437769985   -0.5400829591956797   -0.01138735820841319
-2.689027437769985   -0.5400829591956797   -0.01138735820841319
-1.490472971998255   0.006018026197830428   0.02284398476062882
-1.490472971998255   0.006018026197830428   0.02284398476062882
-1.490472971998255   0.006018026197830428   0.02284398476062882
-1.490472971998255   0.006018026197830428   0.02284398476062882
-2.005565252771702   -0.24022596251050438   0.015657875948264954
-2.005565252771702   -0.24022596251050438   0.015657875948264954
-2.005565252771702   -0.24022596251050438   0.015657875948264954
-2.005565252771702   -0.24022596251050438   0.015657875948264954
-1.5353772059390638   -0.2885060607807747   0.09284690203519025
-1.5353772059390638   -0.2885060607807747   0.09284690203519025
-1.5353772059390638   -0.2885060607807747   0.09284690203519025
-1.5353772059390638   -0.2885060607807747   0.09284690203519025
-2.6308218798154006   -0.23225754820329148   -0.028184979427834544
-2.6308218798154006   -0.23225754820329148   -0.028184979427834544
-2.6308218798154006   -0.23225754820329148   -0.028184979427834544
-2.6308218798154006   -0.23225754820329148   -0.028184979427834544
-2.7449057125494654   -0.5490136043712275   -0.00016230930667215926
-2.7449057125494654   -0.5490136043712275   -0.00016230930667215926
-2.7449057125494654   -0.5490136043712275   -0.00016230930667215926
-2.7449057125494654   -0.5490136043712275   -0.00016230930667215926
-1.5541549096916025   -0.05937597761437391   0.009353731489067554
-1.5541549096916025   -0.05937597761437391   0.009353731489067554
-1.5541549096916025   -0.05937597761437391   0.009353731489067554
-1.5541549096916025   -0.05937597761437391   0.009353731489067554
-2.0299702799928347   -0.29024718663098414   0.0247150089047554
-2.0299702799928347   -0.29024718663098414   0.0247150089047554
-2.0299702799928347   -0.29024718663098414   0.0247150089047554
-2.0299702799928347   -0.29024718663098414   0.0247150089047554
1.6723823688548995   0.07692228149159508   -0.03631075476386558
1.6723823688548995   0.07692228149159508   -0.03631075476386558
1.6723823688548995   0.07692228149159508   -0.03631075476386558
1.6723823688548995   0.07692228149159508   -0.03631075476386558
0.8417618238458603   -0.016965384594041844   0.017862063952155283
0.8417618238458603   -0.016965384594041844   0.017862063952155283
0.8417618238458603   -0.016965384594041844   0.017862063952155283
0.8417618238458603   -0.016965384594041844   0.017862063952155283
0.7882043741948397   -0.12393723469467346   -0.03209184167779219
0.7882043741948397   -0.12393723469467346   -0.03209184167779219
0.7882043741948397   -0.12393723469467346   -0.03209184167779219
0.7882043741948397   -0.12393723469467346   -0.03209184167779219
1.6530162933455799   0.12072969428027783   0.02089840360523606
1.6530162933455799   0.12072969428027783   0.02089840360523606
1.6530162933455799   0.12072969428027783   0.02089840360523606
1.6530162933455799   0.12072969428027783   0.02089840360523606
1.1739019649409748   0.002879931172738326   -0.04534535858192153
1.1739019649409748   0.002879931172738326   -0.04534535858192153
1.1739019649409748   0.002879931172738326   -0.04534535858192153
1.1739019649409748   0.002879931172738326   -0.04534535858192153
1.6259003366034683   0.04269165746467091   -0.036643343289699204
1.6259003366034683   0.04269165746467091   -0.036643343289699204
1.6259003366034683   0.04269165746467091   -0.036643343289699204
1.6259003366034683   0.04269165746467091   -0.036643343289699204
0.8138143713628214   -0.04740515745319493   0.019426066920630557
0.8138143713628214   -0.04740515745319493   0.019426066920630557
0.8138143713628214   -0.04740515745319493   0.019426066920630557
0.8138143713628214   -0.04740515745319493   0.019426066920630557
0.7593672115249519   -0.13086364307297416   -0.02650308953059828
0.7593672115249519   -0.13086364307297416   -0.02650308953059828
0.7593672115249519   -0.13086364307297416   -0.02650308953059828
0.7593672115249519   -0.13086364307297416   -0.02650308953059828
1.6129569807743378   0.11091534129414413   0.0305498167873667
1.6129569807743378   0.11091534129414413   0.0305498167873667
1.6129569807743378   0.11091534129414413   0.0305498167873667
1.6129569807743378   0.11091534129414413   0.0305498167873667
1.1581537195014933   -0.01174969137757309   -0.05413165941331037
1.1581537195014933   -0.01174969137757309   -0.05413165941331037
1.1581537195014933   -0.01174969137757309   -0.05413165941331037
1.1581537195014933   -0.01174969137757309   -0.05413165941331037
1.585641087034943   0.03389073984338631   -0.02900505045884859
1.585641087034943   0.03389073984338631   -0.02900505045884859
1.585641087034943   0.03389073984338631   -0.02900505045884859
1.585641087034943   0.03389073984338631   -0.02900505045884859
0.7845937816814761   -0.055928365205076574   0.024694483384124992
0.7845937816814761   -0.055928365205076574   0.024694483384124992
0.7845937816814761   -0.055928365205076574   0.024694483384124992
0.7845937816814761   -0.055928365205076574   0.024694483384124992
0.7314376208799331   -0.1289552920727914   -0.018172342211808704
0.7314376208799331   -0.1289552920727914   -0.018172342211808704
0.7314376208799331   -0.1289552920727914   -0.018172342211808704
0.7314376208799331   -0.1289552920727914   -0.018172342211808704
1.5633558946508959   0.10424588712644134   0.03974993351463943
1.5633558946508959   0.10424588712644134   0.03974993351463943
1.5633558946508959   0.10424588712644134   0.03974993351463943
1.5633558946508959   0.10424588712644134   0.03974993351463943
1.100864793346364   -0.020502516427381323   -0.07110079210347138
1.100864793346364   -0.020502516427381323   -0.07110079210347138
1.100864793346364   -0.020502516427381323   -0.07110079210347138
1.100864793346364   -0.020502516427381323   -0.07110079210347138
0.8463306745454348   0.016183389603932757   0.007557543252047667
0.8463306745454348   0.016183389603932757   0.007557543252047667
0.8463306745454348   0.016183389603932757   0.007557543252047667
0.8463306745454348   0.016183389603932757   0.007557543252047667
0.08142186983144614   -0.050707209639568165   -0.0019237241178394898
0.08142186983144614   -0.050707209639568165   -0.0019237241178394898
0.08142186983144614   -0.050707209639568165   -0.0019237241178394898
0.08142186983144614   -0.050707209639568165   -0.0019237241178394898
0.030954165330500022   -0.1639424159244448   -0.030880088389547627
0.030954165330500022   -0.1639424159244448   -0.030880088389547627
0.030954165330500022   -0.1639424159244448   -0.030880088389547627
0.030954165330500022   -0.1639424159244448   -0.030880088389547627
0.8473395341412189   0.09773003369115611   0.04191668966826659
0.8473395341412189   0.09773003369115611   0.04191668966826659
0.8473395341412189   0.09773003369115611   0.04191668966826659
0.8473395341412189   0.09773003369115611   0.04191668966826659
0.44322568794392847   -0.02303328583920647   -0.01757126245815759
0.44322568794392847   -0.02303328583920647   -0.01757126245815759
0.44322568794392847   -0.02303328583920647   -0.01757126245815759
0.44322568794392847   -0.02303328583920647   -0.01757126245815759
0.8226332564843626   0.003160405832721952   0.01295492924242346
0.8226332564843626   0.003160405832721952   0.01295492924242346
0.8226332564843626   0.003160405832721952   0.01295492924242346
0.8226332564843626   0.003160405832721952   0.01295492924242346
0.05659734734592588   -0.06843588370744035   0.001829289470577273
0.05659734734592588   -0.06843588370744035   0.001829289470577273
0.05659734734592588   -0.06843588370744035   0.001829289470577273
0.05659734734592588   -0.06843588370744035   0.001829289470577273
0.003149270251112335   -0.1717726696108097   -0.021488450050556857
0.003149270251112335   -0.1717726696108097   -0.021488450050556857
0.003149270251112335   -0.1717726696108097   -0.021488450050556857
0.003149270251112335   -0.1717726696108097   -0.021488450050556857
0.81681494960426   0.08363728644450948   0.04623467134845917
0.81681494960426   0.08363728644450948   0.04623467134845917
0.81681494960426   0.08363728644450948   0.04623467134845917
0.81681494960426   0.08363728644450948   0.04623467134845917
0.41122792032249655   -0.036004316419801216   -0.024878594253136224
0.41122792032249655   -0.036004316419801216   -0.024878594253136224
0.41122792032249655   -0.036004316419801216   -0.024878594253136224
0.41122792032249655   -0.036004316419801216   -0.024878594253136224
0.7934968307106949   -0.005624329036459819   0.01890569236160996
0.7934968307106949   -0.005624329036459819   0.01890569236160996
0.7934968307106949   -0.005624329036459819   0.01890569236160996
0.7934968307106949   -0.005624329036459819   0.01890569236160996
0.02633515003698315   -0.08264329323753354   0.005311572505521077
0.02633515003698315   -0.08264329323753354   0.005311572505521077
0.02633515003698315   -0.08264329323753354   0.005311572505521077
0.02633515003698315   -0.08264329323753354   0.005311572505521077
-0.02670060698633295   -0.17255681192570727   -0.01465263116794907
-0.02670060698633295   -0.17255681192570727   -0.01465263116794907
-0.02670060698633295   -0.17255681192570727   -0.01465263116794907
-0.02670060698633295   -0.17255681192570727   -0.01465263116794907
0.7860179443328861   0.07467416168728842   0.05109982129288039
0.7860179443328861   0.07467416168728842   0.05109982129288039
0.7860179443328861   0.07467416168728842   0.05109982129288039
0.7860179443328861   0.07467416168728842   0.05109982129288039
0.386191592097289   -0.041178680406459625   -0.031158763089356497
0.386191592097289   -0.041178680406459625   -0.031158763089356497
0.386191592097289   -0.041178680406459625   -0.031158763089356497
0.386191592097289   -0.041178680406459625   -0.031158763089356497
0.08298898665518958   -0.04759225724914144   0.002796907610450955
0.08298898665518958   -0.04759225724914144   0.002796907610450955
0.08298898665518958   -0.04759225724914144   0.002796907610450955
0.08298898665518958   -0.04759225724914144   0.002796907610450955
-0.6535334203971408   -0.07553093565299827   -0.020562954372732044
-0.6535334203971408   -0.07553093565299827   -0.020562954372732044
-0.6535334203971408   -0.07553093565299827   -0.020562954372732044
-0.6535334203971408   -0.07553093565299827   -0.020562954372732044
-0.7096398180920519   -0.21732864736934637   -0.0351850132875378
-0.7096398180920519   -0.21732864736934637   -0.0351850132875378
-0.7096398180920519   -0.21732864736934637   -0.0351850132875378
-0.7096398180920519   -0.21732864736934637   -0.0351850132875378
0.08904661926646806   0.07158091472397443   0.024058850641873415
0.08904661926646806   0.07158091472397443   0.024058850641873415
0.08904661926646806   0.07158091472397443   0.024058850641873415
0.08904661926646806   0.07158091472397443   0.024058850641873415
-0.29866649569052217   -0.06399845055861104   -0.017441039258194655
-0.29866649569052217   -0.06399845055861104   -0.017441039258194655
-0.29866649569052217   -0.06399845055861104   -0.017441039258194655
-0.29866649569052217   -0.06399845055861104   -0.017441039258194655
0.062096448194763385   -0.053138841210842384   0.014027751218166816
0.062096448194763385   -0.053138841210842384   0.014027751218166816
0.062096448194763385   -0.053138841210842384   0.014027751218166816
0.062096448194763385   -0.053138841210842384   0.014027751218166816
-0.6806271246919141   -0.09054636910608621   -0.016903824550108942
-0.6806271246919141   -0.09054636910608621   -0.016903824550108942
-0.6806271246919141   -0.09054636910608621   -0.016903824550108942
-0.6806271246919141   -0.09054636910608621   -0.016903824550108942
-0.7422473074436959   -0.22590472912212978   -0.023302701837130926
-0.7422473074436959   -0.22590472912212978   -0.023302701837130926
-0.7422473074436959   -0.22590472912212978   -0.023302701837130926
-0.7422473074436959   -0.22590472912212978   -0.023302701837130926
0.05854118032767663   0.05649433159419953   0.027204099127255396
0.05854118032767663   0.05649433159419953   0.027204099127255396
0.05854118032767663   0.05649433159419953   0.027204099127255396
0.05854118032767663   0.05649433159419953   0.027204099127255396
-0.32564176950036566   -0.07298280063695493   -0.02092042384465884
-0.32564176950036566   -0.07298280063695493   -0.02092042384465884
-0.32564176950036566   -0.07298280063695493   -0.02092042384465884
-0.32564176950036566   -0.07298280063695493   -0.02092042384465884
0.03322502835612143   -0.06227182285167028   0.0193894937153492
0.03322502835612143   -0.06227182285167028   0.0193894937153492
0.03322502835612143   -0.06227182285167028   0.0193894937153492
0.03322502835612143   -0.06227182285167028   0.0193894937153492
-0.7164984674967474   -0.10670588670086742   -0.013757344523655428
-0.7164984674967474   -0.10670588670086742   -0.013757344523655428
-0.7164984674967474   -0.10670588670086742   -0.013757344523655428
-0.7164984674967474   -0.10670588670086742   -0.013757344523655428
-0.7784284783981025   -0.23217168633189464   -0.02071561508603536
-0.7784284783981025   -0.23217168633189464   -0.02071561508603536
-0.7784284783981025   -0.23217168633189464   -0.02071561508603536
-0.7784284783981025   -0.23217168633189464   -0.02071561508603536
0.025545019321642257   0.04361373619688374   0.030404952249335974
0.025545019321642257   0.04361373619688374   0.030404952249335974
0.025545019321642257   0.04361373619688374   0.030404952249335974
0.025545019321642257   0.04361373619688374   0.030404952249335974
-0.3606878657863072   -0.08373933329192401   -0.02930211127713529
-0.3606878657863072   -0.08373933329192401   -0.02930211127713529
-0.3606878657863072   -0.08373933329192401   -0.02930211127713529
-0.3606878657863072   -0.08373933329192401   -0.02930211127713529
-0.6435231838682922   -0.05628895867715189   0.010246251295653035
-0.6435231838682922   -0.05628895867715189   0.010246251295653035
-0.6435231838682922   -0.05628895867715189   0.010246251295653035
-0.6435231838682922   -0.05628895867715189   0.010246251295653035
-1.3708509196408785   -0.08839619149972805   -0.0362406470766556
-1.3708509196408785   -0.08839619149972805   -0.0362406470766556
-1.3708509196408785   -0.08839619149972805   -0.0362406470766556
-1.3708509196408785   -0.08839619149972805   -0.0362406470766556
-1.4346296717132712   -0.2277235602935455   -0.035148672767934236
-1.4346296717132712   -0.2277235602935455   -0.035148672767934236
-1.4346296717132712   -0.2277235602935455   -0.035148672767934236
-1.4346296717132712   -0.2277235602935455   -0.035148672767934236
-0.6468395482861244   0.0546714009938937   0.0068162873788496295
-0.6468395482861244   0.0546714009938937   0.0068162873788496295
-0.6468395482861244   0.0546714009938937   0.0068162873788496295
-0.6468395482861244   0.0546714009938937   0.0068162873788496295
-1.0155244351602903   -0.07575375465883394   -0.014654177302452144
-1.0155244351602903   -0.07575375465883394   -0.014654177302452144
-1.0155244351602903   -0.07575375465883394   -0.014654177302452144
-1.0155244351602903   -0.07575375465883394   -0.014654177302452144
-0.6666634804899944   -0.06218915168719642   0.02455717904059569
-0.6666634804899944   -0.06218915168719642   0.02455717904059569
-0.6666634804899944   -0.06218915168719642   0.02455717904059569
-0.6666634804899944   -0.06218915168719642   0.02455717904059569
-1.4107624751049648   -0.10681974320801996   -0.03671650681193947
-1.4107624751049648   -0.10681974320801996   -0.03671650681193947
-1.4107624751049648   -0.10681974320801996   -0.03671650681193947
-1.4107624751049648   -0.10681974320801996   -0.03671650681193947
-1.479740994359158   -0.24231890550418791   -0.024677006051955046
-1.479740994359158   -0.24231890550418791   -0.024677006051955046
-1.479740994359158   -0.24231890550418791   -0.024677006051955046
-1.479740994359158   -0.24231890550418791   -0.024677006051955046
-0.6831090646409156   0.03814560147777302   0.0083381815768626
-0.6831090646409156   0.03814560147777302   0.0083381815768626
-0.6831090646409156   0.03814560147777302   0.0083381815768626
-0.6831090646409156   0.03814560147777302   0.0083381815768626
-1.0440479190190466   -0.08383604021477842   -0.014697455257408489
-1.0440479190190466   -0.08383604021477842   -0.014697455257408489
-1.0440479190190466   -0.08383604021477842   -0.014697455257408489
-1.0440479190190466   -0.08383604021477842   -0.014697455257408489
-0.7026817146026022   -0.07687295141103864   0.025493484657235534
-0.7026817146026022   -0.07687295141103864   0.025493484657235534
-0.7026817146026022   -0.07687295141103864   0.025493484657235534
-0.7026817146026022   -0.07687295141103864   0.025493484657235534
-1.4574584759373646   -0.12459048415527024   -0.030992835291904955
-1.4574584759373646   -0.12459048415527024   -0.030992835291904955
-1.4574584759373646   -0.12459048415527024   -0.030992835291904955
-1.4574584759373646   -0.12459048415527024   -0.030992835291904955
-1.530787164012791   -0.261561961073543   -0.026409916067003984
-1.530787164012791   -0.261561961073543   -0.026409916067003984
-1.530787164012791   -0.261561961073543   -0.026409916067003984
-1.530787164012791   -0.261561961073543   -0.026409916067003984
-0.7223064032351043   0.01775069060683443   0.009972383790213542
-0.7223064032351043   0.01775069060683443   0.009972383790213542
-0.7223064032351043   0.01775069060683443   0.009972383790213542
-0.7223064032351043   0.01775069060683443   0.009972383790213542
-1.0946870720281088   -0.10356762989542015   -0.023893840567159458
-1.0946870720281088   -0.10356762989542015   -0.023893840567159458
-1.0946870720281088   -0.10356762989542015   -0.023893840567159458
-1.0946870720281088   -0.10356762989542015   -0.023893840567159458
-1.3244354846550517   0.06250454970861019   0.04493578664414005
-1.3244354846550517   0.06250454970861019   0.04493578664414005
-1.3244354846550517   0.06250454970861019   0.04493578664414005
-1.3244354846550517   0.06250454970861019   0.04493578664414005
-2.0535563727116526   -0.10231428512512808   -0.027599575858549344
-2.0535563727116526   -0.10231428512512808   -0.027599575858549344
-2.0535563727116526   -0.10231428512512808   -0.027599575858549344
-2.0535563727116526   -0.10231428512512808   -0.027599575858549344
-2.1040566079825664   -0.10418869003162134   0.04613500602191482
-2.1040566079825664   -0.10418869003162134   0.04613500602191482
-2.1040566079825664   -0.10418869003162134   0.04613500602191482
-2.1040566079825664   -0.10418869003162134   0.04613500602191482
-1.3757317345242308   0.042629187197576524   -0.011011734313864319
-1.3757317345242308   0.042629187197576524   -0.011011734313864319
-1.3757317345242308   0.042629187197576524   -0.011011734313864319
-1.3757317345242308   0.042629187197576524   -0.011011734313864319
-1.6345443533611912   0.001234822295059057   0.0414882760940682
-1.6345443533611912   0.001234822295059057   0.0414882760940682
-1.6345443533611912   0.001234822295059057   0.0414882760940682
-1.6345443533611912   0.001234822295059057   0.0414882760940682
-1.3614139711451838   0.046461741739383056   0.05674452803955431
-1.3614139711451838   0.046461741739383056   0.05674452803955431
-1.3614139711451838   0.046461741739383056   0.05674452803955431
-1.3614139711451838   0.046461741739383056   0.05674452803955431
-2.1174321025435687   -0.10707897575538472   -0.017852181059332617
-2.1174321025435687   -0.10707897575538472   -0.017852181059332617
-2.1174321025435687   -0.10707897575538472   -0.017852181059332617
-2.1174321025435687   -0.10707897575538472   -0.017852181059332617
-2.167805426982584   -0.12146721878907851   0.06275021481041348
-2.167805426982584   -0.12146721878907851   0.06275021481041348
-2.167805426982584   -0.12146721878907851   0.06275021481041348
-2.167805426982584   -0.12146721878907851   0.06275021481041348
-1.4224671734848218   0.030888908884861455   -0.011515716069334533
-1.4224671734848218   0.030888908884861455   -0.011515716069334533
-1.4224671734848218   0.030888908884861455   -0.011515716069334533
-1.4224671734848218   0.030888908884861455   -0.011515716069334533
-1.7167907059888468   -0.0189867675619369   0.022690771469614915
-1.7167907059888468   -0.0189867675619369   0.022690771469614915
-1.7167907059888468   -0.0189867675619369   0.022690771469614915
-1.7167907059888468   -0.0189867675619369   0.022690771469614915
-1.4093787543322474   0.02885927541215494   0.0559560131662436
-1.4093787543322474   0.02885927541215494   0.0559560131662436
-1.4093787543322474   0.02885927541215494   0.0559560131662436
-1.4093787543322474   0.02885927541215494   0.0559560131662436
-2.1833587334144897   -0.12190247259569292   -0.014581063542499634
-2.1833587334144897   -0.12190247259569292   -0.014581063542499634
-2.1833587334144897   -0.12190247259569292   -0.014581063542499634
-2.1833587334144897   -0.12190247259569292   -0.014581063542499634
-2.2584340961815697   -0.19120181648152418   0.054503723643283555
-2.2584340961815697   -0.19120181648152418   0.054503723643283555
-2.2584340961815697   -0.19120181648152418   0.054503723643283555
-2.2584340961815697   -0.19120181648152418   0.054503723643283555
-1.476351125949539   -0.004948681967519075   -0.01084300485679042
-1.476351125949539   -0.004948681967519075   -0.01084300485679042
-1.476351125949539   -0.004948681967519075   -0.01084300485679042
-1.476351125949539   -0.004948681967519075   -0.01084300485679042
-1.75179830513861   -0.044450811865827   0.00615964567608121
-1.75179830513861   -0.044450811865827   0.00615964567608121
-1.75179830513861   -0.044450811865827   0.00615964567608121
-1.75179830513861   -0.044450811865827   0.00615964567608121
1.3552875779223668   0.07250906017054537   -0.04829146630135342
1.3552875779223668   0.07250906017054537   -0.04829146630135342
1.3552875779223668   0.07250906017054537   -0.04829146630135342
1.3552875779223668   0.07250906017054537   -0.04829146630135342
0.6718454443565806   -0.0007130289258062972   0.017490958911105796
0.6718454443565806   -0.0007130289258062972   0.017490958911105796
0.6718454443565806   -0.0007130289258062972   0.017490958911105796
0.6718454443565806   -0.0007130289258062972   0.017490958911105796
0.6140662466738077   -0.10010082363313863   -0.044304139290074186
0.6140662466738077   -0.10010082363313863   -0.044304139290074186
0.6140662466738077   -0.10010082363313863   -0.044304139290074186
0.6140662466738077   -0.10010082363313863   -0.044304139290074186
1.329776517527095   0.10957899253331874   0.021936859815782632
1.329776517527095   0.10957899253331874   0.021936859815782632
1.329776517527095   0.10957899253331874   0.021936859815782632
1.329776517527095   0.10957899253331874   0.021936859815782632
0.9414203078347263   0.008314253572417996   -0.030983308173499785
0.9414203078347263   0.008314253572417996   -0.030983308173499785
0.9414203078347263   0.008314253572417996   -0.030983308173499785
0.9414203078347263   0.008314253572417996   -0.030983308173499785
1.3015598598591323   0.03695436638650054   -0.04652180237720275
1.3015598598591323   0.03695436638650054   -0.04652180237720275
1.3015598598591323   0.03695436638650054   -0.04652180237720275
1.3015598598591323   0.03695436638650054   -0.04652180237720275
0.6410740553291688   -0.0286850464989222   0.01931912685250419
0.6410740553291688   -0.0286850464989222   0.01931912685250419
0.6410740553291688   -0.0286850464989222   0.01931912685250419
0.6410740553291688   -0.0286850464989222   0.01931912685250419
0.58516790909553   -0.10845507834117554   -0.03851320971042386
0.58516790909553   -0.10845507834117554   -0.03851320971042386
0.58516790909553   -0.10845507834117554   -0.03851320971042386
0.58516790909553   -0.10845507834117554   -0.03851320971042386
1.286552378323199   0.09809477488164473   0.029998448318678227
1.286552378323199   0.09809477488164473   0.029998448318678227
1.286552378323199   0.09809477488164473   0.029998448318678227
1.286552378323199   0.09809477488164473   0.029998448318678227
0.9188230328327407   -0.0067459832191456015   -0.04069073875489291
0.9188230328327407   -0.0067459832191456015   -0.04069073875489291
0.9188230328327407   -0.0067459832191456015   -0.04069073875489291
0.9188230328327407   -0.0067459832191456015   -0.04069073875489291
1.25893847046486   0.026672010547087593   -0.03664832663843807
1.25893847046486   0.026672010547087593   -0.03664832663843807
1.25893847046486   0.026672010547087593   -0.03664832663843807
1.25893847046486   0.026672010547087593   -0.03664832663843807
0.6116967650453867   -0.03811736591509793   0.023793357612777115
0.6116967650453867   -0.03811736591509793   0.023793357612777115
0.6116967650453867   -0.03811736591509793   0.023793357612777115
0.6116967650453867   -0.03811736591509793   0.023793357612777115
0.5587822229004602   -0.11091173436748555   -0.0314645022045596
0.5587822229004602   -0.11091173436748555   -0.0314645022045596
0.5587822229004602   -0.11091173436748555   -0.0314645022045596
0.5587822229004602   -0.11091173436748555   -0.0314645022045596
1.2378240984588216   0.08804202776003775   0.037337059155806325
1.2378240984588216   0.08804202776003775   0.037337059155806325
1.2378240984588216   0.08804202776003775   0.037337059155806325
1.2378240984588216   0.08804202776003775   0.037337059155806325
0.8661083490948819   -0.01711062151541609   -0.05525969659698064
0.8661083490948819   -0.01711062151541609   -0.05525969659698064
0.8661083490948819   -0.01711062151541609   -0.05525969659698064
0.8661083490948819   -0.01711062151541609   -0.05525969659698064
0.6834042696548881   0.07082368870338981   0.00374836777344717
0.6834042696548881   0.07082368870338981   0.00374836777344717
0.6834042696548881   0.07082368870338981   0.00374836777344717
0.6834042696548881   0.07082368870338981   0.00374836777344717
0.023326642406189917   -0.0224094974843547   -0.002794939365704314
0.023326642406189917   -0.0224094974843547   -0.002794939365704314
0.023326642406189917   -0.0224094974843547   -0.002794939365704314
0.023326642406189917   -0.0224094974843547   -0.002794939365704314
-0.020225249548894816   -0.09019646061846989   -0.03015099818968841
-0.020225249548894816   -0.09019646061846989   -0.03015099818968841
-0.020225249548894816   -0.09019646061846989   -0.03015099818968841
-0.020225249548894816   -0.09019646061846989   -0.03015099818968841
0.6702260564483536   0.09923699902907075   0.03715708692043583
0.6702260564483536   0.09923699902907075   0.03715708692043583
0.6702260564483536   0.09923699902907075   0.03715708692043583
0.6702260564483536   0.09923699902907075   0.03715708692043583
0.33389805548333595   0.01413628207325715   -0.003818628973575055
0.33389805548333595   0.01413628207325715   -0.003818628973575055
0.33389805548333595   0.01413628207325715   -0.003818628973575055
0.33389805548333595   0.01413628207325715   -0.003818628973575055
0.6549477694727143   0.05239072753172032   0.007611923539592173
0.6549477694727143   0.05239072753172032   0.007611923539592173
0.6549477694727143   0.05239072753172032   0.007611923539592173
0.6549477694727143   0.05239072753172032   0.007611923539592173
-0.004675593700128678   -0.04307882024798202   0.0004796406836544056
-0.004675593700128678   -0.04307882024798202   0.0004796406836544056
-0.004675593700128678   -0.04307882024798202   0.0004796406836544056
-0.004675593700128678   -0.04307882024798202   0.0004796406836544056
-0.04760032873153708   -0.10370553884690331   -0.026064176772807528
-0.04760032873153708   -0.10370553884690331   -0.026064176772807528
-0.04760032873153708   -0.10370553884690331   -0.026064176772807528
-0.04760032873153708   -0.10370553884690331   -0.026064176772807528
0.6392154034742549   0.08215398171726151   0.04111520212475814
0.6392154034742549   0.08215398171726151   0.04111520212475814
0.6392154034742549   0.08215398171726151   0.04111520212475814
0.6392154034742549   0.08215398171726151   0.04111520212475814
0.3004583248456147   -0.0026996617024398067   -0.01338529988463591
0.3004583248456147   -0.0026996617024398067   -0.01338529988463591
0.3004583248456147   -0.0026996617024398067   -0.01338529988463591
0.3004583248456147   -0.0026996617024398067   -0.01338529988463591
0.6245097303239473   0.03823122661404384   0.011509591476443714
0.6245097303239473   0.03823122661404384   0.011509591476443714
0.6245097303239473   0.03823122661404384   0.011509591476443714
0.6245097303239473   0.03823122661404384   0.011509591476443714
-0.03286831222890928   -0.05975644039137465   0.003646807284802829
-0.03286831222890928   -0.05975644039137465   0.003646807284802829
-0.03286831222890928   -0.05975644039137465   0.003646807284802829
-0.03286831222890928   -0.05975644039137465   0.003646807284802829
-0.07469783294739145   -0.11183565741260452   -0.02073349692636804
-0.07469783294739145   -0.11183565741260452   -0.02073349692636804
-0.07469783294739145   -0.11183565741260452   -0.02073349692636804
-0.07469783294739145   -0.11183565741260452   -0.02073349692636804
0.6097213357787469   0.0677479857307598   0.04457134208862069
0.6097213357787469   0.0677479857307598   0.04457134208862069
0.6097213357787469   0.0677479857307598   0.04457134208862069
0.6097213357787469   0.0677479857307598   0.04457134208862069
0.2757349841072464   -0.013466810461185405   -0.020435979749873854
0.2757349841072464   -0.013466810461185405   -0.020435979749873854
0.2757349841072464   -0.013466810461185405   -0.020435979749873854
0.2757349841072464   -0.013466810461185405   -0.020435979749873854
0.04574772284709841   0.07151506411773399   0.015385901236751397
0.04574772284709841   0.07151506411773399   0.015385901236751397
0.04574772284709841   0.07151506411773399   0.015385901236751397
0.04574772284709841   0.07151506411773399   0.015385901236751397
-0.6050796826177334   -0.03918437295504976   -0.020815844524518387
-0.6050796826177334   -0.03918437295504976   -0.020815844524518387
-0.6050796826177334   -0.03918437295504976   -0.020815844524518387
-0.6050796826177334   -0.03918437295504976   -0.020815844524518387
-0.6390578602240287   -0.08267091910833499   -0.019095839029176963
-0.6390578602240287   -0.08267091910833499   -0.019095839029176963
-0.6390578602240287   -0.08267091910833499   -0.019095839029176963
-0.6390578602240287   -0.08267091910833499   -0.019095839029176963
0.023699531038566455   0.08126242189292208   0.018014022236225967
0.023699531038566455   0.08126242189292208   0.018014022236225967
0.023699531038566455   0.08126242189292208   0.018014022236225967
0.023699531038566455   0.08126242189292208   0.018014022236225967
-0.29330443715078564   0.009105600899483313   0.001117708536468278
-0.29330443715078564   0.009105600899483313   0.001117708536468278
-0.29330443715078564   0.009105600899483313   0.001117708536468278
-0.29330443715078564   0.009105600899483313   0.001117708536468278
0.01903716287114835   0.05663347831245609   0.019331124979601436
0.01903716287114835   0.05663347831245609   0.019331124979601436
0.01903716287114835   0.05663347831245609   0.019331124979601436
0.01903716287114835   0.05663347831245609   0.019331124979601436
-0.633648759119172   -0.057295242590440665   -0.017426010022787958
-0.633648759119172   -0.057295242590440665   -0.017426010022787958
-0.633648759119172   -0.057295242590440665   -0.017426010022787958
-0.633648759119172   -0.057295242590440665   -0.017426010022787958
-0.6684357703615486   -0.09751368160589616   -0.01585901618399782
-0.6684357703615486   -0.09751368160589616   -0.01585901618399782
-0.6684357703615486   -0.09751368160589616   -0.01585901618399782
-0.6684357703615486   -0.09751368160589616   -0.01585901618399782
-0.004536313701026189   0.06368924899981185   0.021861110533033676
-0.004536313701026189   0.06368924899981185   0.021861110533033676
-0.004536313701026189   0.06368924899981185   0.021861110533033676
-0.004536313701026189   0.06368924899981185   0.021861110533033676
-0.3214504929946013   -0.005420705328446171   -0.006072644590485402
-0.3214504929946013   -0.005420705328446171   -0.006072644590485402
-0.3214504929946013   -0.005420705328446171   -0.006072644590485402
-0.3214504929946013   -0.005420705328446171   -0.006072644590485402
-0.008518629328204371   0.042307755097468994   0.0233310262994837
-0.008518629328204371   0.042307755097468994   0.0233310262994837
-0.008518629328204371   0.042307755097468994   0.0233310262994837
-0.008518629328204371   0.042307755097468994   0.0233310262994837
-0.6638121413825018   -0.07549087435168385   -0.014763678542969106
-0.6638121413825018   -0.07549087435168385   -0.014763678542969106
-0.6638121413825018   -0.07549087435168385   -0.014763678542969106
-0.6638121413825018   -0.07549087435168385   -0.014763678542969106
-0.6976147409837552   -0.1091948861356663   -0.01047839910801678
-0.6976147409837552   -0.1091948861356663   -0.01047839910801678
-0.6976147409837552   -0.1091948861356663   -0.01047839910801678
-0.6976147409837552   -0.1091948861356663   -0.01047839910801678
-0.03378884106956433   0.04713484621268023   0.024840958837482795
-0.03378884106956433   0.04713484621268023   0.024840958837482795
-0.03378884106956433   0.04713484621268023   0.024840958837482795
-0.03378884106956433   0.04713484621268023   0.024840958837482795
-0.3517353347111467   -0.020194047125492956   -0.013929917259838252
-0.3517353347111467   -0.020194047125492956   -0.013929917259838252
-0.3517353347111467   -0.020194047125492956   -0.013929917259838252
-0.3517353347111467   -0.020194047125492956   -0.013929917259838252
-0.5705684771683893   0.0845163236362883   0.028039486130875577
-0.5705684771683893   0.0845163236362883   0.028039486130875577
-0.5705684771683893   0.0845163236362883   0.028039486130875577
-0.5705684771683893   0.0845163236362883   0.028039486130875577
-1.2126455128538005   -0.053883520241228056   -0.03410878289447411
-1.2126455128538005   -0.053883520241228056   -0.03410878289447411
-1.2126455128538005   -0.053883520241228056   -0.03410878289447411
-1.2126455128538005   -0.053883520241228056   -0.03410878289447411
-1.239137111434166   -0.06624489431099786   -0.005467625997566332
-1.239137111434166   -0.06624489431099786   -0.005467625997566332
-1.239137111434166   -0.06624489431099786   -0.005467625997566332
-1.239137111434166   -0.06624489431099786   -0.005467625997566332
-0.6066087377951049   0.061469695813413716   -0.0009908418062996235
-0.6066087377951049   0.061469695813413716   -0.0009908418062996235
-0.6066087377951049   0.061469695813413716   -0.0009908418062996235
-0.6066087377951049   0.061469695813413716   -0.0009908418062996235
-0.900687068979526   0.009247255916534664   0.006565664545987462
-0.900687068979526   0.009247255916534664   0.006565664545987462
-0.900687068979526   0.009247255916534664   0.006565664545987462
-0.900687068979526   0.009247255916534664   0.006565664545987462
-0.5985586408336866   0.06925849397621042   0.03147084483799548
-0.5985586408336866   0.06925849397621042   0.03147084483799548
-0.5985586408336866   0.06925849397621042   0.03147084483799548
-0.5985586408336866   0.06925849397621042   0.03147084483799548
-1.2461730330131329   -0.07301951709133397   -0.033872611112071335
-1.2461730330131329   -0.07301951709133397   -0.033872611112071335
-1.2461730330131329   -0.07301951709133397   -0.033872611112071335
-1.2461730330131329   -0.07301951709133397   -0.033872611112071335
-1.275316464932959   -0.08293352721164868   -0.004850061578264002
-1.275316464932959   -0.08293352721164868   -0.004850061578264002
-1.275316464932959   -0.08293352721164868   -0.004850061578264002
-1.275316464932959   -0.08293352721164868   -0.004850061578264002
-0.636334000629902   0.04470013389599348   0.002436016972352878
-0.636334000629902   0.04470013389599348   0.002436016972352878
-0.636334000629902   0.04470013389599348   0.002436016972352878
-0.636334000629902   0.04470013389599348   0.002436016972352878
-0.9260174541859415   -0.00404066647479237   0.0006675187148435721
-0.9260174541859415   -0.00404066647479237   0.0006675187148435721
-0.9260174541859415   -0.00404066647479237   0.0006675187148435721
-0.9260174541859415   -0.00404066647479237   0.0006675187148435721
-0.6275171163355094   0.054867057742953   0.03635351459735624
-0.6275171163355094   0.054867057742953   0.03635351459735624
-0.6275171163355094   0.054867057742953   0.03635351459735624
-0.6275171163355094   0.054867057742953   0.03635351459735624
-1.2820732609129462   -0.09104036274420471   -0.030527205945655174
-1.2820732609129462   -0.09104036274420471   -0.030527205945655174
-1.2820732609129462   -0.09104036274420471   -0.030527205945655174
-1.2820732609129462   -0.09104036274420471   -0.030527205945655174
-1.3086284754450894   -0.1008020294434214   0.003530855748919433
-1.3086284754450894   -0.1008020294434214   0.003530855748919433
-1.3086284754450894   -0.1008020294434214   0.003530855748919433
-1.3086284754450894   -0.1008020294434214   0.003530855748919433
-0.6678350304672955   0.024746124023511312   0.004479143315111178
-0.6678350304672955   0.024746124023511312   0.004479143315111178
-0.6678350304672955   0.024746124023511312   0.004479143315111178
-0.6678350304672955   0.024746124023511312   0.004479143315111178
-0.965556545928102   -0.02269019101796546   -0.007262045576298122
-0.965556545928102   -0.02269019101796546   -0.007262045576298122
-0.965556545928102   -0.02269019101796546   -0.007262045576298122
-0.965556545928102   -0.02269019101796546   -0.007262045576298122
-1.1696284803239603   0.08784148368901562   0.039251375824476784
-1.1696284803239603   0.08784148368901562   0.039251375824476784
-1.1696284803239603   0.08784148368901562   0.039251375824476784
-1.1696284803239603   0.08784148368901562   0.039251375824476784
-1.7900522428869565   -0.08280074871851839   -0.03145557243097137
-1.7900522428869565   -0.08280074871851839   -0.03145557243097137
-1.7900522428869565   -0.08280074871851839   -0.03145557243097137
-1.7900522428869565   -0.08280074871851839   -0.03145557243097137
-1.8146227136080575   -0.0362673532906011   0.0333965423290743
-1.8146227136080575   -0.0362673532906011   0.0333965423290743
-1.8146227136080575   -0.0362673532906011   0.0333965423290743
-1.8146227136080575   -0.0362673532906011   0.0333965423290743
-1.2209642188902041   0.03678980205396293   -0.01763785964271622
-1.2209642188902041   0.03678980205396293   -0.01763785964271622
-1.2209642188902041   0.03678980205396293   -0.01763785964271622
-1.2209642188902041   0.03678980205396293   -0.01763785964271622
-1.4325835616068696   0.01827957505007355   0.03291442717696917
-1.4325835616068696   0.01827957505007355   0.03291442717696917
-1.4325835616068696   0.01827957505007355   0.03291442717696917
-1.4325835616068696   0.01827957505007355   0.03291442717696917
-1.19788905879832   0.08942134814971892   0.045106394720936915
-1.19788905879832   0.08942134814971892   0.045106394720936915
-1.19788905879832   0.08942134814971892   0.045106394720936915
-1.19788905879832   0.08942134814971892   0.045106394720936915
-1.836335897690129   -0.08753692337654062   -0.02389980799530883
-1.836335897690129   -0.08753692337654062   -0.02389980799530883
-1.836335897690129   -0.08753692337654062   -0.02389980799530883
-1.836335897690129   -0.08753692337654062   -0.02389980799530883
-1.8595579195708818   -0.04499834060544511   0.046138782565192674
-1.8595579195708818   -0.04499834060544511   0.046138782565192674
-1.8595579195708818   -0.04499834060544511   0.046138782565192674
-1.8595579195708818   -0.04499834060544511   0.046138782565192674
-1.2554687844914252   0.027152226172681482   -0.01569741275492638
-1.2554687844914252   0.027152226172681482   -0.01569741275492638
-1.2554687844914252   0.027152226172681482   -0.01569741275492638
-1.2554687844914252   0.027152226172681482   -0.01569741275492638
-1.4943941141633679   0.009017779023805683   0.02115151427808766
-1.4943941141633679   0.009017779023805683   0.02115151427808766
-1.4943941141633679   0.009017779023805683   0.02115151427808766
-1.4943941141633679   0.009017779023805683   0.02115151427808766
-1.229982373660442   0.08288865464844891   0.05599821292422298
-1.229982373660442   0.08288865464844891   0.05599821292422298
-1.229982373660442   0.08288865464844891   0.05599821292422298
-1.229982373660442   0.08288865464844891   0.05599821292422298
-1.8837285827847734   -0.09941902146411546   -0.02029385264556323
-1.8837285827847734   -0.09941902146411546   -0.02029385264556323
-1.8837285827847734   -0.09941902146411546   -0.02029385264556323
-1.8837285827847734   -0.09941902146411546   -0.02029385264556323
-1.9205052105371045   -0.0824342404200531   0.04588328746810498
-1.9205052105371045   -0.0824342404200531   0.04588328746810498
-1.9205052105371045   -0.0824342404200531   0.04588328746810498
-1.9205052105371045   -0.0824342404200531   0.04588328746810498
-1.2924711686636146   -0.0017382707001503683   -0.014746369086977601
-1.2924711686636146   -0.0017382707001503683   -0.014746369086977601
-1.2924711686636146   -0.0017382707001503683   -0.014746369086977601
-1.2924711686636146   -0.0017382707001503683   -0.014746369086977601
-1.5124013302061412   -0.004309393022962182   0.017252982370956682
-1.5124013302061412   -0.004309393022962182   0.017252982370956682
-1.5124013302061412   -0.004309393022962182   0.017252982370956682
-1.5124013302061412   -0.004309393022962182   0.017252982370956682
1.0273814844308007   0.05708791483832146   -0.04904036234247539
1.0273814844308007   0.05708791483832146   -0.04904036234247539
1.0273814844308007   0.05708791483832146   -0.04904036234247539
1.0273814844308007   0.05708791483832146   -0.04904036234247539
0.4885534382682171   0.00979260596578195   0.018696108987324555
0.4885534382682171   0.00979260596578195   0.018696108987324555
0.4885534382682171   0.00979260596578195   0.018696108987324555
0.4885534382682171   0.00979260596578195   0.018696108987324555
0.4340700837782602   -0.08326454964946267   -0.046574417349289556
0.4340700837782602   -0.08326454964946267   -0.046574417349289556
0.4340700837782602   -0.08326454964946267   -0.046574417349289556
0.4340700837782602   -0.08326454964946267   -0.046574417349289556
1.0051300140605137   0.09442830961545345   0.02311914125671087
1.0051300140605137   0.09442830961545345   0.02311914125671087
1.0051300140605137   0.09442830961545345   0.02311914125671087
1.0051300140605137   0.09442830961545345   0.02311914125671087
0.7006287898559873   0.009474887471068533   -0.020718146197971347
0.7006287898559873   0.009474887471068533   -0.020718146197971347
0.7006287898559873   0.009474887471068533   -0.020718146197971347
0.7006287898559873   0.009474887471068533   -0.020718146197971347
0.9774409528574378   0.02545411383965654   -0.04635196898287126
0.9774409528574378   0.02545411383965654   -0.04635196898287126
0.9774409528574378   0.02545411383965654   -0.04635196898287126
0.9774409528574378   0.02545411383965654   -0.04635196898287126
0.461213597442536   -0.014835901412466435   0.020714502735089138
0.461213597442536   -0.014835901412466435   0.020714502735089138
0.461213597442536   -0.014835901412466435   0.020714502735089138
0.461213597442536   -0.014835901412466435   0.020714502735089138
0.40861743398958655   -0.09143639715826973   -0.03972246754728175
0.40861743398958655   -0.09143639715826973   -0.03972246754728175
0.40861743398958655   -0.09143639715826973   -0.03972246754728175
0.40861743398958655   -0.09143639715826973   -0.03972246754728175
0.9655536487453852   0.08274823675532006   0.03040910887326094
0.9655536487453852   0.08274823675532006   0.03040910887326094
0.9655536487453852   0.08274823675532006   0.03040910887326094
0.9655536487453852   0.08274823675532006   0.03040910887326094
0.6778475382735413   -0.004695608232917509   -0.029090481225099003
0.6778475382735413   -0.004695608232917509   -0.029090481225099003
0.6778475382735413   -0.004695608232917509   -0.029090481225099003
0.6778475382735413   -0.004695608232917509   -0.029090481225099003
0.938510322762215   0.015062347706883278   -0.03712163199414507
0.938510322762215   0.015062347706883278   -0.03712163199414507
0.938510322762215   0.015062347706883278   -0.03712163199414507
0.938510322762215   0.015062347706883278   -0.03712163199414507
0.4349717612665392   -0.024439506816049936   0.025052278495256833
0.4349717612665392   -0.024439506816049936   0.025052278495256833
0.4349717612665392   -0.024439506816049936   0.025052278495256833
0.4349717612665392   -0.024439506816049936   0.025052278495256833
0.385678648708246   -0.09647065887038009   -0.03308092424570746
0.385678648708246   -0.09647065887038009   -0.03308092424570746
0.385678648708246   -0.09647065887038009   -0.03308092424570746
0.385678648708246   -0.09647065887038009   -0.03308092424570746
0.9209242272864829   0.07010230006020657   0.0361264754159902
0.9209242272864829   0.07010230006020657   0.0361264754159902
0.9209242272864829   0.07010230006020657   0.0361264754159902
0.9209242272864829   0.07010230006020657   0.0361264754159902
0.6328062024758321   -0.01540372476872845   -0.0414805693629931
0.6328062024758321   -0.01540372476872845   -0.0414805693629931
0.6328062024758321   -0.01540372476872845   -0.0414805693629931
0.6328062024758321   -0.01540372476872845   -0.0414805693629931
0.4967142830119134   0.072238005203552   -0.0029450665319556025
0.4967142830119134   0.072238005203552   -0.0029450665319556025
0.4967142830119134   0.072238005203552   -0.0029450665319556025
0.4967142830119134   0.072238005203552   -0.0029450665319556025
-0.032456190471631806   -0.007049927429949905   -0.0002557003517505303
-0.032456190471631806   -0.007049927429949905   -0.0002557003517505303
-0.032456190471631806   -0.007049927429949905   -0.0002557003517505303
-0.032456190471631806   -0.007049927429949905   -0.0002557003517505303
-0.0708370800959898   -0.06232937764347819   -0.029611659897965336
-0.0708370800959898   -0.06232937764347819   -0.029611659897965336
-0.0708370800959898   -0.06232937764347819   -0.029611659897965336
-0.0708370800959898   -0.06232937764347819   -0.029611659897965336
0.48379440996150963   0.0858307348205534   0.03295192909693734
0.48379440996150963   0.0858307348205534   0.03295192909693734
0.48379440996150963   0.0858307348205534   0.03295192909693734
0.48379440996150963   0.0858307348205534   0.03295192909693734
0.21592436465860748   0.02117896025606009   0.0015401045818778892
0.21592436465860748   0.02117896025606009   0.0015401045818778892
0.21592436465860748   0.02117896025606009   0.0015401045818778892
0.21592436465860748   0.02117896025606009   0.0015401045818778892
0.4707647789316133   0.052200189912698966   0.0014343188553173243
0.4707647789316133   0.052200189912698966   0.0014343188553173243
0.4707647789316133   0.052200189912698966   0.0014343188553173243
0.4707647789316133   0.052200189912698966   0.0014343188553173243
-0.05758438204971366   -0.02847576571924273   0.0027982184091798826
-0.05758438204971366   -0.02847576571924273   0.0027982184091798826
-0.05758438204971366   -0.02847576571924273   0.0027982184091798826
-0.05758438204971366   -0.02847576571924273   0.0027982184091798826
-0.09481144870616517   -0.07777164833060177   -0.024486095934076843
-0.09481144870616517   -0.07777164833060177   -0.024486095934076843
-0.09481144870616517   -0.07777164833060177   -0.024486095934076843
-0.09481144870616517   -0.07777164833060177   -0.024486095934076843
0.45553172330444885   0.06738939473232514   0.03602318713643003
0.45553172330444885   0.06738939473232514   0.03602318713643003
0.45553172330444885   0.06738939473232514   0.03602318713643003
0.45553172330444885   0.06738939473232514   0.03602318713643003
0.18637705374928223   0.002943242447907203   -0.00761498053213122
0.18637705374928223   0.002943242447907203   -0.00761498053213122
0.18637705374928223   0.002943242447907203   -0.00761498053213122
0.18637705374928223   0.002943242447907203   -0.00761498053213122
0.44293393502970935   0.035632813085334114   0.004790827409728044
0.44293393502970935   0.035632813085334114   0.004790827409728044
0.44293393502970935   0.035632813085334114   0.004790827409728044
0.44293393502970935   0.035632813085334114   0.004790827409728044
-0.08239693079162734   -0.046198337043811655   0.006013182351822233
-0.08239693079162734   -0.046198337043811655   0.006013182351822233
-0.08239693079162734   -0.046198337043811655   0.006013182351822233
-0.08239693079162734   -0.046198337043811655   0.006013182351822233
-0.11847218272957166   -0.09073908555837396   -0.01967049584872951
-0.11847218272957166   -0.09073908555837396   -0.01967049584872951
-0.11847218272957166   -0.09073908555837396   -0.01967049584872951
-0.11847218272957166   -0.09073908555837396   -0.01967049584872951
0.42943726870076737   0.0503401962510048   0.038901320595513406
0.42943726870076737   0.0503401962510048   0.038901320595513406
0.42943726870076737   0.0503401962510048   0.038901320595513406
0.42943726870076737   0.0503401962510048   0.038901320595513406
0.16371598091594228   -0.010876429682513705   -0.01524101617324477
0.16371598091594228   -0.010876429682513705   -0.01524101617324477
0.16371598091594228   -0.010876429682513705   -0.01524101617324477
0.16371598091594228   -0.010876429682513705   -0.01524101617324477
-0.011378859871618265   0.08611263795230223   0.011968387266065052
-0.011378859871618265   0.08611263795230223   0.011968387266065052
-0.011378859871618265   0.08611263795230223   0.011968387266065052
-0.011378859871618265   0.08611263795230223   0.011968387266065052
-0.542371127910865   -0.02354468269432193   -0.017989545651110456
-0.542371127910865   -0.02354468269432193   -0.017989545651110456
-0.542371127910865   -0.02354468269432193   -0.017989545651110456
-0.542371127910865   -0.02354468269432193   -0.017989545651110456
-0.567107038732011   -0.04331102577054541   -0.014046646310472657
-0.567107038732011   -0.04331102577054541   -0.014046646310472657
-0.567107038732011   -0.04331102577054541   -0.014046646310472657
-0.567107038732011   -0.04331102577054541   -0.014046646310472657
-0.03571202621010955   0.06931759491784481   0.014366636970112864
-0.03571202621010955   0.06931759491784481   0.014366636970112864
-0.03571202621010955   0.06931759491784481   0.014366636970112864
-0.03571202621010955   0.06931759491784481   0.014366636970112864
-0.28845698768968836   0.022290548711605032   0.00565793883486973
-0.28845698768968836   0.022290548711605032   0.00565793883486973
-0.28845698768968836   0.022290548711605032   0.00565793883486973
-0.28845698768968836   0.022290548711605032   0.00565793883486973
-0.03523479323321569   0.06923902662149466   0.016831370150932338
-0.03523479323321569   0.06923902662149466   0.016831370150932338
-0.03523479323321569   0.06923902662149466   0.016831370150932338
-0.03523479323321569   0.06923902662149466   0.016831370150932338
-0.5671215733151548   -0.04276975908044518   -0.014660585916291838
-0.5671215733151548   -0.04276975908044518   -0.014660585916291838
-0.5671215733151548   -0.04276975908044518   -0.014660585916291838
-0.5671215733151548   -0.04276975908044518   -0.014660585916291838
-0.5916639828544239   -0.06002344602898384   -0.009574695457546984
-0.5916639828544239   -0.06002344602898384   -0.009574695457546984
-0.5916639828544239   -0.06002344602898384   -0.009574695457546984
-0.5916639828544239   -0.06002344602898384   -0.009574695457546984
-0.06070722964834584   0.05032879082593005   0.017934560198488003
-0.06070722964834584   0.05032879082593005   0.017934560198488003
-0.06070722964834584   0.05032879082593005   0.017934560198488003
-0.06070722964834584   0.05032879082593005   0.017934560198488003
-0.3132667200575458   0.005800506158636032   -0.0017691590405454136
-0.3132667200575458   0.005800506158636032   -0.0017691590405454136
-0.3132667200575458   0.005800506158636032   -0.0017691590405454136
-0.3132667200575458   0.005800506158636032   -0.0017691590405454136
-0.05973431999184661   0.05241917124701988   0.020708728059894266
-0.05973431999184661   0.05241917124701988   0.020708728059894266
-0.05973431999184661   0.05241917124701988   0.020708728059894266
-0.05973431999184661   0.05241917124701988   0.020708728059894266
-0.5925015410630875   -0.06197847500223792   -0.011807457527610313
-0.5925015410630875   -0.06197847500223792   -0.011807457527610313
-0.5925015410630875   -0.06197847500223792   -0.011807457527610313
-0.5925015410630875   -0.06197847500223792   -0.011807457527610313
-0.6159312359082204   -0.07529134274802371   -0.005147591127380793
-0.6159312359082204   -0.07529134274802371   -0.005147591127380793
-0.6159312359082204   -0.07529134274802371   -0.005147591127380793
-0.6159312359082204   -0.07529134274802371   -0.005147591127380793
-0.08580479283445637   0.03196340893037859   0.020963959138094478
-0.08580479283445637   0.03196340893037859   0.020963959138094478
-0.08580479283445637   0.03196340893037859   0.020963959138094478
-0.08580479283445637   0.03196340893037859   0.020963959138094478
-0.3392133623826733   -0.010828213628136074   -0.010040598856820633
-0.3392133623826733   -0.010828213628136074   -0.010040598856820633
-0.3392133623826733   -0.010828213628136074   -0.010040598856820633
-0.3392133623826733   -0.010828213628136074   -0.010040598856820633
-0.5090980065190638   0.09884501110611613   0.025986367507448697
-0.5090980065190638   0.09884501110611613   0.025986367507448697
-0.5090980065190638   0.09884501110611613   0.025986367507448697
-0.5090980065190638   0.09884501110611613   0.025986367507448697
-1.0406408365669473   -0.040395808225702934   -0.03242702286649979
-1.0406408365669473   -0.040395808225702934   -0.03242702286649979
-1.0406408365669473   -0.040395808225702934   -0.03242702286649979
-1.0406408365669473   -0.040395808225702934   -0.03242702286649979
-1.0541581269498075   -0.02725930623890918   0.0029135370867883134
-1.0541581269498075   -0.02725930623890918   0.0029135370867883134
-1.0541581269498075   -0.02725930623890918   0.0029135370867883134
-1.0541581269498075   -0.02725930623890918   0.0029135370867883134
-0.546509436617136   0.04978217445571759   -0.004151835962356784
-0.546509436617136   0.04978217445571759   -0.004151835962356784
-0.546509436617136   0.04978217445571759   -0.004151835962356784
-0.546509436617136   0.04978217445571759   -0.004151835962356784
-0.782485259539351   0.021238208073647624   0.009587995934683603
-0.782485259539351   0.021238208073647624   0.009587995934683603
-0.782485259539351   0.021238208073647624   0.009587995934683603
-0.782485259539351   0.021238208073647624   0.009587995934683603
-0.5329971153362189   0.082523814705043   0.030668130192899393
-0.5329971153362189   0.082523814705043   0.030668130192899393
-0.5329971153362189   0.082523814705043   0.030668130192899393
-0.5329971153362189   0.082523814705043   0.030668130192899393
-1.0675458696258224   -0.059876367883322984   -0.03140811464887312
-1.0675458696258224   -0.059876367883322984   -0.03140811464887312
-1.0675458696258224   -0.059876367883322984   -0.03140811464887312
-1.0675458696258224   -0.059876367883322984   -0.03140811464887312
-1.0827541012619273   -0.04415424363916126   0.004584229928604661
-1.0827541012619273   -0.04415424363916126   0.004584229928604661
-1.0827541012619273   -0.04415424363916126   0.004584229928604661
-1.0827541012619273   -0.04415424363916126   0.004584229928604661
-0.5714103927941616   0.032195172342324496   -0.0005253635275392493
-0.5714103927941616   0.032195172342324496   -0.0005253635275392493
-0.5714103927941616   0.032195172342324496   -0.0005253635275392493
-0.5714103927941616   0.032195172342324496   -0.0005253635275392493
-0.8034613921359838   0.0065310040411572234   0.002675570097675155
-0.8034613921359838   0.0065310040411572234   0.002675570097675155
-0.8034613921359838   0.0065310040411572234   0.002675570097675155
-0.8034613921359838   0.0065310040411572234   0.002675570097675155
-0.5573335452769722   0.06701985904354538   0.03503418735718267
-0.5573335452769722   0.06701985904354538   0.03503418735718267
-0.5573335452769722   0.06701985904354538   0.03503418735718267
-0.5573335452769722   0.06701985904354538   0.03503418735718267
-1.09610675031167   -0.07825473187293619   -0.028078527086334196
-1.09610675031167   -0.07825473187293619   -0.028078527086334196
-1.09610675031167   -0.07825473187293619   -0.028078527086334196
-1.09610675031167   -0.07825473187293619   -0.028078527086334196
-1.1086909123063613   -0.06234313931502439   0.00988870846149828
-1.1086909123063613   -0.06234313931502439   0.00988870846149828
-1.1086909123063613   -0.06234313931502439   0.00988870846149828
-1.1086909123063613   -0.06234313931502439   0.00988870846149828
-0.5970091127289799   0.012070799067622345   0.002100882953183232
-0.5970091127289799   0.012070799067622345   0.002100882953183232
-0.5970091127289799   0.012070799067622345   0.002100882953183232
-0.5970091127289799   0.012070799067622345   0.002100882953183232
-0.8354231933019716   -0.01192055483693924   -0.006103544669739808
-0.8354231933019716   -0.01192055483693924   -0.006103544669739808
-0.8354231933019716   -0.01192055483693924   -0.006103544669739808
-0.8354231933019716   -0.01192055483693924   -0.006103544669739808
-1.0010020120345635   0.08864555854341477   0.03672573302630151
-1.0010020120345635   0.08864555854341477   0.03672573302630151
-1.0010020120345635   0.08864555854341477   0.03672573302630151
-1.0010020120345635   0.08864555854341477   0.03672573302630151
-1.5145341344724133   -0.06988729423651024   -0.03571734569165631
-1.5145341344724133   -0.06988729423651024   -0.03571734569165631
-1.5145341344724133   -0.06988729423651024   -0.03571734569165631
-1.5145341344724133   -0.06988729423651024   -0.03571734569165631
-1.5313666727469522   -0.014994560959059156   0.0338427791489217
-1.5313666727469522   -0.014994560959059156   0.0338427791489217
-1.5313666727469522   -0.014994560959059156   0.0338427791489217
-1.5313666727469522   -0.014994560959059156   0.0338427791489217
-1.0484431196048876   0.02511465450118816   -0.020885386928709615
-1.0484431196048876   0.02511465450118816   -0.020885386928709615
-1.0484431196048876   0.02511465450118816   -0.020885386928709615
-1.0484431196048876   0.02511465450118816   -0.020885386928709615
-1.2174817489337122   0.01992276821458633   0.029822799138050055
-1.2174817489337122   0.01992276821458633   0.029822799138050055
-1.2174817489337122   0.01992276821458633   0.029822799138050055
-1.2174817489337122   0.01992276821458633   0.029822799138050055
-1.022966604391159   0.08853272134210521   0.043079122299011605
-1.022966604391159   0.08853272134210521   0.043079122299011605
-1.022966604391159   0.08853272134210521   0.043079122299011605
-1.022966604391159   0.08853272134210521   0.043079122299011605
-1.5564138171135677   -0.07798325695287306   -0.028404246690335477
-1.5564138171135677   -0.07798325695287306   -0.028404246690335477
-1.5564138171135677   -0.07798325695287306   -0.028404246690335477
-1.5564138171135677   -0.07798325695287306   -0.028404246690335477
-1.568803231862278   -0.023908707063948043   0.04233236843277875
-1.568803231862278   -0.023908707063948043   0.04233236843277875
-1.568803231862278   -0.023908707063948043   0.04233236843277875
-1.568803231862278   -0.023908707063948043   0.04233236843277875
-1.0753243387571192   0.015472778093293699   -0.01789397927980911
-1.0753243387571192   0.015472778093293699   -0.01789397927980911
-1.0753243387571192   0.015472778093293699   -0.01789397927980911
-1.0753243387571192   0.015472778093293699   -0.01789397927980911
-1.2697881353993996   0.009975790047224209   0.01814499373625071
-1.2697881353993996   0.009975790047224209   0.01814499373625071
-1.2697881353993996   0.009975790047224209   0.01814499373625071
-1.2697881353993996   0.009975790047224209   0.01814499373625071
-1.0482998360198714   0.0818881340982685   0.050813178401454814
-1.0482998360198714   0.0818881340982685   0.050813178401454814
-1.0482998360198714   0.0818881340982685   0.050813178401454814
-1.0482998360198714   0.0818881340982685   0.050813178401454814
-1.5951182547522804   -0.08961458322167504   -0.023536869859491452
-1.5951182547522804   -0.08961458322167504   -0.023536869859491452
-1.5951182547522804   -0.08961458322167504   -0.023536869859491452
-1.5951182547522804   -0.08961458322167504   -0.023536869859491452
-1.6182129277883086   -0.0556236793524954   0.04156834677605259
-1.6182129277883086   -0.0556236793524954   0.04156834677605259
-1.6182129277883086   -0.0556236793524954   0.04156834677605259
-1.6182129277883086   -0.0556236793524954   0.04156834677605259
-1.1037111184497348   -0.01133917269252846   -0.016216288877865574
-1.1037111184497348   -0.01133917269252846   -0.016216288877865574
-1.1037111184497348   -0.01133917269252846   -0.016216288877865574
-1.1037111184497348   -0.01133917269252846   -0.016216288877865574
-1.2832606168317495   -0.0024008076132407408   0.014252241642734947
-1.2832606168317495   -0.0024008076132407408   0.014252241642734947
-1.2832606168317495   -0.0024008076132407408   0.014252241642734947
-1.2832606168317495   -0.0024008076132407408   0.014252241642734947
0.7057412582142188   0.03996051436498925   -0.04765216896264059
0.7057412582142188   0.03996051436498925   -0.04765216896264059
0.7057412582142188   0.03996051436498925   -0.04765216896264059
0.7057412582142188   0.03996051436498925   -0.04765216896264059
0.30145051185874333   0.019244097722651447   0.020445571638992105
0.30145051185874333   0.019244097722651447   0.020445571638992105
0.30145051185874333   0.019244097722651447   0.020445571638992105
0.30145051185874333   0.019244097722651447   0.020445571638992105
0.25233907052080395   -0.06964037968218079   -0.044433361691750634
0.25233907052080395   -0.06964037968218079   -0.044433361691750634
0.25233907052080395   -0.06964037968218079   -0.044433361691750634
0.25233907052080395   -0.06964037968218079   -0.044433361691750634
0.6891938727815663   0.0801651825724022   0.024841732013607513
0.6891938727815663   0.0801651825724022   0.024841732013607513
0.6891938727815663   0.0801651825724022   0.024841732013607513
0.6891938727815663   0.0801651825724022   0.024841732013607513
0.46138090170684193   0.010229899770836062   -0.012605571157624281
0.46138090170684193   0.010229899770836062   -0.012605571157624281
0.46138090170684193   0.010229899770836062   -0.012605571157624281
0.46138090170684193   0.010229899770836062   -0.012605571157624281
0.6617492138284993   0.012237537734873447   -0.04445391791420536
0.6617492138284993   0.012237537734873447   -0.04445391791420536
0.6617492138284993   0.012237537734873447   -0.04445391791420536
0.6617492138284993   0.012237537734873447   -0.04445391791420536
0.27926807286426714   -0.0022283914542510497   0.022799661797640567
0.27926807286426714   -0.0022283914542510497   0.022799661797640567
0.27926807286426714   -0.0022283914542510497   0.022799661797640567
0.27926807286426714   -0.0022283914542510497   0.022799661797640567
0.23142129047565402   -0.07772438786295535   -0.03782165594838503
0.23142129047565402   -0.07772438786295535   -0.03782165594838503
0.23142129047565402   -0.07772438786295535   -0.03782165594838503
0.23142129047565402   -0.07772438786295535   -0.03782165594838503
0.6547777711665786   0.06869437821234364   0.03201930719763497
0.6547777711665786   0.06869437821234364   0.03201930719763497
0.6547777711665786   0.06869437821234364   0.03201930719763497
0.6547777711665786   0.06869437821234364   0.03201930719763497
0.43976021433038937   -0.0031051412091068625   -0.020524898726194025
0.43976021433038937   -0.0031051412091068625   -0.020524898726194025
0.43976021433038937   -0.0031051412091068625   -0.020524898726194025
0.43976021433038937   -0.0031051412091068625   -0.020524898726194025
0.6277824976434945   0.0018830402660000578   -0.036145722471448385
0.6277824976434945   0.0018830402660000578   -0.036145722471448385
0.6277824976434945   0.0018830402660000578   -0.036145722471448385
0.6277824976434945   0.0018830402660000578   -0.036145722471448385
0.25765533379433286   -0.01167428012101776   0.027298452903073714
0.25765533379433286   -0.01167428012101776   0.027298452903073714
0.25765533379433286   -0.01167428012101776   0.027298452903073714
0.25765533379433286   -0.01167428012101776   0.027298452903073714
0.21272415109229212   -0.08506758197615222   -0.03152285857161304
0.21272415109229212   -0.08506758197615222   -0.03152285857161304
0.21272415109229212   -0.08506758197615222   -0.03152285857161304
0.21272415109229212   -0.08506758197615222   -0.03152285857161304
0.6145996489826143   0.05361401542968365   0.03654800525489335
0.6145996489826143   0.05361401542968365   0.03654800525489335
0.6145996489826143   0.05361401542968365   0.03654800525489335
0.6145996489826143   0.05361401542968365   0.03654800525489335
0.4031682157337547   -0.014046440568084878   -0.03140177268524782
0.4031682157337547   -0.014046440568084878   -0.03140177268524782
0.4031682157337547   -0.014046440568084878   -0.03140177268524782
0.4031682157337547   -0.014046440568084878   -0.03140177268524782
0.30349157300580953   0.05847480029606862   -0.00857982519909925
0.30349157300580953   0.05847480029606862   -0.00857982519909925
0.30349157300580953   0.05847480029606862   -0.00857982519909925
0.30349157300580953   0.05847480029606862   -0.00857982519909925
-0.09316470667515118   0.005041301684854643   0.0027678334874802783
-0.09316470667515118   0.005041301684854643   0.0027678334874802783
-0.09316470667515118   0.005041301684854643   0.0027678334874802783
-0.09316470667515118   0.005041301684854643   0.0027678334874802783
-0.12673951978436337   -0.048340534472572944   -0.027370487622821453
-0.12673951978436337   -0.048340534472572944   -0.027370487622821453
-0.12673951978436337   -0.048340534472572944   -0.027370487622821453
-0.12673951978436337   -0.048340534472572944   -0.027370487622821453
0.2950904920625188   0.07029884849952583   0.02938451783512207
0.2950904920625188   0.07029884849952583   0.02938451783512207
0.2950904920625188   0.07029884849952583   0.02938451783512207
0.2950904920625188   0.07029884849952583   0.02938451783512207
0.09259310570543225   0.02033021039757087   0.003551433778461752
0.09259310570543225   0.02033021039757087   0.003551433778461752
0.09259310570543225   0.02033021039757087   0.003551433778461752
0.09259310570543225   0.02033021039757087   0.003551433778461752
0.28181547381119426   0.037921847322255925   -0.004613572244234738
0.28181547381119426   0.037921847322255925   -0.004613572244234738
0.28181547381119426   0.037921847322255925   -0.004613572244234738
0.28181547381119426   0.037921847322255925   -0.004613572244234738
-0.11366115467569139   -0.01616018643795594   0.0058409898859234114
-0.11366115467569139   -0.01616018643795594   0.0058409898859234114
-0.11366115467569139   -0.01616018643795594   0.0058409898859234114
-0.11366115467569139   -0.01616018643795594   0.0058409898859234114
-0.14619457382121037   -0.06458982862536135   -0.02214663252634318
-0.14619457382121037   -0.06458982862536135   -0.02214663252634318
-0.14619457382121037   -0.06458982862536135   -0.02214663252634318
-0.14619457382121037   -0.06458982862536135   -0.02214663252634318
0.2712293087170359   0.05154705011377201   0.03194699728179893
0.2712293087170359   0.05154705011377201   0.03194699728179893
0.2712293087170359   0.05154705011377201   0.03194699728179893
0.2712293087170359   0.05154705011377201   0.03194699728179893
0.06859954341612581   0.0019520829261425125   -0.005276879830460626
0.06859954341612581   0.0019520829261425125   -0.005276879830460626
0.06859954341612581   0.0019520829261425125   -0.005276879830460626
0.06859954341612581   0.0019520829261425125   -0.005276879830460626
0.25837395477805497   0.020497215949910788   -0.0012799382492478667
0.25837395477805497   0.020497215949910788   -0.0012799382492478667
0.25837395477805497   0.020497215949910788   -0.0012799382492478667
0.25837395477805497   0.020497215949910788   -0.0012799382492478667
-0.13383631372347912   -0.034037088302755175   0.009091927639708695
-0.13383631372347912   -0.034037088302755175   0.009091927639708695
-0.13383631372347912   -0.034037088302755175   0.009091927639708695
-0.13383631372347912   -0.034037088302755175   0.009091927639708695
-0.1653908486205144   -0.07986966468061751   -0.017319866741316352
-0.1653908486205144   -0.07986966468061751   -0.017319866741316352
-0.1653908486205144   -0.07986966468061751   -0.017319866741316352
-0.1653908486205144   -0.07986966468061751   -0.017319866741316352
0.249696701204534   0.033525606336776495   0.03474670367667279
0.249696701204534   0.033525606336776495   0.03474670367667279
0.249696701204534   0.033525606336776495   0.03474670367667279
0.249696701204534   0.033525606336776495   0.03474670367667279
0.049338129993690534   -0.013302984176243692   -0.013074944849672017
0.049338129993690534   -0.013302984176243692   -0.013074944849672017
0.049338129993690534   -0.013302984176243692   -0.013074944849672017
0.049338129993690534   -0.013302984176243692   -0.013074944849672017
-0.07853698877550894   0.07417466599756682   0.006773058672977391
-0.07853698877550894   0.07417466599756682   0.006773058672977391
-0.07853698877550894   0.07417466599756682   0.006773058672977391
-0.07853698877550894   0.07417466599756682   0.006773058672977391
-0.4819242168021706   -0.012179944294557071   -0.014654681745490512
-0.4819242168021706   -0.012179944294557071   -0.014654681745490512
-0.4819242168021706   -0.012179944294557071   -0.014654681745490512
-0.4819242168021706   -0.012179944294557071   -0.014654681745490512
-0.501120432553736   -0.02879532057611156   -0.010789534156042599
-0.501120432553736   -0.02879532057611156   -0.010789534156042599
-0.501120432553736   -0.02879532057611156   -0.010789534156042599
-0.501120432553736   -0.02879532057611156   -0.010789534156042599
-0.09859847234247401   0.05360116258084134   0.01139305253321305
-0.09859847234247401   0.05360116258084134   0.01139305253321305
-0.09859847234247401   0.05360116258084134   0.01139305253321305
-0.09859847234247401   0.05360116258084134   0.01139305253321305
-0.28933823218595817   0.021361922445923054   0.00572244383781324
-0.28933823218595817   0.021361922445923054   0.00572244383781324
-0.28933823218595817   0.021361922445923054   0.00572244383781324
-0.28933823218595817   0.021361922445923054   0.00572244383781324
-0.0979978724256452   0.05632211768362868   0.011675097014567856
-0.0979978724256452   0.05632211768362868   0.011675097014567856
-0.0979978724256452   0.05632211768362868   0.011675097014567856
-0.0979978724256452   0.05632211768362868   0.011675097014567856
-0.5017764151324196   -0.03157165834075405   -0.01129310928481828
-0.5017764151324196   -0.03157165834075405   -0.01129310928481828
-0.5017764151324196   -0.03157165834075405   -0.01129310928481828
-0.5017764151324196   -0.03157165834075405   -0.01129310928481828
-0.5207767411129973   -0.04649953858192926   -0.006137575376157143
-0.5207767411129973   -0.04649953858192926   -0.006137575376157143
-0.5207767411129973   -0.04649953858192926   -0.006137575376157143
-0.5207767411129973   -0.04649953858192926   -0.006137575376157143
-0.11901400681729807   0.03430326426888638   0.014863109598970541
-0.11901400681729807   0.03430326426888638   0.014863109598970541
-0.11901400681729807   0.03430326426888638   0.014863109598970541
-0.11901400681729807   0.03430326426888638   0.014863109598970541
-0.3095472003053579   0.004123702283073322   -0.0018666826099760954
-0.3095472003053579   0.004123702283073322   -0.0018666826099760954
-0.3095472003053579   0.004123702283073322   -0.0018666826099760954
-0.3095472003053579   0.004123702283073322   -0.0018666826099760954
-0.1179926571468517   0.038449514775457515   0.015823607444631193
-0.1179926571468517   0.038449514775457515   0.015823607444631193
-0.1179926571468517   0.038449514775457515   0.015823607444631193
-0.1179926571468517   0.038449514775457515   0.015823607444631193
-0.5221129603291076   -0.05096065863416439   -0.00835755140447375
-0.5221129603291076   -0.05096065863416439   -0.00835755140447375
-0.5221129603291076   -0.05096065863416439   -0.00835755140447375
-0.5221129603291076   -0.05096065863416439   -0.00835755140447375
-0.5401011577569875   -0.06341145109889063   -0.001613976085720465
-0.5401011577569875   -0.06341145109889063   -0.001613976085720465
-0.5401011577569875   -0.06341145109889063   -0.001613976085720465
-0.5401011577569875   -0.06341145109889063   -0.001613976085720465
-0.13925745085016336   0.015551949629080564   0.017925507800738802
-0.13925745085016336   0.015551949629080564   0.017925507800738802
-0.13925745085016336   0.015551949629080564   0.017925507800738802
-0.13925745085016336   0.015551949629080564   0.017925507800738802
-0.33058931581174106   -0.01313344668005996   -0.010093300686074572
-0.33058931581174106   -0.01313344668005996   -0.010093300686074572
-0.33058931581174106   -0.01313344668005996   -0.010093300686074572
-0.33058931581174106   -0.01313344668005996   -0.010093300686074572
-0.454671607290481   0.08764093875547538   0.0217874827629254
-0.454671607290481   0.08764093875547538   0.0217874827629254
-0.454671607290481   0.08764093875547538   0.0217874827629254
-0.454671607290481   0.08764093875547538   0.0217874827629254
-0.8638318036547155   -0.029313994217860267   -0.02982010891882253
-0.8638318036547155   -0.029313994217860267   -0.02982010891882253
-0.8638318036547155   -0.029313994217860267   -0.02982010891882253
-0.8638318036547155   -0.029313994217860267   -0.02982010891882253
-0.8710435623581861   -0.012895796641606755   0.006992434292071678
-0.8710435623581861   -0.012895796641606755   0.006992434292071678
-0.8710435623581861   -0.012895796641606755   0.006992434292071678
-0.8710435623581861   -0.012895796641606755   0.006992434292071678
-0.4874859477165761   0.0349321737692483   -0.00634460431561093
-0.4874859477165761   0.0349321737692483   -0.00634460431561093
-0.4874859477165761   0.0349321737692483   -0.00634460431561093
-0.4874859477165761   0.0349321737692483   -0.00634460431561093
-0.6652859358229085   0.020286192255056373   0.008307647380798006
-0.6652859358229085   0.020286192255056373   0.008307647380798006
-0.6652859358229085   0.020286192255056373   0.008307647380798006
-0.6652859358229085   0.020286192255056373   0.008307647380798006
-0.47377270469299343   0.07049220412277434   0.026661580448784347
-0.47377270469299343   0.07049220412277434   0.026661580448784347
-0.47377270469299343   0.07049220412277434   0.026661580448784347
-0.47377270469299343   0.07049220412277434   0.026661580448784347
-0.8853569226675185   -0.04905594428088239   -0.02841421961532202
-0.8853569226675185   -0.04905594428088239   -0.02841421961532202
-0.8853569226675185   -0.04905594428088239   -0.02841421961532202
-0.8853569226675185   -0.04905594428088239   -0.02841421961532202
-0.8942158742313844   -0.030431478789871236   0.009146862248704854
-0.8942158742313844   -0.030431478789871236   0.009146862248704854
-0.8942158742313844   -0.030431478789871236   0.009146862248704854
-0.8942158742313844   -0.030431478789871236   0.009146862248704854
-0.5073527870884887   0.017147256810274708   -0.0026646006458263677
-0.5073527870884887   0.017147256810274708   -0.0026646006458263677
-0.5073527870884887   0.017147256810274708   -0.0026646006458263677
-0.5073527870884887   0.017147256810274708   -0.0026646006458263677
-0.6822959271337993   0.004657009776151355   0.000699601508489342
-0.6822959271337993   0.004657009776151355   0.000699601508489342
-0.6822959271337993   0.004657009776151355   0.000699601508489342
-0.6822959271337993   0.004657009776151355   0.000699601508489342
-0.4931462233314993   0.05421347827520394   0.031301996674195684
-0.4931462233314993   0.05421347827520394   0.031301996674195684
-0.4931462233314993   0.05421347827520394   0.031301996674195684
-0.4931462233314993   0.05421347827520394   0.031301996674195684
-0.908475312467081   -0.06755057473350823   -0.02503123298614894
-0.908475312467081   -0.06755057473350823   -0.02503123298614894
-0.908475312467081   -0.06755057473350823   -0.02503123298614894
-0.908475312467081   -0.06755057473350823   -0.02503123298614894
-0.9148465306181762   -0.049116633807774174   0.014001136465396975
-0.9148465306181762   -0.049116633807774174   0.014001136465396975
-0.9148465306181762   -0.049116633807774174   0.014001136465396975
-0.9148465306181762   -0.049116633807774174   0.014001136465396975
-0.5275672893459095   -0.0025831663735217947   0.0002270812442938218
-0.5275672893459095   -0.0025831663735217947   0.0002270812442938218
-0.5275672893459095   -0.0025831663735217947   0.0002270812442938218
-0.5275672893459095   -0.0025831663735217947   0.0002270812442938218
-0.7078376444348099   -0.013490027214118516   -0.008133323411440935
-0.7078376444348099   -0.013490027214118516   -0.008133323411440935
-0.7078376444348099   -0.013490027214118516   -0.008133323411440935
-0.7078376444348099   -0.013490027214118516   -0.008133323411440935
-0.8289101733947726   0.08122981395829615   0.03424423420473498
-0.8289101733947726   0.08122981395829615   0.03424423420473498
-0.8289101733947726   0.08122981395829615   0.03424423420473498
-0.8289101733947726   0.08122981395829615   0.03424423420473498
-1.2231430879115828   -0.05632859434809151   -0.038706508248243746
-1.2231430879115828   -0.05632859434809151   -0.038706508248243746
-1.2231430879115828   -0.05632859434809151   -0.038706508248243746
-1.2231430879115828   -0.05632859434809151   -0.038706508248243746
-1.2349379155413518   -0.0012201624083305052   0.03393532446019194
-1.2349379155413518   -0.0012201624083305052   0.03393532446019194
-1.2349379155413518   -0.0012201624083305052   0.03393532446019194
-1.2349379155413518   -0.0012201624083305052   0.03393532446019194
-0.8721208395308668   0.011937807531265915   -0.02322755574422721
-0.8721208395308668   0.011937807531265915   -0.02322755574422721
-0.8721208395308668   0.011937807531265915   -0.02322755574422721
-0.8721208395308668   0.011937807531265915   -0.02322755574422721
-0.994021621753964   0.018832064572082474   0.025173517111656267
-0.994021621753964   0.018832064572082474   0.025173517111656267
-0.994021621753964   0.018832064572082474   0.025173517111656267
-0.994021621753964   0.018832064572082474   0.025173517111656267
-0.8462207974700685   0.07781524061008577   0.04039522148095942
-0.8462207974700685   0.07781524061008577   0.04039522148095942
-0.8462207974700685   0.07781524061008577   0.04039522148095942
-0.8462207974700685   0.07781524061008577   0.04039522148095942
-1.2613506453602183   -0.06761028324520832   -0.03173820379724692
-1.2613506453602183   -0.06761028324520832   -0.03173820379724692
-1.2613506453602183   -0.06761028324520832   -0.03173820379724692
-1.2613506453602183   -0.06761028324520832   -0.03173820379724692
-1.2676794466217183   -0.010866241524940146   0.04276603049362064
-1.2676794466217183   -0.010866241524940146   0.04276603049362064
-1.2676794466217183   -0.010866241524940146   0.04276603049362064
-1.2676794466217183   -0.010866241524940146   0.04276603049362064
-0.8934799832529632   0.0021854010226330933   -0.019790562671708256
-0.8934799832529632   0.0021854010226330933   -0.019790562671708256
-0.8934799832529632   0.0021854010226330933   -0.019790562671708256
-0.8934799832529632   0.0021854010226330933   -0.019790562671708256
-1.0381962313391886   0.0077463818886125135   0.013198620693403641
-1.0381962313391886   0.0077463818886125135   0.013198620693403641
-1.0381962313391886   0.0077463818886125135   0.013198620693403641
-1.0381962313391886   0.0077463818886125135   0.013198620693403641
-0.8663682201781494   0.07036127367504261   0.0475923800499657
-0.8663682201781494   0.07036127367504261   0.0475923800499657
-0.8663682201781494   0.07036127367504261   0.0475923800499657
-0.8663682201781494   0.07036127367504261   0.0475923800499657
-1.295161385919235   -0.07941229040005049   -0.026097617118854305
-1.295161385919235   -0.07941229040005049   -0.026097617118854305
-1.295161385919235   -0.07941229040005049   -0.026097617118854305
-1.295161385919235   -0.07941229040005049   -0.026097617118854305
-1.311480663580884   -0.04106990722850076   0.04289958357342228
-1.311480663580884   -0.04106990722850076   0.04289958357342228
-1.311480663580884   -0.04106990722850076   0.04289958357342228
-1.311480663580884   -0.04106990722850076   0.04289958357342228
-0.9158305978692879   -0.022536382065045463   -0.01749945153289776
-0.9158305978692879   -0.022536382065045463   -0.01749945153289776
-0.9158305978692879   -0.022536382065045463   -0.01749945153289776
-0.9158305978692879   -0.022536382065045463   -0.01749945153289776
-1.0506696802075983   -0.004906934531328427   0.007506950434872844
-1.0506696802075983   -0.004906934531328427   0.007506950434872844
-1.0506696802075983   -0.004906934531328427   0.007506950434872844
-1.0506696802075983   -0.004906934531328427   0.007506950434872844
0.3886411338963483   0.02326326806957365   -0.04664919866400181
0.3886411338963483   0.02326326806957365   -0.04664919866400181
0.3886411338963483   0.02326326806957365   -0.04664919866400181
0.3886411338963483   0.02326326806957365   -0.04664919866400181
0.11311636198830571   0.028014703998733664   0.02230455008519673
0.11311636198830571   0.028014703998733664   0.02230455008519673
0.11311636198830571   0.028014703998733664   0.02230455008519673
0.11311636198830571   0.028014703998733664   0.02230455008519673
0.06969799988501095   -0.056930300489264035   -0.041139810398137466
0.06969799988501095   -0.056930300489264035   -0.041139810398137466
0.06969799988501095   -0.056930300489264035   -0.041139810398137466
0.06969799988501095   -0.056930300489264035   -0.041139810398137466
0.3779549574833616   0.06619627347116679   0.026836200620594202
0.3779549574833616   0.06619627347116679   0.026836200620594202
0.3779549574833616   0.06619627347116679   0.026836200620594202
0.3779549574833616   0.06619627347116679   0.026836200620594202
0.22349374216821483   0.01104203755493386   -0.005166692202219785
0.22349374216821483   0.01104203755493386   -0.005166692202219785
0.22349374216821483   0.01104203755493386   -0.005166692202219785
0.22349374216821483   0.01104203755493386   -0.005166692202219785
0.3505768859986808   -0.0010817815443596585   -0.04277610178728544
0.3505768859986808   -0.0010817815443596585   -0.04277610178728544
0.3505768859986808   -0.0010817815443596585   -0.04277610178728544
0.3505768859986808   -0.0010817815443596585   -0.04277610178728544
0.09622172894356379   0.00949341210013424   0.025055122305229344
0.09622172894356379   0.00949341210013424   0.025055122305229344
0.09622172894356379   0.00949341210013424   0.025055122305229344
0.09622172894356379   0.00949341210013424   0.025055122305229344
0.05330845206578529   -0.06499235818914273   -0.03494505570903432
0.05330845206578529   -0.06499235818914273   -0.03494505570903432
0.05330845206578529   -0.06499235818914273   -0.03494505570903432
0.05330845206578529   -0.06499235818914273   -0.03494505570903432
0.3484941518223238   0.055071952512441485   0.03448098212517717
0.3484941518223238   0.055071952512441485   0.03448098212517717
0.3484941518223238   0.055071952512441485   0.03448098212517717
0.3484941518223238   0.055071952512441485   0.03448098212517717
0.2029362871148878   -0.0015534420812896577   -0.013335095507160161
0.2029362871148878   -0.0015534420812896577   -0.013335095507160161
0.2029362871148878   -0.0015534420812896577   -0.013335095507160161
0.2029362871148878   -0.0015534420812896577   -0.013335095507160161
0.3212706929142067   -0.011436475715204814   -0.03512788418776607
0.3212706929142067   -0.011436475715204814   -0.03512788418776607
0.3212706929142067   -0.011436475715204814   -0.03512788418776607
0.3212706929142067   -0.011436475715204814   -0.03512788418776607
0.07938727658287129   0.00037143564747194047   0.030085273039781955
0.07938727658287129   0.00037143564747194047   0.030085273039781955
0.07938727658287129   0.00037143564747194047   0.030085273039781955
0.07938727658287129   0.00037143564747194047   0.030085273039781955
0.03865518721899752   -0.07470606463705873   -0.029107933315201735
0.03865518721899752   -0.07470606463705873   -0.029107933315201735
0.03865518721899752   -0.07470606463705873   -0.029107933315201735
0.03865518721899752   -0.07470606463705873   -0.029107933315201735
0.3120097561194325   0.037283408885188274   0.038287425973834326
0.3120097561194325   0.037283408885188274   0.038287425973834326
0.3120097561194325   0.037283408885188274   0.038287425973834326
0.3120097561194325   0.037283408885188274   0.038287425973834326
0.1744911888648555   -0.012765915003861872   -0.023326951645537886
0.1744911888648555   -0.012765915003861872   -0.023326951645537886
0.1744911888648555   -0.012765915003861872   -0.023326951645537886
0.1744911888648555   -0.012765915003861872   -0.023326951645537886
0.10878815853643765   0.04217829616215662   -0.013500059337567998
0.10878815853643765   0.04217829616215662   -0.013500059337567998
0.10878815853643765   0.04217829616215662   -0.013500059337567998
0.10878815853643765   0.04217829616215662   -0.013500059337567998
-0.1575643453164094   0.01355792189531254   0.005408383627102742
-0.1575643453164094   0.01355792189531254   0.005408383627102742
-0.1575643453164094   0.01355792189531254   0.005408383627102742
-0.1575643453164094   0.01355792189531254   0.005408383627102742
-0.18553395341528384   -0.036506041044335975   -0.024015484406384374
-0.18553395341528384   -0.036506041044335975   -0.024015484406384374
-0.18553395341528384   -0.036506041044335975   -0.024015484406384374
-0.18553395341528384   -0.036506041044335975   -0.024015484406384374
0.10488594477501724   0.0523450730998648   0.02552454046276603
0.10488594477501724   0.0523450730998648   0.02552454046276603
0.10488594477501724   0.0523450730998648   0.02552454046276603
0.10488594477501724   0.0523450730998648   0.02552454046276603
-0.033286641282383955   0.017138022384243546   0.004355942451686472
-0.033286641282383955   0.017138022384243546   0.004355942451686472
-0.033286641282383955   0.017138022384243546   0.004355942451686472
-0.033286641282383955   0.017138022384243546   0.004355942451686472
0.09167879452377774   0.02175531490503307   -0.00992145259860067
0.09167879452377774   0.02175531490503307   -0.00992145259860067
0.09167879452377774   0.02175531490503307   -0.00992145259860067
0.09167879452377774   0.02175531490503307   -0.00992145259860067
-0.17305599695712662   -0.006645476642581572   0.00851373348264732
-0.17305599695712662   -0.006645476642581572   0.00851373348264732
-0.17305599695712662   -0.006645476642581572   0.00851373348264732
-0.17305599695712662   -0.006645476642581572   0.00851373348264732
-0.2001950167285255   -0.05288954529074649   -0.01881165429520152
-0.2001950167285255   -0.05288954529074649   -0.01881165429520152
-0.2001950167285255   -0.05288954529074649   -0.01881165429520152
-0.2001950167285255   -0.05288954529074649   -0.01881165429520152
0.08565022409163446   0.03394108943021029   0.02783035680085946
0.08565022409163446   0.03394108943021029   0.02783035680085946
0.08565022409163446   0.03394108943021029   0.02783035680085946
0.08565022409163446   0.03394108943021029   0.02783035680085946
-0.05140458926754347   -0.0005398444326776761   -0.0041157693362812164
-0.05140458926754347   -0.0005398444326776761   -0.0041157693362812164
-0.05140458926754347   -0.0005398444326776761   -0.0041157693362812164
-0.05140458926754347   -0.0005398444326776761   -0.0041157693362812164
0.0728327140178034   0.004179259074951905   -0.006495363213038435
0.0728327140178034   0.004179259074951905   -0.006495363213038435
0.0728327140178034   0.004179259074951905   -0.006495363213038435
0.0728327140178034   0.004179259074951905   -0.006495363213038435
-0.18832144059412798   -0.02407164887491639   0.01173832996095784
-0.18832144059412798   -0.02407164887491639   0.01173832996095784
-0.18832144059412798   -0.02407164887491639   0.01173832996095784
-0.18832144059412798   -0.02407164887491639   0.01173832996095784
-0.21474366482239254   -0.06913357561234167   -0.014108840041991477
-0.21474366482239254   -0.06913357561234167   -0.014108840041991477
-0.21474366482239254   -0.06913357561234167   -0.014108840041991477
-0.21474366482239254   -0.06913357561234167   -0.014108840041991477
0.06880810514199921   0.015879533367195303   0.03107105829555307
0.06880810514199921   0.015879533367195303   0.03107105829555307
0.06880810514199921   0.015879533367195303   0.03107105829555307
0.06880810514199921   0.015879533367195303   0.03107105829555307
-0.06707812005814881   -0.01636006703630002   -0.012113601106109885
-0.06707812005814881   -0.01636006703630002   -0.012113601106109885
-0.06707812005814881   -0.01636006703630002   -0.012113601106109885
-0.06707812005814881   -0.01636006703630002   -0.012113601106109885
-0.14941724327307082   0.05766062492348551   0.0020411908156225227
-0.14941724327307082   0.05766062492348551   0.0020411908156225227
-0.14941724327307082   0.05766062492348551   0.0020411908156225227
-0.14941724327307082   0.05766062492348551   0.0020411908156225227
-0.4246258664850585   -0.00510533123405979   -0.011680977895012792
-0.4246258664850585   -0.00510533123405979   -0.011680977895012792
-0.4246258664850585   -0.00510533123405979   -0.011680977895012792
-0.4246258664850585   -0.00510533123405979   -0.011680977895012792
-0.4378340832501871   -0.01792156598185453   -0.006984979372553286
-0.4378340832501871   -0.01792156598185453   -0.006984979372553286
-0.4378340832501871   -0.01792156598185453   -0.006984979372553286
-0.4378340832501871   -0.01792156598185453   -0.006984979372553286
-0.1649139365961726   0.034459731377287   0.008118827267544995
-0.1649139365961726   0.034459731377287   0.008118827267544995
-0.1649139365961726   0.034459731377287   0.008118827267544995
-0.1649139365961726   0.034459731377287   0.008118827267544995
-0.29349894060551274   0.016907699699378317   0.004512558588464045
-0.29349894060551274   0.016907699699378317   0.004512558588464045
-0.29349894060551274   0.016907699699378317   0.004512558588464045
-0.29349894060551274   0.016907699699378317   0.004512558588464045
-0.16413085795811455   0.03959572109841318   0.006898230736712797
-0.16413085795811455   0.03959572109841318   0.006898230736712797
-0.16413085795811455   0.03959572109841318   0.006898230736712797
-0.16413085795811455   0.03959572109841318   0.006898230736712797
-0.43925606261957806   -0.0236964564343137   -0.008319985767053041
-0.43925606261957806   -0.0236964564343137   -0.008319985767053041
-0.43925606261957806   -0.0236964564343137   -0.008319985767053041
-0.43925606261957806   -0.0236964564343137   -0.008319985767053041
-0.45243202276818345   -0.035807229864419504   -0.0022713451167041404
-0.45243202276818345   -0.035807229864419504   -0.0022713451167041404
-0.45243202276818345   -0.035807229864419504   -0.0022713451167041404
-0.45243202276818345   -0.035807229864419504   -0.0022713451167041404
-0.18038883664751953   0.015794533288329318   0.011535167530750724
-0.18038883664751953   0.015794533288329318   0.011535167530750724
-0.18038883664751953   0.015794533288329318   0.011535167530750724
-0.18038883664751953   0.015794533288329318   0.011535167530750724
-0.30872873768676434   -8.13940854711287e-05   -0.0030812409011554617
-0.30872873768676434   -8.13940854711287e-05   -0.0030812409011554617
-0.30872873768676434   -8.13940854711287e-05   -0.0030812409011554617
-0.30872873768676434   -8.13940854711287e-05   -0.0030812409011554617
-0.1793386265243977   0.021484890578847546   0.011095860855845331
-0.1793386265243977   0.021484890578847546   0.011095860855845331
-0.1793386265243977   0.021484890578847546   0.011095860855845331
-0.1793386265243977   0.021484890578847546   0.011095860855845331
-0.4543903549424743   -0.042405709206106784   -0.005464526646474972
-0.4543903549424743   -0.042405709206106784   -0.005464526646474972
-0.4543903549424743   -0.042405709206106784   -0.005464526646474972
-0.4543903549424743   -0.042405709206106784   -0.005464526646474972
-0.4667486757280539   -0.05307282235222009   0.002292872772126038
-0.4667486757280539   -0.05307282235222009   0.002292872772126038
-0.4667486757280539   -0.05307282235222009   0.002292872772126038
-0.4667486757280539   -0.05307282235222009   0.002292872772126038
-0.19560012214897807   -0.0021846880935282725   0.014659985806265447
-0.19560012214897807   -0.0021846880935282725   0.014659985806265447
-0.19560012214897807   -0.0021846880935282725   0.014659985806265447
-0.19560012214897807   -0.0021846880935282725   0.014659985806265447
-0.3247539956084393   -0.017110423395389013   -0.011326718039578416
-0.3247539956084393   -0.017110423395389013   -0.011326718039578416
-0.3247539956084393   -0.017110423395389013   -0.011326718039578416
-0.3247539956084393   -0.017110423395389013   -0.011326718039578416
-0.4031921888517427   0.07237863861166674   0.018003440425839845
-0.4031921888517427   0.07237863861166674   0.018003440425839845
-0.4031921888517427   0.07237863861166674   0.018003440425839845
-0.4031921888517427   0.07237863861166674   0.018003440425839845
-0.6858915056741383   -0.02043685098949463   -0.026637986350266256
-0.6858915056741383   -0.02043685098949463   -0.026637986350266256
-0.6858915056741383   -0.02043685098949463   -0.026637986350266256
-0.6858915056741383   -0.02043685098949463   -0.026637986350266256
-0.6871971003331342   -0.0015283435136684842   0.011063961886332435
-0.6871971003331342   -0.0015283435136684842   0.011063961886332435
-0.6871971003331342   -0.0015283435136684842   0.011063961886332435
-0.6871971003331342   -0.0015283435136684842   0.011063961886332435
-0.43098629640395253   0.01772032209061382   -0.008387933213856877
-0.43098629640395253   0.01772032209061382   -0.008387933213856877
-0.43098629640395253   0.01772032209061382   -0.008387933213856877
-0.43098629640395253   0.01772032209061382   -0.008387933213856877
-0.5490002077897094   0.01699854882042745   0.005934891061984228
-0.5490002077897094   0.01699854882042745   0.005934891061984228
-0.5490002077897094   0.01699854882042745   0.005934891061984228
-0.5490002077897094   0.01699854882042745   0.005934891061984228
-0.41731564086992046   0.054810241092577344   0.022875425454347828
-0.41731564086992046   0.054810241092577344   0.022875425454347828
-0.41731564086992046   0.054810241092577344   0.022875425454347828
-0.41731564086992046   0.054810241092577344   0.022875425454347828
-0.7020938811934497   -0.03984438784191677   -0.025103898087012605
-0.7020938811934497   -0.03984438784191677   -0.025103898087012605
-0.7020938811934497   -0.03984438784191677   -0.025103898087012605
-0.7020938811934497   -0.03984438784191677   -0.025103898087012605
-0.7051697787757101   -0.019162856035584347   0.013601826812099635
-0.7051697787757101   -0.019162856035584347   0.013601826812099635
-0.7051697787757101   -0.019162856035584347   0.013601826812099635
-0.7051697787757101   -0.019162856035584347   0.013601826812099635
-0.4456609614195829   0.0005320050017192379   -0.004755273239847608
-0.4456609614195829   0.0005320050017192379   -0.004755273239847608
-0.4456609614195829   0.0005320050017192379   -0.004755273239847608
-0.4456609614195829   0.0005320050017192379   -0.004755273239847608
-0.5619377241352007   0.0011686009064963698   -0.002025627377213589
-0.5619377241352007   0.0011686009064963698   -0.002025627377213589
-0.5619377241352007   0.0011686009064963698   -0.002025627377213589
-0.5619377241352007   0.0011686009064963698   -0.002025627377213589
-0.43162703453958795   0.03834550056799248   0.02760086559386156
-0.43162703453958795   0.03834550056799248   0.02760086559386156
-0.43162703453958795   0.03834550056799248   0.02760086559386156
-0.43162703453958795   0.03834550056799248   0.02760086559386156
-0.7199683054440666   -0.05774095139022041   -0.021812711175062106
-0.7199683054440666   -0.05774095139022041   -0.021812711175062106
-0.7199683054440666   -0.05774095139022041   -0.021812711175062106
-0.7199683054440666   -0.05774095139022041   -0.021812711175062106
-0.720692160228564   -0.03754838991381916   0.018525834425492296
-0.720692160228564   -0.03754838991381916   0.018525834425492296
-0.720692160228564   -0.03754838991381916   0.018525834425492296
-0.720692160228564   -0.03754838991381916   0.018525834425492296
-0.46051994335989715   -0.017855821042149722   -0.0017804666971681232
-0.46051994335989715   -0.017855821042149722   -0.0017804666971681232
-0.46051994335989715   -0.017855821042149722   -0.0017804666971681232
-0.46051994335989715   -0.017855821042149722   -0.0017804666971681232
-0.5811962312740296   -0.01608885172268594   -0.010705098949869468
-0.5811962312740296   -0.01608885172268594   -0.010705098949869468
-0.5811962312740296   -0.01608885172268594   -0.010705098949869468
-0.5811962312740296   -0.01608885172268594   -0.010705098949869468
-0.655848827023662   0.07124939221805582   0.031889163694572134
-0.655848827023662   0.07124939221805582   0.031889163694572134
-0.655848827023662   0.07124939221805582   0.031889163694572134
-0.655848827023662   0.07124939221805582   0.031889163694572134
-0.9232927059067039   -0.042516899504437905   -0.04039798247618786
-0.9232927059067039   -0.042516899504437905   -0.04039798247618786
-0.9232927059067039   -0.042516899504437905   -0.04039798247618786
-0.9232927059067039   -0.042516899504437905   -0.04039798247618786
-0.9300402694675917   0.011703528702917632   0.03352048005075626
-0.9300402694675917   0.011703528702917632   0.03352048005075626
-0.9300402694675917   0.011703528702917632   0.03352048005075626
-0.9300402694675917   0.011703528702917632   0.03352048005075626
-0.6944470079147682   -0.002043502445856993   -0.02467041708966472
-0.6944470079147682   -0.002043502445856993   -0.02467041708966472
-0.6944470079147682   -0.002043502445856993   -0.02467041708966472
-0.6944470079147682   -0.002043502445856993   -0.02467041708966472
-0.7664756969754767   0.01705985656832862   0.01858197936764816
-0.7664756969754767   0.01705985656832862   0.01858197936764816
-0.7664756969754767   0.01705985656832862   0.01858197936764816
-0.7664756969754767   0.01705985656832862   0.01858197936764816
-0.6685947376861147   0.06483168780884255   0.037715743798903724
-0.6685947376861147   0.06483168780884255   0.037715743798903724
-0.6685947376861147   0.06483168780884255   0.037715743798903724
-0.6685947376861147   0.06483168780884255   0.037715743798903724
-0.9571979972150975   -0.05647711907063402   -0.03408751091322071
-0.9571979972150975   -0.05647711907063402   -0.03408751091322071
-0.9571979972150975   -0.05647711907063402   -0.03408751091322071
-0.9571979972150975   -0.05647711907063402   -0.03408751091322071
-0.9580366245608222   0.0017932465601434022   0.04280530632370225
-0.9580366245608222   0.0017932465601434022   0.04280530632370225
-0.9580366245608222   0.0017932465601434022   0.04280530632370225
-0.9580366245608222   0.0017932465601434022   0.04280530632370225
-0.7106177850406571   -0.01163438271680306   -0.021166677831431523
-0.7106177850406571   -0.01163438271680306   -0.021166677831431523
-0.7106177850406571   -0.01163438271680306   -0.021166677831431523
-0.7106177850406571   -0.01163438271680306   -0.021166677831431523
-0.8022815571674182   0.0053425096959621166   0.006727514420852426
-0.8022815571674182   0.0053425096959621166   0.006727514420852426
-0.8022815571674182   0.0053425096959621166   0.006727514420852426
-0.8022815571674182   0.0053425096959621166   0.006727514420852426
-0.683671343628475   0.057076225653674206   0.044854920859009134
-0.683671343628475   0.057076225653674206   0.044854920859009134
-0.683671343628475   0.057076225653674206   0.044854920859009134
-0.683671343628475   0.057076225653674206   0.044854920859009134
-0.9862175350970626   -0.06815183093439095   -0.028154168862965477
-0.9862175350970626   -0.06815183093439095   -0.028154168862965477
-0.9862175350970626   -0.06815183093439095   -0.028154168862965477
-0.9862175350970626   -0.06815183093439095   -0.028154168862965477
-0.9967480635991649   -0.02638175397854936   0.04419115462945996
-0.9967480635991649   -0.02638175397854936   0.04419115462945996
-0.9967480635991649   -0.02638175397854936   0.04419115462945996
-0.9967480635991649   -0.02638175397854936   0.04419115462945996
-0.7273061291537064   -0.03363359539592381   -0.018458804718130745
-0.7273061291537064   -0.03363359539592381   -0.018458804718130745
-0.7273061291537064   -0.03363359539592381   -0.018458804718130745
-0.7273061291537064   -0.03363359539592381   -0.018458804718130745
-0.8139205596463627   -0.00712653842902683   -0.00031614012323637197
-0.8139205596463627   -0.00712653842902683   -0.00031614012323637197
-0.8139205596463627   -0.00712653842902683   -0.00031614012323637197
-0.8139205596463627   -0.00712653842902683   -0.00031614012323637197
0.07120337016631109   0.005854709697797418   -0.04658242959748988
0.07120337016631109   0.005854709697797418   -0.04658242959748988
0.07120337016631109   0.005854709697797418   -0.04658242959748988
0.07120337016631109   0.005854709697797418   -0.04658242959748988
-0.07516512124013085   0.03489920015559106   0.023805366091026417
-0.07516512124013085   0.03489920015559106   0.023805366091026417
-0.07516512124013085   0.03489920015559106   0.023805366091026417
-0.07516512124013085   0.03489920015559106   0.023805366091026417
-0.1131293404606959   -0.044893054669409876   -0.037526142138231536
-0.1131293404606959   -0.044893054669409876   -0.037526142138231536
-0.1131293404606959   -0.044893054669409876   -0.037526142138231536
-0.1131293404606959   -0.044893054669409876   -0.037526142138231536
0.0654514711467753   0.049465671917253276   0.02921934466473549
0.0654514711467753   0.049465671917253276   0.02921934466473549
0.0654514711467753   0.049465671917253276   0.02921934466473549
0.0654514711467753   0.049465671917253276   0.02921934466473549
-0.014550561899498216   0.010857549370452649   0.004040177617315677
-0.014550561899498216   0.010857549370452649   0.004040177617315677
-0.014550561899498216   0.010857549370452649   0.004040177617315677
-0.014550561899498216   0.010857549370452649   0.004040177617315677
0.03829546511947497   -0.015434889863859966   -0.041660123690652875
0.03829546511947497   -0.015434889863859966   -0.041660123690652875
0.03829546511947497   -0.015434889863859966   -0.041660123690652875
0.03829546511947497   -0.015434889863859966   -0.041660123690652875
-0.08757545066658995   0.01840539087850901   0.026944861284379416
-0.08757545066658995   0.01840539087850901   0.026944861284379416
-0.08757545066658995   0.01840539087850901   0.026944861284379416
-0.08757545066658995   0.01840539087850901   0.026944861284379416
-0.12564549677604017   -0.05301622362917732   -0.0318202499845529
-0.12564549677604017   -0.05301622362917732   -0.0318202499845529
-0.12564549677604017   -0.05301622362917732   -0.0318202499845529
-0.12564549677604017   -0.05301622362917732   -0.0318202499845529
0.039700851745296764   0.0384373056992947   0.04008787047736589
0.039700851745296764   0.0384373056992947   0.04008787047736589
0.039700851745296764   0.0384373056992947   0.04008787047736589
0.039700851745296764   0.0384373056992947   0.04008787047736589
-0.034845988499438846   -0.0013144882608741616   -0.005337124448687653
-0.034845988499438846   -0.0013144882608741616   -0.005337124448687653
-0.034845988499438846   -0.0013144882608741616   -0.005337124448687653
-0.034845988499438846   -0.0013144882608741616   -0.005337124448687653
0.011913606871030543   -0.02601880211815559   -0.03439224607651494
0.011913606871030543   -0.02601880211815559   -0.03439224607651494
0.011913606871030543   -0.02601880211815559   -0.03439224607651494
0.011913606871030543   -0.02601880211815559   -0.03439224607651494
-0.10008289213214579   0.009215243957900979   0.03376130564783986
-0.10008289213214579   0.009215243957900979   0.03376130564783986
-0.10008289213214579   0.009215243957900979   0.03376130564783986
-0.10008289213214579   0.009215243957900979   0.03376130564783986
-0.13710839523698337   -0.0654743086162546   -0.026383010176933425
-0.13710839523698337   -0.0654743086162546   -0.026383010176933425
-0.13710839523698337   -0.0654743086162546   -0.026383010176933425
-0.13710839523698337   -0.0654743086162546   -0.026383010176933425
0.003938331848743005   0.015339031630167529   0.0457160906334287
0.003938331848743005   0.015339031630167529   0.0457160906334287
0.003938331848743005   0.015339031630167529   0.0457160906334287
0.003938331848743005   0.015339031630167529   0.0457160906334287
-0.05670037395789018   -0.013558022547233083   -0.016161060812319356
-0.05670037395789018   -0.013558022547233083   -0.016161060812319356
-0.05670037395789018   -0.013558022547233083   -0.016161060812319356
-0.05670037395789018   -0.013558022547233083   -0.016161060812319356
-0.08598796856579274   0.023091322036397424   -0.018500992418089446
-0.08598796856579274   0.023091322036397424   -0.018500992418089446
-0.08598796856579274   0.023091322036397424   -0.018500992418089446
-0.08598796856579274   0.023091322036397424   -0.018500992418089446
-0.2229335041843999   0.009383800040428013   0.006200688004622401
-0.2229335041843999   0.009383800040428013   0.006200688004622401
-0.2229335041843999   0.009383800040428013   0.006200688004622401
-0.2229335041843999   0.009383800040428013   0.006200688004622401
-0.24253346370064374   -0.026149084972481168   -0.01952684142330287
-0.24253346370064374   -0.026149084972481168   -0.01952684142330287
-0.24253346370064374   -0.026149084972481168   -0.01952684142330287
-0.24253346370064374   -0.026149084972481168   -0.01952684142330287
-0.08842728756797101   0.022431645718035763   0.018659421937947326
-0.08842728756797101   0.022431645718035763   0.018659421937947326
-0.08842728756797101   0.022431645718035763   0.018659421937947326
-0.08842728756797101   0.022431645718035763   0.018659421937947326
-0.1596491488637998   0.006731680114063575   0.0035965681961355692
-0.1596491488637998   0.006731680114063575   0.0035965681961355692
-0.1596491488637998   0.006731680114063575   0.0035965681961355692
-0.1596491488637998   0.006731680114063575   0.0035965681961355692
-0.09900192617996449   0.0034218047795987402   -0.015203930183582546
-0.09900192617996449   0.0034218047795987402   -0.015203930183582546
-0.09900192617996449   0.0034218047795987402   -0.015203930183582546
-0.09900192617996449   0.0034218047795987402   -0.015203930183582546
-0.23327634135061742   -0.008456760296011875   0.009066445650355555
-0.23327634135061742   -0.008456760296011875   0.009066445650355555
-0.23327634135061742   -0.008456760296011875   0.009066445650355555
-0.23327634135061742   -0.008456760296011875   0.009066445650355555
-0.25228094391807443   -0.04209546630011313   -0.01442125384104875
-0.25228094391807443   -0.04209546630011313   -0.01442125384104875
-0.25228094391807443   -0.04209546630011313   -0.01442125384104875
-0.25228094391807443   -0.04209546630011313   -0.01442125384104875
-0.10350865862441733   0.004808813022725806   0.0210389041216573
-0.10350865862441733   0.004808813022725806   0.0210389041216573
-0.10350865862441733   0.004808813022725806   0.0210389041216573
-0.10350865862441733   0.004808813022725806   0.0210389041216573
-0.1719620337004045   -0.009279577578747065   -0.004439789581289708
-0.1719620337004045   -0.009279577578747065   -0.004439789581289708
-0.1719620337004045   -0.009279577578747065   -0.004439789581289708
-0.1719620337004045   -0.009279577578747065   -0.004439789581289708
-0.11370397343548465   -0.013767994014641504   -0.011360862896311063
-0.11370397343548465   -0.013767994014641504   -0.011360862896311063
-0.11370397343548465   -0.013767994014641504   -0.011360862896311063
-0.11370397343548465   -0.013767994014641504   -0.011360862896311063
-0.24350040200887532   -0.024933432164608752   0.012319421569442494
-0.24350040200887532   -0.024933432164608752   0.012319421569442494
-0.24350040200887532   -0.024933432164608752   0.012319421569442494
-0.24350040200887532   -0.024933432164608752   0.012319421569442494
-0.2620926644856881   -0.05849494711034696   -0.009900574464440289
-0.2620926644856881   -0.05849494711034696   -0.009900574464440289
-0.2620926644856881   -0.05849494711034696   -0.009900574464440289
-0.2620926644856881   -0.05849494711034696   -0.009900574464440289
-0.11612339537939959   -0.013035396426732515   0.026103076921462395
-0.11612339537939959   -0.013035396426732515   0.026103076921462395
-0.11612339537939959   -0.013035396426732515   0.026103076921462395
-0.11612339537939959   -0.013035396426732515   0.026103076921462395
-0.18425339747425595   -0.025103238853267457   -0.012609385814329568
-0.18425339747425595   -0.025103238853267457   -0.012609385814329568
-0.18425339747425595   -0.025103238853267457   -0.012609385814329568
-0.18425339747425595   -0.025103238853267457   -0.012609385814329568
-0.21884330589454498   0.0379953936349251   -0.001959914140601867
-0.21884330589454498   0.0379953936349251   -0.001959914140601867
-0.21884330589454498   0.0379953936349251   -0.001959914140601867
-0.21884330589454498   0.0379953936349251   -0.001959914140601867
-0.36931382193021245   -0.012682293756952318   -0.010454505989409536
-0.36931382193021245   -0.012682293756952318   -0.010454505989409536
-0.36931382193021245   -0.012682293756952318   -0.010454505989409536
-0.36931382193021245   -0.012682293756952318   -0.010454505989409536
-0.3732068460866016   -0.009268580716676758   -0.002229823711844804
-0.3732068460866016   -0.009268580716676758   -0.002229823711844804
-0.3732068460866016   -0.009268580716676758   -0.002229823711844804
-0.3732068460866016   -0.009268580716676758   -0.002229823711844804
-0.23237601560648352   0.0022299069690776274   0.002881407105935596
-0.23237601560648352   0.0022299069690776274   0.002881407105935596
-0.23237601560648352   0.0022299069690776274   0.002881407105935596
-0.23237601560648352   0.0022299069690776274   0.002881407105935596
-0.2978092741313097   0.004274566707745425   0.0012423089759220317
-0.2978092741313097   0.004274566707745425   0.0012423089759220317
-0.2978092741313097   0.004274566707745425   0.0012423089759220317
-0.2978092741313097   0.004274566707745425   0.0012423089759220317
-0.22870009228898425   0.020647434098098015   0.0028434965644117127
-0.22870009228898425   0.020647434098098015   0.0028434965644117127
-0.22870009228898425   0.020647434098098015   0.0028434965644117127
-0.22870009228898425   0.020647434098098015   0.0028434965644117127
-0.37815092063069267   -0.028954259072288893   -0.007264518076687904
-0.37815092063069267   -0.028954259072288893   -0.007264518076687904
-0.37815092063069267   -0.028954259072288893   -0.007264518076687904
-0.37815092063069267   -0.028954259072288893   -0.007264518076687904
-0.3823482229680796   -0.026400211241573865   0.0025208312017948147
-0.3823482229680796   -0.026400211241573865   0.0025208312017948147
-0.3823482229680796   -0.026400211241573865   0.0025208312017948147
-0.3823482229680796   -0.026400211241573865   0.0025208312017948147
-0.2427105901405326   -0.014613249337522914   0.005948298084070321
-0.2427105901405326   -0.014613249337522914   0.005948298084070321
-0.2427105901405326   -0.014613249337522914   0.005948298084070321
-0.2427105901405326   -0.014613249337522914   0.005948298084070321
-0.30771659474967056   -0.011306244688807907   -0.006137989634926049
-0.30771659474967056   -0.011306244688807907   -0.006137989634926049
-0.30771659474967056   -0.011306244688807907   -0.006137989634926049
-0.30771659474967056   -0.011306244688807907   -0.006137989634926049
-0.23892449572025512   0.003194560114349161   0.007070960733585523
-0.23892449572025512   0.003194560114349161   0.007070960733585523
-0.23892449572025512   0.003194560114349161   0.007070960733585523
-0.23892449572025512   0.003194560114349161   0.007070960733585523
-0.38766340068078625   -0.04573710398587584   -0.004718164617440641
-0.38766340068078625   -0.04573710398587584   -0.004718164617440641
-0.38766340068078625   -0.04573710398587584   -0.004718164617440641
-0.38766340068078625   -0.04573710398587584   -0.004718164617440641
-0.3912504943082281   -0.04283108564824188   0.007078370191947441
-0.3912504943082281   -0.04283108564824188   0.007078370191947441
-0.3912504943082281   -0.04283108564824188   0.007078370191947441
-0.3912504943082281   -0.04283108564824188   0.007078370191947441
-0.25263776953753503   -0.03049973444221188   0.009378687608189929
-0.25263776953753503   -0.03049973444221188   0.009378687608189929
-0.25263776953753503   -0.03049973444221188   0.009378687608189929
-0.25263776953753503   -0.03049973444221188   0.009378687608189929
-0.31837761228205713   -0.026982313803936717   -0.014157756890803206
-0.31837761228205713   -0.026982313803936717   -0.014157756890803206
-0.31837761228205713   -0.026982313803936717   -0.014157756890803206
-0.31837761228205713   -0.026982313803936717   -0.014157756890803206
-0.3506698719054357   0.05495971925817078   0.015123231119358267
-0.3506698719054357   0.05495971925817078   0.015123231119358267
-0.3506698719054357   0.05495971925817078   0.015123231119358267
-0.3506698719054357   0.05495971925817078   0.015123231119358267
-0.5099676562437632   -0.021120990309914045   -0.023441767877154854
-0.5099676562437632   -0.021120990309914045   -0.023441767877154854
-0.5099676562437632   -0.021120990309914045   -0.023441767877154854
-0.5099676562437632   -0.021120990309914045   -0.023441767877154854
-0.5031502136964634   0.008088180961996427   0.01561527843556712
-0.5031502136964634   0.008088180961996427   0.01561527843556712
-0.5031502136964634   0.008088180961996427   0.01561527843556712
-0.5031502136964634   0.008088180961996427   0.01561527843556712
-0.3744593719521143   -0.007344897094738054   -0.010416136661346869
-0.3744593719521143   -0.007344897094738054   -0.010416136661346869
-0.3744593719521143   -0.007344897094738054   -0.010416136661346869
-0.3744593719521143   -0.007344897094738054   -0.010416136661346869
-0.4330494848832236   0.00870338726461159   0.002103805078792431
-0.4330494848832236   0.00870338726461159   0.002103805078792431
-0.4330494848832236   0.00870338726461159   0.002103805078792431
-0.4330494848832236   0.00870338726461159   0.002103805078792431
-0.35937860409602446   0.037706673583203065   0.019936131941161228
-0.35937860409602446   0.037706673583203065   0.019936131941161228
-0.35937860409602446   0.037706673583203065   0.019936131941161228
-0.35937860409602446   0.037706673583203065   0.019936131941161228
-0.520083105342989   -0.03881551350638296   -0.02214548532868131
-0.520083105342989   -0.03881551350638296   -0.02214548532868131
-0.520083105342989   -0.03881551350638296   -0.02214548532868131
-0.520083105342989   -0.03881551350638296   -0.02214548532868131
-0.5153987576916524   -0.008774686217055142   0.018449066938319374
-0.5153987576916524   -0.008774686217055142   0.018449066938319374
-0.5153987576916524   -0.008774686217055142   0.018449066938319374
-0.5153987576916524   -0.008774686217055142   0.018449066938319374
-0.3835213929360224   -0.022664557630164006   -0.007080672249329071
-0.3835213929360224   -0.022664557630164006   -0.007080672249329071
-0.3835213929360224   -0.022664557630164006   -0.007080672249329071
-0.3835213929360224   -0.022664557630164006   -0.007080672249329071
-0.4413676311362908   -0.006309640738076799   -0.00589625259514109
-0.4413676311362908   -0.006309640738076799   -0.00589625259514109
-0.4413676311362908   -0.006309640738076799   -0.00589625259514109
-0.4413676311362908   -0.006309640738076799   -0.00589625259514109
-0.36827206936767753   0.02188426304376781   0.024617124918459306
-0.36827206936767753   0.02188426304376781   0.024617124918459306
-0.36827206936767753   0.02188426304376781   0.024617124918459306
-0.36827206936767753   0.02188426304376781   0.024617124918459306
-0.5321106433774084   -0.054786069008400023   -0.019098978699123168
-0.5321106433774084   -0.054786069008400023   -0.019098978699123168
-0.5321106433774084   -0.054786069008400023   -0.019098978699123168
-0.5321106433774084   -0.054786069008400023   -0.019098978699123168
-0.5253547960384138   -0.025765689626663382   0.02350504305878026
-0.5253547960384138   -0.025765689626663382   0.02350504305878026
-0.5253547960384138   -0.025765689626663382   0.02350504305878026
-0.5253547960384138   -0.025765689626663382   0.02350504305878026
-0.39261763599218147   -0.03835569416126721   -0.004232729714797765
-0.39261763599218147   -0.03835569416126721   -0.004232729714797765
-0.39261763599218147   -0.03835569416126721   -0.004232729714797765
-0.39261763599218147   -0.03835569416126721   -0.004232729714797765
-0.45389566197511144   -0.021630561997122114   -0.014098654826058946
-0.45389566197511144   -0.021630561997122114   -0.014098654826058946
-0.45389566197511144   -0.021630561997122114   -0.014098654826058946
-0.45389566197511144   -0.021630561997122114   -0.014098654826058946
-0.48315874868633246   0.05957153696240908   0.029910242637675645
-0.48315874868633246   0.05957153696240908   0.029910242637675645
-0.48315874868633246   0.05957153696240908   0.029910242637675645
-0.48315874868633246   0.05957153696240908   0.029910242637675645
-0.622274868273918   -0.031158927939391567   -0.0391677423150463
-0.622274868273918   -0.031158927939391567   -0.0391677423150463
-0.622274868273918   -0.031158927939391567   -0.0391677423150463
-0.622274868273918   -0.031158927939391567   -0.0391677423150463
-0.6227775218362531   0.023818921912017565   0.03297221862119301
-0.6227775218362531   0.023818921912017565   0.03297221862119301
-0.6227775218362531   0.023818921912017565   0.03297221862119301
-0.6227775218362531   0.023818921912017565   0.03297221862119301
-0.5161828250990808   -0.017499161691072893   -0.023960435924450137
-0.5161828250990808   -0.017499161691072893   -0.023960435924450137
-0.5161828250990808   -0.017499161691072893   -0.023960435924450137
-0.5161828250990808   -0.017499161691072893   -0.023960435924450137
-0.5383828833990721   0.014102425752873904   0.010445730642631282
-0.5383828833990721   0.014102425752873904   0.010445730642631282
-0.5383828833990721   0.014102425752873904   0.010445730642631282
-0.5383828833990721   0.014102425752873904   0.010445730642631282
-0.49069441223022614   0.05069799454561194   0.03528447218313785
-0.49069441223022614   0.05069799454561194   0.03528447218313785
-0.49069441223022614   0.05069799454561194   0.03528447218313785
-0.49069441223022614   0.05069799454561194   0.03528447218313785
-0.6501910055517777   -0.04630330517133216   -0.03397297287306496
-0.6501910055517777   -0.04630330517133216   -0.03397297287306496
-0.6501910055517777   -0.04630330517133216   -0.03397297287306496
-0.6501910055517777   -0.04630330517133216   -0.03397297287306496
-0.645054412800617   0.014207242973178796   0.04247807837843776
-0.645054412800617   0.014207242973178796   0.04247807837843776
-0.645054412800617   0.014207242973178796   0.04247807837843776
-0.645054412800617   0.014207242973178796   0.04247807837843776
-0.5267921071775359   -0.026306819761539327   -0.02098554694662198
-0.5267921071775359   -0.026306819761539327   -0.02098554694662198
-0.5267921071775359   -0.026306819761539327   -0.02098554694662198
-0.5267921071775359   -0.026306819761539327   -0.02098554694662198
-0.5649139654927262   0.002419522654076439   -0.0006621939198607277
-0.5649139654927262   0.002419522654076439   -0.0006621939198607277
-0.5649139654927262   0.002419522654076439   -0.0006621939198607277
-0.5649139654927262   0.002419522654076439   -0.0006621939198607277
-0.5002452459150586   0.043134873829534945   0.04230706577469078
-0.5002452459150586   0.043134873829534945   0.04230706577469078
-0.5002452459150586   0.043134873829534945   0.04230706577469078
-0.5002452459150586   0.043134873829534945   0.04230706577469078
-0.6735615045802511   -0.057194681135058587   -0.0286554564114878
-0.6735615045802511   -0.057194681135058587   -0.0286554564114878
-0.6735615045802511   -0.057194681135058587   -0.0286554564114878
-0.6735615045802511   -0.057194681135058587   -0.0286554564114878
-0.6779600093504731   -0.01109069791354031   0.044909562890522545
-0.6779600093504731   -0.01109069791354031   0.044909562890522545
-0.6779600093504731   -0.01109069791354031   0.044909562890522545
-0.6779600093504731   -0.01109069791354031   0.044909562890522545
-0.5374458110107699   -0.04458910250462944   -0.018126618925041357
-0.5374458110107699   -0.04458910250462944   -0.018126618925041357
-0.5374458110107699   -0.04458910250462944   -0.018126618925041357
-0.5374458110107699   -0.04458910250462944   -0.018126618925041357
-0.5750790250022538   -0.009161583554206293   -0.008539841994297317
-0.5750790250022538   -0.009161583554206293   -0.008539841994297317
-0.5750790250022538   -0.009161583554206293   -0.008539841994297317
-0.5750790250022538   -0.009161583554206293   -0.008539841994297317
-0.2616407012392231   -0.017057743647516298   -0.049503772925418105
-0.2616407012392231   -0.017057743647516298   -0.049503772925418105
-0.2616407012392231   -0.017057743647516298   -0.049503772925418105
-0.2616407012392231   -0.017057743647516298   -0.049503772925418105
-0.2598350629125119   0.03785483541156001   0.022255843264656548
-0.2598350629125119   0.03785483541156001   0.022255843264656548
-0.2598350629125119   0.03785483541156001   0.022255843264656548
-0.2598350629125119   0.03785483541156001   0.022255843264656548
-0.2925175895791128   -0.03468854446088444   -0.033582676500065065
-0.2925175895791128   -0.03468854446088444   -0.033582676500065065
-0.2925175895791128   -0.03468854446088444   -0.033582676500065065
-0.2925175895791128   -0.03468854446088444   -0.033582676500065065
-0.26711497335442513   0.019944626719570382   0.03340373986723291
-0.26711497335442513   0.019944626719570382   0.03340373986723291
-0.26711497335442513   0.019944626719570382   0.03340373986723291
-0.26711497335442513   0.019944626719570382   0.03340373986723291
-0.25670556865346306   0.0064164593103195194   0.022706675538830337
-0.25670556865346306   0.0064164593103195194   0.022706675538830337
-0.25670556865346306   0.0064164593103195194   0.022706675538830337
-0.25670556865346306   0.0064164593103195194   0.022706675538830337
-0.29337412192881873   -0.03644399240654054   -0.04150338387862422
-0.29337412192881873   -0.03644399240654054   -0.04150338387862422
-0.29337412192881873   -0.03644399240654054   -0.04150338387862422
-0.29337412192881873   -0.03644399240654054   -0.04150338387862422
-0.2695108734458941   0.01844764222404901   0.02831471748109497
-0.2695108734458941   0.01844764222404901   0.02831471748109497
-0.2695108734458941   0.01844764222404901   0.02831471748109497
-0.2695108734458941   0.01844764222404901   0.02831471748109497
-0.30237940354204407   -0.043683042653051354   -0.02843361599702349
-0.30237940354204407   -0.043683042653051354   -0.02843361599702349
-0.30237940354204407   -0.043683042653051354   -0.02843361599702349
-0.30237940354204407   -0.043683042653051354   -0.02843361599702349
-0.29246701102291905   0.007709565007698496   0.062139998388890935
-0.29246701102291905   0.007709565007698496   0.062139998388890935
-0.29246701102291905   0.007709565007698496   0.062139998388890935
-0.29246701102291905   0.007709565007698496   0.062139998388890935
-0.28004885598955387   -0.009032261032533885   0.009093895608928287
-0.28004885598955387   -0.009032261032533885   0.009093895608928287
-0.28004885598955387   -0.009032261032533885   0.009093895608928287
-0.28004885598955387   -0.009032261032533885   0.009093895608928287
-0.3226131987823723   -0.04851612798487279   -0.03236524741580236
-0.3226131987823723   -0.04851612798487279   -0.03236524741580236
-0.3226131987823723   -0.04851612798487279   -0.03236524741580236
-0.3226131987823723   -0.04851612798487279   -0.03236524741580236
-0.27994487428025877   0.004830991841852317   0.03522499581699973
-0.27994487428025877   0.004830991841852317   0.03522499581699973
-0.27994487428025877   0.004830991841852317   0.03522499581699973
-0.27994487428025877   0.004830991841852317   0.03522499581699973
-0.31045864449770183   -0.06116141717622656   -0.022389177052096868
-0.31045864449770183   -0.06116141717622656   -0.022389177052096868
-0.31045864449770183   -0.06116141717622656   -0.022389177052096868
-0.31045864449770183   -0.06116141717622656   -0.022389177052096868
-0.3318613018592739   -0.03272372455568906   0.058146360082402954
-0.3318613018592739   -0.03272372455568906   0.058146360082402954
-0.3318613018592739   -0.03272372455568906   0.058146360082402954
-0.3318613018592739   -0.03272372455568906   0.058146360082402954
-0.30033085622722117   -0.02729005869649822   -0.012495049267199696
-0.30033085622722117   -0.02729005869649822   -0.012495049267199696
-0.30033085622722117   -0.02729005869649822   -0.012495049267199696
-0.30033085622722117   -0.02729005869649822   -0.012495049267199696
-0.2785666336129734   -0.008076998676194061   -0.02547017614989916
-0.2785666336129734   -0.008076998676194061   -0.02547017614989916
-0.2785666336129734   -0.008076998676194061   -0.02547017614989916
-0.2785666336129734   -0.008076998676194061   -0.02547017614989916
-0.28299721169380504   -0.03479660654076603   -0.0014859280901808585
-0.28299721169380504   -0.03479660654076603   -0.0014859280901808585
-0.28299721169380504   -0.03479660654076603   -0.0014859280901808585
-0.28299721169380504   -0.03479660654076603   -0.0014859280901808585
-0.28510025235669845   -0.023184079119670596   -0.01274623746185703
-0.28510025235669845   -0.023184079119670596   -0.01274623746185703
-0.28510025235669845   -0.023184079119670596   -0.01274623746185703
-0.28510025235669845   -0.023184079119670596   -0.01274623746185703
-0.28839386984172033   -0.04718811422540841   -0.0004645080485788187
-0.28839386984172033   -0.04718811422540841   -0.0004645080485788187
-0.28839386984172033   -0.04718811422540841   -0.0004645080485788187
-0.28839386984172033   -0.04718811422540841   -0.0004645080485788187
-0.28135438034674193   -0.02954217441061992   -0.0009670227049621517
-0.28135438034674193   -0.02954217441061992   -0.0009670227049621517
-0.28135438034674193   -0.02954217441061992   -0.0009670227049621517
-0.28135438034674193   -0.02954217441061992   -0.0009670227049621517
-0.2884136915171252   -0.025706554657986824   -0.022045175993026758
-0.2884136915171252   -0.025706554657986824   -0.022045175993026758
-0.2884136915171252   -0.025706554657986824   -0.022045175993026758
-0.2884136915171252   -0.025706554657986824   -0.022045175993026758
-0.2868975567373548   -0.04648276474315114   0.0015659262583419594
-0.2868975567373548   -0.04648276474315114   0.0015659262583419594
-0.2868975567373548   -0.04648276474315114   0.0015659262583419594
-0.2868975567373548   -0.04648276474315114   0.0015659262583419594
-0.2899186174021024   -0.038328219851341036   -0.00823630147100717
-0.2899186174021024   -0.038328219851341036   -0.00823630147100717
-0.2899186174021024   -0.038328219851341036   -0.00823630147100717
-0.2899186174021024   -0.038328219851341036   -0.00823630147100717
-0.29890441906099724   -0.06124018013175424   0.006498443886913684
-0.29890441906099724   -0.06124018013175424   0.006498443886913684
-0.29890441906099724   -0.06124018013175424   0.006498443886913684
-0.29890441906099724   -0.06124018013175424   0.006498443886913684
-0.2878688070128565   -0.04178290711740659   -0.007988881480454976
-0.2878688070128565   -0.04178290711740659   -0.007988881480454976
-0.2878688070128565   -0.04178290711740659   -0.007988881480454976
-0.2878688070128565   -0.04178290711740659   -0.007988881480454976
-0.29960741334504076   -0.0418917168989491   -0.01636499076610911
-0.29960741334504076   -0.0418917168989491   -0.01636499076610911
-0.29960741334504076   -0.0418917168989491   -0.01636499076610911
-0.29960741334504076   -0.0418917168989491   -0.01636499076610911
-0.29153896014049274   -0.060000020106581335   0.005333785092273692
-0.29153896014049274   -0.060000020106581335   0.005333785092273692
-0.29153896014049274   -0.060000020106581335   0.005333785092273692
-0.29153896014049274   -0.060000020106581335   0.005333785092273692
-0.2942493567677522   -0.05463535487352167   -0.0037707539241153944
-0.2942493567677522   -0.05463535487352167   -0.0037707539241153944
-0.2942493567677522   -0.05463535487352167   -0.0037707539241153944
-0.2942493567677522   -0.05463535487352167   -0.0037707539241153944
-0.30695316658800764   -0.07906695305577707   0.013043748375924074
-0.30695316658800764   -0.07906695305577707   0.013043748375924074
-0.30695316658800764   -0.07906695305577707   0.013043748375924074
-0.30695316658800764   -0.07906695305577707   0.013043748375924074
-0.2968086038996213   -0.05655183507462375   -0.016912633089635188
-0.2968086038996213   -0.05655183507462375   -0.016912633089635188
-0.2968086038996213   -0.05655183507462375   -0.016912633089635188
-0.2968086038996213   -0.05655183507462375   -0.016912633089635188
-0.2752168940028   0.007293169826024418   -0.004674116001938247
-0.2752168940028   0.007293169826024418   -0.004674116001938247
-0.2752168940028   0.007293169826024418   -0.004674116001938247
-0.2752168940028   0.007293169826024418   -0.004674116001938247
-0.3119303872276639   -0.05922658269729299   -0.014965397846013313
-0.3119303872276639   -0.05922658269729299   -0.014965397846013313
-0.3119303872276639   -0.05922658269729299   -0.014965397846013313
-0.3119303872276639   -0.05922658269729299   -0.014965397846013313
-0.29923344408481045   -0.01093568175162768   0.003910891980735978
-0.29923344408481045   -0.01093568175162768   0.003910891980735978
-0.29923344408481045   -0.01093568175162768   0.003910891980735978
-0.29923344408481045   -0.01093568175162768   0.003910891980735978
-0.29254227242036857   -0.0639206649771148   -0.009219751922763253
-0.29254227242036857   -0.0639206649771148   -0.009219751922763253
-0.29254227242036857   -0.0639206649771148   -0.009219751922763253
-0.29254227242036857   -0.0639206649771148   -0.009219751922763253
-0.29452441576854244   -0.03270281873114206   -0.00664488753180234
-0.29452441576854244   -0.03270281873114206   -0.00664488753180234
-0.29452441576854244   -0.03270281873114206   -0.00664488753180234
-0.29452441576854244   -0.03270281873114206   -0.00664488753180234
-0.27947635042019525   -0.007773835662211792   -3.6971236799798746e-05
-0.27947635042019525   -0.007773835662211792   -3.6971236799798746e-05
-0.27947635042019525   -0.007773835662211792   -3.6971236799798746e-05
-0.27947635042019525   -0.007773835662211792   -3.6971236799798746e-05
-0.31394998964436305   -0.0687331346259106   -0.011874382942747785
-0.31394998964436305   -0.0687331346259106   -0.011874382942747785
-0.31394998964436305   -0.0687331346259106   -0.011874382942747785
-0.31394998964436305   -0.0687331346259106   -0.011874382942747785
-0.3027068731836549   -0.026124100955756194   0.008390323036026267
-0.3027068731836549   -0.026124100955756194   0.008390323036026267
-0.3027068731836549   -0.026124100955756194   0.008390323036026267
-0.3027068731836549   -0.026124100955756194   0.008390323036026267
-0.29705249309255627   -0.07588782642546088   -0.006346073349160341
-0.29705249309255627   -0.07588782642546088   -0.006346073349160341
-0.29705249309255627   -0.07588782642546088   -0.006346073349160341
-0.29705249309255627   -0.07588782642546088   -0.006346073349160341
-0.29820966999106774   -0.04426938301696185   -0.012666373640355692
-0.29820966999106774   -0.04426938301696185   -0.012666373640355692
-0.29820966999106774   -0.04426938301696185   -0.012666373640355692
-0.29820966999106774   -0.04426938301696185   -0.012666373640355692
-0.2843548486312839   -0.023234080121781978   0.004488402653526315
-0.2843548486312839   -0.023234080121781978   0.004488402653526315
-0.2843548486312839   -0.023234080121781978   0.004488402653526315
-0.2843548486312839   -0.023234080121781978   0.004488402653526315
-0.317248432013651   -0.08062176162815948   -0.009819810441558587
-0.317248432013651   -0.08062176162815948   -0.009819810441558587
-0.317248432013651   -0.08062176162815948   -0.009819810441558587
-0.317248432013651   -0.08062176162815948   -0.009819810441558587
-0.30554144590219096   -0.040401539385090834   0.012773339258435792
-0.30554144590219096   -0.040401539385090834   0.012773339258435792
-0.30554144590219096   -0.040401539385090834   0.012773339258435792
-0.30554144590219096   -0.040401539385090834   0.012773339258435792
-0.3004229954413072   -0.08735940351569893   -0.0019148986497126465
-0.3004229954413072   -0.08735940351569893   -0.0019148986497126465
-0.3004229954413072   -0.08735940351569893   -0.0019148986497126465
-0.3004229954413072   -0.08735940351569893   -0.0019148986497126465
-0.30259665605965635   -0.05636443313271382   -0.019281826740928043
-0.30259665605965635   -0.05636443313271382   -0.019281826740928043
-0.30259665605965635   -0.05636443313271382   -0.019281826740928043
-0.30259665605965635   -0.05636443313271382   -0.019281826740928043
-0.28801732022603266   0.030860084468360874   0.014513269996489244
-0.28801732022603266   0.030860084468360874   0.014513269996489244
-0.28801732022603266   0.030860084468360874   0.014513269996489244
-0.28801732022603266   0.030860084468360874   0.014513269996489244
-0.3409038561088216   -0.04424734711578862   -0.020876471827413635
-0.3409038561088216   -0.04424734711578862   -0.020876471827413635
-0.3409038561088216   -0.04424734711578862   -0.020876471827413635
-0.3409038561088216   -0.04424734711578862   -0.020876471827413635
-0.3225839771017457   0.009130460844008606   0.020085258182033175
-0.3225839771017457   0.009130460844008606   0.020085258182033175
-0.3225839771017457   0.009130460844008606   0.020085258182033175
-0.3225839771017457   0.009130460844008606   0.020085258182033175
-0.31020795605359464   -0.04926812878589321   -0.012629220828919588
-0.31020795605359464   -0.04926812878589321   -0.012629220828919588
-0.31020795605359464   -0.04926812878589321   -0.012629220828919588
-0.31020795605359464   -0.04926812878589321   -0.012629220828919588
-0.3153932955285535   -0.0130518076541263   -0.003967947682343915
-0.3153932955285535   -0.0130518076541263   -0.003967947682343915
-0.3153932955285535   -0.0130518076541263   -0.003967947682343915
-0.3153932955285535   -0.0130518076541263   -0.003967947682343915
-0.2909797838974081   0.015235791734744597   0.01900771943137551
-0.2909797838974081   0.015235791734744597   0.01900771943137551
-0.2909797838974081   0.015235791734744597   0.01900771943137551
-0.2909797838974081   0.015235791734744597   0.01900771943137551
-0.3440050987632934   -0.057566409181990276   -0.0203234800997062
-0.3440050987632934   -0.057566409181990276   -0.0203234800997062
-0.3440050987632934   -0.057566409181990276   -0.0203234800997062
-0.3440050987632934   -0.057566409181990276   -0.0203234800997062
-0.32858178593071896   -0.005705130758570431   0.022776855103335405
-0.32858178593071896   -0.005705130758570431   0.022776855103335405
-0.32858178593071896   -0.005705130758570431   0.022776855103335405
-0.32858178593071896   -0.005705130758570431   0.022776855103335405
-0.3132357205993337   -0.060327593991309644   -0.010050421006821724
-0.3132357205993337   -0.060327593991309644   -0.010050421006821724
-0.3132357205993337   -0.060327593991309644   -0.010050421006821724
-0.3132357205993337   -0.060327593991309644   -0.010050421006821724
-0.31843180669911825   -0.025592302222140893   -0.011031057939709708
-0.31843180669911825   -0.025592302222140893   -0.011031057939709708
-0.31843180669911825   -0.025592302222140893   -0.011031057939709708
-0.31843180669911825   -0.025592302222140893   -0.011031057939709708
-0.29422852185445314   0.0012847889843915841   0.023373189741879654
-0.29422852185445314   0.0012847889843915841   0.023373189741879654
-0.29422852185445314   0.0012847889843915841   0.023373189741879654
-0.29422852185445314   0.0012847889843915841   0.023373189741879654
-0.3494890518031827   -0.06921758086185481   -0.01824702415569859
-0.3494890518031827   -0.06921758086185481   -0.01824702415569859
-0.3494890518031827   -0.06921758086185481   -0.01824702415569859
-0.3494890518031827   -0.06921758086185481   -0.01824702415569859
-0.3325586144898354   -0.01994126639773665   0.027780387600524297
-0.3325586144898354   -0.01994126639773665   0.027780387600524297
-0.3325586144898354   -0.01994126639773665   0.027780387600524297
-0.3325586144898354   -0.01994126639773665   0.027780387600524297
-0.31584396968163136   -0.07143854447861162   -0.007702274545245127
-0.31584396968163136   -0.07143854447861162   -0.007702274545245127
-0.31584396968163136   -0.07143854447861162   -0.007702274545245127
-0.31584396968163136   -0.07143854447861162   -0.007702274545245127
-0.32373583751958024   -0.03742011821952744   -0.017877548132928935
-0.32373583751958024   -0.03742011821952744   -0.017877548132928935
-0.32373583751958024   -0.03742011821952744   -0.017877548132928935
-0.32373583751958024   -0.03742011821952744   -0.017877548132928935
-0.31322522601909436   0.044282012729726886   0.028987318775707097
-0.31322522601909436   0.044282012729726886   0.028987318775707097
-0.31322522601909436   0.044282012729726886   0.028987318775707097
-0.31322522601909436   0.044282012729726886   0.028987318775707097
-0.33536539589644593   -0.026774016543556198   -0.030233812224166722
-0.33536539589644593   -0.026774016543556198   -0.030233812224166722
-0.33536539589644593   -0.026774016543556198   -0.030233812224166722
-0.33536539589644593   -0.026774016543556198   -0.030233812224166722
-0.32790145697439366   0.03139265023469272   0.03221725557967543
-0.32790145697439366   0.03139265023469272   0.03221725557967543
-0.32790145697439366   0.03139265023469272   0.03221725557967543
-0.32790145697439366   0.03139265023469272   0.03221725557967543
-0.3389656416906889   -0.034211036998370525   -0.018481566920303567
-0.3389656416906889   -0.034211036998370525   -0.018481566920303567
-0.3389656416906889   -0.034211036998370525   -0.018481566920303567
-0.3389656416906889   -0.034211036998370525   -0.018481566920303567
-0.31766173711421036   0.007878711966502597   0.0012804024994235719
-0.31766173711421036   0.007878711966502597   0.0012804024994235719
-0.31766173711421036   0.007878711966502597   0.0012804024994235719
-0.31766173711421036   0.007878711966502597   0.0012804024994235719
-0.3148735429647177   0.03425696655243714   0.03351092315873697
-0.3148735429647177   0.03425696655243714   0.03351092315873697
-0.3148735429647177   0.03425696655243714   0.03351092315873697
-0.3148735429647177   0.03425696655243714   0.03351092315873697
-0.3537829388222907   -0.03886473643804478   -0.0269327669870729
-0.3537829388222907   -0.03886473643804478   -0.0269327669870729
-0.3537829388222907   -0.03886473643804478   -0.0269327669870729
-0.3537829388222907   -0.03886473643804478   -0.0269327669870729
-0.3423414509793065   0.023074938211010462   0.04147258671789743
-0.3423414509793065   0.023074938211010462   0.04147258671789743
-0.3423414509793065   0.023074938211010462   0.04147258671789743
-0.3423414509793065   0.023074938211010462   0.04147258671789743
-0.3435121403094037   -0.04072370081344667   -0.016856346735219536
-0.3435121403094037   -0.04072370081344667   -0.016856346735219536
-0.3435121403094037   -0.04072370081344667   -0.016856346735219536
-0.3435121403094037   -0.04072370081344667   -0.016856346735219536
-0.3332223777705124   -0.0021955352308346276   -0.007067464690772546
-0.3332223777705124   -0.0021955352308346276   -0.007067464690772546
-0.3332223777705124   -0.0021955352308346276   -0.007067464690772546
-0.3332223777705124   -0.0021955352308346276   -0.007067464690772546
-0.3184598467659291   0.027577521453205203   0.04010389871549373
-0.3184598467659291   0.027577521453205203   0.04010389871549373
-0.3184598467659291   0.027577521453205203   0.04010389871549373
-0.3184598467659291   0.027577521453205203   0.04010389871549373
-0.36972199320273147   -0.04755453273559178   -0.024800653452617314
-0.36972199320273147   -0.04755453273559178   -0.024800653452617314
-0.36972199320273147   -0.04755453273559178   -0.024800653452617314
-0.36972199320273147   -0.04755453273559178   -0.024800653452617314
-0.36776312513622006   0.0018347808293278922   0.0443101118701955
-0.36776312513622006   0.0018347808293278922   0.0443101118701955
-0.36776312513622006   0.0018347808293278922   0.0443101118701955
-0.36776312513622006   0.0018347808293278922   0.0443101118701955
-0.34766434437349736   -0.053042468098442735   -0.014647060117079214
-0.34766434437349736   -0.053042468098442735   -0.014647060117079214
-0.34766434437349736   -0.053042468098442735   -0.014647060117079214
-0.34766434437349736   -0.053042468098442735   -0.014647060117079214
-0.34059807123811947   -0.011472571721461197   -0.014588858306330037
-0.34059807123811947   -0.011472571721461197   -0.014588858306330037
-0.34059807123811947   -0.011472571721461197   -0.014588858306330037
-0.34059807123811947   -0.011472571721461197   -0.014588858306330037
-0.6696005285056539   -0.06121446423060631   -0.06332518935304826
-0.6696005285056539   -0.06121446423060631   -0.06332518935304826
-0.6696005285056539   -0.06121446423060631   -0.06332518935304826
-0.6696005285056539   -0.06121446423060631   -0.06332518935304826
-0.42507794825692824   0.03617292418881614   0.014918784266902983
-0.42507794825692824   0.03617292418881614   0.014918784266902983
-0.42507794825692824   0.03617292418881614   0.014918784266902983
-0.42507794825692824   0.03617292418881614   0.014918784266902983
-0.4463961223260236   -0.02824772727944526   -0.028276881156246828
-0.4463961223260236   -0.02824772727944526   -0.028276881156246828
-0.4463961223260236   -0.02824772727944526   -0.028276881156246828
-0.4463961223260236   -0.02824772727944526   -0.028276881156246828
-0.7120472099384212   -0.08035648695173023   0.07090210114837057
-0.7120472099384212   -0.08035648695173023   0.07090210114837057
-0.7120472099384212   -0.08035648695173023   0.07090210114837057
-0.7120472099384212   -0.08035648695173023   0.07090210114837057
-0.5177934022657756   -0.01975635802830171   0.06879520758656132
-0.5177934022657756   -0.01975635802830171   0.06879520758656132
-0.5177934022657756   -0.01975635802830171   0.06879520758656132
-0.5177934022657756   -0.01975635802830171   0.06879520758656132
-0.7374574916950158   -0.09008815319938325   -0.046417641386944625
-0.7374574916950158   -0.09008815319938325   -0.046417641386944625
-0.7374574916950158   -0.09008815319938325   -0.046417641386944625
-0.7374574916950158   -0.09008815319938325   -0.046417641386944625
-0.43886081452779496   -0.036391034990157424   0.01754296554560835
-0.43886081452779496   -0.036391034990157424   0.01754296554560835
-0.43886081452779496   -0.036391034990157424   0.01754296554560835
-0.43886081452779496   -0.036391034990157424   0.01754296554560835
-0.4532870349925222   -0.0409463001235504   -0.020319303297750394
-0.4532870349925222   -0.0409463001235504   -0.020319303297750394
-0.4532870349925222   -0.0409463001235504   -0.020319303297750394
-0.4532870349925222   -0.0409463001235504   -0.020319303297750394
-0.7347719045648167   -0.11226336186758855   0.0017163991856048756
-0.7347719045648167   -0.11226336186758855   0.0017163991856048756
-0.7347719045648167   -0.11226336186758855   0.0017163991856048756
-0.7347719045648167   -0.11226336186758855   0.0017163991856048756
-0.573372266481144   -0.06773852176126521   0.015908048871837784
-0.573372266481144   -0.06773852176126521   0.015908048871837784
-0.573372266481144   -0.06773852176126521   0.015908048871837784
-0.573372266481144   -0.06773852176126521   0.015908048871837784
-0.7405032542260512   -0.10180535459028027   -0.03739835639787066
-0.7405032542260512   -0.10180535459028027   -0.03739835639787066
-0.7405032542260512   -0.10180535459028027   -0.03739835639787066
-0.7405032542260512   -0.10180535459028027   -0.03739835639787066
-0.452966519202598   -0.056815141272168884   -0.0028478831995154934
-0.452966519202598   -0.056815141272168884   -0.0028478831995154934
-0.452966519202598   -0.056815141272168884   -0.0028478831995154934
-0.452966519202598   -0.056815141272168884   -0.0028478831995154934
-0.45362957935470494   -0.07166904248386231   -0.014811952063032274
-0.45362957935470494   -0.07166904248386231   -0.014811952063032274
-0.45362957935470494   -0.07166904248386231   -0.014811952063032274
-0.45362957935470494   -0.07166904248386231   -0.014811952063032274
-0.752430544197768   -0.17141695945852245   0.011200060717827337
-0.752430544197768   -0.17141695945852245   0.011200060717827337
-0.752430544197768   -0.17141695945852245   0.011200060717827337
-0.752430544197768   -0.17141695945852245   0.011200060717827337
-0.5728001496124828   -0.09310605939726478   0.0012094637500118183
-0.5728001496124828   -0.09310605939726478   0.0012094637500118183
-0.5728001496124828   -0.09310605939726478   0.0012094637500118183
-0.5728001496124828   -0.09310605939726478   0.0012094637500118183
-0.4590092360031703   -0.07784564319975032   -0.040719087075737084
-0.4590092360031703   -0.07784564319975032   -0.040719087075737084
-0.4590092360031703   -0.07784564319975032   -0.040719087075737084
-0.4590092360031703   -0.07784564319975032   -0.040719087075737084
-0.31563883252778124   -0.20430625294229432   -0.038288958734933175
-0.31563883252778124   -0.20430625294229432   -0.038288958734933175
-0.31563883252778124   -0.20430625294229432   -0.038288958734933175
-0.31563883252778124   -0.20430625294229432   -0.038288958734933175
-0.27722577522253306   -0.04535005998896538   -0.0024423314855662763
-0.27722577522253306   -0.04535005998896538   -0.0024423314855662763
-0.27722577522253306   -0.04535005998896538   -0.0024423314855662763
-0.27722577522253306   -0.04535005998896538   -0.0024423314855662763
-0.48806197160861653   -0.21661770800621594   -0.0482361468424411
-0.48806197160861653   -0.21661770800621594   -0.0482361468424411
-0.48806197160861653   -0.21661770800621594   -0.0482361468424411
-0.48806197160861653   -0.21661770800621594   -0.0482361468424411
-0.3805236369788936   -0.14435635069569042   -0.011100287777752259
-0.3805236369788936   -0.14435635069569042   -0.011100287777752259
-0.3805236369788936   -0.14435635069569042   -0.011100287777752259
-0.3805236369788936   -0.14435635069569042   -0.011100287777752259
-0.45868163263261763   -0.08728599763966764   -0.03066616232899293
-0.45868163263261763   -0.08728599763966764   -0.03066616232899293
-0.45868163263261763   -0.08728599763966764   -0.03066616232899293
-0.45868163263261763   -0.08728599763966764   -0.03066616232899293
-0.30846425596806337   -0.17653991212504544   -0.027444883077141654
-0.30846425596806337   -0.17653991212504544   -0.027444883077141654
-0.30846425596806337   -0.17653991212504544   -0.027444883077141654
-0.30846425596806337   -0.17653991212504544   -0.027444883077141654
-0.28039725367161616   -0.058756174861704986   0.00041130484777885767
-0.28039725367161616   -0.058756174861704986   0.00041130484777885767
-0.28039725367161616   -0.058756174861704986   0.00041130484777885767
-0.28039725367161616   -0.058756174861704986   0.00041130484777885767
-0.4898252766383567   -0.21548757647667105   -0.02846923517380671
-0.4898252766383567   -0.21548757647667105   -0.02846923517380671
-0.4898252766383567   -0.21548757647667105   -0.02846923517380671
-0.4898252766383567   -0.21548757647667105   -0.02846923517380671
-0.37631032425064076   -0.1353127632253544   -0.011793562923191857
-0.37631032425064076   -0.1353127632253544   -0.011793562923191857
-0.37631032425064076   -0.1353127632253544   -0.011793562923191857
-0.37631032425064076   -0.1353127632253544   -0.011793562923191857
-0.46573524167369573   -0.10050613399759194   -0.02300050282957636
-0.46573524167369573   -0.10050613399759194   -0.02300050282957636
-0.46573524167369573   -0.10050613399759194   -0.02300050282957636
-0.46573524167369573   -0.10050613399759194   -0.02300050282957636
-0.30833829199052876   -0.17758862069503561   -0.020461440913457498
-0.30833829199052876   -0.17758862069503561   -0.020461440913457498
-0.30833829199052876   -0.17758862069503561   -0.020461440913457498
-0.30833829199052876   -0.17758862069503561   -0.020461440913457498
-0.280308379107985   -0.07544871267806151   0.0044901627844792765
-0.280308379107985   -0.07544871267806151   0.0044901627844792765
-0.280308379107985   -0.07544871267806151   0.0044901627844792765
-0.280308379107985   -0.07544871267806151   0.0044901627844792765
-0.48862296698991026   -0.21902649018365233   -0.042421442539274636
-0.48862296698991026   -0.21902649018365233   -0.042421442539274636
-0.48862296698991026   -0.21902649018365233   -0.042421442539274636
-0.48862296698991026   -0.21902649018365233   -0.042421442539274636
-0.3820044450679334   -0.1455426432557801   -0.02191016913038826
-0.3820044450679334   -0.1455426432557801   -0.02191016913038826
-0.3820044450679334   -0.1455426432557801   -0.02191016913038826
-0.3820044450679334   -0.1455426432557801   -0.02191016913038826
-0.2778482641375464   -0.050121293712731205   -0.0035210760133219587
-0.2778482641375464   -0.050121293712731205   -0.0035210760133219587
-0.2778482641375464   -0.050121293712731205   -0.0035210760133219587
-0.2778482641375464   -0.050121293712731205   -0.0035210760133219587
-0.23329104639691353   -0.15636551816946706   -0.026992431894058755
-0.23329104639691353   -0.15636551816946706   -0.026992431894058755
-0.23329104639691353   -0.15636551816946706   -0.026992431894058755
-0.23329104639691353   -0.15636551816946706   -0.026992431894058755
-0.20105728678312598   -0.04163417677983654   0.01072770342638548
-0.20105728678312598   -0.04163417677983654   0.01072770342638548
-0.20105728678312598   -0.04163417677983654   0.01072770342638548
-0.20105728678312598   -0.04163417677983654   0.01072770342638548
-0.3076146380090277   -0.16992819680357069   -0.02980850860343792
-0.3076146380090277   -0.16992819680357069   -0.02980850860343792
-0.3076146380090277   -0.16992819680357069   -0.02980850860343792
-0.3076146380090277   -0.16992819680357069   -0.02980850860343792
-0.2538325525998738   -0.10596490265736291   -0.012449482398796688
-0.2538325525998738   -0.10596490265736291   -0.012449482398796688
-0.2538325525998738   -0.10596490265736291   -0.012449482398796688
-0.2538325525998738   -0.10596490265736291   -0.012449482398796688
-0.27944318257348594   -0.05936065189087128   0.0004812236615717024
-0.27944318257348594   -0.05936065189087128   0.0004812236615717024
-0.27944318257348594   -0.05936065189087128   0.0004812236615717024
-0.27944318257348594   -0.05936065189087128   0.0004812236615717024
-0.2308770987682114   -0.1538500782420789   -0.02615545503679528
-0.2308770987682114   -0.1538500782420789   -0.02615545503679528
-0.2308770987682114   -0.1538500782420789   -0.02615545503679528
-0.2308770987682114   -0.1538500782420789   -0.02615545503679528
-0.20113492239392794   -0.05265421471812379   0.013904414488896795
-0.20113492239392794   -0.05265421471812379   0.013904414488896795
-0.20113492239392794   -0.05265421471812379   0.013904414488896795
-0.20113492239392794   -0.05265421471812379   0.013904414488896795
-0.30858979630748246   -0.1726213120610376   -0.026686271132223976
-0.30858979630748246   -0.1726213120610376   -0.026686271132223976
-0.30858979630748246   -0.1726213120610376   -0.026686271132223976
-0.30858979630748246   -0.1726213120610376   -0.026686271132223976
-0.25338440505965015   -0.11010863986096697   -0.016155642120649724
-0.25338440505965015   -0.11010863986096697   -0.016155642120649724
-0.25338440505965015   -0.11010863986096697   -0.016155642120649724
-0.25338440505965015   -0.11010863986096697   -0.016155642120649724
-0.2817999029640971   -0.07053309752100329   0.005174981044668492
-0.2817999029640971   -0.07053309752100329   0.005174981044668492
-0.2817999029640971   -0.07053309752100329   0.005174981044668492
-0.2817999029640971   -0.07053309752100329   0.005174981044668492
-0.22883147318119265   -0.15564908670203748   -0.02158346746351311
-0.22883147318119265   -0.15564908670203748   -0.02158346746351311
-0.22883147318119265   -0.15564908670203748   -0.02158346746351311
-0.22883147318119265   -0.15564908670203748   -0.02158346746351311
-0.19877355933824276   -0.06317357633470054   0.017364801152214854
-0.19877355933824276   -0.06317357633470054   0.017364801152214854
-0.19877355933824276   -0.06317357633470054   0.017364801152214854
-0.19877355933824276   -0.06317357633470054   0.017364801152214854
-0.30492315120257363   -0.17480976812472496   -0.019222642241804415
-0.30492315120257363   -0.17480976812472496   -0.019222642241804415
-0.30492315120257363   -0.17480976812472496   -0.019222642241804415
-0.30492315120257363   -0.17480976812472496   -0.019222642241804415
-0.25263319598314177   -0.11556977112693381   -0.01872960995752428
-0.25263319598314177   -0.11556977112693381   -0.01872960995752428
-0.25263319598314177   -0.11556977112693381   -0.01872960995752428
-0.25263319598314177   -0.11556977112693381   -0.01872960995752428
-0.19419530859066497   -0.006921829544276611   0.019042568511989755
-0.19419530859066497   -0.006921829544276611   0.019042568511989755
-0.19419530859066497   -0.006921829544276611   0.019042568511989755
-0.19419530859066497   -0.006921829544276611   0.019042568511989755
-0.18384811338614168   -0.08281709944202428   -0.016179401164293283
-0.18384811338614168   -0.08281709944202428   -0.016179401164293283
-0.18384811338614168   -0.08281709944202428   -0.016179401164293283
-0.18384811338614168   -0.08281709944202428   -0.016179401164293283
-0.1585302796088898   -0.01199709036668984   0.022048294822392386
-0.1585302796088898   -0.01199709036668984   0.022048294822392386
-0.1585302796088898   -0.01199709036668984   0.022048294822392386
-0.1585302796088898   -0.01199709036668984   0.022048294822392386
-0.2162973982174024   -0.09565535991714148   -0.011451670607691602
-0.2162973982174024   -0.09565535991714148   -0.011451670607691602
-0.2162973982174024   -0.09565535991714148   -0.011451670607691602
-0.2162973982174024   -0.09565535991714148   -0.011451670607691602
-0.1888441812424106   -0.0488882016675011   -0.006754986154692875
-0.1888441812424106   -0.0488882016675011   -0.006754986154692875
-0.1888441812424106   -0.0488882016675011   -0.006754986154692875
-0.1888441812424106   -0.0488882016675011   -0.006754986154692875
-0.19431733887439626   -0.01917125662185841   0.021964522812056006
-0.19431733887439626   -0.01917125662185841   0.021964522812056006
-0.19431733887439626   -0.01917125662185841   0.021964522812056006
-0.19431733887439626   -0.01917125662185841   0.021964522812056006
-0.1822662721563979   -0.09023712686647489   -0.018391631415363145
-0.1822662721563979   -0.09023712686647489   -0.018391631415363145
-0.1822662721563979   -0.09023712686647489   -0.018391631415363145
-0.1822662721563979   -0.09023712686647489   -0.018391631415363145
-0.15876573167081603   -0.02268330934708783   0.02370101328576975
-0.15876573167081603   -0.02268330934708783   0.02370101328576975
-0.15876573167081603   -0.02268330934708783   0.02370101328576975
-0.15876573167081603   -0.02268330934708783   0.02370101328576975
-0.21623312970937086   -0.1014868260248617   -0.012754010781583837
-0.21623312970937086   -0.1014868260248617   -0.012754010781583837
-0.21623312970937086   -0.1014868260248617   -0.012754010781583837
-0.21623312970937086   -0.1014868260248617   -0.012754010781583837
-0.1880232266445287   -0.05746796671530338   -0.01146742801278057
-0.1880232266445287   -0.05746796671530338   -0.01146742801278057
-0.1880232266445287   -0.05746796671530338   -0.01146742801278057
-0.1880232266445287   -0.05746796671530338   -0.01146742801278057
-0.19429332965988946   -0.029531165761553475   0.024989329202514923
-0.19429332965988946   -0.029531165761553475   0.024989329202514923
-0.19429332965988946   -0.029531165761553475   0.024989329202514923
-0.19429332965988946   -0.029531165761553475   0.024989329202514923
-0.18176894825024698   -0.0957023861403456   -0.018295992818127146
-0.18176894825024698   -0.0957023861403456   -0.018295992818127146
-0.18176894825024698   -0.0957023861403456   -0.018295992818127146
-0.18176894825024698   -0.0957023861403456   -0.018295992818127146
-0.15741432274046738   -0.03271861730779869   0.027467714367655584
-0.15741432274046738   -0.03271861730779869   0.027467714367655584
-0.15741432274046738   -0.03271861730779869   0.027467714367655584
-0.15741432274046738   -0.03271861730779869   0.027467714367655584
-0.2128180239500376   -0.10731678163715432   -0.008714316604305637
-0.2128180239500376   -0.10731678163715432   -0.008714316604305637
-0.2128180239500376   -0.10731678163715432   -0.008714316604305637
-0.2128180239500376   -0.10731678163715432   -0.008714316604305637
-0.18746429990020844   -0.06485071635071099   -0.01474634234490732
-0.18746429990020844   -0.06485071635071099   -0.01474634234490732
-0.18746429990020844   -0.06485071635071099   -0.01474634234490732
-0.18746429990020844   -0.06485071635071099   -0.01474634234490732
-0.15380434976706697   0.021524515520800903   0.029697801968255104
-0.15380434976706697   0.021524515520800903   0.029697801968255104
-0.15380434976706697   0.021524515520800903   0.029697801968255104
-0.15380434976706697   0.021524515520800903   0.029697801968255104
-0.10250599980605125   -0.027269486811238836   -0.009966382716562945
-0.10250599980605125   -0.027269486811238836   -0.009966382716562945
-0.10250599980605125   -0.027269486811238836   -0.009966382716562945
-0.10250599980605125   -0.027269486811238836   -0.009966382716562945
-0.08955775601800597   0.025232663887784657   0.029329051837789444
-0.08955775601800597   0.025232663887784657   0.029329051837789444
-0.08955775601800597   0.025232663887784657   0.029329051837789444
-0.08955775601800597   0.025232663887784657   0.029329051837789444
-0.16990904328993378   -0.04167870557739208   -0.005163908372125367
-0.16990904328993378   -0.04167870557739208   -0.005163908372125367
-0.16990904328993378   -0.04167870557739208   -0.005163908372125367
-0.16990904328993378   -0.04167870557739208   -0.005163908372125367
-0.1271614802595482   -0.002673003262178366   -0.005346694553222061
-0.1271614802595482   -0.002673003262178366   -0.005346694553222061
-0.1271614802595482   -0.002673003262178366   -0.005346694553222061
-0.1271614802595482   -0.002673003262178366   -0.005346694553222061
-0.15135912660748407   0.013489977745731133   0.03241699171699994
-0.15135912660748407   0.013489977745731133   0.03241699171699994
-0.15135912660748407   0.013489977745731133   0.03241699171699994
-0.15135912660748407   0.013489977745731133   0.03241699171699994
-0.10828828430903738   -0.030116631043920258   -0.008974294685655002
-0.10828828430903738   -0.030116631043920258   -0.008974294685655002
-0.10828828430903738   -0.030116631043920258   -0.008974294685655002
-0.10828828430903738   -0.030116631043920258   -0.008974294685655002
-0.0935298615357889   0.020023107749882786   0.03689541730781298
-0.0935298615357889   0.020023107749882786   0.03689541730781298
-0.0935298615357889   0.020023107749882786   0.03689541730781298
-0.0935298615357889   0.020023107749882786   0.03689541730781298
-0.1691631464787934   -0.04437149099554785   -0.0065978791056569295
-0.1691631464787934   -0.04437149099554785   -0.0065978791056569295
-0.1691631464787934   -0.04437149099554785   -0.0065978791056569295
-0.1691631464787934   -0.04437149099554785   -0.0065978791056569295
-0.13097371293335422   -0.008361449273984214   -0.00757193118578781
-0.13097371293335422   -0.008361449273984214   -0.00757193118578781
-0.13097371293335422   -0.008361449273984214   -0.00757193118578781
-0.13097371293335422   -0.008361449273984214   -0.00757193118578781
-0.14973133079483972   0.008868060083518953   0.03732164823504465
-0.14973133079483972   0.008868060083518953   0.03732164823504465
-0.14973133079483972   0.008868060083518953   0.03732164823504465
-0.14973133079483972   0.008868060083518953   0.03732164823504465
-0.11429207146012484   -0.034546837569567564   -0.01234568699442401
-0.11429207146012484   -0.034546837569567564   -0.01234568699442401
-0.11429207146012484   -0.034546837569567564   -0.01234568699442401
-0.11429207146012484   -0.034546837569567564   -0.01234568699442401
-0.10700335138919544   0.005697852930494934   0.03839355204330723
-0.10700335138919544   0.005697852930494934   0.03839355204330723
-0.10700335138919544   0.005697852930494934   0.03839355204330723
-0.10700335138919544   0.005697852930494934   0.03839355204330723
-0.16682934608694175   -0.04679868709593151   -0.005527332576583473
-0.16682934608694175   -0.04679868709593151   -0.005527332576583473
-0.16682934608694175   -0.04679868709593151   -0.005527332576583473
-0.16682934608694175   -0.04679868709593151   -0.005527332576583473
-0.13282158002969965   -0.01248439519597699   -0.011160803422146481
-0.13282158002969965   -0.01248439519597699   -0.011160803422146481
-0.13282158002969965   -0.01248439519597699   -0.011160803422146481
-0.13282158002969965   -0.01248439519597699   -0.011160803422146481
-1.5816910477893094   -0.22450471497638827   -0.13185631202673787
-1.5816910477893094   -0.22450471497638827   -0.13185631202673787
-1.5816910477893094   -0.22450471497638827   -0.13185631202673787
-1.5816910477893094   -0.22450471497638827   -0.13185631202673787
-0.549435748623989   -0.8686847561811419   -0.10312638863521122
-0.549435748623989   -0.8686847561811419   -0.10312638863521122
-0.549435748623989   -0.8686847561811419   -0.10312638863521122
-0.549435748623989   -0.8686847561811419   -0.10312638863521122
-0.4240325243181055   -0.036828451264542005   0.0005275939639959783
-0.4240325243181055   -0.036828451264542005   0.0005275939639959783
-0.4240325243181055   -0.036828451264542005   0.0005275939639959783
-0.4240325243181055   -0.036828451264542005   0.0005275939639959783
-1.6899839609664236   -1.0201619131963877   -0.5420291748325623
-1.6899839609664236   -1.0201619131963877   -0.5420291748325623
-1.6899839609664236   -1.0201619131963877   -0.5420291748325623
-1.6899839609664236   -1.0201619131963877   -0.5420291748325623
-1.0347369328354168   -0.5073825335697122   -0.07394983841809666
-1.0347369328354168   -0.5073825335697122   -0.07394983841809666
-1.0347369328354168   -0.5073825335697122   -0.07394983841809666
-1.0347369328354168   -0.5073825335697122   -0.07394983841809666
-1.4697741628233778   -0.28192559768428493   -0.1792164996294463
-1.4697741628233778   -0.28192559768428493   -0.1792164996294463
-1.4697741628233778   -0.28192559768428493   -0.1792164996294463
-1.4697741628233778   -0.28192559768428493   -0.1792164996294463
-0.5935090939234818   -0.7243315382389763   -0.15935216708844657
-0.5935090939234818   -0.7243315382389763   -0.15935216708844657
-0.5935090939234818   -0.7243315382389763   -0.15935216708844657
-0.5935090939234818   -0.7243315382389763   -0.15935216708844657
-0.43273831609165236   -0.04894873912906558   0.016255924405055345
-0.43273831609165236   -0.04894873912906558   0.016255924405055345
-0.43273831609165236   -0.04894873912906558   0.016255924405055345
-0.43273831609165236   -0.04894873912906558   0.016255924405055345
-1.5815419988767987   -0.9105292816645838   -0.4984142561082765
-1.5815419988767987   -0.9105292816645838   -0.4984142561082765
-1.5815419988767987   -0.9105292816645838   -0.4984142561082765
-1.5815419988767987   -0.9105292816645838   -0.4984142561082765
-0.9746765294087407   -0.45769240689663143   0.03932007896965746
-0.9746765294087407   -0.45769240689663143   0.03932007896965746
-0.9746765294087407   -0.45769240689663143   0.03932007896965746
-0.9746765294087407   -0.45769240689663143   0.03932007896965746
-1.3801932957309886   -0.26844243695558995   -0.13375758508823005
-1.3801932957309886   -0.26844243695558995   -0.13375758508823005
-1.3801932957309886   -0.26844243695558995   -0.13375758508823005
-1.3801932957309886   -0.26844243695558995   -0.13375758508823005
-0.5776972448633206   -0.6346458094639186   -0.12284164911842879
-0.5776972448633206   -0.6346458094639186   -0.12284164911842879
-0.5776972448633206   -0.6346458094639186   -0.12284164911842879
-0.5776972448633206   -0.6346458094639186   -0.12284164911842879
-0.49764096523308454   -0.12789896316602817   -0.025999536784384616
-0.49764096523308454   -0.12789896316602817   -0.025999536784384616
-0.49764096523308454   -0.12789896316602817   -0.025999536784384616
-0.49764096523308454   -0.12789896316602817   -0.025999536784384616
-1.4415195815298885   -0.7659334509464039   -0.4414906064952585
-1.4415195815298885   -0.7659334509464039   -0.4414906064952585
-1.4415195815298885   -0.7659334509464039   -0.4414906064952585
-1.4415195815298885   -0.7659334509464039   -0.4414906064952585
-0.9029397742063308   -0.39693210780089616   0.1673210837027394
-0.9029397742063308   -0.39693210780089616   0.1673210837027394
-0.9029397742063308   -0.39693210780089616   0.1673210837027394
-0.9029397742063308   -0.39693210780089616   0.1673210837027394
-0.40586527340336015   -0.2212379192608883   -0.03272084945232421
-0.40586527340336015   -0.2212379192608883   -0.03272084945232421
-0.40586527340336015   -0.2212379192608883   -0.03272084945232421
-0.40586527340336015   -0.2212379192608883   -0.03272084945232421
-0.18814415405975166   -0.27579094120048686   -0.04651030240987486
-0.18814415405975166   -0.27579094120048686   -0.04651030240987486
-0.18814415405975166   -0.27579094120048686   -0.04651030240987486
-0.18814415405975166   -0.27579094120048686   -0.04651030240987486
-0.16565118650116742   -0.14163995562965442   0.004241829932917444
-0.16565118650116742   -0.14163995562965442   0.004241829932917444
-0.16565118650116742   -0.14163995562965442   0.004241829932917444
-0.16565118650116742   -0.14163995562965442   0.004241829932917444
-0.49722473319387744   -0.402762222805367   0.0005003211259660273
-0.49722473319387744   -0.402762222805367   0.0005003211259660273
-0.49722473319387744   -0.402762222805367   0.0005003211259660273
-0.49722473319387744   -0.402762222805367   0.0005003211259660273
-0.26685455742616115   -0.19520034535816433   0.08567433012667378
-0.26685455742616115   -0.19520034535816433   0.08567433012667378
-0.26685455742616115   -0.19520034535816433   0.08567433012667378
-0.26685455742616115   -0.19520034535816433   0.08567433012667378
-0.46218171119410834   -0.2060031540757819   -0.021043637604779116
-0.46218171119410834   -0.2060031540757819   -0.021043637604779116
-0.46218171119410834   -0.2060031540757819   -0.021043637604779116
-0.46218171119410834   -0.2060031540757819   -0.021043637604779116
-0.21478207066791033   -0.3524868865262136   -0.03056566000423415
-0.21478207066791033   -0.3524868865262136   -0.03056566000423415
-0.21478207066791033   -0.3524868865262136   -0.03056566000423415
-0.21478207066791033   -0.3524868865262136   -0.03056566000423415
-0.1790581766744912   -0.14676192334147942   0.004391930538285977
-0.1790581766744912   -0.14676192334147942   0.004391930538285977
-0.1790581766744912   -0.14676192334147942   0.004391930538285977
-0.1790581766744912   -0.14676192334147942   0.004391930538285977
-0.5216907621537766   -0.39777737662326385   -0.0796776684113629
-0.5216907621537766   -0.39777737662326385   -0.0796776684113629
-0.5216907621537766   -0.39777737662326385   -0.0796776684113629
-0.5216907621537766   -0.39777737662326385   -0.0796776684113629
-0.318468318772341   -0.2502429120380537   0.038984912620906614
-0.318468318772341   -0.2502429120380537   0.038984912620906614
-0.318468318772341   -0.2502429120380537   0.038984912620906614
-0.318468318772341   -0.2502429120380537   0.038984912620906614
-0.4770886771683893   -0.21511277797454606   -0.03933184213314915
-0.4770886771683893   -0.21511277797454606   -0.03933184213314915
-0.4770886771683893   -0.21511277797454606   -0.03933184213314915
-0.4770886771683893   -0.21511277797454606   -0.03933184213314915
-0.22235331392609506   -0.3281195742564139   -0.030726104804794964
-0.22235331392609506   -0.3281195742564139   -0.030726104804794964
-0.22235331392609506   -0.3281195742564139   -0.030726104804794964
-0.22235331392609506   -0.3281195742564139   -0.030726104804794964
-0.1997772231882555   -0.15147849324819332   0.0064727983363657565
-0.1997772231882555   -0.15147849324819332   0.0064727983363657565
-0.1997772231882555   -0.15147849324819332   0.0064727983363657565
-0.1997772231882555   -0.15147849324819332   0.0064727983363657565
-0.5580490308588576   -0.38662998637877066   -0.06930884170050639
-0.5580490308588576   -0.38662998637877066   -0.06930884170050639
-0.5580490308588576   -0.38662998637877066   -0.06930884170050639
-0.5580490308588576   -0.38662998637877066   -0.06930884170050639
-0.33340324614218425   -0.2358836584469378   0.04122228378597099
-0.33340324614218425   -0.2358836584469378   0.04122228378597099
-0.33340324614218425   -0.2358836584469378   0.04122228378597099
-0.33340324614218425   -0.2358836584469378   0.04122228378597099
-0.1481512181952522   -0.1320053158399133   0.00966875155204884
-0.1481512181952522   -0.1320053158399133   0.00966875155204884
-0.1481512181952522   -0.1320053158399133   0.00966875155204884
-0.1481512181952522   -0.1320053158399133   0.00966875155204884
-0.09089225618932084   -0.08668151026395134   -0.022739105104764845
-0.09089225618932084   -0.08668151026395134   -0.022739105104764845
-0.09089225618932084   -0.08668151026395134   -0.022739105104764845
-0.09089225618932084   -0.08668151026395134   -0.022739105104764845
-0.08801090681931908   -0.11810250928528199   0.009716197798297053
-0.08801090681931908   -0.11810250928528199   0.009716197798297053
-0.08801090681931908   -0.11810250928528199   0.009716197798297053
-0.08801090681931908   -0.11810250928528199   0.009716197798297053
-0.16392196557824013   -0.11853695384051796   -0.0102150672415787
-0.16392196557824013   -0.11853695384051796   -0.0102150672415787
-0.16392196557824013   -0.11853695384051796   -0.0102150672415787
-0.16392196557824013   -0.11853695384051796   -0.0102150672415787
-0.10361449014948126   -0.09598894333145834   0.042991861896677225
-0.10361449014948126   -0.09598894333145834   0.042991861896677225
-0.10361449014948126   -0.09598894333145834   0.042991861896677225
-0.10361449014948126   -0.09598894333145834   0.042991861896677225
-0.16265940621857716   -0.1328860779846251   0.01044685370083952
-0.16265940621857716   -0.1328860779846251   0.01044685370083952
-0.16265940621857716   -0.1328860779846251   0.01044685370083952
-0.16265940621857716   -0.1328860779846251   0.01044685370083952
-0.09072187064698216   -0.10520178960917556   -0.016739341016124704
-0.09072187064698216   -0.10520178960917556   -0.016739341016124704
-0.09072187064698216   -0.10520178960917556   -0.016739341016124704
-0.09072187064698216   -0.10520178960917556   -0.016739341016124704
-0.08905847121156989   -0.1216480579071047   0.00864867454152796
-0.08905847121156989   -0.1216480579071047   0.00864867454152796
-0.08905847121156989   -0.1216480579071047   0.00864867454152796
-0.08905847121156989   -0.1216480579071047   0.00864867454152796
-0.1741517647866365   -0.1382464265343162   0.020408493170400274
-0.1741517647866365   -0.1382464265343162   0.020408493170400274
-0.1741517647866365   -0.1382464265343162   0.020408493170400274
-0.1741517647866365   -0.1382464265343162   0.020408493170400274
-0.11276845437269077   -0.1069762899376896   0.036356471688387515
-0.11276845437269077   -0.1069762899376896   0.036356471688387515
-0.11276845437269077   -0.1069762899376896   0.036356471688387515
-0.11276845437269077   -0.1069762899376896   0.036356471688387515
-0.17532746372356972   -0.13781239743960622   0.014095969391020192
-0.17532746372356972   -0.13781239743960622   0.014095969391020192
-0.17532746372356972   -0.13781239743960622   0.014095969391020192
-0.17532746372356972   -0.13781239743960622   0.014095969391020192
-0.09545394186793   -0.1296532565951087   -0.015323480052268641
-0.09545394186793   -0.1296532565951087   -0.015323480052268641
-0.09545394186793   -0.1296532565951087   -0.015323480052268641
-0.09545394186793   -0.1296532565951087   -0.015323480052268641
-0.09017738548774641   -0.12558401359404364   0.012160364696774874
-0.09017738548774641   -0.12558401359404364   0.012160364696774874
-0.09017738548774641   -0.12558401359404364   0.012160364696774874
-0.09017738548774641   -0.12558401359404364   0.012160364696774874
-0.20384423432801535   -0.16995031381394227   0.004609563203315452
-0.20384423432801535   -0.16995031381394227   0.004609563203315452
-0.20384423432801535   -0.16995031381394227   0.004609563203315452
-0.20384423432801535   -0.16995031381394227   0.004609563203315452
-0.1260244233707705   -0.12190828564083045   0.017090773480213938
-0.1260244233707705   -0.12190828564083045   0.017090773480213938
-0.1260244233707705   -0.12190828564083045   0.017090773480213938
-0.1260244233707705   -0.12190828564083045   0.017090773480213938
-0.07441812443750889   -0.05258767728447657   0.02553772067482018
-0.07441812443750889   -0.05258767728447657   0.02553772067482018
-0.07441812443750889   -0.05258767728447657   0.02553772067482018
-0.07441812443750889   -0.05258767728447657   0.02553772067482018
-0.052395229248124175   -0.0005158993209518417   -0.005119018355876751
-0.052395229248124175   -0.0005158993209518417   -0.005119018355876751
-0.052395229248124175   -0.0005158993209518417   -0.005119018355876751
-0.052395229248124175   -0.0005158993209518417   -0.005119018355876751
-0.04970854442153057   -0.05688007138856463   0.015835918239320866
-0.04970854442153057   -0.05688007138856463   0.015835918239320866
-0.04970854442153057   -0.05688007138856463   0.015835918239320866
-0.04970854442153057   -0.05688007138856463   0.015835918239320866
-0.0690708039855162   -0.010539403922297384   -0.003146393395673102
-0.0690708039855162   -0.010539403922297384   -0.003146393395673102
-0.0690708039855162   -0.010539403922297384   -0.003146393395673102
-0.0690708039855162   -0.010539403922297384   -0.003146393395673102
-0.05676136841321846   -0.028937810899757277   0.01266629104838567
-0.05676136841321846   -0.028937810899757277   0.01266629104838567
-0.05676136841321846   -0.028937810899757277   0.01266629104838567
-0.05676136841321846   -0.028937810899757277   0.01266629104838567
-0.0735139288540412   -0.05999051354587502   0.024089091885279537
-0.0735139288540412   -0.05999051354587502   0.024089091885279537
-0.0735139288540412   -0.05999051354587502   0.024089091885279537
-0.0735139288540412   -0.05999051354587502   0.024089091885279537
-0.04398072636847621   -0.006144268580457637   -0.006260794303514361
-0.04398072636847621   -0.006144268580457637   -0.006260794303514361
-0.04398072636847621   -0.006144268580457637   -0.006260794303514361
-0.04398072636847621   -0.006144268580457637   -0.006260794303514361
-0.0456021511848309   -0.061887608888737414   0.014611096374497657
-0.0456021511848309   -0.061887608888737414   0.014611096374497657
-0.0456021511848309   -0.061887608888737414   0.014611096374497657
-0.0456021511848309   -0.061887608888737414   0.014611096374497657
-0.0696401750093144   -0.02035438198961937   0.004446479635320116
-0.0696401750093144   -0.02035438198961937   0.004446479635320116
-0.0696401750093144   -0.02035438198961937   0.004446479635320116
-0.0696401750093144   -0.02035438198961937   0.004446479635320116
-0.05213963940932616   -0.03318381618654919   0.01505388352395858
-0.05213963940932616   -0.03318381618654919   0.01505388352395858
-0.05213963940932616   -0.03318381618654919   0.01505388352395858
-0.05213963940932616   -0.03318381618654919   0.01505388352395858
-0.0739475365464878   -0.06497320603666798   0.027528495996501708
-0.0739475365464878   -0.06497320603666798   0.027528495996501708
-0.0739475365464878   -0.06497320603666798   0.027528495996501708
-0.0739475365464878   -0.06497320603666798   0.027528495996501708
-0.041704088468686284   -0.017678083662717593   -0.010108115270799094
-0.041704088468686284   -0.017678083662717593   -0.010108115270799094
-0.041704088468686284   -0.017678083662717593   -0.010108115270799094
-0.041704088468686284   -0.017678083662717593   -0.010108115270799094
-0.03821140921709879   -0.06743895513165742   0.016068201190240033
-0.03821140921709879   -0.06743895513165742   0.016068201190240033
-0.03821140921709879   -0.06743895513165742   0.016068201190240033
-0.03821140921709879   -0.06743895513165742   0.016068201190240033
-0.07517260722359306   -0.04421932981010207   0.005819572233600075
-0.07517260722359306   -0.04421932981010207   0.005819572233600075
-0.07517260722359306   -0.04421932981010207   0.005819572233600075
-0.07517260722359306   -0.04421932981010207   0.005819572233600075
-0.05023019263934655   -0.041854483426076575   0.012964901552197244
-0.05023019263934655   -0.041854483426076575   0.012964901552197244
-0.05023019263934655   -0.041854483426076575   0.012964901552197244
-0.05023019263934655   -0.041854483426076575   0.012964901552197244
-0.04797065326566942   -0.009226290427300703   0.025714252662745882
-0.04797065326566942   -0.009226290427300703   0.025714252662745882
-0.04797065326566942   -0.009226290427300703   0.025714252662745882
-0.04797065326566942   -0.009226290427300703   0.025714252662745882
-0.008561480155567607   0.005515088409813558   -0.0005193772386103638
-0.008561480155567607   0.005515088409813558   -0.0005193772386103638
-0.008561480155567607   0.005515088409813558   -0.0005193772386103638
-0.008561480155567607   0.005515088409813558   -0.0005193772386103638
0.002624554088781774   -0.002954665981555843   0.01592269222834026
0.002624554088781774   -0.002954665981555843   0.01592269222834026
0.002624554088781774   -0.002954665981555843   0.01592269222834026
0.002624554088781774   -0.002954665981555843   0.01592269222834026
-0.04107115600070462   0.004078177330907028   -0.0019353883760210681
-0.04107115600070462   0.004078177330907028   -0.0019353883760210681
-0.04107115600070462   0.004078177330907028   -0.0019353883760210681
-0.04107115600070462   0.004078177330907028   -0.0019353883760210681
-0.024138095510283647   -0.0018303818169601734   -0.001977516070090389
-0.024138095510283647   -0.0018303818169601734   -0.001977516070090389
-0.024138095510283647   -0.0018303818169601734   -0.001977516070090389
-0.024138095510283647   -0.0018303818169601734   -0.001977516070090389
-0.03793164500624934   -0.008901979550665982   0.026742323477828348
-0.03793164500624934   -0.008901979550665982   0.026742323477828348
-0.03793164500624934   -0.008901979550665982   0.026742323477828348
-0.03793164500624934   -0.008901979550665982   0.026742323477828348
0.0009144091274757992   0.011454856933163917   -0.0070375554929170475
0.0009144091274757992   0.011454856933163917   -0.0070375554929170475
0.0009144091274757992   0.011454856933163917   -0.0070375554929170475
0.0009144091274757992   0.011454856933163917   -0.0070375554929170475
0.008243565406381211   -0.0036453046918114764   0.019626340527850374
0.008243565406381211   -0.0036453046918114764   0.019626340527850374
0.008243565406381211   -0.0036453046918114764   0.019626340527850374
0.008243565406381211   -0.0036453046918114764   0.019626340527850374
-0.03610611680918433   0.0030505650329646517   -0.0028469056689715746
-0.03610611680918433   0.0030505650329646517   -0.0028469056689715746
-0.03610611680918433   0.0030505650329646517   -0.0028469056689715746
-0.03610611680918433   0.0030505650329646517   -0.0028469056689715746
-0.01588070379265218   -0.0004573103547236383   0.0025214354255496145
-0.01588070379265218   -0.0004573103547236383   0.0025214354255496145
-0.01588070379265218   -0.0004573103547236383   0.0025214354255496145
-0.01588070379265218   -0.0004573103547236383   0.0025214354255496145
-0.032391224040721756   -0.009951588371284124   0.0287297115775901
-0.032391224040721756   -0.009951588371284124   0.0287297115775901
-0.032391224040721756   -0.009951588371284124   0.0287297115775901
-0.032391224040721756   -0.009951588371284124   0.0287297115775901
0.005809219130927638   0.010637395205446305   -0.006828090746675279
0.005809219130927638   0.010637395205446305   -0.006828090746675279
0.005809219130927638   0.010637395205446305   -0.006828090746675279
0.005809219130927638   0.010637395205446305   -0.006828090746675279
0.013953507527659443   -0.005723011035715479   0.01906819410990317
0.013953507527659443   -0.005723011035715479   0.01906819410990317
0.013953507527659443   -0.005723011035715479   0.01906819410990317
0.013953507527659443   -0.005723011035715479   0.01906819410990317
-0.027975847627371507   0.003028253647676377   -0.003221199640457345
-0.027975847627371507   0.003028253647676377   -0.003221199640457345
-0.027975847627371507   0.003028253647676377   -0.003221199640457345
-0.027975847627371507   0.003028253647676377   -0.003221199640457345
-0.008516593277069107   0.0003755871095729729   0.006465820708941688
-0.008516593277069107   0.0003755871095729729   0.006465820708941688
-0.008516593277069107   0.0003755871095729729   0.006465820708941688
-0.008516593277069107   0.0003755871095729729   0.006465820708941688
              </DataArray>   
             <DataArray type="Float64" NumberOfComponents="3" Name="Displacements" format="ascii">   
0.0   0.0   0.0
-0.004405735388641213   -0.002892381005672607   -0.0014759884374641531
0.0   0.0   0.0
0.0   0.0   0.0
-0.004405735388641213   -0.002892381005672607   -0.0014759884374641531
-0.002803366843304947   -0.0025996091908326996   -0.0010844378686964023
0.0   0.0   0.0
-0.0027478725150555023   -0.0027299541548570475   -0.0009085514639415843
0.0   0.0   0.0
0.0   0.0   0.0
-0.0027478725150555023   -0.0027299541548570475   -0.0009085514639415843
0.0   0.0   0.0
0.0   0.0   0.0
-0.0027478725150555023   -0.0027299541548570475   -0.0009085514639415843
-0.004610745293984507   -0.0030813290160393732   -0.0011850494901674612
-0.004405735388641213   -0.002892381005672607   -0.0014759884374641531
0.0   0.0   0.0
-0.0027478725150555023   -0.0027299541548570475   -0.0009085514639415843
-0.004405735388641213   -0.002892381005672607   -0.0014759884374641531
0.0   0.0   0.0
0.0   0.0   0.0
-0.004610745293984507   -0.0030813290160393732   -0.0011850494901674612
0.0   0.0   0.0
0.0   0.0   0.0
-0.004610745293984507   -0.0030813290160393732   -0.0011850494901674612
-0.0027478725150555023   -0.0027299541548570475   -0.0009085514639415843
0.0   0.0   0.0
-0.0027555649031177085   -0.002796758471690938   -0.000732924930688432
0.0   0.0   0.0
0.0   0.0   0.0
-0.0027555649031177085   -0.002796758471690938   -0.000732924930688432
0.0   0.0   0.0
0.0   0.0   0.0
-0.0027555649031177085   -0.002796758471690938   -0.000732924930688432
-0.004754695528893914   -0.0031732128617575415   -0.0009062971012110812
-0.004610745293984507   -0.0030813290160393732   -0.0011850494901674612
0.0   0.0   0.0
-0.0027555649031177085   -0.002796758471690938   -0.000732924930688432
-0.004610745293984507   -0.0030813290160393732   -0.0011850494901674612
0.0   0.0   0.0
0.0   0.0   0.0
-0.004754695528893914   -0.0031732128617575415   -0.0009062971012110812
0.0   0.0   0.0
0.0   0.0   0.0
-0.004754695528893914   -0.0031732128617575415   -0.0009062971012110812
-0.0027555649031177085   -0.002796758471690938   -0.000732924930688432
0.0   0.0   0.0
-0.002754052151183083   -0.002813933520644424   -0.0005513328894103731
0.0   0.0   0.0
0.0   0.0   0.0
-0.002754052151183083   -0.002813933520644424   -0.0005513328894103731
0.0   0.0   0.0
0.0   0.0   0.0
-0.002754052151183083   -0.002813933520644424   -0.0005513328894103731
-0.005064860656327151   -0.0032428209075413008   -0.0005829127153730015
-0.004754695528893914   -0.0031732128617575415   -0.0009062971012110812
0.0   0.0   0.0
-0.002754052151183083   -0.002813933520644424   -0.0005513328894103731
-0.004754695528893914   -0.0031732128617575415   -0.0009062971012110812
0.0   0.0   0.0
0.0   0.0   0.0
-0.002803366843304947   -0.0025996091908326996   -0.0010844378686964023
0.0   0.0   0.0
0.0   0.0   0.0
-0.002803366843304947   -0.0025996091908326996   -0.0010844378686964023
-0.0012767344503458449   -0.002492245658269073   -0.0008248702840580588
0.0   0.0   0.0
-0.0012278894814982534   -0.002577078424575574   -0.0007418291580786883
0.0   0.0   0.0
0.0   0.0   0.0
-0.0012278894814982534   -0.002577078424575574   -0.0007418291580786883
0.0   0.0   0.0
0.0   0.0   0.0
-0.0012278894814982534   -0.002577078424575574   -0.0007418291580786883
-0.0027478725150555023   -0.0027299541548570475   -0.0009085514639415843
-0.002803366843304947   -0.0025996091908326996   -0.0010844378686964023
0.0   0.0   0.0
-0.0012278894814982534   -0.002577078424575574   -0.0007418291580786883
-0.002803366843304947   -0.0025996091908326996   -0.0010844378686964023
0.0   0.0   0.0
0.0   0.0   0.0
-0.0027478725150555023   -0.0027299541548570475   -0.0009085514639415843
0.0   0.0   0.0
0.0   0.0   0.0
-0.0027478725150555023   -0.0027299541548570475   -0.0009085514639415843
-0.0012278894814982534   -0.002577078424575574   -0.0007418291580786883
0.0   0.0   0.0
-0.0012004333025696938   -0.0026094159032895668   -0.0006609630206727224
0.0   0.0   0.0
0.0   0.0   0.0
-0.0012004333025696938   -0.0026094159032895668   -0.0006609630206727224
0.0   0.0   0.0
0.0   0.0   0.0
-0.0012004333025696938   -0.0026094159032895668   -0.0006609630206727224
-0.0027555649031177085   -0.002796758471690938   -0.000732924930688432
-0.0027478725150555023   -0.0027299541548570475   -0.0009085514639415843
0.0   0.0   0.0
-0.0012004333025696938   -0.0026094159032895668   -0.0006609630206727224
-0.0027478725150555023   -0.0027299541548570475   -0.0009085514639415843
0.0   0.0   0.0
0.0   0.0   0.0
-0.0027555649031177085   -0.002796758471690938   -0.000732924930688432
0.0   0.0   0.0
0.0   0.0   0.0
-0.0027555649031177085   -0.002796758471690938   -0.000732924930688432
-0.0012004333025696938   -0.0026094159032895668   -0.0006609630206727224
0.0   0.0   0.0
-0.0011754228686812582   -0.0025959304512367452   -0.0005773687986609944
0.0   0.0   0.0
0.0   0.0   0.0
-0.0011754228686812582   -0.0025959304512367452   -0.0005773687986609944
0.0   0.0   0.0
0.0   0.0   0.0
-0.0011754228686812582   -0.0025959304512367452   -0.0005773687986609944
-0.002754052151183083   -0.002813933520644424   -0.0005513328894103731
-0.0027555649031177085   -0.002796758471690938   -0.000732924930688432
0.0   0.0   0.0
-0.0011754228686812582   -0.0025959304512367452   -0.0005773687986609944
-0.0027555649031177085   -0.002796758471690938   -0.000732924930688432
0.0   0.0   0.0
0.0   0.0   0.0
-0.0012767344503458449   -0.002492245658269073   -0.0008248702840580588
0.0   0.0   0.0
0.0   0.0   0.0
-0.0012767344503458449   -0.002492245658269073   -0.0008248702840580588
0.0001655975760224353   -0.0025060107832012273   -0.0006594923615675745
0.0   0.0   0.0
0.00019680170751960226   -0.002549971225722829   -0.0006709662280898872
0.0   0.0   0.0
0.0   0.0   0.0
0.00019680170751960226   -0.002549971225722829   -0.0006709662280898872
0.0   0.0   0.0
0.0   0.0   0.0
0.00019680170751960226   -0.002549971225722829   -0.0006709662280898872
-0.0012278894814982534   -0.002577078424575574   -0.0007418291580786883
-0.0012767344503458449   -0.002492245658269073   -0.0008248702840580588
0.0   0.0   0.0
0.00019680170751960226   -0.002549971225722829   -0.0006709662280898872
-0.0012767344503458449   -0.002492245658269073   -0.0008248702840580588
0.0   0.0   0.0
0.0   0.0   0.0
-0.0012278894814982534   -0.002577078424575574   -0.0007418291580786883
0.0   0.0   0.0
0.0   0.0   0.0
-0.0012278894814982534   -0.002577078424575574   -0.0007418291580786883
0.00019680170751960226   -0.002549971225722829   -0.0006709662280898872
0.0   0.0   0.0
0.00022143753304541743   -0.002546318722473264   -0.0006813360233859459
0.0   0.0   0.0
0.0   0.0   0.0
0.00022143753304541743   -0.002546318722473264   -0.0006813360233859459
0.0   0.0   0.0
0.0   0.0   0.0
0.00022143753304541743   -0.002546318722473264   -0.0006813360233859459
-0.0012004333025696938   -0.0026094159032895668   -0.0006609630206727224
-0.0012278894814982534   -0.002577078424575574   -0.0007418291580786883
0.0   0.0   0.0
0.00022143753304541743   -0.002546318722473264   -0.0006813360233859459
-0.0012278894814982534   -0.002577078424575574   -0.0007418291580786883
0.0   0.0   0.0
0.0   0.0   0.0
-0.0012004333025696938   -0.0026094159032895668   -0.0006609630206727224
0.0   0.0   0.0
0.0   0.0   0.0
-0.0012004333025696938   -0.0026094159032895668   -0.0006609630206727224
0.00022143753304541743   -0.002546318722473264   -0.0006813360233859459
0.0   0.0   0.0
0.0002545661997386337   -0.0024911497358015198   -0.0006920005248111913
0.0   0.0   0.0
0.0   0.0   0.0
0.0002545661997386337   -0.0024911497358015198   -0.0006920005248111913
0.0   0.0   0.0
0.0   0.0   0.0
0.0002545661997386337   -0.0024911497358015198   -0.0006920005248111913
-0.0011754228686812582   -0.0025959304512367452   -0.0005773687986609944
-0.0012004333025696938   -0.0026094159032895668   -0.0006609630206727224
0.0   0.0   0.0
0.0002545661997386337   -0.0024911497358015198   -0.0006920005248111913
-0.0012004333025696938   -0.0026094159032895668   -0.0006609630206727224
0.0   0.0   0.0
0.0   0.0   0.0
0.0001655975760224353   -0.0025060107832012273   -0.0006594923615675745
0.0   0.0   0.0
0.0   0.0   0.0
0.0001655975760224353   -0.0025060107832012273   -0.0006594923615675745
0.0017312757451772897   -0.002627847540623391   -0.0005777428512297813
0.0   0.0   0.0
0.0017343995133992142   -0.0026418103612119524   -0.0006886681745354485
0.0   0.0   0.0
0.0   0.0   0.0
0.0017343995133992142   -0.0026418103612119524   -0.0006886681745354485
0.0   0.0   0.0
0.0   0.0   0.0
0.0017343995133992142   -0.0026418103612119524   -0.0006886681745354485
0.00019680170751960226   -0.002549971225722829   -0.0006709662280898872
0.0001655975760224353   -0.0025060107832012273   -0.0006594923615675745
0.0   0.0   0.0
0.0017343995133992142   -0.0026418103612119524   -0.0006886681745354485
0.0001655975760224353   -0.0025060107832012273   -0.0006594923615675745
0.0   0.0   0.0
0.0   0.0   0.0
0.00019680170751960226   -0.002549971225722829   -0.0006709662280898872
0.0   0.0   0.0
0.0   0.0   0.0
0.00019680170751960226   -0.002549971225722829   -0.0006709662280898872
0.0017343995133992142   -0.0026418103612119524   -0.0006886681745354485
0.0   0.0   0.0
0.0017270103434988274   -0.002604086631024365   -0.0007950931852816232
0.0   0.0   0.0
0.0   0.0   0.0
0.0017270103434988274   -0.002604086631024365   -0.0007950931852816232
0.0   0.0   0.0
0.0   0.0   0.0
0.0017270103434988274   -0.002604086631024365   -0.0007950931852816232
0.00022143753304541743   -0.002546318722473264   -0.0006813360233859459
0.00019680170751960226   -0.002549971225722829   -0.0006709662280898872
0.0   0.0   0.0
0.0017270103434988274   -0.002604086631024365   -0.0007950931852816232
0.00019680170751960226   -0.002549971225722829   -0.0006709662280898872
0.0   0.0   0.0
0.0   0.0   0.0
0.00022143753304541743   -0.002546318722473264   -0.0006813360233859459
0.0   0.0   0.0
0.0   0.0   0.0
0.00022143753304541743   -0.002546318722473264   -0.0006813360233859459
0.0017270103434988274   -0.002604086631024365   -0.0007950931852816232
0.0   0.0   0.0
0.0017604948222536465   -0.002503134949199819   -0.0008995013175314045
0.0   0.0   0.0
0.0   0.0   0.0
0.0017604948222536465   -0.002503134949199819   -0.0008995013175314045
0.0   0.0   0.0
0.0   0.0   0.0
0.0017604948222536465   -0.002503134949199819   -0.0008995013175314045
0.0002545661997386337   -0.0024911497358015198   -0.0006920005248111913
0.00022143753304541743   -0.002546318722473264   -0.0006813360233859459
0.0   0.0   0.0
0.0017604948222536465   -0.002503134949199819   -0.0008995013175314045
0.00022143753304541743   -0.002546318722473264   -0.0006813360233859459
0.0   0.0   0.0
0.0   0.0   0.0
0.0017312757451772897   -0.002627847540623391   -0.0005777428512297813
0.0   0.0   0.0
0.0   0.0   0.0
0.0017312757451772897   -0.002627847540623391   -0.0005777428512297813
0.003908841569843113   -0.0029367214306787095   -0.0005452314576935881
0.0   0.0   0.0
0.003671091838002611   -0.002904598545667127   -0.0007967532701710204
0.0   0.0   0.0
0.0   0.0   0.0
0.003671091838002611   -0.002904598545667127   -0.0007967532701710204
0.0   0.0   0.0
0.0   0.0   0.0
0.003671091838002611   -0.002904598545667127   -0.0007967532701710204
0.0017343995133992142   -0.0026418103612119524   -0.0006886681745354485
0.0017312757451772897   -0.002627847540623391   -0.0005777428512297813
0.0   0.0   0.0
0.003671091838002611   -0.002904598545667127   -0.0007967532701710204
0.0017312757451772897   -0.002627847540623391   -0.0005777428512297813
0.0   0.0   0.0
0.0   0.0   0.0
0.0017343995133992142   -0.0026418103612119524   -0.0006886681745354485
0.0   0.0   0.0
0.0   0.0   0.0
0.0017343995133992142   -0.0026418103612119524   -0.0006886681745354485
0.003671091838002611   -0.002904598545667127   -0.0007967532701710204
0.0   0.0   0.0
0.0035614735515202586   -0.002844210779977719   -0.0010094569616135103
0.0   0.0   0.0
0.0   0.0   0.0
0.0035614735515202586   -0.002844210779977719   -0.0010094569616135103
0.0   0.0   0.0
0.0   0.0   0.0
0.0035614735515202586   -0.002844210779977719   -0.0010094569616135103
0.0017270103434988274   -0.002604086631024365   -0.0007950931852816232
0.0017343995133992142   -0.0026418103612119524   -0.0006886681745354485
0.0   0.0   0.0
0.0035614735515202586   -0.002844210779977719   -0.0010094569616135103
0.0017343995133992142   -0.0026418103612119524   -0.0006886681745354485
0.0   0.0   0.0
0.0   0.0   0.0
0.0017270103434988274   -0.002604086631024365   -0.0007950931852816232
0.0   0.0   0.0
0.0   0.0   0.0
0.0017270103434988274   -0.002604086631024365   -0.0007950931852816232
0.0035614735515202586   -0.002844210779977719   -0.0010094569616135103
0.0   0.0   0.0
0.0033982554894504548   -0.002689748362477815   -0.0012345653532350501
0.0   0.0   0.0
0.0   0.0   0.0
0.0033982554894504548   -0.002689748362477815   -0.0012345653532350501
0.0   0.0   0.0
0.0   0.0   0.0
0.0033982554894504548   -0.002689748362477815   -0.0012345653532350501
0.0017604948222536465   -0.002503134949199819   -0.0008995013175314045
0.0017270103434988274   -0.002604086631024365   -0.0007950931852816232
0.0   0.0   0.0
0.0033982554894504548   -0.002689748362477815   -0.0012345653532350501
0.0017270103434988274   -0.002604086631024365   -0.0007950931852816232
0.0   0.0   0.0
-0.004405735388641213   -0.002892381005672607   -0.0014759884374641531
-0.008227678802220287   -0.008071275122060547   -0.0019886077380298073
-0.002803366843304947   -0.0025996091908326996   -0.0010844378686964023
-0.004610745293984507   -0.0030813290160393732   -0.0011850494901674612
-0.008227678802220287   -0.008071275122060547   -0.0019886077380298073
-0.005251349594142737   -0.007808014360534296   -0.001636990682055724
-0.002803366843304947   -0.0025996091908326996   -0.0010844378686964023
-0.005257425653543094   -0.007941350457978844   -0.0014743482817095917
-0.004610745293984507   -0.0030813290160393732   -0.0011850494901674612
-0.0027478725150555023   -0.0027299541548570475   -0.0009085514639415843
-0.005257425653543094   -0.007941350457978844   -0.0014743482817095917
-0.002803366843304947   -0.0025996091908326996   -0.0010844378686964023
-0.004610745293984507   -0.0030813290160393732   -0.0011850494901674612
-0.005257425653543094   -0.007941350457978844   -0.0014743482817095917
-0.00847401579354178   -0.00825734497183359   -0.0017245219196041232
-0.008227678802220287   -0.008071275122060547   -0.0019886077380298073
-0.004610745293984507   -0.0030813290160393732   -0.0011850494901674612
-0.005257425653543094   -0.007941350457978844   -0.0014743482817095917
-0.008227678802220287   -0.008071275122060547   -0.0019886077380298073
-0.002803366843304947   -0.0025996091908326996   -0.0010844378686964023
-0.004610745293984507   -0.0030813290160393732   -0.0011850494901674612
-0.00847401579354178   -0.00825734497183359   -0.0017245219196041232
-0.0027478725150555023   -0.0027299541548570475   -0.0009085514639415843
-0.004754695528893914   -0.0031732128617575415   -0.0009062971012110812
-0.00847401579354178   -0.00825734497183359   -0.0017245219196041232
-0.005257425653543094   -0.007941350457978844   -0.0014743482817095917
-0.0027478725150555023   -0.0027299541548570475   -0.0009085514639415843
-0.005277993929079156   -0.008022645338643905   -0.001318064060998626
-0.004754695528893914   -0.0031732128617575415   -0.0009062971012110812
-0.0027555649031177085   -0.002796758471690938   -0.000732924930688432
-0.005277993929079156   -0.008022645338643905   -0.001318064060998626
-0.0027478725150555023   -0.0027299541548570475   -0.0009085514639415843
-0.004754695528893914   -0.0031732128617575415   -0.0009062971012110812
-0.005277993929079156   -0.008022645338643905   -0.001318064060998626
-0.008645114803275969   -0.00836244088352979   -0.0014659484860304523
-0.00847401579354178   -0.00825734497183359   -0.0017245219196041232
-0.004754695528893914   -0.0031732128617575415   -0.0009062971012110812
-0.005277993929079156   -0.008022645338643905   -0.001318064060998626
-0.00847401579354178   -0.00825734497183359   -0.0017245219196041232
-0.0027478725150555023   -0.0027299541548570475   -0.0009085514639415843
-0.004754695528893914   -0.0031732128617575415   -0.0009062971012110812
-0.008645114803275969   -0.00836244088352979   -0.0014659484860304523
-0.0027555649031177085   -0.002796758471690938   -0.000732924930688432
-0.005064860656327151   -0.0032428209075413008   -0.0005829127153730015
-0.008645114803275969   -0.00836244088352979   -0.0014659484860304523
-0.005277993929079156   -0.008022645338643905   -0.001318064060998626
-0.0027555649031177085   -0.002796758471690938   -0.000732924930688432
-0.00526212662008375   -0.008064852130672645   -0.0011717851589345511
-0.005064860656327151   -0.0032428209075413008   -0.0005829127153730015
-0.002754052151183083   -0.002813933520644424   -0.0005513328894103731
-0.00526212662008375   -0.008064852130672645   -0.0011717851589345511
-0.0027555649031177085   -0.002796758471690938   -0.000732924930688432
-0.005064860656327151   -0.0032428209075413008   -0.0005829127153730015
-0.00526212662008375   -0.008064852130672645   -0.0011717851589345511
-0.008847341154503762   -0.008423585243134737   -0.001230713537203806
-0.008645114803275969   -0.00836244088352979   -0.0014659484860304523
-0.005064860656327151   -0.0032428209075413008   -0.0005829127153730015
-0.00526212662008375   -0.008064852130672645   -0.0011717851589345511
-0.008645114803275969   -0.00836244088352979   -0.0014659484860304523
-0.0027555649031177085   -0.002796758471690938   -0.000732924930688432
-0.002803366843304947   -0.0025996091908326996   -0.0010844378686964023
-0.005251349594142737   -0.007808014360534296   -0.001636990682055724
-0.0012767344503458449   -0.002492245658269073   -0.0008248702840580588
-0.0027478725150555023   -0.0027299541548570475   -0.0009085514639415843
-0.005251349594142737   -0.007808014360534296   -0.001636990682055724
-0.002436833082374994   -0.007685514323015151   -0.0013969790743285668
-0.0012767344503458449   -0.002492245658269073   -0.0008248702840580588
-0.0024156817615468393   -0.007770358822221763   -0.0013136213231769458
-0.0027478725150555023   -0.0027299541548570475   -0.0009085514639415843
-0.0012278894814982534   -0.002577078424575574   -0.0007418291580786883
-0.0024156817615468393   -0.007770358822221763   -0.0013136213231769458
-0.0012767344503458449   -0.002492245658269073   -0.0008248702840580588
-0.0027478725150555023   -0.0027299541548570475   -0.0009085514639415843
-0.0024156817615468393   -0.007770358822221763   -0.0013136213231769458
-0.005257425653543094   -0.007941350457978844   -0.0014743482817095917
-0.005251349594142737   -0.007808014360534296   -0.001636990682055724
-0.0027478725150555023   -0.0027299541548570475   -0.0009085514639415843
-0.0024156817615468393   -0.007770358822221763   -0.0013136213231769458
-0.005251349594142737   -0.007808014360534296   -0.001636990682055724
-0.0012767344503458449   -0.002492245658269073   -0.0008248702840580588
-0.0027478725150555023   -0.0027299541548570475   -0.0009085514639415843
-0.005257425653543094   -0.007941350457978844   -0.0014743482817095917
-0.0012278894814982534   -0.002577078424575574   -0.0007418291580786883
-0.0027555649031177085   -0.002796758471690938   -0.000732924930688432
-0.005257425653543094   -0.007941350457978844   -0.0014743482817095917
-0.0024156817615468393   -0.007770358822221763   -0.0013136213231769458
-0.0012278894814982534   -0.002577078424575574   -0.0007418291580786883
-0.002396923864902187   -0.007811513228199179   -0.0012380616754657675
-0.0027555649031177085   -0.002796758471690938   -0.000732924930688432
-0.0012004333025696938   -0.0026094159032895668   -0.0006609630206727224
-0.002396923864902187   -0.007811513228199179   -0.0012380616754657675
-0.0012278894814982534   -0.002577078424575574   -0.0007418291580786883
-0.0027555649031177085   -0.002796758471690938   -0.000732924930688432
-0.002396923864902187   -0.007811513228199179   -0.0012380616754657675
-0.005277993929079156   -0.008022645338643905   -0.001318064060998626
-0.005257425653543094   -0.007941350457978844   -0.0014743482817095917
-0.0027555649031177085   -0.002796758471690938   -0.000732924930688432
-0.002396923864902187   -0.007811513228199179   -0.0012380616754657675
-0.005257425653543094   -0.007941350457978844   -0.0014743482817095917
-0.0012278894814982534   -0.002577078424575574   -0.0007418291580786883
-0.0027555649031177085   -0.002796758471690938   -0.000732924930688432
-0.005277993929079156   -0.008022645338643905   -0.001318064060998626
-0.0012004333025696938   -0.0026094159032895668   -0.0006609630206727224
-0.002754052151183083   -0.002813933520644424   -0.0005513328894103731
-0.005277993929079156   -0.008022645338643905   -0.001318064060998626
-0.002396923864902187   -0.007811513228199179   -0.0012380616754657675
-0.0012004333025696938   -0.0026094159032895668   -0.0006609630206727224
-0.0023689911624686193   -0.00781052850706378   -0.0011722849617192342
-0.002754052151183083   -0.002813933520644424   -0.0005513328894103731
-0.0011754228686812582   -0.0025959304512367452   -0.0005773687986609944
-0.0023689911624686193   -0.00781052850706378   -0.0011722849617192342
-0.0012004333025696938   -0.0026094159032895668   -0.0006609630206727224
-0.002754052151183083   -0.002813933520644424   -0.0005513328894103731
-0.0023689911624686193   -0.00781052850706378   -0.0011722849617192342
-0.00526212662008375   -0.008064852130672645   -0.0011717851589345511
-0.005277993929079156   -0.008022645338643905   -0.001318064060998626
-0.002754052151183083   -0.002813933520644424   -0.0005513328894103731
-0.0023689911624686193   -0.00781052850706378   -0.0011722849617192342
-0.005277993929079156   -0.008022645338643905   -0.001318064060998626
-0.0012004333025696938   -0.0026094159032895668   -0.0006609630206727224
-0.0012767344503458449   -0.002492245658269073   -0.0008248702840580588
-0.002436833082374994   -0.007685514323015151   -0.0013969790743285668
0.0001655975760224353   -0.0025060107832012273   -0.0006594923615675745
-0.0012278894814982534   -0.002577078424575574   -0.0007418291580786883
-0.002436833082374994   -0.007685514323015151   -0.0013969790743285668
0.0002771333140702596   -0.007689169292154099   -0.0012452808537487868
0.0001655975760224353   -0.0025060107832012273   -0.0006594923615675745
0.00030310900602930284   -0.007729334625276538   -0.001239737680432718
-0.0012278894814982534   -0.002577078424575574   -0.0007418291580786883
0.00019680170751960226   -0.002549971225722829   -0.0006709662280898872
0.00030310900602930284   -0.007729334625276538   -0.001239737680432718
0.0001655975760224353   -0.0025060107832012273   -0.0006594923615675745
-0.0012278894814982534   -0.002577078424575574   -0.0007418291580786883
0.00030310900602930284   -0.007729334625276538   -0.001239737680432718
-0.0024156817615468393   -0.007770358822221763   -0.0013136213231769458
-0.002436833082374994   -0.007685514323015151   -0.0013969790743285668
-0.0012278894814982534   -0.002577078424575574   -0.0007418291580786883
0.00030310900602930284   -0.007729334625276538   -0.001239737680432718
-0.002436833082374994   -0.007685514323015151   -0.0013969790743285668
0.0001655975760224353   -0.0025060107832012273   -0.0006594923615675745
-0.0012278894814982534   -0.002577078424575574   -0.0007418291580786883
-0.0024156817615468393   -0.007770358822221763   -0.0013136213231769458
0.00019680170751960226   -0.002549971225722829   -0.0006709662280898872
-0.0012004333025696938   -0.0026094159032895668   -0.0006609630206727224
-0.0024156817615468393   -0.007770358822221763   -0.0013136213231769458
0.00030310900602930284   -0.007729334625276538   -0.001239737680432718
0.00019680170751960226   -0.002549971225722829   -0.0006709662280898872
0.00032062746157310426   -0.007726833590226795   -0.0012430447422446416
-0.0012004333025696938   -0.0026094159032895668   -0.0006609630206727224
0.00022143753304541743   -0.002546318722473264   -0.0006813360233859459
0.00032062746157310426   -0.007726833590226795   -0.0012430447422446416
0.00019680170751960226   -0.002549971225722829   -0.0006709662280898872
-0.0012004333025696938   -0.0026094159032895668   -0.0006609630206727224
0.00032062746157310426   -0.007726833590226795   -0.0012430447422446416
-0.002396923864902187   -0.007811513228199179   -0.0012380616754657675
-0.0024156817615468393   -0.007770358822221763   -0.0013136213231769458
-0.0012004333025696938   -0.0026094159032895668   -0.0006609630206727224
0.00032062746157310426   -0.007726833590226795   -0.0012430447422446416
-0.0024156817615468393   -0.007770358822221763   -0.0013136213231769458
0.00019680170751960226   -0.002549971225722829   -0.0006709662280898872
-0.0012004333025696938   -0.0026094159032895668   -0.0006609630206727224
-0.002396923864902187   -0.007811513228199179   -0.0012380616754657675
0.00022143753304541743   -0.002546318722473264   -0.0006813360233859459
-0.0011754228686812582   -0.0025959304512367452   -0.0005773687986609944
-0.002396923864902187   -0.007811513228199179   -0.0012380616754657675
0.00032062746157310426   -0.007726833590226795   -0.0012430447422446416
0.00022143753304541743   -0.002546318722473264   -0.0006813360233859459
0.00033941262129430066   -0.00768036483391669   -0.0012553418195788341
-0.0011754228686812582   -0.0025959304512367452   -0.0005773687986609944
0.0002545661997386337   -0.0024911497358015198   -0.0006920005248111913
0.00033941262129430066   -0.00768036483391669   -0.0012553418195788341
0.00022143753304541743   -0.002546318722473264   -0.0006813360233859459
-0.0011754228686812582   -0.0025959304512367452   -0.0005773687986609944
0.00033941262129430066   -0.00768036483391669   -0.0012553418195788341
-0.0023689911624686193   -0.00781052850706378   -0.0011722849617192342
-0.002396923864902187   -0.007811513228199179   -0.0012380616754657675
-0.0011754228686812582   -0.0025959304512367452   -0.0005773687986609944
0.00033941262129430066   -0.00768036483391669   -0.0012553418195788341
-0.002396923864902187   -0.007811513228199179   -0.0012380616754657675
0.00022143753304541743   -0.002546318722473264   -0.0006813360233859459
0.0001655975760224353   -0.0025060107832012273   -0.0006594923615675745
0.0002771333140702596   -0.007689169292154099   -0.0012452808537487868
0.0017312757451772897   -0.002627847540623391   -0.0005777428512297813
0.00019680170751960226   -0.002549971225722829   -0.0006709662280898872
0.0002771333140702596   -0.007689169292154099   -0.0012452808537487868
0.003153249055952348   -0.007814428103407238   -0.0011745900376764682
0.0017312757451772897   -0.002627847540623391   -0.0005777428512297813
0.003168033076052948   -0.007813992943276482   -0.001249383947215982
0.00019680170751960226   -0.002549971225722829   -0.0006709662280898872
0.0017343995133992142   -0.0026418103612119524   -0.0006886681745354485
0.003168033076052948   -0.007813992943276482   -0.001249383947215982
0.0017312757451772897   -0.002627847540623391   -0.0005777428512297813
0.00019680170751960226   -0.002549971225722829   -0.0006709662280898872
0.003168033076052948   -0.007813992943276482   -0.001249383947215982
0.00030310900602930284   -0.007729334625276538   -0.001239737680432718
0.0002771333140702596   -0.007689169292154099   -0.0012452808537487868
0.00019680170751960226   -0.002549971225722829   -0.0006709662280898872
0.003168033076052948   -0.007813992943276482   -0.001249383947215982
0.0002771333140702596   -0.007689169292154099   -0.0012452808537487868
0.0017312757451772897   -0.002627847540623391   -0.0005777428512297813
0.00019680170751960226   -0.002549971225722829   -0.0006709662280898872
0.00030310900602930284   -0.007729334625276538   -0.001239737680432718
0.0017343995133992142   -0.0026418103612119524   -0.0006886681745354485
0.00022143753304541743   -0.002546318722473264   -0.0006813360233859459
0.00030310900602930284   -0.007729334625276538   -0.001239737680432718
0.003168033076052948   -0.007813992943276482   -0.001249383947215982
0.0017343995133992142   -0.0026418103612119524   -0.0006886681745354485
0.003153561540046715   -0.007771724878324686   -0.001334190809791855
0.00022143753304541743   -0.002546318722473264   -0.0006813360233859459
0.0017270103434988274   -0.002604086631024365   -0.0007950931852816232
0.003153561540046715   -0.007771724878324686   -0.001334190809791855
0.0017343995133992142   -0.0026418103612119524   -0.0006886681745354485
0.00022143753304541743   -0.002546318722473264   -0.0006813360233859459
0.003153561540046715   -0.007771724878324686   -0.001334190809791855
0.00032062746157310426   -0.007726833590226795   -0.0012430447422446416
0.00030310900602930284   -0.007729334625276538   -0.001239737680432718
0.00022143753304541743   -0.002546318722473264   -0.0006813360233859459
0.003153561540046715   -0.007771724878324686   -0.001334190809791855
0.00030310900602930284   -0.007729334625276538   -0.001239737680432718
0.0017343995133992142   -0.0026418103612119524   -0.0006886681745354485
0.00022143753304541743   -0.002546318722473264   -0.0006813360233859459
0.00032062746157310426   -0.007726833590226795   -0.0012430447422446416
0.0017270103434988274   -0.002604086631024365   -0.0007950931852816232
0.0002545661997386337   -0.0024911497358015198   -0.0006920005248111913
0.00032062746157310426   -0.007726833590226795   -0.0012430447422446416
0.003153561540046715   -0.007771724878324686   -0.001334190809791855
0.0017270103434988274   -0.002604086631024365   -0.0007950931852816232
0.003145329349704811   -0.007676073146512515   -0.0014258723355854038
0.0002545661997386337   -0.0024911497358015198   -0.0006920005248111913
0.0017604948222536465   -0.002503134949199819   -0.0008995013175314045
0.003145329349704811   -0.007676073146512515   -0.0014258723355854038
0.0017270103434988274   -0.002604086631024365   -0.0007950931852816232
0.0002545661997386337   -0.0024911497358015198   -0.0006920005248111913
0.003145329349704811   -0.007676073146512515   -0.0014258723355854038
0.00033941262129430066   -0.00768036483391669   -0.0012553418195788341
0.00032062746157310426   -0.007726833590226795   -0.0012430447422446416
0.0002545661997386337   -0.0024911497358015198   -0.0006920005248111913
0.003145329349704811   -0.007676073146512515   -0.0014258723355854038
0.00032062746157310426   -0.007726833590226795   -0.0012430447422446416
0.0017270103434988274   -0.002604086631024365   -0.0007950931852816232
0.0017312757451772897   -0.002627847540623391   -0.0005777428512297813
0.003153249055952348   -0.007814428103407238   -0.0011745900376764682
0.003908841569843113   -0.0029367214306787095   -0.0005452314576935881
0.0017343995133992142   -0.0026418103612119524   -0.0006886681745354485
0.003153249055952348   -0.007814428103407238   -0.0011745900376764682
0.006624119129272853   -0.008047223290467396   -0.0011557366751844286
0.003908841569843113   -0.0029367214306787095   -0.0005452314576935881
0.006489614831580928   -0.008025166274309076   -0.001324027312425278
0.0017343995133992142   -0.0026418103612119524   -0.0006886681745354485
0.003671091838002611   -0.002904598545667127   -0.0007967532701710204
0.006489614831580928   -0.008025166274309076   -0.001324027312425278
0.003908841569843113   -0.0029367214306787095   -0.0005452314576935881
0.0017343995133992142   -0.0026418103612119524   -0.0006886681745354485
0.006489614831580928   -0.008025166274309076   -0.001324027312425278
0.003168033076052948   -0.007813992943276482   -0.001249383947215982
0.003153249055952348   -0.007814428103407238   -0.0011745900376764682
0.0017343995133992142   -0.0026418103612119524   -0.0006886681745354485
0.006489614831580928   -0.008025166274309076   -0.001324027312425278
0.003153249055952348   -0.007814428103407238   -0.0011745900376764682
0.003908841569843113   -0.0029367214306787095   -0.0005452314576935881
0.0017343995133992142   -0.0026418103612119524   -0.0006886681745354485
0.003168033076052948   -0.007813992943276482   -0.001249383947215982
0.003671091838002611   -0.002904598545667127   -0.0007967532701710204
0.0017270103434988274   -0.002604086631024365   -0.0007950931852816232
0.003168033076052948   -0.007813992943276482   -0.001249383947215982
0.006489614831580928   -0.008025166274309076   -0.001324027312425278
0.003671091838002611   -0.002904598545667127   -0.0007967532701710204
0.00636938841556687   -0.007960013797460743   -0.0015133837620840932
0.0017270103434988274   -0.002604086631024365   -0.0007950931852816232
0.0035614735515202586   -0.002844210779977719   -0.0010094569616135103
0.00636938841556687   -0.007960013797460743   -0.0015133837620840932
0.003671091838002611   -0.002904598545667127   -0.0007967532701710204
0.0017270103434988274   -0.002604086631024365   -0.0007950931852816232
0.00636938841556687   -0.007960013797460743   -0.0015133837620840932
0.003153561540046715   -0.007771724878324686   -0.001334190809791855
0.003168033076052948   -0.007813992943276482   -0.001249383947215982
0.0017270103434988274   -0.002604086631024365   -0.0007950931852816232
0.00636938841556687   -0.007960013797460743   -0.0015133837620840932
0.003168033076052948   -0.007813992943276482   -0.001249383947215982
0.003671091838002611   -0.002904598545667127   -0.0007967532701710204
0.0017270103434988274   -0.002604086631024365   -0.0007950931852816232
0.003153561540046715   -0.007771724878324686   -0.001334190809791855
0.0035614735515202586   -0.002844210779977719   -0.0010094569616135103
0.0017604948222536465   -0.002503134949199819   -0.0008995013175314045
0.003153561540046715   -0.007771724878324686   -0.001334190809791855
0.00636938841556687   -0.007960013797460743   -0.0015133837620840932
0.0035614735515202586   -0.002844210779977719   -0.0010094569616135103
0.006189122369874355   -0.007815117335513896   -0.0017105169883006874
0.0017604948222536465   -0.002503134949199819   -0.0008995013175314045
0.0033982554894504548   -0.002689748362477815   -0.0012345653532350501
0.006189122369874355   -0.007815117335513896   -0.0017105169883006874
0.0035614735515202586   -0.002844210779977719   -0.0010094569616135103
0.0017604948222536465   -0.002503134949199819   -0.0008995013175314045
0.006189122369874355   -0.007815117335513896   -0.0017105169883006874
0.003145329349704811   -0.007676073146512515   -0.0014258723355854038
0.003153561540046715   -0.007771724878324686   -0.001334190809791855
0.0017604948222536465   -0.002503134949199819   -0.0008995013175314045
0.006189122369874355   -0.007815117335513896   -0.0017105169883006874
0.003153561540046715   -0.007771724878324686   -0.001334190809791855
0.0035614735515202586   -0.002844210779977719   -0.0010094569616135103
-0.008227678802220287   -0.008071275122060547   -0.0019886077380298073
-0.011271661545114062   -0.015133295933137066   -0.0022652190213208333
-0.005251349594142737   -0.007808014360534296   -0.001636990682055724
-0.00847401579354178   -0.00825734497183359   -0.0017245219196041232
-0.011271661545114062   -0.015133295933137066   -0.0022652190213208333
-0.007247089176389654   -0.01493216664247886   -0.0019801423978737047
-0.005251349594142737   -0.007808014360534296   -0.001636990682055724
-0.007262808952711537   -0.015047216041729037   -0.0018539909316324355
-0.00847401579354178   -0.00825734497183359   -0.0017245219196041232
-0.005257425653543094   -0.007941350457978844   -0.0014743482817095917
-0.007262808952711537   -0.015047216041729037   -0.0018539909316324355
-0.005251349594142737   -0.007808014360534296   -0.001636990682055724
-0.00847401579354178   -0.00825734497183359   -0.0017245219196041232
-0.007262808952711537   -0.015047216041729037   -0.0018539909316324355
-0.01147186114100189   -0.015290540277549216   -0.002068348073559442
-0.011271661545114062   -0.015133295933137066   -0.0022652190213208333
-0.00847401579354178   -0.00825734497183359   -0.0017245219196041232
-0.007262808952711537   -0.015047216041729037   -0.0018539909316324355
-0.011271661545114062   -0.015133295933137066   -0.0022652190213208333
-0.005251349594142737   -0.007808014360534296   -0.001636990682055724
-0.00847401579354178   -0.00825734497183359   -0.0017245219196041232
-0.01147186114100189   -0.015290540277549216   -0.002068348073559442
-0.005257425653543094   -0.007941350457978844   -0.0014743482817095917
-0.008645114803275969   -0.00836244088352979   -0.0014659484860304523
-0.01147186114100189   -0.015290540277549216   -0.002068348073559442
-0.007262808952711537   -0.015047216041729037   -0.0018539909316324355
-0.005257425653543094   -0.007941350457978844   -0.0014743482817095917
-0.007281340955291275   -0.015127299238570736   -0.0017369754968217814
-0.008645114803275969   -0.00836244088352979   -0.0014659484860304523
-0.005277993929079156   -0.008022645338643905   -0.001318064060998626
-0.007281340955291275   -0.015127299238570736   -0.0017369754968217814
-0.005257425653543094   -0.007941350457978844   -0.0014743482817095917
-0.008645114803275969   -0.00836244088352979   -0.0014659484860304523
-0.007281340955291275   -0.015127299238570736   -0.0017369754968217814
-0.011597991424086417   -0.015389164965132165   -0.0018848686242321036
-0.01147186114100189   -0.015290540277549216   -0.002068348073559442
-0.008645114803275969   -0.00836244088352979   -0.0014659484860304523
-0.007281340955291275   -0.015127299238570736   -0.0017369754968217814
-0.01147186114100189   -0.015290540277549216   -0.002068348073559442
-0.005257425653543094   -0.007941350457978844   -0.0014743482817095917
-0.008645114803275969   -0.00836244088352979   -0.0014659484860304523
-0.011597991424086417   -0.015389164965132165   -0.0018848686242321036
-0.005277993929079156   -0.008022645338643905   -0.001318064060998626
-0.008847341154503762   -0.008423585243134737   -0.001230713537203806
-0.011597991424086417   -0.015389164965132165   -0.0018848686242321036
-0.007281340955291275   -0.015127299238570736   -0.0017369754968217814
-0.005277993929079156   -0.008022645338643905   -0.001318064060998626
-0.007267511915052865   -0.015180015624993623   -0.001627149263522919
-0.008847341154503762   -0.008423585243134737   -0.001230713537203806
-0.00526212662008375   -0.008064852130672645   -0.0011717851589345511
-0.007267511915052865   -0.015180015624993623   -0.001627149263522919
-0.005277993929079156   -0.008022645338643905   -0.001318064060998626
-0.008847341154503762   -0.008423585243134737   -0.001230713537203806
-0.007267511915052865   -0.015180015624993623   -0.001627149263522919
-0.011741501985631009   -0.015460141058666698   -0.0017160331738102102
-0.011597991424086417   -0.015389164965132165   -0.0018848686242321036
-0.008847341154503762   -0.008423585243134737   -0.001230713537203806
-0.007267511915052865   -0.015180015624993623   -0.001627149263522919
-0.011597991424086417   -0.015389164965132165   -0.0018848686242321036
-0.005277993929079156   -0.008022645338643905   -0.001318064060998626
-0.005251349594142737   -0.007808014360534296   -0.001636990682055724
-0.007247089176389654   -0.01493216664247886   -0.0019801423978737047
-0.002436833082374994   -0.007685514323015151   -0.0013969790743285668
-0.005257425653543094   -0.007941350457978844   -0.0014743482817095917
-0.007247089176389654   -0.01493216664247886   -0.0019801423978737047
-0.0034527350709480224   -0.014831866542153087   -0.0017820935155380075
-0.002436833082374994   -0.007685514323015151   -0.0013969790743285668
-0.0034439214963982224   -0.014905415235220484   -0.001710779614816631
-0.005257425653543094   -0.007941350457978844   -0.0014743482817095917
-0.0024156817615468393   -0.007770358822221763   -0.0013136213231769458
-0.0034439214963982224   -0.014905415235220484   -0.001710779614816631
-0.002436833082374994   -0.007685514323015151   -0.0013969790743285668
-0.005257425653543094   -0.007941350457978844   -0.0014743482817095917
-0.0034439214963982224   -0.014905415235220484   -0.001710779614816631
-0.007262808952711537   -0.015047216041729037   -0.0018539909316324355
-0.007247089176389654   -0.01493216664247886   -0.0019801423978737047
-0.005257425653543094   -0.007941350457978844   -0.0014743482817095917
-0.0034439214963982224   -0.014905415235220484   -0.001710779614816631
-0.007247089176389654   -0.01493216664247886   -0.0019801423978737047
-0.002436833082374994   -0.007685514323015151   -0.0013969790743285668
-0.005257425653543094   -0.007941350457978844   -0.0014743482817095917
-0.007262808952711537   -0.015047216041729037   -0.0018539909316324355
-0.0024156817615468393   -0.007770358822221763   -0.0013136213231769458
-0.005277993929079156   -0.008022645338643905   -0.001318064060998626
-0.007262808952711537   -0.015047216041729037   -0.0018539909316324355
-0.0034439214963982224   -0.014905415235220484   -0.001710779614816631
-0.0024156817615468393   -0.007770358822221763   -0.0013136213231769458
-0.0034331639899156862   -0.01494862488358103   -0.0016481641661960822
-0.005277993929079156   -0.008022645338643905   -0.001318064060998626
-0.002396923864902187   -0.007811513228199179   -0.0012380616754657675
-0.0034331639899156862   -0.01494862488358103   -0.0016481641661960822
-0.0024156817615468393   -0.007770358822221763   -0.0013136213231769458
-0.005277993929079156   -0.008022645338643905   -0.001318064060998626
-0.0034331639899156862   -0.01494862488358103   -0.0016481641661960822
-0.007281340955291275   -0.015127299238570736   -0.0017369754968217814
-0.007262808952711537   -0.015047216041729037   -0.0018539909316324355
-0.005277993929079156   -0.008022645338643905   -0.001318064060998626
-0.0034331639899156862   -0.01494862488358103   -0.0016481641661960822
-0.007262808952711537   -0.015047216041729037   -0.0018539909316324355
-0.0024156817615468393   -0.007770358822221763   -0.0013136213231769458
-0.005277993929079156   -0.008022645338643905   -0.001318064060998626
-0.007281340955291275   -0.015127299238570736   -0.0017369754968217814
-0.002396923864902187   -0.007811513228199179   -0.0012380616754657675
-0.00526212662008375   -0.008064852130672645   -0.0011717851589345511
-0.007281340955291275   -0.015127299238570736   -0.0017369754968217814
-0.0034331639899156862   -0.01494862488358103   -0.0016481641661960822
-0.002396923864902187   -0.007811513228199179   -0.0012380616754657675
-0.0034155841212508377   -0.014962113171164037   -0.0015942217988611752
-0.00526212662008375   -0.008064852130672645   -0.0011717851589345511
-0.0023689911624686193   -0.00781052850706378   -0.0011722849617192342
-0.0034155841212508377   -0.014962113171164037   -0.0015942217988611752
-0.002396923864902187   -0.007811513228199179   -0.0012380616754657675
-0.00526212662008375   -0.008064852130672645   -0.0011717851589345511
-0.0034155841212508377   -0.014962113171164037   -0.0015942217988611752
-0.007267511915052865   -0.015180015624993623   -0.001627149263522919
-0.007281340955291275   -0.015127299238570736   -0.0017369754968217814
-0.00526212662008375   -0.008064852130672645   -0.0011717851589345511
-0.0034155841212508377   -0.014962113171164037   -0.0015942217988611752
-0.007281340955291275   -0.015127299238570736   -0.0017369754968217814
-0.002396923864902187   -0.007811513228199179   -0.0012380616754657675
-0.002436833082374994   -0.007685514323015151   -0.0013969790743285668
-0.0034527350709480224   -0.014831866542153087   -0.0017820935155380075
0.0002771333140702596   -0.007689169292154099   -0.0012452808537487868
-0.0024156817615468393   -0.007770358822221763   -0.0013136213231769458
-0.0034527350709480224   -0.014831866542153087   -0.0017820935155380075
0.0002301089076168534   -0.014826524426642002   -0.0016593505801848413
0.0002771333140702596   -0.007689169292154099   -0.0012452808537487868
0.0002461853442845543   -0.014859218331326623   -0.0016425816221005184
-0.0024156817615468393   -0.007770358822221763   -0.0013136213231769458
0.00030310900602930284   -0.007729334625276538   -0.001239737680432718
0.0002461853442845543   -0.014859218331326623   -0.0016425816221005184
0.0002771333140702596   -0.007689169292154099   -0.0012452808537487868
-0.0024156817615468393   -0.007770358822221763   -0.0013136213231769458
0.0002461853442845543   -0.014859218331326623   -0.0016425816221005184
-0.0034439214963982224   -0.014905415235220484   -0.001710779614816631
-0.0034527350709480224   -0.014831866542153087   -0.0017820935155380075
-0.0024156817615468393   -0.007770358822221763   -0.0013136213231769458
0.0002461853442845543   -0.014859218331326623   -0.0016425816221005184
-0.0034527350709480224   -0.014831866542153087   -0.0017820935155380075
0.0002771333140702596   -0.007689169292154099   -0.0012452808537487868
-0.0024156817615468393   -0.007770358822221763   -0.0013136213231769458
-0.0034439214963982224   -0.014905415235220484   -0.001710779614816631
0.00030310900602930284   -0.007729334625276538   -0.001239737680432718
-0.002396923864902187   -0.007811513228199179   -0.0012380616754657675
-0.0034439214963982224   -0.014905415235220484   -0.001710779614816631
0.0002461853442845543   -0.014859218331326623   -0.0016425816221005184
0.00030310900602930284   -0.007729334625276538   -0.001239737680432718
0.0002565511404583874   -0.014861694600510398   -0.001634284516688597
-0.002396923864902187   -0.007811513228199179   -0.0012380616754657675
0.00032062746157310426   -0.007726833590226795   -0.0012430447422446416
0.0002565511404583874   -0.014861694600510398   -0.001634284516688597
0.00030310900602930284   -0.007729334625276538   -0.001239737680432718
-0.002396923864902187   -0.007811513228199179   -0.0012380616754657675
0.0002565511404583874   -0.014861694600510398   -0.001634284516688597
-0.0034331639899156862   -0.01494862488358103   -0.0016481641661960822
-0.0034439214963982224   -0.014905415235220484   -0.001710779614816631
-0.002396923864902187   -0.007811513228199179   -0.0012380616754657675
0.0002565511404583874   -0.014861694600510398   -0.001634284516688597
-0.0034439214963982224   -0.014905415235220484   -0.001710779614816631
0.00030310900602930284   -0.007729334625276538   -0.001239737680432718
-0.002396923864902187   -0.007811513228199179   -0.0012380616754657675
-0.0034331639899156862   -0.01494862488358103   -0.0016481641661960822
0.00032062746157310426   -0.007726833590226795   -0.0012430447422446416
-0.0023689911624686193   -0.00781052850706378   -0.0011722849617192342
-0.0034331639899156862   -0.01494862488358103   -0.0016481641661960822
0.0002565511404583874   -0.014861694600510398   -0.001634284516688597
0.00032062746157310426   -0.007726833590226795   -0.0012430447422446416
0.0002640973862794394   -0.014833502966854527   -0.0016349734177780796
-0.0023689911624686193   -0.00781052850706378   -0.0011722849617192342
0.00033941262129430066   -0.00768036483391669   -0.0012553418195788341
0.0002640973862794394   -0.014833502966854527   -0.0016349734177780796
0.00032062746157310426   -0.007726833590226795   -0.0012430447422446416
-0.0023689911624686193   -0.00781052850706378   -0.0011722849617192342
0.0002640973862794394   -0.014833502966854527   -0.0016349734177780796
-0.0034155841212508377   -0.014962113171164037   -0.0015942217988611752
-0.0034331639899156862   -0.01494862488358103   -0.0016481641661960822
-0.0023689911624686193   -0.00781052850706378   -0.0011722849617192342
0.0002640973862794394   -0.014833502966854527   -0.0016349734177780796
-0.0034331639899156862   -0.01494862488358103   -0.0016481641661960822
0.00032062746157310426   -0.007726833590226795   -0.0012430447422446416
0.0002771333140702596   -0.007689169292154099   -0.0012452808537487868
0.0002301089076168534   -0.014826524426642002   -0.0016593505801848413
0.003153249055952348   -0.007814428103407238   -0.0011745900376764682
0.00030310900602930284   -0.007729334625276538   -0.001239737680432718
0.0002301089076168534   -0.014826524426642002   -0.0016593505801848413
0.004070188490015245   -0.014910494182724273   -0.001609821855425121
0.003153249055952348   -0.007814428103407238   -0.0011745900376764682
0.004084270062482504   -0.014905734386620122   -0.0016487290966038333
0.00030310900602930284   -0.007729334625276538   -0.001239737680432718
0.003168033076052948   -0.007813992943276482   -0.001249383947215982
0.004084270062482504   -0.014905734386620122   -0.0016487290966038333
0.003153249055952348   -0.007814428103407238   -0.0011745900376764682
0.00030310900602930284   -0.007729334625276538   -0.001239737680432718
0.004084270062482504   -0.014905734386620122   -0.0016487290966038333
0.0002461853442845543   -0.014859218331326623   -0.0016425816221005184
0.0002301089076168534   -0.014826524426642002   -0.0016593505801848413
0.00030310900602930284   -0.007729334625276538   -0.001239737680432718
0.004084270062482504   -0.014905734386620122   -0.0016487290966038333
0.0002301089076168534   -0.014826524426642002   -0.0016593505801848413
0.003153249055952348   -0.007814428103407238   -0.0011745900376764682
0.00030310900602930284   -0.007729334625276538   -0.001239737680432718
0.0002461853442845543   -0.014859218331326623   -0.0016425816221005184
0.003168033076052948   -0.007813992943276482   -0.001249383947215982
0.00032062746157310426   -0.007726833590226795   -0.0012430447422446416
0.0002461853442845543   -0.014859218331326623   -0.0016425816221005184
0.004084270062482504   -0.014905734386620122   -0.0016487290966038333
0.003168033076052948   -0.007813992943276482   -0.001249383947215982
0.004074135513550155   -0.014871412010865953   -0.0016954856859189165
0.00032062746157310426   -0.007726833590226795   -0.0012430447422446416
0.003153561540046715   -0.007771724878324686   -0.001334190809791855
0.004074135513550155   -0.014871412010865953   -0.0016954856859189165
0.003168033076052948   -0.007813992943276482   -0.001249383947215982
0.00032062746157310426   -0.007726833590226795   -0.0012430447422446416
0.004074135513550155   -0.014871412010865953   -0.0016954856859189165
0.0002565511404583874   -0.014861694600510398   -0.001634284516688597
0.0002461853442845543   -0.014859218331326623   -0.0016425816221005184
0.00032062746157310426   -0.007726833590226795   -0.0012430447422446416
0.004074135513550155   -0.014871412010865953   -0.0016954856859189165
0.0002461853442845543   -0.014859218331326623   -0.0016425816221005184
0.003168033076052948   -0.007813992943276482   -0.001249383947215982
0.00032062746157310426   -0.007726833590226795   -0.0012430447422446416
0.0002565511404583874   -0.014861694600510398   -0.001634284516688597
0.003153561540046715   -0.007771724878324686   -0.001334190809791855
0.00033941262129430066   -0.00768036483391669   -0.0012553418195788341
0.0002565511404583874   -0.014861694600510398   -0.001634284516688597
0.004074135513550155   -0.014871412010865953   -0.0016954856859189165
0.003153561540046715   -0.007771724878324686   -0.001334190809791855
0.004058837188247291   -0.014800199044122886   -0.0017510221591036561
0.00033941262129430066   -0.00768036483391669   -0.0012553418195788341
0.003145329349704811   -0.007676073146512515   -0.0014258723355854038
0.004058837188247291   -0.014800199044122886   -0.0017510221591036561
0.003153561540046715   -0.007771724878324686   -0.001334190809791855
0.00033941262129430066   -0.00768036483391669   -0.0012553418195788341
0.004058837188247291   -0.014800199044122886   -0.0017510221591036561
0.0002640973862794394   -0.014833502966854527   -0.0016349734177780796
0.0002565511404583874   -0.014861694600510398   -0.001634284516688597
0.00033941262129430066   -0.00768036483391669   -0.0012553418195788341
0.004058837188247291   -0.014800199044122886   -0.0017510221591036561
0.0002565511404583874   -0.014861694600510398   -0.001634284516688597
0.003153561540046715   -0.007771724878324686   -0.001334190809791855
0.003153249055952348   -0.007814428103407238   -0.0011745900376764682
0.004070188490015245   -0.014910494182724273   -0.001609821855425121
0.006624119129272853   -0.008047223290467396   -0.0011557366751844286
0.003168033076052948   -0.007813992943276482   -0.001249383947215982
0.004070188490015245   -0.014910494182724273   -0.001609821855425121
0.0084435731450575   -0.015062753678849827   -0.0016109996882122243
0.006624119129272853   -0.008047223290467396   -0.0011557366751844286
0.008370454229388084   -0.01503640249639608   -0.0017127261358392673
0.003168033076052948   -0.007813992943276482   -0.001249383947215982
0.006489614831580928   -0.008025166274309076   -0.001324027312425278
0.008370454229388084   -0.01503640249639608   -0.0017127261358392673
0.006624119129272853   -0.008047223290467396   -0.0011557366751844286
0.003168033076052948   -0.007813992943276482   -0.001249383947215982
0.008370454229388084   -0.01503640249639608   -0.0017127261358392673
0.004084270062482504   -0.014905734386620122   -0.0016487290966038333
0.004070188490015245   -0.014910494182724273   -0.001609821855425121
0.003168033076052948   -0.007813992943276482   -0.001249383947215982
0.008370454229388084   -0.01503640249639608   -0.0017127261358392673
0.004070188490015245   -0.014910494182724273   -0.001609821855425121
0.006624119129272853   -0.008047223290467396   -0.0011557366751844286
0.003168033076052948   -0.007813992943276482   -0.001249383947215982
0.004084270062482504   -0.014905734386620122   -0.0016487290966038333
0.006489614831580928   -0.008025166274309076   -0.001324027312425278
0.003153561540046715   -0.007771724878324686   -0.001334190809791855
0.004084270062482504   -0.014905734386620122   -0.0016487290966038333
0.008370454229388084   -0.01503640249639608   -0.0017127261358392673
0.006489614831580928   -0.008025166274309076   -0.001324027312425278
0.008297419303369516   -0.014983572377645275   -0.00182860710297757
0.003153561540046715   -0.007771724878324686   -0.001334190809791855
0.00636938841556687   -0.007960013797460743   -0.0015133837620840932
0.008297419303369516   -0.014983572377645275   -0.00182860710297757
0.006489614831580928   -0.008025166274309076   -0.001324027312425278
0.003153561540046715   -0.007771724878324686   -0.001334190809791855
0.008297419303369516   -0.014983572377645275   -0.00182860710297757
0.004074135513550155   -0.014871412010865953   -0.0016954856859189165
0.004084270062482504   -0.014905734386620122   -0.0016487290966038333
0.003153561540046715   -0.007771724878324686   -0.001334190809791855
0.008297419303369516   -0.014983572377645275   -0.00182860710297757
0.004084270062482504   -0.014905734386620122   -0.0016487290966038333
0.006489614831580928   -0.008025166274309076   -0.001324027312425278
0.003153561540046715   -0.007771724878324686   -0.001334190809791855
0.004074135513550155   -0.014871412010865953   -0.0016954856859189165
0.00636938841556687   -0.007960013797460743   -0.0015133837620840932
0.003145329349704811   -0.007676073146512515   -0.0014258723355854038
0.004074135513550155   -0.014871412010865953   -0.0016954856859189165
0.008297419303369516   -0.014983572377645275   -0.00182860710297757
0.00636938841556687   -0.007960013797460743   -0.0015133837620840932
0.008167450668984267   -0.014872832225415933   -0.0019586577298407624
0.003145329349704811   -0.007676073146512515   -0.0014258723355854038
0.006189122369874355   -0.007815117335513896   -0.0017105169883006874
0.008167450668984267   -0.014872832225415933   -0.0019586577298407624
0.00636938841556687   -0.007960013797460743   -0.0015133837620840932
0.003145329349704811   -0.007676073146512515   -0.0014258723355854038
0.008167450668984267   -0.014872832225415933   -0.0019586577298407624
0.004058837188247291   -0.014800199044122886   -0.0017510221591036561
0.004074135513550155   -0.014871412010865953   -0.0016954856859189165
0.003145329349704811   -0.007676073146512515   -0.0014258723355854038
0.008167450668984267   -0.014872832225415933   -0.0019586577298407624
0.004074135513550155   -0.014871412010865953   -0.0016954856859189165
0.00636938841556687   -0.007960013797460743   -0.0015133837620840932
-0.011271661545114062   -0.015133295933137066   -0.0022652190213208333
-0.013458585269917838   -0.023505062642116065   -0.0024160834223255086
-0.007247089176389654   -0.01493216664247886   -0.0019801423978737047
-0.01147186114100189   -0.015290540277549216   -0.002068348073559442
-0.013458585269917838   -0.023505062642116065   -0.0024160834223255086
-0.008736376873219254   -0.023377147406988978   -0.002183750258396308
-0.007247089176389654   -0.01493216664247886   -0.0019801423978737047
-0.008746671276378586   -0.02347607409014545   -0.002093481794723001
-0.01147186114100189   -0.015290540277549216   -0.002068348073559442
-0.007262808952711537   -0.015047216041729037   -0.0018539909316324355
-0.008746671276378586   -0.02347607409014545   -0.002093481794723001
-0.007247089176389654   -0.01493216664247886   -0.0019801423978737047
-0.01147186114100189   -0.015290540277549216   -0.002068348073559442
-0.008746671276378586   -0.02347607409014545   -0.002093481794723001
-0.013593322403198278   -0.023638908589088396   -0.002285422129086352
-0.013458585269917838   -0.023505062642116065   -0.0024160834223255086
-0.01147186114100189   -0.015290540277549216   -0.002068348073559442
-0.008746671276378586   -0.02347607409014545   -0.002093481794723001
-0.013458585269917838   -0.023505062642116065   -0.0024160834223255086
-0.007247089176389654   -0.01493216664247886   -0.0019801423978737047
-0.01147186114100189   -0.015290540277549216   -0.002068348073559442
-0.013593322403198278   -0.023638908589088396   -0.002285422129086352
-0.007262808952711537   -0.015047216041729037   -0.0018539909316324355
-0.011597991424086417   -0.015389164965132165   -0.0018848686242321036
-0.013593322403198278   -0.023638908589088396   -0.002285422129086352
-0.008746671276378586   -0.02347607409014545   -0.002093481794723001
-0.007262808952711537   -0.015047216041729037   -0.0018539909316324355
-0.008753947115278198   -0.02355452344354529   -0.0020122124626711477
-0.011597991424086417   -0.015389164965132165   -0.0018848686242321036
-0.007281340955291275   -0.015127299238570736   -0.0017369754968217814
-0.008753947115278198   -0.02355452344354529   -0.0020122124626711477
-0.007262808952711537   -0.015047216041729037   -0.0018539909316324355
-0.011597991424086417   -0.015389164965132165   -0.0018848686242321036
-0.008753947115278198   -0.02355452344354529   -0.0020122124626711477
-0.013670527285544553   -0.023733632977116392   -0.00216730814417748
-0.013593322403198278   -0.023638908589088396   -0.002285422129086352
-0.011597991424086417   -0.015389164965132165   -0.0018848686242321036
-0.008753947115278198   -0.02355452344354529   -0.0020122124626711477
-0.013593322403198278   -0.023638908589088396   -0.002285422129086352
-0.007262808952711537   -0.015047216041729037   -0.0018539909316324355
-0.011597991424086417   -0.015389164965132165   -0.0018848686242321036
-0.013670527285544553   -0.023733632977116392   -0.00216730814417748
-0.007281340955291275   -0.015127299238570736   -0.0017369754968217814
-0.011741501985631009   -0.015460141058666698   -0.0017160331738102102
-0.013670527285544553   -0.023733632977116392   -0.00216730814417748
-0.008753947115278198   -0.02355452344354529   -0.0020122124626711477
-0.007281340955291275   -0.015127299238570736   -0.0017369754968217814
-0.008735618434398434   -0.023619003564064583   -0.0019387446081328237
-0.011741501985631009   -0.015460141058666698   -0.0017160331738102102
-0.007267511915052865   -0.015180015624993623   -0.001627149263522919
-0.008735618434398434   -0.023619003564064583   -0.0019387446081328237
-0.007281340955291275   -0.015127299238570736   -0.0017369754968217814
-0.011741501985631009   -0.015460141058666698   -0.0017160331738102102
-0.008735618434398434   -0.023619003564064583   -0.0019387446081328237
-0.013750034123270742   -0.023818586740914593   -0.0020632341982246625
-0.013670527285544553   -0.023733632977116392   -0.00216730814417748
-0.011741501985631009   -0.015460141058666698   -0.0017160331738102102
-0.008735618434398434   -0.023619003564064583   -0.0019387446081328237
-0.013670527285544553   -0.023733632977116392   -0.00216730814417748
-0.007281340955291275   -0.015127299238570736   -0.0017369754968217814
-0.007247089176389654   -0.01493216664247886   -0.0019801423978737047
-0.008736376873219254   -0.023377147406988978   -0.002183750258396308
-0.0034527350709480224   -0.014831866542153087   -0.0017820935155380075
-0.007262808952711537   -0.015047216041729037   -0.0018539909316324355
-0.008736376873219254   -0.023377147406988978   -0.002183750258396308
-0.0043096121903150346   -0.023310992714368265   -0.002022880405032297
-0.0034527350709480224   -0.014831866542153087   -0.0017820935155380075
-0.004301216962746198   -0.02337305053546611   -0.001963256389116181
-0.007262808952711537   -0.015047216041729037   -0.0018539909316324355
-0.0034439214963982224   -0.014905415235220484   -0.001710779614816631
-0.004301216962746198   -0.02337305053546611   -0.001963256389116181
-0.0034527350709480224   -0.014831866542153087   -0.0017820935155380075
-0.007262808952711537   -0.015047216041729037   -0.0018539909316324355
-0.004301216962746198   -0.02337305053546611   -0.001963256389116181
-0.008746671276378586   -0.02347607409014545   -0.002093481794723001
-0.008736376873219254   -0.023377147406988978   -0.002183750258396308
-0.007262808952711537   -0.015047216041729037   -0.0018539909316324355
-0.004301216962746198   -0.02337305053546611   -0.001963256389116181
-0.008736376873219254   -0.023377147406988978   -0.002183750258396308
-0.0034527350709480224   -0.014831866542153087   -0.0017820935155380075
-0.007262808952711537   -0.015047216041729037   -0.0018539909316324355
-0.008746671276378586   -0.02347607409014545   -0.002093481794723001
-0.0034439214963982224   -0.014905415235220484   -0.001710779614816631
-0.007281340955291275   -0.015127299238570736   -0.0017369754968217814
-0.008746671276378586   -0.02347607409014545   -0.002093481794723001
-0.004301216962746198   -0.02337305053546611   -0.001963256389116181
-0.0034439214963982224   -0.014905415235220484   -0.001710779614816631
-0.004289827854203579   -0.023417946452657046   -0.0019124951047585774
-0.007281340955291275   -0.015127299238570736   -0.0017369754968217814
-0.0034331639899156862   -0.01494862488358103   -0.0016481641661960822
-0.004289827854203579   -0.023417946452657046   -0.0019124951047585774
-0.0034439214963982224   -0.014905415235220484   -0.001710779614816631
-0.007281340955291275   -0.015127299238570736   -0.0017369754968217814
-0.004289827854203579   -0.023417946452657046   -0.0019124951047585774
-0.008753947115278198   -0.02355452344354529   -0.0020122124626711477
-0.008746671276378586   -0.02347607409014545   -0.002093481794723001
-0.007281340955291275   -0.015127299238570736   -0.0017369754968217814
-0.004289827854203579   -0.023417946452657046   -0.0019124951047585774
-0.008746671276378586   -0.02347607409014545   -0.002093481794723001
-0.0034439214963982224   -0.014905415235220484   -0.001710779614816631
-0.007281340955291275   -0.015127299238570736   -0.0017369754968217814
-0.008753947115278198   -0.02355452344354529   -0.0020122124626711477
-0.0034331639899156862   -0.01494862488358103   -0.0016481641661960822
-0.007267511915052865   -0.015180015624993623   -0.001627149263522919
-0.008753947115278198   -0.02355452344354529   -0.0020122124626711477
-0.004289827854203579   -0.023417946452657046   -0.0019124951047585774
-0.0034331639899156862   -0.01494862488358103   -0.0016481641661960822
-0.004272936660440483   -0.023445975000998157   -0.001870744244091338
-0.007267511915052865   -0.015180015624993623   -0.001627149263522919
-0.0034155841212508377   -0.014962113171164037   -0.0015942217988611752
-0.004272936660440483   -0.023445975000998157   -0.001870744244091338
-0.0034331639899156862   -0.01494862488358103   -0.0016481641661960822
-0.007267511915052865   -0.015180015624993623   -0.001627149263522919
-0.004272936660440483   -0.023445975000998157   -0.001870744244091338
-0.008735618434398434   -0.023619003564064583   -0.0019387446081328237
-0.008753947115278198   -0.02355452344354529   -0.0020122124626711477
-0.007267511915052865   -0.015180015624993623   -0.001627149263522919
-0.004272936660440483   -0.023445975000998157   -0.001870744244091338
-0.008753947115278198   -0.02355452344354529   -0.0020122124626711477
-0.0034331639899156862   -0.01494862488358103   -0.0016481641661960822
-0.0034527350709480224   -0.014831866542153087   -0.0017820935155380075
-0.0043096121903150346   -0.023310992714368265   -0.002022880405032297
0.0002301089076168534   -0.014826524426642002   -0.0016593505801848413
-0.0034439214963982224   -0.014905415235220484   -0.001710779614816631
-0.0043096121903150346   -0.023310992714368265   -0.002022880405032297
-3.111057610701838e-06   -0.023299589413743514   -0.001929243516245772
0.0002301089076168534   -0.014826524426642002   -0.0016593505801848413
1.2519038613026195e-05   -0.023324572837340015   -0.0019005048046874268
-0.0034439214963982224   -0.014905415235220484   -0.001710779614816631
0.0002461853442845543   -0.014859218331326623   -0.0016425816221005184
1.2519038613026195e-05   -0.023324572837340015   -0.0019005048046874268
0.0002301089076168534   -0.014826524426642002   -0.0016593505801848413
-0.0034439214963982224   -0.014905415235220484   -0.001710779614816631
1.2519038613026195e-05   -0.023324572837340015   -0.0019005048046874268
-0.004301216962746198   -0.02337305053546611   -0.001963256389116181
-0.0043096121903150346   -0.023310992714368265   -0.002022880405032297
-0.0034439214963982224   -0.014905415235220484   -0.001710779614816631
1.2519038613026195e-05   -0.023324572837340015   -0.0019005048046874268
-0.0043096121903150346   -0.023310992714368265   -0.002022880405032297
0.0002301089076168534   -0.014826524426642002   -0.0016593505801848413
-0.0034439214963982224   -0.014905415235220484   -0.001710779614816631
-0.004301216962746198   -0.02337305053546611   -0.001963256389116181
0.0002461853442845543   -0.014859218331326623   -0.0016425816221005184
-0.0034331639899156862   -0.01494862488358103   -0.0016481641661960822
-0.004301216962746198   -0.02337305053546611   -0.001963256389116181
1.2519038613026195e-05   -0.023324572837340015   -0.0019005048046874268
0.0002461853442845543   -0.014859218331326623   -0.0016425816221005184
2.3704264011376755e-05   -0.023332275748992045   -0.0018805172835801877
-0.0034331639899156862   -0.01494862488358103   -0.0016481641661960822
0.0002565511404583874   -0.014861694600510398   -0.001634284516688597
2.3704264011376755e-05   -0.023332275748992045   -0.0018805172835801877
0.0002461853442845543   -0.014859218331326623   -0.0016425816221005184
-0.0034331639899156862   -0.01494862488358103   -0.0016481641661960822
2.3704264011376755e-05   -0.023332275748992045   -0.0018805172835801877
-0.004289827854203579   -0.023417946452657046   -0.0019124951047585774
-0.004301216962746198   -0.02337305053546611   -0.001963256389116181
-0.0034331639899156862   -0.01494862488358103   -0.0016481641661960822
2.3704264011376755e-05   -0.023332275748992045   -0.0018805172835801877
-0.004301216962746198   -0.02337305053546611   -0.001963256389116181
0.0002461853442845543   -0.014859218331326623   -0.0016425816221005184
-0.0034331639899156862   -0.01494862488358103   -0.0016481641661960822
-0.004289827854203579   -0.023417946452657046   -0.0019124951047585774
0.0002565511404583874   -0.014861694600510398   -0.001634284516688597
-0.0034155841212508377   -0.014962113171164037   -0.0015942217988611752
-0.004289827854203579   -0.023417946452657046   -0.0019124951047585774
2.3704264011376755e-05   -0.023332275748992045   -0.0018805172835801877
0.0002565511404583874   -0.014861694600510398   -0.001634284516688597
3.0884051717562454e-05   -0.023322461012193593   -0.0018696675479398651
-0.0034155841212508377   -0.014962113171164037   -0.0015942217988611752
0.0002640973862794394   -0.014833502966854527   -0.0016349734177780796
3.0884051717562454e-05   -0.023322461012193593   -0.0018696675479398651
0.0002565511404583874   -0.014861694600510398   -0.001634284516688597
-0.0034155841212508377   -0.014962113171164037   -0.0015942217988611752
3.0884051717562454e-05   -0.023322461012193593   -0.0018696675479398651
-0.004272936660440483   -0.023445975000998157   -0.001870744244091338
-0.004289827854203579   -0.023417946452657046   -0.0019124951047585774
-0.0034155841212508377   -0.014962113171164037   -0.0015942217988611752
3.0884051717562454e-05   -0.023322461012193593   -0.0018696675479398651
-0.004289827854203579   -0.023417946452657046   -0.0019124951047585774
0.0002565511404583874   -0.014861694600510398   -0.001634284516688597
0.0002301089076168534   -0.014826524426642002   -0.0016593505801848413
-3.111057610701838e-06   -0.023299589413743514   -0.001929243516245772
0.004070188490015245   -0.014910494182724273   -0.001609821855425121
0.0002461853442845543   -0.014859218331326623   -0.0016425816221005184
-3.111057610701838e-06   -0.023299589413743514   -0.001929243516245772
0.004451494549357102   -0.02333825485512406   -0.0019024699937958164
0.004070188490015245   -0.014910494182724273   -0.001609821855425121
0.004470591719396071   -0.023328312416297615   -0.0019052658378578837
0.0002461853442845543   -0.014859218331326623   -0.0016425816221005184
0.004084270062482504   -0.014905734386620122   -0.0016487290966038333
0.004470591719396071   -0.023328312416297615   -0.0019052658378578837
0.004070188490015245   -0.014910494182724273   -0.001609821855425121
0.0002461853442845543   -0.014859218331326623   -0.0016425816221005184
0.004470591719396071   -0.023328312416297615   -0.0019052658378578837
1.2519038613026195e-05   -0.023324572837340015   -0.0019005048046874268
-3.111057610701838e-06   -0.023299589413743514   -0.001929243516245772
0.0002461853442845543   -0.014859218331326623   -0.0016425816221005184
0.004470591719396071   -0.023328312416297615   -0.0019052658378578837
-3.111057610701838e-06   -0.023299589413743514   -0.001929243516245772
0.004070188490015245   -0.014910494182724273   -0.001609821855425121
0.0002461853442845543   -0.014859218331326623   -0.0016425816221005184
1.2519038613026195e-05   -0.023324572837340015   -0.0019005048046874268
0.004084270062482504   -0.014905734386620122   -0.0016487290966038333
0.0002565511404583874   -0.014861694600510398   -0.001634284516688597
1.2519038613026195e-05   -0.023324572837340015   -0.0019005048046874268
0.004470591719396071   -0.023328312416297615   -0.0019052658378578837
0.004084270062482504   -0.014905734386620122   -0.0016487290966038333
0.004472292305345778   -0.02330242049367579   -0.0019163411885234495
0.0002565511404583874   -0.014861694600510398   -0.001634284516688597
0.004074135513550155   -0.014871412010865953   -0.0016954856859189165
0.004472292305345778   -0.02330242049367579   -0.0019163411885234495
0.004084270062482504   -0.014905734386620122   -0.0016487290966038333
0.0002565511404583874   -0.014861694600510398   -0.001634284516688597
0.004472292305345778   -0.02330242049367579   -0.0019163411885234495
2.3704264011376755e-05   -0.023332275748992045   -0.0018805172835801877
1.2519038613026195e-05   -0.023324572837340015   -0.0019005048046874268
0.0002565511404583874   -0.014861694600510398   -0.001634284516688597
0.004472292305345778   -0.02330242049367579   -0.0019163411885234495
1.2519038613026195e-05   -0.023324572837340015   -0.0019005048046874268
0.004084270062482504   -0.014905734386620122   -0.0016487290966038333
0.0002565511404583874   -0.014861694600510398   -0.001634284516688597
2.3704264011376755e-05   -0.023332275748992045   -0.0018805172835801877
0.004074135513550155   -0.014871412010865953   -0.0016954856859189165
0.0002640973862794394   -0.014833502966854527   -0.0016349734177780796
2.3704264011376755e-05   -0.023332275748992045   -0.0018805172835801877
0.004472292305345778   -0.02330242049367579   -0.0019163411885234495
0.004074135513550155   -0.014871412010865953   -0.0016954856859189165
0.00446278991841784   -0.02325410704625757   -0.0019360121312277353
0.0002640973862794394   -0.014833502966854527   -0.0016349734177780796
0.004058837188247291   -0.014800199044122886   -0.0017510221591036561
0.00446278991841784   -0.02325410704625757   -0.0019360121312277353
0.004074135513550155   -0.014871412010865953   -0.0016954856859189165
0.0002640973862794394   -0.014833502966854527   -0.0016349734177780796
0.00446278991841784   -0.02325410704625757   -0.0019360121312277353
3.0884051717562454e-05   -0.023322461012193593   -0.0018696675479398651
2.3704264011376755e-05   -0.023332275748992045   -0.0018805172835801877
0.0002640973862794394   -0.014833502966854527   -0.0016349734177780796
0.00446278991841784   -0.02325410704625757   -0.0019360121312277353
2.3704264011376755e-05   -0.023332275748992045   -0.0018805172835801877
0.004074135513550155   -0.014871412010865953   -0.0016954856859189165
0.004070188490015245   -0.014910494182724273   -0.001609821855425121
0.004451494549357102   -0.02333825485512406   -0.0019024699937958164
0.0084435731450575   -0.015062753678849827   -0.0016109996882122243
0.004084270062482504   -0.014905734386620122   -0.0016487290966038333
0.004451494549357102   -0.02333825485512406   -0.0019024699937958164
0.009370452874163614   -0.02340927384528988   -0.0019279981752431744
0.0084435731450575   -0.015062753678849827   -0.0016109996882122243
0.009362210621110617   -0.023375668290412873   -0.0019647944759428036
0.004084270062482504   -0.014905734386620122   -0.0016487290966038333
0.008370454229388084   -0.01503640249639608   -0.0017127261358392673
0.009362210621110617   -0.023375668290412873   -0.0019647944759428036
0.0084435731450575   -0.015062753678849827   -0.0016109996882122243
0.004084270062482504   -0.014905734386620122   -0.0016487290966038333
0.009362210621110617   -0.023375668290412873   -0.0019647944759428036
0.004470591719396071   -0.023328312416297615   -0.0019052658378578837
0.004451494549357102   -0.02333825485512406   -0.0019024699937958164
0.004084270062482504   -0.014905734386620122   -0.0016487290966038333
0.009362210621110617   -0.023375668290412873   -0.0019647944759428036
0.004451494549357102   -0.02333825485512406   -0.0019024699937958164
0.0084435731450575   -0.015062753678849827   -0.0016109996882122243
0.004084270062482504   -0.014905734386620122   -0.0016487290966038333
0.004470591719396071   -0.023328312416297615   -0.0019052658378578837
0.008370454229388084   -0.01503640249639608   -0.0017127261358392673
0.004074135513550155   -0.014871412010865953   -0.0016954856859189165
0.004470591719396071   -0.023328312416297615   -0.0019052658378578837
0.009362210621110617   -0.023375668290412873   -0.0019647944759428036
0.008370454229388084   -0.01503640249639608   -0.0017127261358392673
0.009339122545244072   -0.023333446410646604   -0.0020150253002155717
0.004074135513550155   -0.014871412010865953   -0.0016954856859189165
0.008297419303369516   -0.014983572377645275   -0.00182860710297757
0.009339122545244072   -0.023333446410646604   -0.0020150253002155717
0.008370454229388084   -0.01503640249639608   -0.0017127261358392673
0.004074135513550155   -0.014871412010865953   -0.0016954856859189165
0.009339122545244072   -0.023333446410646604   -0.0020150253002155717
0.004472292305345778   -0.02330242049367579   -0.0019163411885234495
0.004470591719396071   -0.023328312416297615   -0.0019052658378578837
0.004074135513550155   -0.014871412010865953   -0.0016954856859189165
0.009339122545244072   -0.023333446410646604   -0.0020150253002155717
0.004470591719396071   -0.023328312416297615   -0.0019052658378578837
0.008370454229388084   -0.01503640249639608   -0.0017127261358392673
0.004074135513550155   -0.014871412010865953   -0.0016954856859189165
0.004472292305345778   -0.02330242049367579   -0.0019163411885234495
0.008297419303369516   -0.014983572377645275   -0.00182860710297757
0.004058837188247291   -0.014800199044122886   -0.0017510221591036561
0.004472292305345778   -0.02330242049367579   -0.0019163411885234495
0.009339122545244072   -0.023333446410646604   -0.0020150253002155717
0.008297419303369516   -0.014983572377645275   -0.00182860710297757
0.009275545124410518   -0.02325304264813841   -0.0020785931991176634
0.004058837188247291   -0.014800199044122886   -0.0017510221591036561
0.008167450668984267   -0.014872832225415933   -0.0019586577298407624
0.009275545124410518   -0.02325304264813841   -0.0020785931991176634
0.008297419303369516   -0.014983572377645275   -0.00182860710297757
0.004058837188247291   -0.014800199044122886   -0.0017510221591036561
0.009275545124410518   -0.02325304264813841   -0.0020785931991176634
0.00446278991841784   -0.02325410704625757   -0.0019360121312277353
0.004472292305345778   -0.02330242049367579   -0.0019163411885234495
0.004058837188247291   -0.014800199044122886   -0.0017510221591036561
0.009275545124410518   -0.02325304264813841   -0.0020785931991176634
0.004472292305345778   -0.02330242049367579   -0.0019163411885234495
0.008297419303369516   -0.014983572377645275   -0.00182860710297757
-0.013458585269917838   -0.023505062642116065   -0.0024160834223255086
-0.014781849440580653   -0.03261589194935712   -0.0024606450099536083
-0.008736376873219254   -0.023377147406988978   -0.002183750258396308
-0.013593322403198278   -0.023638908589088396   -0.002285422129086352
-0.014781849440580653   -0.03261589194935712   -0.0024606450099536083
-0.009713828387682491   -0.03256381325134479   -0.0022756709197794935
-0.008736376873219254   -0.023377147406988978   -0.002183750258396308
-0.009709767639789176   -0.0326481577386546   -0.002220324618084716
-0.013593322403198278   -0.023638908589088396   -0.002285422129086352
-0.008746671276378586   -0.02347607409014545   -0.002093481794723001
-0.009709767639789176   -0.0326481577386546   -0.002220324618084716
-0.008736376873219254   -0.023377147406988978   -0.002183750258396308
-0.013593322403198278   -0.023638908589088396   -0.002285422129086352
-0.009709767639789176   -0.0326481577386546   -0.002220324618084716
-0.014844637202981492   -0.03272928469710517   -0.002393328090398598
-0.014781849440580653   -0.03261589194935712   -0.0024606450099536083
-0.013593322403198278   -0.023638908589088396   -0.002285422129086352
-0.009709767639789176   -0.0326481577386546   -0.002220324618084716
-0.014781849440580653   -0.03261589194935712   -0.0024606450099536083
-0.008736376873219254   -0.023377147406988978   -0.002183750258396308
-0.013593322403198278   -0.023638908589088396   -0.002285422129086352
-0.014844637202981492   -0.03272928469710517   -0.002393328090398598
-0.008746671276378586   -0.02347607409014545   -0.002093481794723001
-0.013670527285544553   -0.023733632977116392   -0.00216730814417748
-0.014844637202981492   -0.03272928469710517   -0.002393328090398598
-0.009709767639789176   -0.0326481577386546   -0.002220324618084716
-0.008746671276378586   -0.02347607409014545   -0.002093481794723001
-0.009696548801316318   -0.03272599373518678   -0.002174169222037375
-0.013670527285544553   -0.023733632977116392   -0.00216730814417748
-0.008753947115278198   -0.02355452344354529   -0.0020122124626711477
-0.009696548801316318   -0.03272599373518678   -0.002174169222037375
-0.008746671276378586   -0.02347607409014545   -0.002093481794723001
-0.013670527285544553   -0.023733632977116392   -0.00216730814417748
-0.009696548801316318   -0.03272599373518678   -0.002174169222037375
-0.014864469736748783   -0.03282180476649061   -0.002339239055584406
-0.014844637202981492   -0.03272928469710517   -0.002393328090398598
-0.013670527285544553   -0.023733632977116392   -0.00216730814417748
-0.009696548801316318   -0.03272599373518678   -0.002174169222037375
-0.014844637202981492   -0.03272928469710517   -0.002393328090398598
-0.008746671276378586   -0.02347607409014545   -0.002093481794723001
-0.013670527285544553   -0.023733632977116392   -0.00216730814417748
-0.014864469736748783   -0.03282180476649061   -0.002339239055584406
-0.008753947115278198   -0.02355452344354529   -0.0020122124626711477
-0.013750034123270742   -0.023818586740914593   -0.0020632341982246625
-0.014864469736748783   -0.03282180476649061   -0.002339239055584406
-0.009696548801316318   -0.03272599373518678   -0.002174169222037375
-0.008753947115278198   -0.02355452344354529   -0.0020122124626711477
-0.009664274527572916   -0.03280325701250841   -0.002136558296595684
-0.013750034123270742   -0.023818586740914593   -0.0020632341982246625
-0.008735618434398434   -0.023619003564064583   -0.0019387446081328237
-0.009664274527572916   -0.03280325701250841   -0.002136558296595684
-0.008753947115278198   -0.02355452344354529   -0.0020122124626711477
-0.013750034123270742   -0.023818586740914593   -0.0020632341982246625
-0.009664274527572916   -0.03280325701250841   -0.002136558296595684
-0.014870925780607967   -0.03292233193822219   -0.002299516752761234
-0.014864469736748783   -0.03282180476649061   -0.002339239055584406
-0.013750034123270742   -0.023818586740914593   -0.0020632341982246625
-0.009664274527572916   -0.03280325701250841   -0.002136558296595684
-0.014864469736748783   -0.03282180476649061   -0.002339239055584406
-0.008753947115278198   -0.02355452344354529   -0.0020122124626711477
-0.008736376873219254   -0.023377147406988978   -0.002183750258396308
-0.009713828387682491   -0.03256381325134479   -0.0022756709197794935
-0.0043096121903150346   -0.023310992714368265   -0.002022880405032297
-0.008746671276378586   -0.02347607409014545   -0.002093481794723001
-0.009713828387682491   -0.03256381325134479   -0.0022756709197794935
-0.00500603843126272   -0.03253387388601749   -0.002149749467485079
-0.0043096121903150346   -0.023310992714368265   -0.002022880405032297
-0.004988258780027054   -0.032584905964880034   -0.002101460334893299
-0.008746671276378586   -0.02347607409014545   -0.002093481794723001
-0.004301216962746198   -0.02337305053546611   -0.001963256389116181
-0.004988258780027054   -0.032584905964880034   -0.002101460334893299
-0.0043096121903150346   -0.023310992714368265   -0.002022880405032297
-0.008746671276378586   -0.02347607409014545   -0.002093481794723001
-0.004988258780027054   -0.032584905964880034   -0.002101460334893299
-0.009709767639789176   -0.0326481577386546   -0.002220324618084716
-0.009713828387682491   -0.03256381325134479   -0.0022756709197794935
-0.008746671276378586   -0.02347607409014545   -0.002093481794723001
-0.004988258780027054   -0.032584905964880034   -0.002101460334893299
-0.009713828387682491   -0.03256381325134479   -0.0022756709197794935
-0.0043096121903150346   -0.023310992714368265   -0.002022880405032297
-0.008746671276378586   -0.02347607409014545   -0.002093481794723001
-0.009709767639789176   -0.0326481577386546   -0.002220324618084716
-0.004301216962746198   -0.02337305053546611   -0.001963256389116181
-0.008753947115278198   -0.02355452344354529   -0.0020122124626711477
-0.009709767639789176   -0.0326481577386546   -0.002220324618084716
-0.004988258780027054   -0.032584905964880034   -0.002101460334893299
-0.004301216962746198   -0.02337305053546611   -0.001963256389116181
-0.0049665034079620154   -0.032631760415425815   -0.0020623684487377386
-0.008753947115278198   -0.02355452344354529   -0.0020122124626711477
-0.004289827854203579   -0.023417946452657046   -0.0019124951047585774
-0.0049665034079620154   -0.032631760415425815   -0.0020623684487377386
-0.004301216962746198   -0.02337305053546611   -0.001963256389116181
-0.008753947115278198   -0.02355452344354529   -0.0020122124626711477
-0.0049665034079620154   -0.032631760415425815   -0.0020623684487377386
-0.009696548801316318   -0.03272599373518678   -0.002174169222037375
-0.009709767639789176   -0.0326481577386546   -0.002220324618084716
-0.008753947115278198   -0.02355452344354529   -0.0020122124626711477
-0.0049665034079620154   -0.032631760415425815   -0.0020623684487377386
-0.009709767639789176   -0.0326481577386546   -0.002220324618084716
-0.004301216962746198   -0.02337305053546611   -0.001963256389116181
-0.008753947115278198   -0.02355452344354529   -0.0020122124626711477
-0.009696548801316318   -0.03272599373518678   -0.002174169222037375
-0.004289827854203579   -0.023417946452657046   -0.0019124951047585774
-0.008735618434398434   -0.023619003564064583   -0.0019387446081328237
-0.009696548801316318   -0.03272599373518678   -0.002174169222037375
-0.0049665034079620154   -0.032631760415425815   -0.0020623684487377386
-0.004289827854203579   -0.023417946452657046   -0.0019124951047585774
-0.004940399088814058   -0.032674591763037615   -0.00203269608239545
-0.008735618434398434   -0.023619003564064583   -0.0019387446081328237
-0.004272936660440483   -0.023445975000998157   -0.001870744244091338
-0.004940399088814058   -0.032674591763037615   -0.00203269608239545
-0.004289827854203579   -0.023417946452657046   -0.0019124951047585774
-0.008735618434398434   -0.023619003564064583   -0.0019387446081328237
-0.004940399088814058   -0.032674591763037615   -0.00203269608239545
-0.009664274527572916   -0.03280325701250841   -0.002136558296595684
-0.009696548801316318   -0.03272599373518678   -0.002174169222037375
-0.008735618434398434   -0.023619003564064583   -0.0019387446081328237
-0.004940399088814058   -0.032674591763037615   -0.00203269608239545
-0.009696548801316318   -0.03272599373518678   -0.002174169222037375
-0.004289827854203579   -0.023417946452657046   -0.0019124951047585774
-0.0043096121903150346   -0.023310992714368265   -0.002022880405032297
-0.00500603843126272   -0.03253387388601749   -0.002149749467485079
-3.111057610701838e-06   -0.023299589413743514   -0.001929243516245772
-0.004301216962746198   -0.02337305053546611   -0.001963256389116181
-0.00500603843126272   -0.03253387388601749   -0.002149749467485079
-0.00042565062497007387   -0.03251668842942042   -0.0020846789623931595
-3.111057610701838e-06   -0.023299589413743514   -0.001929243516245772
-0.0004008782997391513   -0.03253378421027748   -0.002043932309282729
-0.004301216962746198   -0.02337305053546611   -0.001963256389116181
1.2519038613026195e-05   -0.023324572837340015   -0.0019005048046874268
-0.0004008782997391513   -0.03253378421027748   -0.002043932309282729
-3.111057610701838e-06   -0.023299589413743514   -0.001929243516245772
-0.004301216962746198   -0.02337305053546611   -0.001963256389116181
-0.0004008782997391513   -0.03253378421027748   -0.002043932309282729
-0.004988258780027054   -0.032584905964880034   -0.002101460334893299
-0.00500603843126272   -0.03253387388601749   -0.002149749467485079
-0.004301216962746198   -0.02337305053546611   -0.001963256389116181
-0.0004008782997391513   -0.03253378421027748   -0.002043932309282729
-0.00500603843126272   -0.03253387388601749   -0.002149749467485079
-3.111057610701838e-06   -0.023299589413743514   -0.001929243516245772
-0.004301216962746198   -0.02337305053546611   -0.001963256389116181
-0.004988258780027054   -0.032584905964880034   -0.002101460334893299
1.2519038613026195e-05   -0.023324572837340015   -0.0019005048046874268
-0.004289827854203579   -0.023417946452657046   -0.0019124951047585774
-0.004988258780027054   -0.032584905964880034   -0.002101460334893299
-0.0004008782997391513   -0.03253378421027748   -0.002043932309282729
1.2519038613026195e-05   -0.023324572837340015   -0.0019005048046874268
-0.00037940062899829166   -0.0325464053855303   -0.0020123045700615534
-0.004289827854203579   -0.023417946452657046   -0.0019124951047585774
2.3704264011376755e-05   -0.023332275748992045   -0.0018805172835801877
-0.00037940062899829166   -0.0325464053855303   -0.0020123045700615534
1.2519038613026195e-05   -0.023324572837340015   -0.0019005048046874268
-0.004289827854203579   -0.023417946452657046   -0.0019124951047585774
-0.00037940062899829166   -0.0325464053855303   -0.0020123045700615534
-0.0049665034079620154   -0.032631760415425815   -0.0020623684487377386
-0.004988258780027054   -0.032584905964880034   -0.002101460334893299
-0.004289827854203579   -0.023417946452657046   -0.0019124951047585774
-0.00037940062899829166   -0.0325464053855303   -0.0020123045700615534
-0.004988258780027054   -0.032584905964880034   -0.002101460334893299
1.2519038613026195e-05   -0.023324572837340015   -0.0019005048046874268
-0.004289827854203579   -0.023417946452657046   -0.0019124951047585774
-0.0049665034079620154   -0.032631760415425815   -0.0020623684487377386
2.3704264011376755e-05   -0.023332275748992045   -0.0018805172835801877
-0.004272936660440483   -0.023445975000998157   -0.001870744244091338
-0.0049665034079620154   -0.032631760415425815   -0.0020623684487377386
-0.00037940062899829166   -0.0325464053855303   -0.0020123045700615534
2.3704264011376755e-05   -0.023332275748992045   -0.0018805172835801877
-0.00036297581001997875   -0.032554486451629144   -0.001990127570721395
-0.004272936660440483   -0.023445975000998157   -0.001870744244091338
3.0884051717562454e-05   -0.023322461012193593   -0.0018696675479398651
-0.00036297581001997875   -0.032554486451629144   -0.001990127570721395
2.3704264011376755e-05   -0.023332275748992045   -0.0018805172835801877
-0.004272936660440483   -0.023445975000998157   -0.001870744244091338
-0.00036297581001997875   -0.032554486451629144   -0.001990127570721395
-0.004940399088814058   -0.032674591763037615   -0.00203269608239545
-0.0049665034079620154   -0.032631760415425815   -0.0020623684487377386
-0.004272936660440483   -0.023445975000998157   -0.001870744244091338
-0.00036297581001997875   -0.032554486451629144   -0.001990127570721395
-0.0049665034079620154   -0.032631760415425815   -0.0020623684487377386
2.3704264011376755e-05   -0.023332275748992045   -0.0018805172835801877
-3.111057610701838e-06   -0.023299589413743514   -0.001929243516245772
-0.00042565062497007387   -0.03251668842942042   -0.0020846789623931595
0.004451494549357102   -0.02333825485512406   -0.0019024699937958164
1.2519038613026195e-05   -0.023324572837340015   -0.0019005048046874268
-0.00042565062497007387   -0.03251668842942042   -0.0020846789623931595
0.00429448979989262   -0.032509294574416314   -0.00208104084405463
0.004451494549357102   -0.02333825485512406   -0.0019024699937958164
0.004327262992133025   -0.03249351209117446   -0.002048213821258469
1.2519038613026195e-05   -0.023324572837340015   -0.0019005048046874268
0.004470591719396071   -0.023328312416297615   -0.0019052658378578837
0.004327262992133025   -0.03249351209117446   -0.002048213821258469
0.004451494549357102   -0.02333825485512406   -0.0019024699937958164
1.2519038613026195e-05   -0.023324572837340015   -0.0019005048046874268
0.004327262992133025   -0.03249351209117446   -0.002048213821258469
-0.0004008782997391513   -0.03253378421027748   -0.002043932309282729
-0.00042565062497007387   -0.03251668842942042   -0.0020846789623931595
1.2519038613026195e-05   -0.023324572837340015   -0.0019005048046874268
0.004327262992133025   -0.03249351209117446   -0.002048213821258469
-0.00042565062497007387   -0.03251668842942042   -0.0020846789623931595
0.004451494549357102   -0.02333825485512406   -0.0019024699937958164
1.2519038613026195e-05   -0.023324572837340015   -0.0019005048046874268
-0.0004008782997391513   -0.03253378421027748   -0.002043932309282729
0.004470591719396071   -0.023328312416297615   -0.0019052658378578837
2.3704264011376755e-05   -0.023332275748992045   -0.0018805172835801877
-0.0004008782997391513   -0.03253378421027748   -0.002043932309282729
0.004327262992133025   -0.03249351209117446   -0.002048213821258469
0.004470591719396071   -0.023328312416297615   -0.0019052658378578837
0.004349295014859052   -0.03247515575652813   -0.0020242435745463747
2.3704264011376755e-05   -0.023332275748992045   -0.0018805172835801877
0.004472292305345778   -0.02330242049367579   -0.0019163411885234495
0.004349295014859052   -0.03247515575652813   -0.0020242435745463747
0.004470591719396071   -0.023328312416297615   -0.0019052658378578837
2.3704264011376755e-05   -0.023332275748992045   -0.0018805172835801877
0.004349295014859052   -0.03247515575652813   -0.0020242435745463747
-0.00037940062899829166   -0.0325464053855303   -0.0020123045700615534
-0.0004008782997391513   -0.03253378421027748   -0.002043932309282729
2.3704264011376755e-05   -0.023332275748992045   -0.0018805172835801877
0.004349295014859052   -0.03247515575652813   -0.0020242435745463747
-0.0004008782997391513   -0.03253378421027748   -0.002043932309282729
0.004470591719396071   -0.023328312416297615   -0.0019052658378578837
2.3704264011376755e-05   -0.023332275748992045   -0.0018805172835801877
-0.00037940062899829166   -0.0325464053855303   -0.0020123045700615534
0.004472292305345778   -0.02330242049367579   -0.0019163411885234495
3.0884051717562454e-05   -0.023322461012193593   -0.0018696675479398651
-0.00037940062899829166   -0.0325464053855303   -0.0020123045700615534
0.004349295014859052   -0.03247515575652813   -0.0020242435745463747
0.004472292305345778   -0.02330242049367579   -0.0019163411885234495
0.004353983516742361   -0.03244821627127741   -0.0020089490521935384
3.0884051717562454e-05   -0.023322461012193593   -0.0018696675479398651
0.00446278991841784   -0.02325410704625757   -0.0019360121312277353
0.004353983516742361   -0.03244821627127741   -0.0020089490521935384
0.004472292305345778   -0.02330242049367579   -0.0019163411885234495
3.0884051717562454e-05   -0.023322461012193593   -0.0018696675479398651
0.004353983516742361   -0.03244821627127741   -0.0020089490521935384
-0.00036297581001997875   -0.032554486451629144   -0.001990127570721395
-0.00037940062899829166   -0.0325464053855303   -0.0020123045700615534
3.0884051717562454e-05   -0.023322461012193593   -0.0018696675479398651
0.004353983516742361   -0.03244821627127741   -0.0020089490521935384
-0.00037940062899829166   -0.0325464053855303   -0.0020123045700615534
0.004472292305345778   -0.02330242049367579   -0.0019163411885234495
0.004451494549357102   -0.02333825485512406   -0.0019024699937958164
0.00429448979989262   -0.032509294574416314   -0.00208104084405463
0.009370452874163614   -0.02340927384528988   -0.0019279981752431744
0.004470591719396071   -0.023328312416297615   -0.0019052658378578837
0.00429448979989262   -0.032509294574416314   -0.00208104084405463
0.009409518382170278   -0.03249898795258616   -0.0021327130337872244
0.009370452874163614   -0.02340927384528988   -0.0019279981752431744
0.009473609264259915   -0.03245721219870308   -0.002105725170635965
0.004470591719396071   -0.023328312416297615   -0.0019052658378578837
0.009362210621110617   -0.023375668290412873   -0.0019647944759428036
0.009473609264259915   -0.03245721219870308   -0.002105725170635965
0.009370452874163614   -0.02340927384528988   -0.0019279981752431744
0.004470591719396071   -0.023328312416297615   -0.0019052658378578837
0.009473609264259915   -0.03245721219870308   -0.002105725170635965
0.004327262992133025   -0.03249351209117446   -0.002048213821258469
0.00429448979989262   -0.032509294574416314   -0.00208104084405463
0.004470591719396071   -0.023328312416297615   -0.0019052658378578837
0.009473609264259915   -0.03245721219870308   -0.002105725170635965
0.00429448979989262   -0.032509294574416314   -0.00208104084405463
0.009370452874163614   -0.02340927384528988   -0.0019279981752431744
0.004470591719396071   -0.023328312416297615   -0.0019052658378578837
0.004327262992133025   -0.03249351209117446   -0.002048213821258469
0.009362210621110617   -0.023375668290412873   -0.0019647944759428036
0.004472292305345778   -0.02330242049367579   -0.0019163411885234495
0.004327262992133025   -0.03249351209117446   -0.002048213821258469
0.009473609264259915   -0.03245721219870308   -0.002105725170635965
0.009362210621110617   -0.023375668290412873   -0.0019647944759428036
0.009507639154783679   -0.03242424059521756   -0.0020921972689135933
0.004472292305345778   -0.02330242049367579   -0.0019163411885234495
0.009339122545244072   -0.023333446410646604   -0.0020150253002155717
0.009507639154783679   -0.03242424059521756   -0.0020921972689135933
0.009362210621110617   -0.023375668290412873   -0.0019647944759428036
0.004472292305345778   -0.02330242049367579   -0.0019163411885234495
0.009507639154783679   -0.03242424059521756   -0.0020921972689135933
0.004349295014859052   -0.03247515575652813   -0.0020242435745463747
0.004327262992133025   -0.03249351209117446   -0.002048213821258469
0.004472292305345778   -0.02330242049367579   -0.0019163411885234495
0.009507639154783679   -0.03242424059521756   -0.0020921972689135933
0.004327262992133025   -0.03249351209117446   -0.002048213821258469
0.009362210621110617   -0.023375668290412873   -0.0019647944759428036
0.004472292305345778   -0.02330242049367579   -0.0019163411885234495
0.004349295014859052   -0.03247515575652813   -0.0020242435745463747
0.009339122545244072   -0.023333446410646604   -0.0020150253002155717
0.00446278991841784   -0.02325410704625757   -0.0019360121312277353
0.004349295014859052   -0.03247515575652813   -0.0020242435745463747
0.009507639154783679   -0.03242424059521756   -0.0020921972689135933
0.009339122545244072   -0.023333446410646604   -0.0020150253002155717
0.009516157132032663   -0.03237139816647386   -0.0020923587972979563
0.00446278991841784   -0.02325410704625757   -0.0019360121312277353
0.009275545124410518   -0.02325304264813841   -0.0020785931991176634
0.009516157132032663   -0.03237139816647386   -0.0020923587972979563
0.009339122545244072   -0.023333446410646604   -0.0020150253002155717
0.00446278991841784   -0.02325410704625757   -0.0019360121312277353
0.009516157132032663   -0.03237139816647386   -0.0020923587972979563
0.004353983516742361   -0.03244821627127741   -0.0020089490521935384
0.004349295014859052   -0.03247515575652813   -0.0020242435745463747
0.00446278991841784   -0.02325410704625757   -0.0019360121312277353
0.009516157132032663   -0.03237139816647386   -0.0020923587972979563
0.004349295014859052   -0.03247515575652813   -0.0020242435745463747
0.009339122545244072   -0.023333446410646604   -0.0020150253002155717
-0.014781849440580653   -0.03261589194935712   -0.0024606450099536083
-0.015242193015822452   -0.041888942796322486   -0.0024193894233499017
-0.009713828387682491   -0.03256381325134479   -0.0022756709197794935
-0.014844637202981492   -0.03272928469710517   -0.002393328090398598
-0.015242193015822452   -0.041888942796322486   -0.0024193894233499017
-0.010180990830857809   -0.04191322190995941   -0.0022826939906662224
-0.009713828387682491   -0.03256381325134479   -0.0022756709197794935
-0.010153567433699055   -0.04198270435652883   -0.0022617176054028354
-0.014844637202981492   -0.03272928469710517   -0.002393328090398598
-0.009709767639789176   -0.0326481577386546   -0.002220324618084716
-0.010153567433699055   -0.04198270435652883   -0.0022617176054028354
-0.009713828387682491   -0.03256381325134479   -0.0022756709197794935
-0.014844637202981492   -0.03272928469710517   -0.002393328090398598
-0.010153567433699055   -0.04198270435652883   -0.0022617176054028354
-0.015224449196112416   -0.0419819166994894   -0.0024151111889711943
-0.015242193015822452   -0.041888942796322486   -0.0024193894233499017
-0.014844637202981492   -0.03272928469710517   -0.002393328090398598
-0.010153567433699055   -0.04198270435652883   -0.0022617176054028354
-0.015242193015822452   -0.041888942796322486   -0.0024193894233499017
-0.009713828387682491   -0.03256381325134479   -0.0022756709197794935
-0.014844637202981492   -0.03272928469710517   -0.002393328090398598
-0.015224449196112416   -0.0419819166994894   -0.0024151111889711943
-0.009709767639789176   -0.0326481577386546   -0.002220324618084716
-0.014864469736748783   -0.03282180476649061   -0.002339239055584406
-0.015224449196112416   -0.0419819166994894   -0.0024151111889711943
-0.010153567433699055   -0.04198270435652883   -0.0022617176054028354
-0.009709767639789176   -0.0326481577386546   -0.002220324618084716
-0.010110870318296935   -0.04205972289268101   -0.002250207616374559
-0.014864469736748783   -0.03282180476649061   -0.002339239055584406
-0.009696548801316318   -0.03272599373518678   -0.002174169222037375
-0.010110870318296935   -0.04205972289268101   -0.002250207616374559
-0.009709767639789176   -0.0326481577386546   -0.002220324618084716
-0.014864469736748783   -0.03282180476649061   -0.002339239055584406
-0.010110870318296935   -0.04205972289268101   -0.002250207616374559
-0.01517770773394488   -0.042072232598201545   -0.0024249785599003947
-0.015224449196112416   -0.0419819166994894   -0.0024151111889711943
-0.014864469736748783   -0.03282180476649061   -0.002339239055584406
-0.010110870318296935   -0.04205972289268101   -0.002250207616374559
-0.015224449196112416   -0.0419819166994894   -0.0024151111889711943
-0.009709767639789176   -0.0326481577386546   -0.002220324618084716
-0.014864469736748783   -0.03282180476649061   -0.002339239055584406
-0.01517770773394488   -0.042072232598201545   -0.0024249785599003947
-0.009696548801316318   -0.03272599373518678   -0.002174169222037375
-0.014870925780607967   -0.03292233193822219   -0.002299516752761234
-0.01517770773394488   -0.042072232598201545   -0.0024249785599003947
-0.010110870318296935   -0.04205972289268101   -0.002250207616374559
-0.009696548801316318   -0.03272599373518678   -0.002174169222037375
-0.010055621825929536   -0.04214958310419825   -0.002248007984124196
-0.014870925780607967   -0.03292233193822219   -0.002299516752761234
-0.009664274527572916   -0.03280325701250841   -0.002136558296595684
-0.010055621825929536   -0.04214958310419825   -0.002248007984124196
-0.009696548801316318   -0.03272599373518678   -0.002174169222037375
-0.014870925780607967   -0.03292233193822219   -0.002299516752761234
-0.010055621825929536   -0.04214958310419825   -0.002248007984124196
-0.015101966245693108   -0.042188610558550846   -0.0024497098688465047
-0.01517770773394488   -0.042072232598201545   -0.0024249785599003947
-0.014870925780607967   -0.03292233193822219   -0.002299516752761234
-0.010055621825929536   -0.04214958310419825   -0.002248007984124196
-0.01517770773394488   -0.042072232598201545   -0.0024249785599003947
-0.009696548801316318   -0.03272599373518678   -0.002174169222037375
-0.009713828387682491   -0.03256381325134479   -0.0022756709197794935
-0.010180990830857809   -0.04191322190995941   -0.0022826939906662224
-0.00500603843126272   -0.03253387388601749   -0.002149749467485079
-0.009709767639789176   -0.0326481577386546   -0.002220324618084716
-0.010180990830857809   -0.04191322190995941   -0.0022826939906662224
-0.005544793713589556   -0.041918453425307506   -0.002191846521178854
-0.00500603843126272   -0.03253387388601749   -0.002149749467485079
-0.00550815215245438   -0.04195829004307228   -0.002154555644233983
-0.009709767639789176   -0.0326481577386546   -0.002220324618084716
-0.004988258780027054   -0.032584905964880034   -0.002101460334893299
-0.00550815215245438   -0.04195829004307228   -0.002154555644233983
-0.00500603843126272   -0.03253387388601749   -0.002149749467485079
-0.009709767639789176   -0.0326481577386546   -0.002220324618084716
-0.00550815215245438   -0.04195829004307228   -0.002154555644233983
-0.010153567433699055   -0.04198270435652883   -0.0022617176054028354
-0.010180990830857809   -0.04191322190995941   -0.0022826939906662224
-0.009709767639789176   -0.0326481577386546   -0.002220324618084716
-0.00550815215245438   -0.04195829004307228   -0.002154555644233983
-0.010180990830857809   -0.04191322190995941   -0.0022826939906662224
-0.00500603843126272   -0.03253387388601749   -0.002149749467485079
-0.009709767639789176   -0.0326481577386546   -0.002220324618084716
-0.010153567433699055   -0.04198270435652883   -0.0022617176054028354
-0.004988258780027054   -0.032584905964880034   -0.002101460334893299
-0.009696548801316318   -0.03272599373518678   -0.002174169222037375
-0.010153567433699055   -0.04198270435652883   -0.0022617176054028354
-0.00550815215245438   -0.04195829004307228   -0.002154555644233983
-0.004988258780027054   -0.032584905964880034   -0.002101460334893299
-0.005466778248357961   -0.04200676062303948   -0.0021267660007483046
-0.009696548801316318   -0.03272599373518678   -0.002174169222037375
-0.0049665034079620154   -0.032631760415425815   -0.0020623684487377386
-0.005466778248357961   -0.04200676062303948   -0.0021267660007483046
-0.004988258780027054   -0.032584905964880034   -0.002101460334893299
-0.009696548801316318   -0.03272599373518678   -0.002174169222037375
-0.005466778248357961   -0.04200676062303948   -0.0021267660007483046
-0.010110870318296935   -0.04205972289268101   -0.002250207616374559
-0.010153567433699055   -0.04198270435652883   -0.0022617176054028354
-0.009696548801316318   -0.03272599373518678   -0.002174169222037375
-0.005466778248357961   -0.04200676062303948   -0.0021267660007483046
-0.010153567433699055   -0.04198270435652883   -0.0022617176054028354
-0.004988258780027054   -0.032584905964880034   -0.002101460334893299
-0.009696548801316318   -0.03272599373518678   -0.002174169222037375
-0.010110870318296935   -0.04205972289268101   -0.002250207616374559
-0.0049665034079620154   -0.032631760415425815   -0.0020623684487377386
-0.009664274527572916   -0.03280325701250841   -0.002136558296595684
-0.010110870318296935   -0.04205972289268101   -0.002250207616374559
-0.005466778248357961   -0.04200676062303948   -0.0021267660007483046
-0.0049665034079620154   -0.032631760415425815   -0.0020623684487377386
-0.0054222019377585815   -0.04206401635134069   -0.0021087870650889373
-0.009664274527572916   -0.03280325701250841   -0.002136558296595684
-0.004940399088814058   -0.032674591763037615   -0.00203269608239545
-0.0054222019377585815   -0.04206401635134069   -0.0021087870650889373
-0.0049665034079620154   -0.032631760415425815   -0.0020623684487377386
-0.009664274527572916   -0.03280325701250841   -0.002136558296595684
-0.0054222019377585815   -0.04206401635134069   -0.0021087870650889373
-0.010055621825929536   -0.04214958310419825   -0.002248007984124196
-0.010110870318296935   -0.04205972289268101   -0.002250207616374559
-0.009664274527572916   -0.03280325701250841   -0.002136558296595684
-0.0054222019377585815   -0.04206401635134069   -0.0021087870650889373
-0.010110870318296935   -0.04205972289268101   -0.002250207616374559
-0.0049665034079620154   -0.032631760415425815   -0.0020623684487377386
-0.00500603843126272   -0.03253387388601749   -0.002149749467485079
-0.005544793713589556   -0.041918453425307506   -0.002191846521178854
-0.00042565062497007387   -0.03251668842942042   -0.0020846789623931595
-0.004988258780027054   -0.032584905964880034   -0.002101460334893299
-0.005544793713589556   -0.041918453425307506   -0.002191846521178854
-0.0010397268631600588   -0.04189382985368686   -0.0021547812539758474
-0.00042565062497007387   -0.03251668842942042   -0.0020846789623931595
-0.0009964212533190668   -0.041903017779217594   -0.002101988372691787
-0.004988258780027054   -0.032584905964880034   -0.002101460334893299
-0.0004008782997391513   -0.03253378421027748   -0.002043932309282729
-0.0009964212533190668   -0.041903017779217594   -0.002101988372691787
-0.00042565062497007387   -0.03251668842942042   -0.0020846789623931595
-0.004988258780027054   -0.032584905964880034   -0.002101460334893299
-0.0009964212533190668   -0.041903017779217594   -0.002101988372691787
-0.00550815215245438   -0.04195829004307228   -0.002154555644233983
-0.005544793713589556   -0.041918453425307506   -0.002191846521178854
-0.004988258780027054   -0.032584905964880034   -0.002101460334893299
-0.0009964212533190668   -0.041903017779217594   -0.002101988372691787
-0.005544793713589556   -0.041918453425307506   -0.002191846521178854
-0.00042565062497007387   -0.03251668842942042   -0.0020846789623931595
-0.004988258780027054   -0.032584905964880034   -0.002101460334893299
-0.00550815215245438   -0.04195829004307228   -0.002154555644233983
-0.0004008782997391513   -0.03253378421027748   -0.002043932309282729
-0.0049665034079620154   -0.032631760415425815   -0.0020623684487377386
-0.00550815215245438   -0.04195829004307228   -0.002154555644233983
-0.0009964212533190668   -0.041903017779217594   -0.002101988372691787
-0.0004008782997391513   -0.03253378421027748   -0.002043932309282729
-0.000955445415051505   -0.04192016706548948   -0.0020586306834217954
-0.0049665034079620154   -0.032631760415425815   -0.0020623684487377386
-0.00037940062899829166   -0.0325464053855303   -0.0020123045700615534
-0.000955445415051505   -0.04192016706548948   -0.0020586306834217954
-0.0004008782997391513   -0.03253378421027748   -0.002043932309282729
-0.0049665034079620154   -0.032631760415425815   -0.0020623684487377386
-0.000955445415051505   -0.04192016706548948   -0.0020586306834217954
-0.005466778248357961   -0.04200676062303948   -0.0021267660007483046
-0.00550815215245438   -0.04195829004307228   -0.002154555644233983
-0.0049665034079620154   -0.032631760415425815   -0.0020623684487377386
-0.000955445415051505   -0.04192016706548948   -0.0020586306834217954
-0.00550815215245438   -0.04195829004307228   -0.002154555644233983
-0.0004008782997391513   -0.03253378421027748   -0.002043932309282729
-0.0049665034079620154   -0.032631760415425815   -0.0020623684487377386
-0.005466778248357961   -0.04200676062303948   -0.0021267660007483046
-0.00037940062899829166   -0.0325464053855303   -0.0020123045700615534
-0.004940399088814058   -0.032674591763037615   -0.00203269608239545
-0.005466778248357961   -0.04200676062303948   -0.0021267660007483046
-0.000955445415051505   -0.04192016706548948   -0.0020586306834217954
-0.00037940062899829166   -0.0325464053855303   -0.0020123045700615534
-0.0009206325725661596   -0.041945667468734224   -0.0020250370874529246
-0.004940399088814058   -0.032674591763037615   -0.00203269608239545
-0.00036297581001997875   -0.032554486451629144   -0.001990127570721395
-0.0009206325725661596   -0.041945667468734224   -0.0020250370874529246
-0.00037940062899829166   -0.0325464053855303   -0.0020123045700615534
-0.004940399088814058   -0.032674591763037615   -0.00203269608239545
-0.0009206325725661596   -0.041945667468734224   -0.0020250370874529246
-0.0054222019377585815   -0.04206401635134069   -0.0021087870650889373
-0.005466778248357961   -0.04200676062303948   -0.0021267660007483046
-0.004940399088814058   -0.032674591763037615   -0.00203269608239545
-0.0009206325725661596   -0.041945667468734224   -0.0020250370874529246
-0.005466778248357961   -0.04200676062303948   -0.0021267660007483046
-0.00037940062899829166   -0.0325464053855303   -0.0020123045700615534
-0.00042565062497007387   -0.03251668842942042   -0.0020846789623931595
-0.0010397268631600588   -0.04189382985368686   -0.0021547812539758474
0.00429448979989262   -0.032509294574416314   -0.00208104084405463
-0.0004008782997391513   -0.03253378421027748   -0.002043932309282729
-0.0010397268631600588   -0.04189382985368686   -0.0021547812539758474
0.0036008311116785758   -0.041839116514067215   -0.002173280195277435
0.00429448979989262   -0.032509294574416314   -0.00208104084405463
0.003656039734684939   -0.04181754843149998   -0.0021052555784292094
-0.0004008782997391513   -0.03253378421027748   -0.002043932309282729
0.004327262992133025   -0.03249351209117446   -0.002048213821258469
0.003656039734684939   -0.04181754843149998   -0.0021052555784292094
0.00429448979989262   -0.032509294574416314   -0.00208104084405463
-0.0004008782997391513   -0.03253378421027748   -0.002043932309282729
0.003656039734684939   -0.04181754843149998   -0.0021052555784292094
-0.0009964212533190668   -0.041903017779217594   -0.002101988372691787
-0.0010397268631600588   -0.04189382985368686   -0.0021547812539758474
-0.0004008782997391513   -0.03253378421027748   -0.002043932309282729
0.003656039734684939   -0.04181754843149998   -0.0021052555784292094
-0.0010397268631600588   -0.04189382985368686   -0.0021547812539758474
0.00429448979989262   -0.032509294574416314   -0.00208104084405463
-0.0004008782997391513   -0.03253378421027748   -0.002043932309282729
-0.0009964212533190668   -0.041903017779217594   -0.002101988372691787
0.004327262992133025   -0.03249351209117446   -0.002048213821258469
-0.00037940062899829166   -0.0325464053855303   -0.0020123045700615534
-0.0009964212533190668   -0.041903017779217594   -0.002101988372691787
0.003656039734684939   -0.04181754843149998   -0.0021052555784292094
0.004327262992133025   -0.03249351209117446   -0.002048213821258469
0.003707089568967138   -0.04180632943817492   -0.0020466371718283467
-0.00037940062899829166   -0.0325464053855303   -0.0020123045700615534
0.004349295014859052   -0.03247515575652813   -0.0020242435745463747
0.003707089568967138   -0.04180632943817492   -0.0020466371718283467
0.004327262992133025   -0.03249351209117446   -0.002048213821258469
-0.00037940062899829166   -0.0325464053855303   -0.0020123045700615534
0.003707089568967138   -0.04180632943817492   -0.0020466371718283467
-0.000955445415051505   -0.04192016706548948   -0.0020586306834217954
-0.0009964212533190668   -0.041903017779217594   -0.002101988372691787
-0.00037940062899829166   -0.0325464053855303   -0.0020123045700615534
0.003707089568967138   -0.04180632943817492   -0.0020466371718283467
-0.0009964212533190668   -0.041903017779217594   -0.002101988372691787
0.004327262992133025   -0.03249351209117446   -0.002048213821258469
-0.00037940062899829166   -0.0325464053855303   -0.0020123045700615534
-0.000955445415051505   -0.04192016706548948   -0.0020586306834217954
0.004349295014859052   -0.03247515575652813   -0.0020242435745463747
-0.00036297581001997875   -0.032554486451629144   -0.001990127570721395
-0.000955445415051505   -0.04192016706548948   -0.0020586306834217954
0.003707089568967138   -0.04180632943817492   -0.0020466371718283467
0.004349295014859052   -0.03247515575652813   -0.0020242435745463747
0.0037345680974212687   -0.04180004497447048   -0.0019968108784376203
-0.00036297581001997875   -0.032554486451629144   -0.001990127570721395
0.004353983516742361   -0.03244821627127741   -0.0020089490521935384
0.0037345680974212687   -0.04180004497447048   -0.0019968108784376203
0.004349295014859052   -0.03247515575652813   -0.0020242435745463747
-0.00036297581001997875   -0.032554486451629144   -0.001990127570721395
0.0037345680974212687   -0.04180004497447048   -0.0019968108784376203
-0.0009206325725661596   -0.041945667468734224   -0.0020250370874529246
-0.000955445415051505   -0.04192016706548948   -0.0020586306834217954
-0.00036297581001997875   -0.032554486451629144   -0.001990127570721395
0.0037345680974212687   -0.04180004497447048   -0.0019968108784376203
-0.000955445415051505   -0.04192016706548948   -0.0020586306834217954
0.004349295014859052   -0.03247515575652813   -0.0020242435745463747
0.00429448979989262   -0.032509294574416314   -0.00208104084405463
0.0036008311116785758   -0.041839116514067215   -0.002173280195277435
0.009409518382170278   -0.03249898795258616   -0.0021327130337872244
0.004327262992133025   -0.03249351209117446   -0.002048213821258469
0.0036008311116785758   -0.041839116514067215   -0.002173280195277435
0.008568971156373374   -0.04174714591579599   -0.0022502796176767544
0.009409518382170278   -0.03249898795258616   -0.0021327130337872244
0.008712903464257035   -0.04169768818670812   -0.0021609484311732852
0.004327262992133025   -0.03249351209117446   -0.002048213821258469
0.009473609264259915   -0.03245721219870308   -0.002105725170635965
0.008712903464257035   -0.04169768818670812   -0.0021609484311732852
0.009409518382170278   -0.03249898795258616   -0.0021327130337872244
0.004327262992133025   -0.03249351209117446   -0.002048213821258469
0.008712903464257035   -0.04169768818670812   -0.0021609484311732852
0.003656039734684939   -0.04181754843149998   -0.0021052555784292094
0.0036008311116785758   -0.041839116514067215   -0.002173280195277435
0.004327262992133025   -0.03249351209117446   -0.002048213821258469
0.008712903464257035   -0.04169768818670812   -0.0021609484311732852
0.0036008311116785758   -0.041839116514067215   -0.002173280195277435
0.009409518382170278   -0.03249898795258616   -0.0021327130337872244
0.004327262992133025   -0.03249351209117446   -0.002048213821258469
0.003656039734684939   -0.04181754843149998   -0.0021052555784292094
0.009473609264259915   -0.03245721219870308   -0.002105725170635965
0.004349295014859052   -0.03247515575652813   -0.0020242435745463747
0.003656039734684939   -0.04181754843149998   -0.0021052555784292094
0.008712903464257035   -0.04169768818670812   -0.0021609484311732852
0.009473609264259915   -0.03245721219870308   -0.002105725170635965
0.008811873167841131   -0.04167369991629158   -0.002085015867654651
0.004349295014859052   -0.03247515575652813   -0.0020242435745463747
0.009507639154783679   -0.03242424059521756   -0.0020921972689135933
0.008811873167841131   -0.04167369991629158   -0.002085015867654651
0.009473609264259915   -0.03245721219870308   -0.002105725170635965
0.004349295014859052   -0.03247515575652813   -0.0020242435745463747
0.008811873167841131   -0.04167369991629158   -0.002085015867654651
0.003707089568967138   -0.04180632943817492   -0.0020466371718283467
0.003656039734684939   -0.04181754843149998   -0.0021052555784292094
0.004349295014859052   -0.03247515575652813   -0.0020242435745463747
0.008811873167841131   -0.04167369991629158   -0.002085015867654651
0.003656039734684939   -0.04181754843149998   -0.0021052555784292094
0.009473609264259915   -0.03245721219870308   -0.002105725170635965
0.004349295014859052   -0.03247515575652813   -0.0020242435745463747
0.003707089568967138   -0.04180632943817492   -0.0020466371718283467
0.009507639154783679   -0.03242424059521756   -0.0020921972689135933
0.004353983516742361   -0.03244821627127741   -0.0020089490521935384
0.003707089568967138   -0.04180632943817492   -0.0020466371718283467
0.008811873167841131   -0.04167369991629158   -0.002085015867654651
0.009507639154783679   -0.03242424059521756   -0.0020921972689135933
0.008899842614698793   -0.04164764694480308   -0.002023038873137952
0.004353983516742361   -0.03244821627127741   -0.0020089490521935384
0.009516157132032663   -0.03237139816647386   -0.0020923587972979563
0.008899842614698793   -0.04164764694480308   -0.002023038873137952
0.009507639154783679   -0.03242424059521756   -0.0020921972689135933
0.004353983516742361   -0.03244821627127741   -0.0020089490521935384
0.008899842614698793   -0.04164764694480308   -0.002023038873137952
0.0037345680974212687   -0.04180004497447048   -0.0019968108784376203
0.003707089568967138   -0.04180632943817492   -0.0020466371718283467
0.004353983516742361   -0.03244821627127741   -0.0020089490521935384
0.008899842614698793   -0.04164764694480308   -0.002023038873137952
0.003707089568967138   -0.04180632943817492   -0.0020466371718283467
0.009507639154783679   -0.03242424059521756   -0.0020921972689135933
-0.015242193015822452   -0.041888942796322486   -0.0024193894233499017
-0.014833024297917025   -0.05074209050225243   -0.0023134238044782954
-0.010180990830857809   -0.04191322190995941   -0.0022826939906662224
-0.015224449196112416   -0.0419819166994894   -0.0024151111889711943
-0.014833024297917025   -0.05074209050225243   -0.0023134238044782954
-0.010138892036851284   -0.05084405328864138   -0.002231148434526114
-0.010180990830857809   -0.04191322190995941   -0.0022826939906662224
-0.01007944784733688   -0.050895905499261034   -0.0022436128535020436
-0.015224449196112416   -0.0419819166994894   -0.0024151111889711943
-0.010153567433699055   -0.04198270435652883   -0.0022617176054028354
-0.01007944784733688   -0.050895905499261034   -0.0022436128535020436
-0.010180990830857809   -0.04191322190995941   -0.0022826939906662224
-0.015224449196112416   -0.0419819166994894   -0.0024151111889711943
-0.01007944784733688   -0.050895905499261034   -0.0022436128535020436
-0.014725707037922944   -0.05081210470055281   -0.002372281003722027
-0.014833024297917025   -0.05074209050225243   -0.0023134238044782954
-0.015224449196112416   -0.0419819166994894   -0.0024151111889711943
-0.01007944784733688   -0.050895905499261034   -0.0022436128535020436
-0.014833024297917025   -0.05074209050225243   -0.0023134238044782954
-0.010180990830857809   -0.04191322190995941   -0.0022826939906662224
-0.015224449196112416   -0.0419819166994894   -0.0024151111889711943
-0.014725707037922944   -0.05081210470055281   -0.002372281003722027
-0.010153567433699055   -0.04198270435652883   -0.0022617176054028354
-0.01517770773394488   -0.042072232598201545   -0.0024249785599003947
-0.014725707037922944   -0.05081210470055281   -0.002372281003722027
-0.01007944784733688   -0.050895905499261034   -0.0022436128535020436
-0.010153567433699055   -0.04198270435652883   -0.0022617176054028354
-0.009998996635828046   -0.05096976793473988   -0.002265777343699923
-0.01517770773394488   -0.042072232598201545   -0.0024249785599003947
-0.010110870318296935   -0.04205972289268101   -0.002250207616374559
-0.009998996635828046   -0.05096976793473988   -0.002265777343699923
-0.010153567433699055   -0.04198270435652883   -0.0022617176054028354
-0.01517770773394488   -0.042072232598201545   -0.0024249785599003947
-0.009998996635828046   -0.05096976793473988   -0.002265777343699923
-0.01460327585251122   -0.05089808511530632   -0.0024463926673660946
-0.014725707037922944   -0.05081210470055281   -0.002372281003722027
-0.01517770773394488   -0.042072232598201545   -0.0024249785599003947
-0.009998996635828046   -0.05096976793473988   -0.002265777343699923
-0.014725707037922944   -0.05081210470055281   -0.002372281003722027
-0.010153567433699055   -0.04198270435652883   -0.0022617176054028354
-0.01517770773394488   -0.042072232598201545   -0.0024249785599003947
-0.01460327585251122   -0.05089808511530632   -0.0024463926673660946
-0.010110870318296935   -0.04205972289268101   -0.002250207616374559
-0.015101966245693108   -0.042188610558550846   -0.0024497098688465047
-0.01460327585251122   -0.05089808511530632   -0.0024463926673660946
-0.009998996635828046   -0.05096976793473988   -0.002265777343699923
-0.010110870318296935   -0.04205972289268101   -0.002250207616374559
-0.009912687009593817   -0.05107014830049192   -0.002297925851571263
-0.015101966245693108   -0.042188610558550846   -0.0024497098688465047
-0.010055621825929536   -0.04214958310419825   -0.002248007984124196
-0.009912687009593817   -0.05107014830049192   -0.002297925851571263
-0.010110870318296935   -0.04205972289268101   -0.002250207616374559
-0.015101966245693108   -0.042188610558550846   -0.0024497098688465047
-0.009912687009593817   -0.05107014830049192   -0.002297925851571263
-0.014436609982952125   -0.05102899029265994   -0.0025360435980397097
-0.01460327585251122   -0.05089808511530632   -0.0024463926673660946
-0.015101966245693108   -0.042188610558550846   -0.0024497098688465047
-0.009912687009593817   -0.05107014830049192   -0.002297925851571263
-0.01460327585251122   -0.05089808511530632   -0.0024463926673660946
-0.010110870318296935   -0.04205972289268101   -0.002250207616374559
-0.010180990830857809   -0.04191322190995941   -0.0022826939906662224
-0.010138892036851284   -0.05084405328864138   -0.002231148434526114
-0.005544793713589556   -0.041918453425307506   -0.002191846521178854
-0.010153567433699055   -0.04198270435652883   -0.0022617176054028354
-0.010138892036851284   -0.05084405328864138   -0.002231148434526114
-0.005930766619366981   -0.05088434474768349   -0.002178501803491178
-0.005544793713589556   -0.041918453425307506   -0.002191846521178854
-0.00586605087425755   -0.05091128583532545   -0.0021513464347881995
-0.010153567433699055   -0.04198270435652883   -0.0022617176054028354
-0.00550815215245438   -0.04195829004307228   -0.002154555644233983
-0.00586605087425755   -0.05091128583532545   -0.0021513464347881995
-0.005544793713589556   -0.041918453425307506   -0.002191846521178854
-0.010153567433699055   -0.04198270435652883   -0.0022617176054028354
-0.00586605087425755   -0.05091128583532545   -0.0021513464347881995
-0.01007944784733688   -0.050895905499261034   -0.0022436128535020436
-0.010138892036851284   -0.05084405328864138   -0.002231148434526114
-0.010153567433699055   -0.04198270435652883   -0.0022617176054028354
-0.00586605087425755   -0.05091128583532545   -0.0021513464347881995
-0.010138892036851284   -0.05084405328864138   -0.002231148434526114
-0.005544793713589556   -0.041918453425307506   -0.002191846521178854
-0.010153567433699055   -0.04198270435652883   -0.0022617176054028354
-0.01007944784733688   -0.050895905499261034   -0.0022436128535020436
-0.00550815215245438   -0.04195829004307228   -0.002154555644233983
-0.010110870318296935   -0.04205972289268101   -0.002250207616374559
-0.01007944784733688   -0.050895905499261034   -0.0022436128535020436
-0.00586605087425755   -0.05091128583532545   -0.0021513464347881995
-0.00550815215245438   -0.04195829004307228   -0.002154555644233983
-0.005796442090996288   -0.05095938620714555   -0.0021337725507093405
-0.010110870318296935   -0.04205972289268101   -0.002250207616374559
-0.005466778248357961   -0.04200676062303948   -0.0021267660007483046
-0.005796442090996288   -0.05095938620714555   -0.0021337725507093405
-0.00550815215245438   -0.04195829004307228   -0.002154555644233983
-0.010110870318296935   -0.04205972289268101   -0.002250207616374559
-0.005796442090996288   -0.05095938620714555   -0.0021337725507093405
-0.009998996635828046   -0.05096976793473988   -0.002265777343699923
-0.01007944784733688   -0.050895905499261034   -0.0022436128535020436
-0.010110870318296935   -0.04205972289268101   -0.002250207616374559
-0.005796442090996288   -0.05095938620714555   -0.0021337725507093405
-0.01007944784733688   -0.050895905499261034   -0.0022436128535020436
-0.00550815215245438   -0.04195829004307228   -0.002154555644233983
-0.010110870318296935   -0.04205972289268101   -0.002250207616374559
-0.009998996635828046   -0.05096976793473988   -0.002265777343699923
-0.005466778248357961   -0.04200676062303948   -0.0021267660007483046
-0.010055621825929536   -0.04214958310419825   -0.002248007984124196
-0.009998996635828046   -0.05096976793473988   -0.002265777343699923
-0.005796442090996288   -0.05095938620714555   -0.0021337725507093405
-0.005466778248357961   -0.04200676062303948   -0.0021267660007483046
-0.0057248928733727765   -0.051029252496051565   -0.002126250140216918
-0.010055621825929536   -0.04214958310419825   -0.002248007984124196
-0.0054222019377585815   -0.04206401635134069   -0.0021087870650889373
-0.0057248928733727765   -0.051029252496051565   -0.002126250140216918
-0.005466778248357961   -0.04200676062303948   -0.0021267660007483046
-0.010055621825929536   -0.04214958310419825   -0.002248007984124196
-0.0057248928733727765   -0.051029252496051565   -0.002126250140216918
-0.009912687009593817   -0.05107014830049192   -0.002297925851571263
-0.009998996635828046   -0.05096976793473988   -0.002265777343699923
-0.010055621825929536   -0.04214958310419825   -0.002248007984124196
-0.0057248928733727765   -0.051029252496051565   -0.002126250140216918
-0.009998996635828046   -0.05096976793473988   -0.002265777343699923
-0.005466778248357961   -0.04200676062303948   -0.0021267660007483046
-0.005544793713589556   -0.041918453425307506   -0.002191846521178854
-0.005930766619366981   -0.05088434474768349   -0.002178501803491178
-0.0010397268631600588   -0.04189382985368686   -0.0021547812539758474
-0.00550815215245438   -0.04195829004307228   -0.002154555644233983
-0.005930766619366981   -0.05088434474768349   -0.002178501803491178
-0.0018500291350539875   -0.05085330733803835   -0.0021698803731686834
-0.0010397268631600588   -0.04189382985368686   -0.0021547812539758474
-0.0017784529908936334   -0.050853885103214855   -0.0021044642113381747
-0.00550815215245438   -0.04195829004307228   -0.002154555644233983
-0.0009964212533190668   -0.041903017779217594   -0.002101988372691787
-0.0017784529908936334   -0.050853885103214855   -0.0021044642113381747
-0.0010397268631600588   -0.04189382985368686   -0.0021547812539758474
-0.00550815215245438   -0.04195829004307228   -0.002154555644233983
-0.0017784529908936334   -0.050853885103214855   -0.0021044642113381747
-0.00586605087425755   -0.05091128583532545   -0.0021513464347881995
-0.005930766619366981   -0.05088434474768349   -0.002178501803491178
-0.00550815215245438   -0.04195829004307228   -0.002154555644233983
-0.0017784529908936334   -0.050853885103214855   -0.0021044642113381747
-0.005930766619366981   -0.05088434474768349   -0.002178501803491178
-0.0010397268631600588   -0.04189382985368686   -0.0021547812539758474
-0.00550815215245438   -0.04195829004307228   -0.002154555644233983
-0.00586605087425755   -0.05091128583532545   -0.0021513464347881995
-0.0009964212533190668   -0.041903017779217594   -0.002101988372691787
-0.005466778248357961   -0.04200676062303948   -0.0021267660007483046
-0.00586605087425755   -0.05091128583532545   -0.0021513464347881995
-0.0017784529908936334   -0.050853885103214855   -0.0021044642113381747
-0.0009964212533190668   -0.041903017779217594   -0.002101988372691787
-0.0017087479024109188   -0.05087407710680303   -0.0020486541855915972
-0.005466778248357961   -0.04200676062303948   -0.0021267660007483046
-0.000955445415051505   -0.04192016706548948   -0.0020586306834217954
-0.0017087479024109188   -0.05087407710680303   -0.0020486541855915972
-0.0009964212533190668   -0.041903017779217594   -0.002101988372691787
-0.005466778248357961   -0.04200676062303948   -0.0021267660007483046
-0.0017087479024109188   -0.05087407710680303   -0.0020486541855915972
-0.005796442090996288   -0.05095938620714555   -0.0021337725507093405
-0.00586605087425755   -0.05091128583532545   -0.0021513464347881995
-0.005466778248357961   -0.04200676062303948   -0.0021267660007483046
-0.0017087479024109188   -0.05087407710680303   -0.0020486541855915972
-0.00586605087425755   -0.05091128583532545   -0.0021513464347881995
-0.0009964212533190668   -0.041903017779217594   -0.002101988372691787
-0.005466778248357961   -0.04200676062303948   -0.0021267660007483046
-0.005796442090996288   -0.05095938620714555   -0.0021337725507093405
-0.000955445415051505   -0.04192016706548948   -0.0020586306834217954
-0.0054222019377585815   -0.04206401635134069   -0.0021087870650889373
-0.005796442090996288   -0.05095938620714555   -0.0021337725507093405
-0.0017087479024109188   -0.05087407710680303   -0.0020486541855915972
-0.000955445415051505   -0.04192016706548948   -0.0020586306834217954
-0.0016465408639083025   -0.050915552294228   -0.0020027838169069303
-0.0054222019377585815   -0.04206401635134069   -0.0021087870650889373
-0.0009206325725661596   -0.041945667468734224   -0.0020250370874529246
-0.0016465408639083025   -0.050915552294228   -0.0020027838169069303
-0.000955445415051505   -0.04192016706548948   -0.0020586306834217954
-0.0054222019377585815   -0.04206401635134069   -0.0021087870650889373
-0.0016465408639083025   -0.050915552294228   -0.0020027838169069303
-0.0057248928733727765   -0.051029252496051565   -0.002126250140216918
-0.005796442090996288   -0.05095938620714555   -0.0021337725507093405
-0.0054222019377585815   -0.04206401635134069   -0.0021087870650889373
-0.0016465408639083025   -0.050915552294228   -0.0020027838169069303
-0.005796442090996288   -0.05095938620714555   -0.0021337725507093405
-0.000955445415051505   -0.04192016706548948   -0.0020586306834217954
-0.0010397268631600588   -0.04189382985368686   -0.0021547812539758474
-0.0018500291350539875   -0.05085330733803835   -0.0021698803731686834
0.0036008311116785758   -0.041839116514067215   -0.002173280195277435
-0.0009964212533190668   -0.041903017779217594   -0.002101988372691787
-0.0018500291350539875   -0.05085330733803835   -0.0021698803731686834
0.002371149455651839   -0.050753021471271045   -0.002208738346473734
0.0036008311116785758   -0.041839116514067215   -0.002173280195277435
0.0024586679084420016   -0.05072545840271228   -0.0021054172356263913
-0.0009964212533190668   -0.041903017779217594   -0.002101988372691787
0.003656039734684939   -0.04181754843149998   -0.0021052555784292094
0.0024586679084420016   -0.05072545840271228   -0.0021054172356263913
0.0036008311116785758   -0.041839116514067215   -0.002173280195277435
-0.0009964212533190668   -0.041903017779217594   -0.002101988372691787
0.0024586679084420016   -0.05072545840271228   -0.0021054172356263913
-0.0017784529908936334   -0.050853885103214855   -0.0021044642113381747
-0.0018500291350539875   -0.05085330733803835   -0.0021698803731686834
-0.0009964212533190668   -0.041903017779217594   -0.002101988372691787
0.0024586679084420016   -0.05072545840271228   -0.0021054172356263913
-0.0018500291350539875   -0.05085330733803835   -0.0021698803731686834
0.0036008311116785758   -0.041839116514067215   -0.002173280195277435
-0.0009964212533190668   -0.041903017779217594   -0.002101988372691787
-0.0017784529908936334   -0.050853885103214855   -0.0021044642113381747
0.003656039734684939   -0.04181754843149998   -0.0021052555784292094
-0.000955445415051505   -0.04192016706548948   -0.0020586306834217954
-0.0017784529908936334   -0.050853885103214855   -0.0021044642113381747
0.0024586679084420016   -0.05072545840271228   -0.0021054172356263913
0.003656039734684939   -0.04181754843149998   -0.0021052555784292094
0.0025484247941293192   -0.05072030608966296   -0.0020123163232344432
-0.000955445415051505   -0.04192016706548948   -0.0020586306834217954
0.003707089568967138   -0.04180632943817492   -0.0020466371718283467
0.0025484247941293192   -0.05072030608966296   -0.0020123163232344432
0.003656039734684939   -0.04181754843149998   -0.0021052555784292094
-0.000955445415051505   -0.04192016706548948   -0.0020586306834217954
0.0025484247941293192   -0.05072030608966296   -0.0020123163232344432
-0.0017087479024109188   -0.05087407710680303   -0.0020486541855915972
-0.0017784529908936334   -0.050853885103214855   -0.0021044642113381747
-0.000955445415051505   -0.04192016706548948   -0.0020586306834217954
0.0025484247941293192   -0.05072030608966296   -0.0020123163232344432
-0.0017784529908936334   -0.050853885103214855   -0.0021044642113381747
0.003656039734684939   -0.04181754843149998   -0.0021052555784292094
-0.000955445415051505   -0.04192016706548948   -0.0020586306834217954
-0.0017087479024109188   -0.05087407710680303   -0.0020486541855915972
0.003707089568967138   -0.04180632943817492   -0.0020466371718283467
-0.0009206325725661596   -0.041945667468734224   -0.0020250370874529246
-0.0017087479024109188   -0.05087407710680303   -0.0020486541855915972
0.0025484247941293192   -0.05072030608966296   -0.0020123163232344432
0.003707089568967138   -0.04180632943817492   -0.0020466371718283467
0.0026081454603709355   -0.05073343294566058   -0.0019280874861619854
-0.0009206325725661596   -0.041945667468734224   -0.0020250370874529246
0.0037345680974212687   -0.04180004497447048   -0.0019968108784376203
0.0026081454603709355   -0.05073343294566058   -0.0019280874861619854
0.003707089568967138   -0.04180632943817492   -0.0020466371718283467
-0.0009206325725661596   -0.041945667468734224   -0.0020250370874529246
0.0026081454603709355   -0.05073343294566058   -0.0019280874861619854
-0.0016465408639083025   -0.050915552294228   -0.0020027838169069303
-0.0017087479024109188   -0.05087407710680303   -0.0020486541855915972
-0.0009206325725661596   -0.041945667468734224   -0.0020250370874529246
0.0026081454603709355   -0.05073343294566058   -0.0019280874861619854
-0.0017087479024109188   -0.05087407710680303   -0.0020486541855915972
0.003707089568967138   -0.04180632943817492   -0.0020466371718283467
0.0036008311116785758   -0.041839116514067215   -0.002173280195277435
0.002371149455651839   -0.050753021471271045   -0.002208738346473734
0.008568971156373374   -0.04174714591579599   -0.0022502796176767544
0.003656039734684939   -0.04181754843149998   -0.0021052555784292094
0.002371149455651839   -0.050753021471271045   -0.002208738346473734
0.006861214656893035   -0.05058059407851878   -0.002308879898522304
0.008568971156373374   -0.04174714591579599   -0.0022502796176767544
0.007094078519009025   -0.05052380822410052   -0.0021585136861072382
0.003656039734684939   -0.04181754843149998   -0.0021052555784292094
0.008712903464257035   -0.04169768818670812   -0.0021609484311732852
0.007094078519009025   -0.05052380822410052   -0.0021585136861072382
0.008568971156373374   -0.04174714591579599   -0.0022502796176767544
0.003656039734684939   -0.04181754843149998   -0.0021052555784292094
0.007094078519009025   -0.05052380822410052   -0.0021585136861072382
0.0024586679084420016   -0.05072545840271228   -0.0021054172356263913
0.002371149455651839   -0.050753021471271045   -0.002208738346473734
0.003656039734684939   -0.04181754843149998   -0.0021052555784292094
0.007094078519009025   -0.05052380822410052   -0.0021585136861072382
0.002371149455651839   -0.050753021471271045   -0.002208738346473734
0.008568971156373374   -0.04174714591579599   -0.0022502796176767544
0.003656039734684939   -0.04181754843149998   -0.0021052555784292094
0.0024586679084420016   -0.05072545840271228   -0.0021054172356263913
0.008712903464257035   -0.04169768818670812   -0.0021609484311732852
0.003707089568967138   -0.04180632943817492   -0.0020466371718283467
0.0024586679084420016   -0.05072545840271228   -0.0021054172356263913
0.007094078519009025   -0.05052380822410052   -0.0021585136861072382
0.008712903464257035   -0.04169768818670812   -0.0021609484311732852
0.0072665499974186995   -0.050508182877615326   -0.0020217414951079348
0.003707089568967138   -0.04180632943817492   -0.0020466371718283467
0.008811873167841131   -0.04167369991629158   -0.002085015867654651
0.0072665499974186995   -0.050508182877615326   -0.0020217414951079348
0.008712903464257035   -0.04169768818670812   -0.0021609484311732852
0.003707089568967138   -0.04180632943817492   -0.0020466371718283467
0.0072665499974186995   -0.050508182877615326   -0.0020217414951079348
0.0025484247941293192   -0.05072030608966296   -0.0020123163232344432
0.0024586679084420016   -0.05072545840271228   -0.0021054172356263913
0.003707089568967138   -0.04180632943817492   -0.0020466371718283467
0.0072665499974186995   -0.050508182877615326   -0.0020217414951079348
0.0024586679084420016   -0.05072545840271228   -0.0021054172356263913
0.008712903464257035   -0.04169768818670812   -0.0021609484311732852
0.003707089568967138   -0.04180632943817492   -0.0020466371718283467
0.0025484247941293192   -0.05072030608966296   -0.0020123163232344432
0.008811873167841131   -0.04167369991629158   -0.002085015867654651
0.0037345680974212687   -0.04180004497447048   -0.0019968108784376203
0.0025484247941293192   -0.05072030608966296   -0.0020123163232344432
0.0072665499974186995   -0.050508182877615326   -0.0020217414951079348
0.008811873167841131   -0.04167369991629158   -0.002085015867654651
0.007441471546733721   -0.05050804708445891   -0.0018991846340563967
0.0037345680974212687   -0.04180004497447048   -0.0019968108784376203
0.008899842614698793   -0.04164764694480308   -0.002023038873137952
0.007441471546733721   -0.05050804708445891   -0.0018991846340563967
0.008811873167841131   -0.04167369991629158   -0.002085015867654651
0.0037345680974212687   -0.04180004497447048   -0.0019968108784376203
0.007441471546733721   -0.05050804708445891   -0.0018991846340563967
0.0026081454603709355   -0.05073343294566058   -0.0019280874861619854
0.0025484247941293192   -0.05072030608966296   -0.0020123163232344432
0.0037345680974212687   -0.04180004497447048   -0.0019968108784376203
0.007441471546733721   -0.05050804708445891   -0.0018991846340563967
0.0025484247941293192   -0.05072030608966296   -0.0020123163232344432
0.008811873167841131   -0.04167369991629158   -0.002085015867654651
-0.014833024297917025   -0.05074209050225243   -0.0023134238044782954
-0.013537210965961773   -0.05857448429967485   -0.002157547792449455
-0.010138892036851284   -0.05084405328864138   -0.002231148434526114
-0.014725707037922944   -0.05081210470055281   -0.002372281003722027
-0.013537210965961773   -0.05857448429967485   -0.002157547792449455
-0.009586803497908802   -0.05875833690747926   -0.002144319950879062
-0.010138892036851284   -0.05084405328864138   -0.002231148434526114
-0.009488310155939794   -0.05878492295907565   -0.0021878079465057535
-0.014725707037922944   -0.05081210470055281   -0.002372281003722027
-0.01007944784733688   -0.050895905499261034   -0.0022436128535020436
-0.009488310155939794   -0.05878492295907565   -0.0021878079465057535
-0.010138892036851284   -0.05084405328864138   -0.002231148434526114
-0.014725707037922944   -0.05081210470055281   -0.002372281003722027
-0.009488310155939794   -0.05878492295907565   -0.0021878079465057535
-0.013331995295300311   -0.058613930669390434   -0.002279325171092894
-0.013537210965961773   -0.05857448429967485   -0.002157547792449455
-0.014725707037922944   -0.05081210470055281   -0.002372281003722027
-0.009488310155939794   -0.05878492295907565   -0.0021878079465057535
-0.013537210965961773   -0.05857448429967485   -0.002157547792449455
-0.010138892036851284   -0.05084405328864138   -0.002231148434526114
-0.014725707037922944   -0.05081210470055281   -0.002372281003722027
-0.013331995295300311   -0.058613930669390434   -0.002279325171092894
-0.01007944784733688   -0.050895905499261034   -0.0022436128535020436
-0.01460327585251122   -0.05089808511530632   -0.0024463926673660946
-0.013331995295300311   -0.058613930669390434   -0.002279325171092894
-0.009488310155939794   -0.05878492295907565   -0.0021878079465057535
-0.01007944784733688   -0.050895905499261034   -0.0022436128535020436
-0.009364597102031498   -0.058848648256378616   -0.002241134430690623
-0.01460327585251122   -0.05089808511530632   -0.0024463926673660946
-0.009998996635828046   -0.05096976793473988   -0.002265777343699923
-0.009364597102031498   -0.058848648256378616   -0.002241134430690623
-0.01007944784733688   -0.050895905499261034   -0.0022436128535020436
-0.01460327585251122   -0.05089808511530632   -0.0024463926673660946
-0.009364597102031498   -0.058848648256378616   -0.002241134430690623
-0.013127339147633737   -0.05868871811506982   -0.002417122062037415
-0.013331995295300311   -0.058613930669390434   -0.002279325171092894
-0.01460327585251122   -0.05089808511530632   -0.0024463926673660946
-0.009364597102031498   -0.058848648256378616   -0.002241134430690623
-0.013331995295300311   -0.058613930669390434   -0.002279325171092894
-0.01007944784733688   -0.050895905499261034   -0.0022436128535020436
-0.01460327585251122   -0.05089808511530632   -0.0024463926673660946
-0.013127339147633737   -0.05868871811506982   -0.002417122062037415
-0.009998996635828046   -0.05096976793473988   -0.002265777343699923
-0.014436609982952125   -0.05102899029265994   -0.0025360435980397097
-0.013127339147633737   -0.05868871811506982   -0.002417122062037415
-0.009364597102031498   -0.058848648256378616   -0.002241134430690623
-0.009998996635828046   -0.05096976793473988   -0.002265777343699923
-0.009242539009774921   -0.058953132963565705   -0.0023042069139072212
-0.014436609982952125   -0.05102899029265994   -0.0025360435980397097
-0.009912687009593817   -0.05107014830049192   -0.002297925851571263
-0.009242539009774921   -0.058953132963565705   -0.0023042069139072212
-0.009998996635828046   -0.05096976793473988   -0.002265777343699923
-0.014436609982952125   -0.05102899029265994   -0.0025360435980397097
-0.009242539009774921   -0.058953132963565705   -0.0023042069139072212
-0.01286519874111909   -0.05882817479873487   -0.0025706462625378684
-0.013127339147633737   -0.05868871811506982   -0.002417122062037415
-0.014436609982952125   -0.05102899029265994   -0.0025360435980397097
-0.009242539009774921   -0.058953132963565705   -0.0023042069139072212
-0.013127339147633737   -0.05868871811506982   -0.002417122062037415
-0.009998996635828046   -0.05096976793473988   -0.002265777343699923
-0.010138892036851284   -0.05084405328864138   -0.002231148434526114
-0.009586803497908802   -0.05875833690747926   -0.002144319950879062
-0.005930766619366981   -0.05088434474768349   -0.002178501803491178
-0.01007944784733688   -0.050895905499261034   -0.0022436128535020436
-0.009586803497908802   -0.05875833690747926   -0.002144319950879062
-0.006165773784790895   -0.058844385338150056   -0.0021390931154654695
-0.005930766619366981   -0.05088434474768349   -0.002178501803491178
-0.006064734411702189   -0.05885309259817195   -0.002119614942594745
-0.01007944784733688   -0.050895905499261034   -0.0022436128535020436
-0.00586605087425755   -0.05091128583532545   -0.0021513464347881995
-0.006064734411702189   -0.05885309259817195   -0.002119614942594745
-0.005930766619366981   -0.05088434474768349   -0.002178501803491178
-0.01007944784733688   -0.050895905499261034   -0.0022436128535020436
-0.006064734411702189   -0.05885309259817195   -0.002119614942594745
-0.009488310155939794   -0.05878492295907565   -0.0021878079465057535
-0.009586803497908802   -0.05875833690747926   -0.002144319950879062
-0.01007944784733688   -0.050895905499261034   -0.0022436128535020436
-0.006064734411702189   -0.05885309259817195   -0.002119614942594745
-0.009586803497908802   -0.05875833690747926   -0.002144319950879062
-0.005930766619366981   -0.05088434474768349   -0.002178501803491178
-0.01007944784733688   -0.050895905499261034   -0.0022436128535020436
-0.009488310155939794   -0.05878492295907565   -0.0021878079465057535
-0.00586605087425755   -0.05091128583532545   -0.0021513464347881995
-0.009998996635828046   -0.05096976793473988   -0.002265777343699923
-0.009488310155939794   -0.05878492295907565   -0.0021878079465057535
-0.006064734411702189   -0.05885309259817195   -0.002119614942594745
-0.00586605087425755   -0.05091128583532545   -0.0021513464347881995
-0.0059604443713454774   -0.058894965048833466   -0.0021096838934576787
-0.009998996635828046   -0.05096976793473988   -0.002265777343699923
-0.005796442090996288   -0.05095938620714555   -0.0021337725507093405
-0.0059604443713454774   -0.058894965048833466   -0.0021096838934576787
-0.00586605087425755   -0.05091128583532545   -0.0021513464347881995
-0.009998996635828046   -0.05096976793473988   -0.002265777343699923
-0.0059604443713454774   -0.058894965048833466   -0.0021096838934576787
-0.009364597102031498   -0.058848648256378616   -0.002241134430690623
-0.009488310155939794   -0.05878492295907565   -0.0021878079465057535
-0.009998996635828046   -0.05096976793473988   -0.002265777343699923
-0.0059604443713454774   -0.058894965048833466   -0.0021096838934576787
-0.009488310155939794   -0.05878492295907565   -0.0021878079465057535
-0.00586605087425755   -0.05091128583532545   -0.0021513464347881995
-0.009998996635828046   -0.05096976793473988   -0.002265777343699923
-0.009364597102031498   -0.058848648256378616   -0.002241134430690623
-0.005796442090996288   -0.05095938620714555   -0.0021337725507093405
-0.009912687009593817   -0.05107014830049192   -0.002297925851571263
-0.009364597102031498   -0.058848648256378616   -0.002241134430690623
-0.0059604443713454774   -0.058894965048833466   -0.0021096838934576787
-0.005796442090996288   -0.05095938620714555   -0.0021337725507093405
-0.005856322072914815   -0.058971950334257506   -0.0021091797331776042
-0.009912687009593817   -0.05107014830049192   -0.002297925851571263
-0.0057248928733727765   -0.051029252496051565   -0.002126250140216918
-0.005856322072914815   -0.058971950334257506   -0.0021091797331776042
-0.005796442090996288   -0.05095938620714555   -0.0021337725507093405
-0.009912687009593817   -0.05107014830049192   -0.002297925851571263
-0.005856322072914815   -0.058971950334257506   -0.0021091797331776042
-0.009242539009774921   -0.058953132963565705   -0.0023042069139072212
-0.009364597102031498   -0.058848648256378616   -0.002241134430690623
-0.009912687009593817   -0.05107014830049192   -0.002297925851571263
-0.005856322072914815   -0.058971950334257506   -0.0021091797331776042
-0.009364597102031498   -0.058848648256378616   -0.002241134430690623
-0.005796442090996288   -0.05095938620714555   -0.0021337725507093405
-0.005930766619366981   -0.05088434474768349   -0.002178501803491178
-0.006165773784790895   -0.058844385338150056   -0.0021390931154654695
-0.0018500291350539875   -0.05085330733803835   -0.0021698803731686834
-0.00586605087425755   -0.05091128583532545   -0.0021513464347881995
-0.006165773784790895   -0.058844385338150056   -0.0021390931154654695
-0.002858267599090716   -0.05882862243520735   -0.002163690881768847
-0.0018500291350539875   -0.05085330733803835   -0.0021698803731686834
-0.002747595655867016   -0.058817244779218444   -0.0020834543546889026
-0.00586605087425755   -0.05091128583532545   -0.0021513464347881995
-0.0017784529908936334   -0.050853885103214855   -0.0021044642113381747
-0.002747595655867016   -0.058817244779218444   -0.0020834543546889026
-0.0018500291350539875   -0.05085330733803835   -0.0021698803731686834
-0.00586605087425755   -0.05091128583532545   -0.0021513464347881995
-0.002747595655867016   -0.058817244779218444   -0.0020834543546889026
-0.006064734411702189   -0.05885309259817195   -0.002119614942594745
-0.006165773784790895   -0.058844385338150056   -0.0021390931154654695
-0.00586605087425755   -0.05091128583532545   -0.0021513464347881995
-0.002747595655867016   -0.058817244779218444   -0.0020834543546889026
-0.006165773784790895   -0.058844385338150056   -0.0021390931154654695
-0.0018500291350539875   -0.05085330733803835   -0.0021698803731686834
-0.00586605087425755   -0.05091128583532545   -0.0021513464347881995
-0.006064734411702189   -0.05885309259817195   -0.002119614942594745
-0.0017784529908936334   -0.050853885103214855   -0.0021044642113381747
-0.005796442090996288   -0.05095938620714555   -0.0021337725507093405
-0.006064734411702189   -0.05885309259817195   -0.002119614942594745
-0.002747595655867016   -0.058817244779218444   -0.0020834543546889026
-0.0017784529908936334   -0.050853885103214855   -0.0021044642113381747
-0.0026401796217519406   -0.05883586481897305   -0.0020133949214677874
-0.005796442090996288   -0.05095938620714555   -0.0021337725507093405
-0.0017087479024109188   -0.05087407710680303   -0.0020486541855915972
-0.0026401796217519406   -0.05883586481897305   -0.0020133949214677874
-0.0017784529908936334   -0.050853885103214855   -0.0021044642113381747
-0.005796442090996288   -0.05095938620714555   -0.0021337725507093405
-0.0026401796217519406   -0.05883586481897305   -0.0020133949214677874
-0.0059604443713454774   -0.058894965048833466   -0.0021096838934576787
-0.006064734411702189   -0.05885309259817195   -0.002119614942594745
-0.005796442090996288   -0.05095938620714555   -0.0021337725507093405
-0.0026401796217519406   -0.05883586481897305   -0.0020133949214677874
-0.006064734411702189   -0.05885309259817195   -0.002119614942594745
-0.0017784529908936334   -0.050853885103214855   -0.0021044642113381747
-0.005796442090996288   -0.05095938620714555   -0.0021337725507093405
-0.0059604443713454774   -0.058894965048833466   -0.0021096838934576787
-0.0017087479024109188   -0.05087407710680303   -0.0020486541855915972
-0.0057248928733727765   -0.051029252496051565   -0.002126250140216918
-0.0059604443713454774   -0.058894965048833466   -0.0021096838934576787
-0.0026401796217519406   -0.05883586481897305   -0.0020133949214677874
-0.0017087479024109188   -0.05087407710680303   -0.0020486541855915972
-0.0025431260408071863   -0.058888820705967355   -0.0019526323917403107
-0.0057248928733727765   -0.051029252496051565   -0.002126250140216918
-0.0016465408639083025   -0.050915552294228   -0.0020027838169069303
-0.0025431260408071863   -0.058888820705967355   -0.0019526323917403107
-0.0017087479024109188   -0.05087407710680303   -0.0020486541855915972
-0.0057248928733727765   -0.051029252496051565   -0.002126250140216918
-0.0025431260408071863   -0.058888820705967355   -0.0019526323917403107
-0.005856322072914815   -0.058971950334257506   -0.0021091797331776042
-0.0059604443713454774   -0.058894965048833466   -0.0021096838934576787
-0.0057248928733727765   -0.051029252496051565   -0.002126250140216918
-0.0025431260408071863   -0.058888820705967355   -0.0019526323917403107
-0.0059604443713454774   -0.058894965048833466   -0.0021096838934576787
-0.0017087479024109188   -0.05087407710680303   -0.0020486541855915972
-0.0018500291350539875   -0.05085330733803835   -0.0021698803731686834
-0.002858267599090716   -0.05882862243520735   -0.002163690881768847
0.002371149455651839   -0.050753021471271045   -0.002208738346473734
-0.0017784529908936334   -0.050853885103214855   -0.0021044642113381747
-0.002858267599090716   -0.05882862243520735   -0.002163690881768847
0.0006039027740968902   -0.058707403196928486   -0.0022234913009208136
0.002371149455651839   -0.050753021471271045   -0.002208738346473734
0.0007385502791817432   -0.05867052785402106   -0.0020827008367550292
-0.0017784529908936334   -0.050853885103214855   -0.0021044642113381747
0.0024586679084420016   -0.05072545840271228   -0.0021054172356263913
0.0007385502791817432   -0.05867052785402106   -0.0020827008367550292
0.002371149455651839   -0.050753021471271045   -0.002208738346473734
-0.0017784529908936334   -0.050853885103214855   -0.0021044642113381747
0.0007385502791817432   -0.05867052785402106   -0.0020827008367550292
-0.002747595655867016   -0.058817244779218444   -0.0020834543546889026
-0.002858267599090716   -0.05882862243520735   -0.002163690881768847
-0.0017784529908936334   -0.050853885103214855   -0.0021044642113381747
0.0007385502791817432   -0.05867052785402106   -0.0020827008367550292
-0.002858267599090716   -0.05882862243520735   -0.002163690881768847
0.002371149455651839   -0.050753021471271045   -0.002208738346473734
-0.0017784529908936334   -0.050853885103214855   -0.0021044642113381747
-0.002747595655867016   -0.058817244779218444   -0.0020834543546889026
0.0024586679084420016   -0.05072545840271228   -0.0021054172356263913
-0.0017087479024109188   -0.05087407710680303   -0.0020486541855915972
-0.002747595655867016   -0.058817244779218444   -0.0020834543546889026
0.0007385502791817432   -0.05867052785402106   -0.0020827008367550292
0.0024586679084420016   -0.05072545840271228   -0.0021054172356263913
0.0008804717432539546   -0.05866719051629136   -0.001954809144903064
-0.0017087479024109188   -0.05087407710680303   -0.0020486541855915972
0.0025484247941293192   -0.05072030608966296   -0.0020123163232344432
0.0008804717432539546   -0.05866719051629136   -0.001954809144903064
0.0024586679084420016   -0.05072545840271228   -0.0021054172356263913
-0.0017087479024109188   -0.05087407710680303   -0.0020486541855915972
0.0008804717432539546   -0.05866719051629136   -0.001954809144903064
-0.0026401796217519406   -0.05883586481897305   -0.0020133949214677874
-0.002747595655867016   -0.058817244779218444   -0.0020834543546889026
-0.0017087479024109188   -0.05087407710680303   -0.0020486541855915972
0.0008804717432539546   -0.05866719051629136   -0.001954809144903064
-0.002747595655867016   -0.058817244779218444   -0.0020834543546889026
0.0024586679084420016   -0.05072545840271228   -0.0021054172356263913
-0.0017087479024109188   -0.05087407710680303   -0.0020486541855915972
-0.0026401796217519406   -0.05883586481897305   -0.0020133949214677874
0.0025484247941293192   -0.05072030608966296   -0.0020123163232344432
-0.0016465408639083025   -0.050915552294228   -0.0020027838169069303
-0.0026401796217519406   -0.05883586481897305   -0.0020133949214677874
0.0008804717432539546   -0.05866719051629136   -0.001954809144903064
0.0025484247941293192   -0.05072030608966296   -0.0020123163232344432
0.0009842676823554088   -0.05869586164223554   -0.0018357980280351005
-0.0016465408639083025   -0.050915552294228   -0.0020027838169069303
0.0026081454603709355   -0.05073343294566058   -0.0019280874861619854
0.0009842676823554088   -0.05869586164223554   -0.0018357980280351005
0.0025484247941293192   -0.05072030608966296   -0.0020123163232344432
-0.0016465408639083025   -0.050915552294228   -0.0020027838169069303
0.0009842676823554088   -0.05869586164223554   -0.0018357980280351005
-0.0025431260408071863   -0.058888820705967355   -0.0019526323917403107
-0.0026401796217519406   -0.05883586481897305   -0.0020133949214677874
-0.0016465408639083025   -0.050915552294228   -0.0020027838169069303
0.0009842676823554088   -0.05869586164223554   -0.0018357980280351005
-0.0026401796217519406   -0.05883586481897305   -0.0020133949214677874
0.0025484247941293192   -0.05072030608966296   -0.0020123163232344432
0.002371149455651839   -0.050753021471271045   -0.002208738346473734
0.0006039027740968902   -0.058707403196928486   -0.0022234913009208136
0.006861214656893035   -0.05058059407851878   -0.002308879898522304
0.0024586679084420016   -0.05072545840271228   -0.0021054172356263913
0.0006039027740968902   -0.058707403196928486   -0.0022234913009208136
0.004294353991751076   -0.058469243822115866   -0.0023512352542589686
0.006861214656893035   -0.05058059407851878   -0.002308879898522304
0.004635566641399864   -0.05839848907479046   -0.002135749131380411
0.0024586679084420016   -0.05072545840271228   -0.0021054172356263913
0.007094078519009025   -0.05052380822410052   -0.0021585136861072382
0.004635566641399864   -0.05839848907479046   -0.002135749131380411
0.006861214656893035   -0.05058059407851878   -0.002308879898522304
0.0024586679084420016   -0.05072545840271228   -0.0021054172356263913
0.004635566641399864   -0.05839848907479046   -0.002135749131380411
0.0007385502791817432   -0.05867052785402106   -0.0020827008367550292
0.0006039027740968902   -0.058707403196928486   -0.0022234913009208136
0.0024586679084420016   -0.05072545840271228   -0.0021054172356263913
0.004635566641399864   -0.05839848907479046   -0.002135749131380411
0.0006039027740968902   -0.058707403196928486   -0.0022234913009208136
0.006861214656893035   -0.05058059407851878   -0.002308879898522304
0.0024586679084420016   -0.05072545840271228   -0.0021054172356263913
0.0007385502791817432   -0.05867052785402106   -0.0020827008367550292
0.007094078519009025   -0.05052380822410052   -0.0021585136861072382
0.0025484247941293192   -0.05072030608966296   -0.0020123163232344432
0.0007385502791817432   -0.05867052785402106   -0.0020827008367550292
0.004635566641399864   -0.05839848907479046   -0.002135749131380411
0.007094078519009025   -0.05052380822410052   -0.0021585136861072382
0.004897195401976587   -0.05838623673274664   -0.0019362594414592954
0.0025484247941293192   -0.05072030608966296   -0.0020123163232344432
0.0072665499974186995   -0.050508182877615326   -0.0020217414951079348
0.004897195401976587   -0.05838623673274664   -0.0019362594414592954
0.007094078519009025   -0.05052380822410052   -0.0021585136861072382
0.0025484247941293192   -0.05072030608966296   -0.0020123163232344432
0.004897195401976587   -0.05838623673274664   -0.0019362594414592954
0.0008804717432539546   -0.05866719051629136   -0.001954809144903064
0.0007385502791817432   -0.05867052785402106   -0.0020827008367550292
0.0025484247941293192   -0.05072030608966296   -0.0020123163232344432
0.004897195401976587   -0.05838623673274664   -0.0019362594414592954
0.0007385502791817432   -0.05867052785402106   -0.0020827008367550292
0.007094078519009025   -0.05052380822410052   -0.0021585136861072382
0.0025484247941293192   -0.05072030608966296   -0.0020123163232344432
0.0008804717432539546   -0.05866719051629136   -0.001954809144903064
0.0072665499974186995   -0.050508182877615326   -0.0020217414951079348
0.0026081454603709355   -0.05073343294566058   -0.0019280874861619854
0.0008804717432539546   -0.05866719051629136   -0.001954809144903064
0.004897195401976587   -0.05838623673274664   -0.0019362594414592954
0.0072665499974186995   -0.050508182877615326   -0.0020217414951079348
0.005168328196071251   -0.05840724798099023   -0.00175439472633256
0.0026081454603709355   -0.05073343294566058   -0.0019280874861619854
0.007441471546733721   -0.05050804708445891   -0.0018991846340563967
0.005168328196071251   -0.05840724798099023   -0.00175439472633256
0.0072665499974186995   -0.050508182877615326   -0.0020217414951079348
0.0026081454603709355   -0.05073343294566058   -0.0019280874861619854
0.005168328196071251   -0.05840724798099023   -0.00175439472633256
0.0009842676823554088   -0.05869586164223554   -0.0018357980280351005
0.0008804717432539546   -0.05866719051629136   -0.001954809144903064
0.0026081454603709355   -0.05073343294566058   -0.0019280874861619854
0.005168328196071251   -0.05840724798099023   -0.00175439472633256
0.0008804717432539546   -0.05866719051629136   -0.001954809144903064
0.0072665499974186995   -0.050508182877615326   -0.0020217414951079348
-0.013537210965961773   -0.05857448429967485   -0.002157547792449455
-0.011339366297530622   -0.06472189741339346   -0.0019576604889940015
-0.009586803497908802   -0.05875833690747926   -0.002144319950879062
-0.013331995295300311   -0.058613930669390434   -0.002279325171092894
-0.011339366297530622   -0.06472189741339346   -0.0019576604889940015
-0.00852782207338682   -0.06499405126594615   -0.00203927128474232
-0.009586803497908802   -0.05875833690747926   -0.002144319950879062
-0.008386057594237365   -0.06498006494761117   -0.00210619289001047
-0.013331995295300311   -0.058613930669390434   -0.002279325171092894
-0.009488310155939794   -0.05878492295907565   -0.0021878079465057535
-0.008386057594237365   -0.06498006494761117   -0.00210619289001047
-0.009586803497908802   -0.05875833690747926   -0.002144319950879062
-0.013331995295300311   -0.058613930669390434   -0.002279325171092894
-0.008386057594237365   -0.06498006494761117   -0.00210619289001047
-0.011033618697737191   -0.06471425770002093   -0.0021380913097314726
-0.011339366297530622   -0.06472189741339346   -0.0019576604889940015
-0.013331995295300311   -0.058613930669390434   -0.002279325171092894
-0.008386057594237365   -0.06498006494761117   -0.00210619289001047
-0.011339366297530622   -0.06472189741339346   -0.0019576604889940015
-0.009586803497908802   -0.05875833690747926   -0.002144319950879062
-0.013331995295300311   -0.058613930669390434   -0.002279325171092894
-0.011033618697737191   -0.06471425770002093   -0.0021380913097314726
-0.009488310155939794   -0.05878492295907565   -0.0021878079465057535
-0.013127339147633737   -0.05868871811506982   -0.002417122062037415
-0.011033618697737191   -0.06471425770002093   -0.0021380913097314726
-0.008386057594237365   -0.06498006494761117   -0.00210619289001047
-0.009488310155939794   -0.05878492295907565   -0.0021878079465057535
-0.00821929709299259   -0.06501929306136371   -0.0021831619343323965
-0.013127339147633737   -0.05868871811506982   -0.002417122062037415
-0.009364597102031498   -0.058848648256378616   -0.002241134430690623
-0.00821929709299259   -0.06501929306136371   -0.0021831619343323965
-0.009488310155939794   -0.05878492295907565   -0.0021878079465057535
-0.013127339147633737   -0.05868871811506982   -0.002417122062037415
-0.00821929709299259   -0.06501929306136371   -0.0021831619343323965
-0.010751808053964923   -0.06476271696800921   -0.0023326742299192306
-0.011033618697737191   -0.06471425770002093   -0.0021380913097314726
-0.013127339147633737   -0.05868871811506982   -0.002417122062037415
-0.00821929709299259   -0.06501929306136371   -0.0021831619343323965
-0.011033618697737191   -0.06471425770002093   -0.0021380913097314726
-0.009488310155939794   -0.05878492295907565   -0.0021878079465057535
-0.013127339147633737   -0.05868871811506982   -0.002417122062037415
-0.010751808053964923   -0.06476271696800921   -0.0023326742299192306
-0.009364597102031498   -0.058848648256378616   -0.002241134430690623
-0.01286519874111909   -0.05882817479873487   -0.0025706462625378684
-0.010751808053964923   -0.06476271696800921   -0.0023326742299192306
-0.00821929709299259   -0.06501929306136371   -0.0021831619343323965
-0.009364597102031498   -0.058848648256378616   -0.002241134430690623
-0.008068013890681538   -0.06511263292879069   -0.002269536264334337
-0.01286519874111909   -0.05882817479873487   -0.0025706462625378684
-0.009242539009774921   -0.058953132963565705   -0.0023042069139072212
-0.008068013890681538   -0.06511263292879069   -0.002269536264334337
-0.009364597102031498   -0.058848648256378616   -0.002241134430690623
-0.01286519874111909   -0.05882817479873487   -0.0025706462625378684
-0.008068013890681538   -0.06511263292879069   -0.002269536264334337
-0.010408077570451528   -0.06489205150736368   -0.002540578210259885
-0.010751808053964923   -0.06476271696800921   -0.0023326742299192306
-0.01286519874111909   -0.05882817479873487   -0.0025706462625378684
-0.008068013890681538   -0.06511263292879069   -0.002269536264334337
-0.010751808053964923   -0.06476271696800921   -0.0023326742299192306
-0.009364597102031498   -0.058848648256378616   -0.002241134430690623
-0.009586803497908802   -0.05875833690747926   -0.002144319950879062
-0.00852782207338682   -0.06499405126594615   -0.00203927128474232
-0.006165773784790895   -0.058844385338150056   -0.0021390931154654695
-0.009488310155939794   -0.05878492295907565   -0.0021878079465057535
-0.00852782207338682   -0.06499405126594615   -0.00203927128474232
-0.006230188175657564   -0.06517030744071439   -0.002103144704528351
-0.006165773784790895   -0.058844385338150056   -0.0021390931154654695
-0.006084738234264062   -0.0651478676335953   -0.00208267747961651
-0.009488310155939794   -0.05878492295907565   -0.0021878079465057535
-0.006064734411702189   -0.05885309259817195   -0.002119614942594745
-0.006084738234264062   -0.0651478676335953   -0.00208267747961651
-0.006165773784790895   -0.058844385338150056   -0.0021390931154654695
-0.009488310155939794   -0.05878492295907565   -0.0021878079465057535
-0.006084738234264062   -0.0651478676335953   -0.00208267747961651
-0.008386057594237365   -0.06498006494761117   -0.00210619289001047
-0.00852782207338682   -0.06499405126594615   -0.00203927128474232
-0.009488310155939794   -0.05878492295907565   -0.0021878079465057535
-0.006084738234264062   -0.0651478676335953   -0.00208267747961651
-0.00852782207338682   -0.06499405126594615   -0.00203927128474232
-0.006165773784790895   -0.058844385338150056   -0.0021390931154654695
-0.009488310155939794   -0.05878492295907565   -0.0021878079465057535
-0.008386057594237365   -0.06498006494761117   -0.00210619289001047
-0.006064734411702189   -0.05885309259817195   -0.002119614942594745
-0.009364597102031498   -0.058848648256378616   -0.002241134430690623
-0.008386057594237365   -0.06498006494761117   -0.00210619289001047
-0.006084738234264062   -0.0651478676335953   -0.00208267747961651
-0.006064734411702189   -0.05885309259817195   -0.002119614942594745
-0.0059413210320114936   -0.0651713684865087   -0.0020719706075068736
-0.009364597102031498   -0.058848648256378616   -0.002241134430690623
-0.0059604443713454774   -0.058894965048833466   -0.0021096838934576787
-0.0059413210320114936   -0.0651713684865087   -0.0020719706075068736
-0.006064734411702189   -0.05885309259817195   -0.002119614942594745
-0.009364597102031498   -0.058848648256378616   -0.002241134430690623
-0.0059413210320114936   -0.0651713684865087   -0.0020719706075068736
-0.00821929709299259   -0.06501929306136371   -0.0021831619343323965
-0.008386057594237365   -0.06498006494761117   -0.00210619289001047
-0.009364597102031498   -0.058848648256378616   -0.002241134430690623
-0.0059413210320114936   -0.0651713684865087   -0.0020719706075068736
-0.008386057594237365   -0.06498006494761117   -0.00210619289001047
-0.006064734411702189   -0.05885309259817195   -0.002119614942594745
-0.009364597102031498   -0.058848648256378616   -0.002241134430690623
-0.00821929709299259   -0.06501929306136371   -0.0021831619343323965
-0.0059604443713454774   -0.058894965048833466   -0.0021096838934576787
-0.009242539009774921   -0.058953132963565705   -0.0023042069139072212
-0.00821929709299259   -0.06501929306136371   -0.0021831619343323965
-0.0059413210320114936   -0.0651713684865087   -0.0020719706075068736
-0.0059604443713454774   -0.058894965048833466   -0.0021096838934576787
-0.005809346106689935   -0.06524233114447664   -0.00207306643811506
-0.009242539009774921   -0.058953132963565705   -0.0023042069139072212
-0.005856322072914815   -0.058971950334257506   -0.0021091797331776042
-0.005809346106689935   -0.06524233114447664   -0.00207306643811506
-0.0059604443713454774   -0.058894965048833466   -0.0021096838934576787
-0.009242539009774921   -0.058953132963565705   -0.0023042069139072212
-0.005809346106689935   -0.06524233114447664   -0.00207306643811506
-0.008068013890681538   -0.06511263292879069   -0.002269536264334337
-0.00821929709299259   -0.06501929306136371   -0.0021831619343323965
-0.009242539009774921   -0.058953132963565705   -0.0023042069139072212
-0.005809346106689935   -0.06524233114447664   -0.00207306643811506
-0.00821929709299259   -0.06501929306136371   -0.0021831619343323965
-0.0059604443713454774   -0.058894965048833466   -0.0021096838934576787
-0.006165773784790895   -0.058844385338150056   -0.0021390931154654695
-0.006230188175657564   -0.06517030744071439   -0.002103144704528351
-0.002858267599090716   -0.05882862243520735   -0.002163690881768847
-0.006064734411702189   -0.05885309259817195   -0.002119614942594745
-0.006230188175657564   -0.06517030744071439   -0.002103144704528351
-0.004029483560377227   -0.06526268988992538   -0.002178672229680467
-0.002858267599090716   -0.05882862243520735   -0.002163690881768847
-0.0038655247386339205   -0.06523028496149844   -0.002075783190443552
-0.006064734411702189   -0.05885309259817195   -0.002119614942594745
-0.002747595655867016   -0.058817244779218444   -0.0020834543546889026
-0.0038655247386339205   -0.06523028496149844   -0.002075783190443552
-0.002858267599090716   -0.05882862243520735   -0.002163690881768847
-0.006064734411702189   -0.05885309259817195   -0.002119614942594745
-0.0038655247386339205   -0.06523028496149844   -0.002075783190443552
-0.006084738234264062   -0.0651478676335953   -0.00208267747961651
-0.006230188175657564   -0.06517030744071439   -0.002103144704528351
-0.006064734411702189   -0.05885309259817195   -0.002119614942594745
-0.0038655247386339205   -0.06523028496149844   -0.002075783190443552
-0.006230188175657564   -0.06517030744071439   -0.002103144704528351
-0.002858267599090716   -0.05882862243520735   -0.002163690881768847
-0.006064734411702189   -0.05885309259817195   -0.002119614942594745
-0.006084738234264062   -0.0651478676335953   -0.00208267747961651
-0.002747595655867016   -0.058817244779218444   -0.0020834543546889026
-0.0059604443713454774   -0.058894965048833466   -0.0021096838934576787
-0.006084738234264062   -0.0651478676335953   -0.00208267747961651
-0.0038655247386339205   -0.06523028496149844   -0.002075783190443552
-0.002747595655867016   -0.058817244779218444   -0.0020834543546889026
-0.0037092210238133974   -0.06523828871417572   -0.001981526730425018
-0.0059604443713454774   -0.058894965048833466   -0.0021096838934576787
-0.0026401796217519406   -0.05883586481897305   -0.0020133949214677874
-0.0037092210238133974   -0.06523828871417572   -0.001981526730425018
-0.002747595655867016   -0.058817244779218444   -0.0020834543546889026
-0.0059604443713454774   -0.058894965048833466   -0.0021096838934576787
-0.0037092210238133974   -0.06523828871417572   -0.001981526730425018
-0.0059413210320114936   -0.0651713684865087   -0.0020719706075068736
-0.006084738234264062   -0.0651478676335953   -0.00208267747961651
-0.0059604443713454774   -0.058894965048833466   -0.0021096838934576787
-0.0037092210238133974   -0.06523828871417572   -0.001981526730425018
-0.006084738234264062   -0.0651478676335953   -0.00208267747961651
-0.002747595655867016   -0.058817244779218444   -0.0020834543546889026
-0.0059604443713454774   -0.058894965048833466   -0.0021096838934576787
-0.0059413210320114936   -0.0651713684865087   -0.0020719706075068736
-0.0026401796217519406   -0.05883586481897305   -0.0020133949214677874
-0.005856322072914815   -0.058971950334257506   -0.0021091797331776042
-0.0059413210320114936   -0.0651713684865087   -0.0020719706075068736
-0.0037092210238133974   -0.06523828871417572   -0.001981526730425018
-0.0026401796217519406   -0.05883586481897305   -0.0020133949214677874
-0.00357920697728882   -0.06529455332255091   -0.001901285075366831
-0.005856322072914815   -0.058971950334257506   -0.0021091797331776042
-0.0025431260408071863   -0.058888820705967355   -0.0019526323917403107
-0.00357920697728882   -0.06529455332255091   -0.001901285075366831
-0.0026401796217519406   -0.05883586481897305   -0.0020133949214677874
-0.005856322072914815   -0.058971950334257506   -0.0021091797331776042
-0.00357920697728882   -0.06529455332255091   -0.001901285075366831
-0.005809346106689935   -0.06524233114447664   -0.00207306643811506
-0.0059413210320114936   -0.0651713684865087   -0.0020719706075068736
-0.005856322072914815   -0.058971950334257506   -0.0021091797331776042
-0.00357920697728882   -0.06529455332255091   -0.001901285075366831
-0.0059413210320114936   -0.0651713684865087   -0.0020719706075068736
-0.0026401796217519406   -0.05883586481897305   -0.0020133949214677874
-0.002858267599090716   -0.05882862243520735   -0.002163690881768847
-0.004029483560377227   -0.06526268988992538   -0.002178672229680467
0.0006039027740968902   -0.058707403196928486   -0.0022234913009208136
-0.002747595655867016   -0.058817244779218444   -0.0020834543546889026
-0.004029483560377227   -0.06526268988992538   -0.002178672229680467
-0.0016895842502627832   -0.06523887876022003   -0.0022676799724556406
0.0006039027740968902   -0.058707403196928486   -0.0022234913009208136
-0.0014790738689830214   -0.0651880693756625   -0.0020859282865273903
-0.002747595655867016   -0.058817244779218444   -0.0020834543546889026
0.0007385502791817432   -0.05867052785402106   -0.0020827008367550292
-0.0014790738689830214   -0.0651880693756625   -0.0020859282865273903
0.0006039027740968902   -0.058707403196928486   -0.0022234913009208136
-0.002747595655867016   -0.058817244779218444   -0.0020834543546889026
-0.0014790738689830214   -0.0651880693756625   -0.0020859282865273903
-0.0038655247386339205   -0.06523028496149844   -0.002075783190443552
-0.004029483560377227   -0.06526268988992538   -0.002178672229680467
-0.002747595655867016   -0.058817244779218444   -0.0020834543546889026
-0.0014790738689830214   -0.0651880693756625   -0.0020859282865273903
-0.004029483560377227   -0.06526268988992538   -0.002178672229680467
0.0006039027740968902   -0.058707403196928486   -0.0022234913009208136
-0.002747595655867016   -0.058817244779218444   -0.0020834543546889026
-0.0038655247386339205   -0.06523028496149844   -0.002075783190443552
0.0007385502791817432   -0.05867052785402106   -0.0020827008367550292
-0.0026401796217519406   -0.05883586481897305   -0.0020133949214677874
-0.0038655247386339205   -0.06523028496149844   -0.002075783190443552
-0.0014790738689830214   -0.0651880693756625   -0.0020859282865273903
0.0007385502791817432   -0.05867052785402106   -0.0020827008367550292
-0.001263803553810288   -0.06517913294135437   -0.0019134084847047942
-0.0026401796217519406   -0.05883586481897305   -0.0020133949214677874
0.0008804717432539546   -0.05866719051629136   -0.001954809144903064
-0.001263803553810288   -0.06517913294135437   -0.0019134084847047942
0.0007385502791817432   -0.05867052785402106   -0.0020827008367550292
-0.0026401796217519406   -0.05883586481897305   -0.0020133949214677874
-0.001263803553810288   -0.06517913294135437   -0.0019134084847047942
-0.0037092210238133974   -0.06523828871417572   -0.001981526730425018
-0.0038655247386339205   -0.06523028496149844   -0.002075783190443552
-0.0026401796217519406   -0.05883586481897305   -0.0020133949214677874
-0.001263803553810288   -0.06517913294135437   -0.0019134084847047942
-0.0038655247386339205   -0.06523028496149844   -0.002075783190443552
0.0007385502791817432   -0.05867052785402106   -0.0020827008367550292
-0.0026401796217519406   -0.05883586481897305   -0.0020133949214677874
-0.0037092210238133974   -0.06523828871417572   -0.001981526730425018
0.0008804717432539546   -0.05866719051629136   -0.001954809144903064
-0.0025431260408071863   -0.058888820705967355   -0.0019526323917403107
-0.0037092210238133974   -0.06523828871417572   -0.001981526730425018
-0.001263803553810288   -0.06517913294135437   -0.0019134084847047942
0.0008804717432539546   -0.05866719051629136   -0.001954809144903064
-0.0011043857688926761   -0.06522107281443207   -0.0017566993584683314
-0.0025431260408071863   -0.058888820705967355   -0.0019526323917403107
0.0009842676823554088   -0.05869586164223554   -0.0018357980280351005
-0.0011043857688926761   -0.06522107281443207   -0.0017566993584683314
0.0008804717432539546   -0.05866719051629136   -0.001954809144903064
-0.0025431260408071863   -0.058888820705967355   -0.0019526323917403107
-0.0011043857688926761   -0.06522107281443207   -0.0017566993584683314
-0.00357920697728882   -0.06529455332255091   -0.001901285075366831
-0.0037092210238133974   -0.06523828871417572   -0.001981526730425018
-0.0025431260408071863   -0.058888820705967355   -0.0019526323917403107
-0.0011043857688926761   -0.06522107281443207   -0.0017566993584683314
-0.0037092210238133974   -0.06523828871417572   -0.001981526730425018
0.0008804717432539546   -0.05866719051629136   -0.001954809144903064
0.0006039027740968902   -0.058707403196928486   -0.0022234913009208136
-0.0016895842502627832   -0.06523887876022003   -0.0022676799724556406
0.004294353991751076   -0.058469243822115866   -0.0023512352542589686
0.0007385502791817432   -0.05867052785402106   -0.0020827008367550292
-0.0016895842502627832   -0.06523887876022003   -0.0022676799724556406
0.0008282227477014138   -0.0650139669321816   -0.002449942763108288
0.004294353991751076   -0.058469243822115866   -0.0023512352542589686
0.0013191958562299628   -0.06490344622720842   -0.0021526593196176578
0.0007385502791817432   -0.05867052785402106   -0.0020827008367550292
0.004635566641399864   -0.05839848907479046   -0.002135749131380411
0.0013191958562299628   -0.06490344622720842   -0.0021526593196176578
0.004294353991751076   -0.058469243822115866   -0.0023512352542589686
0.0007385502791817432   -0.05867052785402106   -0.0020827008367550292
0.0013191958562299628   -0.06490344622720842   -0.0021526593196176578
-0.0014790738689830214   -0.0651880693756625   -0.0020859282865273903
-0.0016895842502627832   -0.06523887876022003   -0.0022676799724556406
0.0007385502791817432   -0.05867052785402106   -0.0020827008367550292
0.0013191958562299628   -0.06490344622720842   -0.0021526593196176578
-0.0016895842502627832   -0.06523887876022003   -0.0022676799724556406
0.004294353991751076   -0.058469243822115866   -0.0023512352542589686
0.0007385502791817432   -0.05867052785402106   -0.0020827008367550292
-0.0014790738689830214   -0.0651880693756625   -0.0020859282865273903
0.004635566641399864   -0.05839848907479046   -0.002135749131380411
0.0008804717432539546   -0.05866719051629136   -0.001954809144903064
-0.0014790738689830214   -0.0651880693756625   -0.0020859282865273903
0.0013191958562299628   -0.06490344622720842   -0.0021526593196176578
0.004635566641399864   -0.05839848907479046   -0.002135749131380411
0.0017050195152537612   -0.06488108578864914   -0.0018734992949141116
0.0008804717432539546   -0.05866719051629136   -0.001954809144903064
0.004897195401976587   -0.05838623673274664   -0.0019362594414592954
0.0017050195152537612   -0.06488108578864914   -0.0018734992949141116
0.004635566641399864   -0.05839848907479046   -0.002135749131380411
0.0008804717432539546   -0.05866719051629136   -0.001954809144903064
0.0017050195152537612   -0.06488108578864914   -0.0018734992949141116
-0.001263803553810288   -0.06517913294135437   -0.0019134084847047942
-0.0014790738689830214   -0.0651880693756625   -0.0020859282865273903
0.0008804717432539546   -0.05866719051629136   -0.001954809144903064
0.0017050195152537612   -0.06488108578864914   -0.0018734992949141116
-0.0014790738689830214   -0.0651880693756625   -0.0020859282865273903
0.004635566641399864   -0.05839848907479046   -0.002135749131380411
0.0008804717432539546   -0.05866719051629136   -0.001954809144903064
-0.001263803553810288   -0.06517913294135437   -0.0019134084847047942
0.004897195401976587   -0.05838623673274664   -0.0019362594414592954
0.0009842676823554088   -0.05869586164223554   -0.0018357980280351005
-0.001263803553810288   -0.06517913294135437   -0.0019134084847047942
0.0017050195152537612   -0.06488108578864914   -0.0018734992949141116
0.004897195401976587   -0.05838623673274664   -0.0019362594414592954
0.002106058772292612   -0.06490000055474064   -0.0016185135277756394
0.0009842676823554088   -0.05869586164223554   -0.0018357980280351005
0.005168328196071251   -0.05840724798099023   -0.00175439472633256
0.002106058772292612   -0.06490000055474064   -0.0016185135277756394
0.004897195401976587   -0.05838623673274664   -0.0019362594414592954
0.0009842676823554088   -0.05869586164223554   -0.0018357980280351005
0.002106058772292612   -0.06490000055474064   -0.0016185135277756394
-0.0011043857688926761   -0.06522107281443207   -0.0017566993584683314
-0.001263803553810288   -0.06517913294135437   -0.0019134084847047942
0.0009842676823554088   -0.05869586164223554   -0.0018357980280351005
0.002106058772292612   -0.06490000055474064   -0.0016185135277756394
-0.001263803553810288   -0.06517913294135437   -0.0019134084847047942
0.004897195401976587   -0.05838623673274664   -0.0019362594414592954
-0.011339366297530622   -0.06472189741339346   -0.0019576604889940015
-0.008318778828645526   -0.0683766558859459   -0.001722855829840551
-0.00852782207338682   -0.06499405126594615   -0.00203927128474232
-0.011033618697737191   -0.06471425770002093   -0.0021380913097314726
-0.008318778828645526   -0.0683766558859459   -0.001722855829840551
-0.007009693892598329   -0.06872077798044232   -0.0019295469152569471
-0.00852782207338682   -0.06499405126594615   -0.00203927128474232
-0.006830903333792588   -0.06865285498517025   -0.002000779941289902
-0.011033618697737191   -0.06471425770002093   -0.0021380913097314726
-0.008386057594237365   -0.06498006494761117   -0.00210619289001047
-0.006830903333792588   -0.06865285498517025   -0.002000779941289902
-0.00852782207338682   -0.06499405126594615   -0.00203927128474232
-0.011033618697737191   -0.06471425770002093   -0.0021380913097314726
-0.006830903333792588   -0.06865285498517025   -0.002000779941289902
-0.007937847702268611   -0.06830012389971739   -0.0019393055065683648
-0.008318778828645526   -0.0683766558859459   -0.001722855829840551
-0.011033618697737191   -0.06471425770002093   -0.0021380913097314726
-0.006830903333792588   -0.06865285498517025   -0.002000779941289902
-0.008318778828645526   -0.0683766558859459   -0.001722855829840551
-0.00852782207338682   -0.06499405126594615   -0.00203927128474232
-0.011033618697737191   -0.06471425770002093   -0.0021380913097314726
-0.007937847702268611   -0.06830012389971739   -0.0019393055065683648
-0.008386057594237365   -0.06498006494761117   -0.00210619289001047
-0.010751808053964923   -0.06476271696800921   -0.0023326742299192306
-0.007937847702268611   -0.06830012389971739   -0.0019393055065683648
-0.006830903333792588   -0.06865285498517025   -0.002000779941289902
-0.008386057594237365   -0.06498006494761117   -0.00210619289001047
-0.006632848219283794   -0.06865631095544314   -0.0020727366268937994
-0.010751808053964923   -0.06476271696800921   -0.0023326742299192306
-0.00821929709299259   -0.06501929306136371   -0.0021831619343323965
-0.006632848219283794   -0.06865631095544314   -0.0020727366268937994
-0.008386057594237365   -0.06498006494761117   -0.00210619289001047
-0.010751808053964923   -0.06476271696800921   -0.0023326742299192306
-0.006632848219283794   -0.06865631095544314   -0.0020727366268937994
-0.007609188672599271   -0.06830678316752946   -0.002154930320794333
-0.007937847702268611   -0.06830012389971739   -0.0019393055065683648
-0.010751808053964923   -0.06476271696800921   -0.0023326742299192306
-0.006632848219283794   -0.06865631095544314   -0.0020727366268937994
-0.007937847702268611   -0.06830012389971739   -0.0019393055065683648
-0.008386057594237365   -0.06498006494761117   -0.00210619289001047
-0.010751808053964923   -0.06476271696800921   -0.0023326742299192306
-0.007609188672599271   -0.06830678316752946   -0.002154930320794333
-0.00821929709299259   -0.06501929306136371   -0.0021831619343323965
-0.010408077570451528   -0.06489205150736368   -0.002540578210259885
-0.007609188672599271   -0.06830678316752946   -0.002154930320794333
-0.006632848219283794   -0.06865631095544314   -0.0020727366268937994
-0.00821929709299259   -0.06501929306136371   -0.0021831619343323965
-0.0064488790867519435   -0.06873148203120581   -0.002145718018677679
-0.010408077570451528   -0.06489205150736368   -0.002540578210259885
-0.008068013890681538   -0.06511263292879069   -0.002269536264334337
-0.0064488790867519435   -0.06873148203120581   -0.002145718018677679
-0.00821929709299259   -0.06501929306136371   -0.0021831619343323965
-0.010408077570451528   -0.06489205150736368   -0.002540578210259885
-0.0064488790867519435   -0.06873148203120581   -0.002145718018677679
-0.007219327858297401   -0.06840142133465213   -0.0023751968335826135
-0.007609188672599271   -0.06830678316752946   -0.002154930320794333
-0.010408077570451528   -0.06489205150736368   -0.002540578210259885
-0.0064488790867519435   -0.06873148203120581   -0.002145718018677679
-0.007609188672599271   -0.06830678316752946   -0.002154930320794333
-0.00821929709299259   -0.06501929306136371   -0.0021831619343323965
-0.00852782207338682   -0.06499405126594615   -0.00203927128474232
-0.007009693892598329   -0.06872077798044232   -0.0019295469152569471
-0.006230188175657564   -0.06517030744071439   -0.002103144704528351
-0.008386057594237365   -0.06498006494761117   -0.00210619289001047
-0.007009693892598329   -0.06872077798044232   -0.0019295469152569471
-0.006050585549106069   -0.06906576193140483   -0.002112194415552749
-0.006230188175657564   -0.06517030744071439   -0.002103144704528351
-0.005861988093764332   -0.06899605036610242   -0.0020623965420730624
-0.008386057594237365   -0.06498006494761117   -0.00210619289001047
-0.006084738234264062   -0.0651478676335953   -0.00208267747961651
-0.005861988093764332   -0.06899605036610242   -0.0020623965420730624
-0.006230188175657564   -0.06517030744071439   -0.002103144704528351
-0.008386057594237365   -0.06498006494761117   -0.00210619289001047
-0.005861988093764332   -0.06899605036610242   -0.0020623965420730624
-0.006830903333792588   -0.06865285498517025   -0.002000779941289902
-0.007009693892598329   -0.06872077798044232   -0.0019295469152569471
-0.008386057594237365   -0.06498006494761117   -0.00210619289001047
-0.005861988093764332   -0.06899605036610242   -0.0020623965420730624
-0.007009693892598329   -0.06872077798044232   -0.0019295469152569471
-0.006230188175657564   -0.06517030744071439   -0.002103144704528351
-0.008386057594237365   -0.06498006494761117   -0.00210619289001047
-0.006830903333792588   -0.06865285498517025   -0.002000779941289902
-0.006084738234264062   -0.0651478676335953   -0.00208267747961651
-0.00821929709299259   -0.06501929306136371   -0.0021831619343323965
-0.006830903333792588   -0.06865285498517025   -0.002000779941289902
-0.005861988093764332   -0.06899605036610242   -0.0020623965420730624
-0.006084738234264062   -0.0651478676335953   -0.00208267747961651
-0.005679623930818182   -0.06899487426185878   -0.00201198216459886
-0.00821929709299259   -0.06501929306136371   -0.0021831619343323965
-0.0059413210320114936   -0.0651713684865087   -0.0020719706075068736
-0.005679623930818182   -0.06899487426185878   -0.00201198216459886
-0.006084738234264062   -0.0651478676335953   -0.00208267747961651
-0.00821929709299259   -0.06501929306136371   -0.0021831619343323965
-0.005679623930818182   -0.06899487426185878   -0.00201198216459886
-0.006632848219283794   -0.06865631095544314   -0.0020727366268937994
-0.006830903333792588   -0.06865285498517025   -0.002000779941289902
-0.00821929709299259   -0.06501929306136371   -0.0021831619343323965
-0.005679623930818182   -0.06899487426185878   -0.00201198216459886
-0.006830903333792588   -0.06865285498517025   -0.002000779941289902
-0.006084738234264062   -0.0651478676335953   -0.00208267747961651
-0.00821929709299259   -0.06501929306136371   -0.0021831619343323965
-0.006632848219283794   -0.06865631095544314   -0.0020727366268937994
-0.0059413210320114936   -0.0651713684865087   -0.0020719706075068736
-0.008068013890681538   -0.06511263292879069   -0.002269536264334337
-0.006632848219283794   -0.06865631095544314   -0.0020727366268937994
-0.005679623930818182   -0.06899487426185878   -0.00201198216459886
-0.0059413210320114936   -0.0651713684865087   -0.0020719706075068736
-0.005489516383797518   -0.06906080759497715   -0.0019635655470648743
-0.008068013890681538   -0.06511263292879069   -0.002269536264334337
-0.005809346106689935   -0.06524233114447664   -0.00207306643811506
-0.005489516383797518   -0.06906080759497715   -0.0019635655470648743
-0.0059413210320114936   -0.0651713684865087   -0.0020719706075068736
-0.008068013890681538   -0.06511263292879069   -0.002269536264334337
-0.005489516383797518   -0.06906080759497715   -0.0019635655470648743
-0.0064488790867519435   -0.06873148203120581   -0.002145718018677679
-0.006632848219283794   -0.06865631095544314   -0.0020727366268937994
-0.008068013890681538   -0.06511263292879069   -0.002269536264334337
-0.005489516383797518   -0.06906080759497715   -0.0019635655470648743
-0.006632848219283794   -0.06865631095544314   -0.0020727366268937994
-0.0059413210320114936   -0.0651713684865087   -0.0020719706075068736
-0.006230188175657564   -0.06517030744071439   -0.002103144704528351
-0.006050585549106069   -0.06906576193140483   -0.002112194415552749
-0.004029483560377227   -0.06526268988992538   -0.002178672229680467
-0.006084738234264062   -0.0651478676335953   -0.00208267747961651
-0.006050585549106069   -0.06906576193140483   -0.002112194415552749
-0.0051745444657795925   -0.06948167396482592   -0.0023133849529884225
-0.004029483560377227   -0.06526268988992538   -0.002178672229680467
-0.004943369388062637   -0.0694211336021087   -0.002135775297008064
-0.006084738234264062   -0.0651478676335953   -0.00208267747961651
-0.0038655247386339205   -0.06523028496149844   -0.002075783190443552
-0.004943369388062637   -0.0694211336021087   -0.002135775297008064
-0.004029483560377227   -0.06526268988992538   -0.002178672229680467
-0.006084738234264062   -0.0651478676335953   -0.00208267747961651
-0.004943369388062637   -0.0694211336021087   -0.002135775297008064
-0.005861988093764332   -0.06899605036610242   -0.0020623965420730624
-0.006050585549106069   -0.06906576193140483   -0.002112194415552749
-0.006084738234264062   -0.0651478676335953   -0.00208267747961651
-0.004943369388062637   -0.0694211336021087   -0.002135775297008064
-0.006050585549106069   -0.06906576193140483   -0.002112194415552749
-0.004029483560377227   -0.06526268988992538   -0.002178672229680467
-0.006084738234264062   -0.0651478676335953   -0.00208267747961651
-0.005861988093764332   -0.06899605036610242   -0.0020623965420730624
-0.0038655247386339205   -0.06523028496149844   -0.002075783190443552
-0.0059413210320114936   -0.0651713684865087   -0.0020719706075068736
-0.005861988093764332   -0.06899605036610242   -0.0020623965420730624
-0.004943369388062637   -0.0694211336021087   -0.002135775297008064
-0.0038655247386339205   -0.06523028496149844   -0.002075783190443552
-0.004729137325176381   -0.0694179365265982   -0.0019587491829240068
-0.0059413210320114936   -0.0651713684865087   -0.0020719706075068736
-0.0037092210238133974   -0.06523828871417572   -0.001981526730425018
-0.004729137325176381   -0.0694179365265982   -0.0019587491829240068
-0.0038655247386339205   -0.06523028496149844   -0.002075783190443552
-0.0059413210320114936   -0.0651713684865087   -0.0020719706075068736
-0.004729137325176381   -0.0694179365265982   -0.0019587491829240068
-0.005679623930818182   -0.06899487426185878   -0.00201198216459886
-0.005861988093764332   -0.06899605036610242   -0.0020623965420730624
-0.0059413210320114936   -0.0651713684865087   -0.0020719706075068736
-0.004729137325176381   -0.0694179365265982   -0.0019587491829240068
-0.005861988093764332   -0.06899605036610242   -0.0020623965420730624
-0.0038655247386339205   -0.06523028496149844   -0.002075783190443552
-0.0059413210320114936   -0.0651713684865087   -0.0020719706075068736
-0.005679623930818182   -0.06899487426185878   -0.00201198216459886
-0.0037092210238133974   -0.06523828871417572   -0.001981526730425018
-0.005809346106689935   -0.06524233114447664   -0.00207306643811506
-0.005679623930818182   -0.06899487426185878   -0.00201198216459886
-0.004729137325176381   -0.0694179365265982   -0.0019587491829240068
-0.0037092210238133974   -0.06523828871417572   -0.001981526730425018
-0.00449917149022094   -0.0694689971618372   -0.0017813568723597305
-0.005809346106689935   -0.06524233114447664   -0.00207306643811506
-0.00357920697728882   -0.06529455332255091   -0.001901285075366831
-0.00449917149022094   -0.0694689971618372   -0.0017813568723597305
-0.0037092210238133974   -0.06523828871417572   -0.001981526730425018
-0.005809346106689935   -0.06524233114447664   -0.00207306643811506
-0.00449917149022094   -0.0694689971618372   -0.0017813568723597305
-0.005489516383797518   -0.06906080759497715   -0.0019635655470648743
-0.005679623930818182   -0.06899487426185878   -0.00201198216459886
-0.005809346106689935   -0.06524233114447664   -0.00207306643811506
-0.00449917149022094   -0.0694689971618372   -0.0017813568723597305
-0.005679623930818182   -0.06899487426185878   -0.00201198216459886
-0.0037092210238133974   -0.06523828871417572   -0.001981526730425018
-0.004029483560377227   -0.06526268988992538   -0.002178672229680467
-0.0051745444657795925   -0.06948167396482592   -0.0023133849529884225
-0.0016895842502627832   -0.06523887876022003   -0.0022676799724556406
-0.0038655247386339205   -0.06523028496149844   -0.002075783190443552
-0.0051745444657795925   -0.06948167396482592   -0.0023133849529884225
-0.004312365230469867   -0.07   -0.0024681575066588237
-0.0016895842502627832   -0.06523887876022003   -0.0022676799724556406
-0.004021547570074389   -0.07   -0.002198234577152293
-0.0038655247386339205   -0.06523028496149844   -0.002075783190443552
-0.0014790738689830214   -0.0651880693756625   -0.0020859282865273903
-0.004021547570074389   -0.07   -0.002198234577152293
-0.0016895842502627832   -0.06523887876022003   -0.0022676799724556406
-0.0038655247386339205   -0.06523028496149844   -0.002075783190443552
-0.004021547570074389   -0.07   -0.002198234577152293
-0.004943369388062637   -0.0694211336021087   -0.002135775297008064
-0.0051745444657795925   -0.06948167396482592   -0.0023133849529884225
-0.0038655247386339205   -0.06523028496149844   -0.002075783190443552
-0.004021547570074389   -0.07   -0.002198234577152293
-0.0051745444657795925   -0.06948167396482592   -0.0023133849529884225
-0.0016895842502627832   -0.06523887876022003   -0.0022676799724556406
-0.0038655247386339205   -0.06523028496149844   -0.002075783190443552
-0.004943369388062637   -0.0694211336021087   -0.002135775297008064
-0.0014790738689830214   -0.0651880693756625   -0.0020859282865273903
-0.0037092210238133974   -0.06523828871417572   -0.001981526730425018
-0.004943369388062637   -0.0694211336021087   -0.002135775297008064
-0.004021547570074389   -0.07   -0.002198234577152293
-0.0014790738689830214   -0.0651880693756625   -0.0020859282865273903
-0.003729299198511485   -0.07   -0.0019251122280314593
-0.0037092210238133974   -0.06523828871417572   -0.001981526730425018
-0.001263803553810288   -0.06517913294135437   -0.0019134084847047942
-0.003729299198511485   -0.07   -0.0019251122280314593
-0.0014790738689830214   -0.0651880693756625   -0.0020859282865273903
-0.0037092210238133974   -0.06523828871417572   -0.001981526730425018
-0.003729299198511485   -0.07   -0.0019251122280314593
-0.004729137325176381   -0.0694179365265982   -0.0019587491829240068
-0.004943369388062637   -0.0694211336021087   -0.002135775297008064
-0.0037092210238133974   -0.06523828871417572   -0.001981526730425018
-0.003729299198511485   -0.07   -0.0019251122280314593
-0.004943369388062637   -0.0694211336021087   -0.002135775297008064
-0.0014790738689830214   -0.0651880693756625   -0.0020859282865273903
-0.0037092210238133974   -0.06523828871417572   -0.001981526730425018
-0.004729137325176381   -0.0694179365265982   -0.0019587491829240068
-0.001263803553810288   -0.06517913294135437   -0.0019134084847047942
-0.00357920697728882   -0.06529455332255091   -0.001901285075366831
-0.004729137325176381   -0.0694179365265982   -0.0019587491829240068
-0.003729299198511485   -0.07   -0.0019251122280314593
-0.001263803553810288   -0.06517913294135437   -0.0019134084847047942
-0.0034436802325622604   -0.07   -0.0016556048338152297
-0.00357920697728882   -0.06529455332255091   -0.001901285075366831
-0.0011043857688926761   -0.06522107281443207   -0.0017566993584683314
-0.0034436802325622604   -0.07   -0.0016556048338152297
-0.001263803553810288   -0.06517913294135437   -0.0019134084847047942
-0.00357920697728882   -0.06529455332255091   -0.001901285075366831
-0.0034436802325622604   -0.07   -0.0016556048338152297
-0.00449917149022094   -0.0694689971618372   -0.0017813568723597305
-0.004729137325176381   -0.0694179365265982   -0.0019587491829240068
-0.00357920697728882   -0.06529455332255091   -0.001901285075366831
-0.0034436802325622604   -0.07   -0.0016556048338152297
-0.004729137325176381   -0.0694179365265982   -0.0019587491829240068
-0.001263803553810288   -0.06517913294135437   -0.0019134084847047942
-0.0016895842502627832   -0.06523887876022003   -0.0022676799724556406
-0.004312365230469867   -0.07   -0.0024681575066588237
0.0008282227477014138   -0.0650139669321816   -0.002449942763108288
-0.0014790738689830214   -0.0651880693756625   -0.0020859282865273903
-0.004312365230469867   -0.07   -0.0024681575066588237
-0.003686426608722166   -0.07   -0.0026556009105848937
0.0008282227477014138   -0.0650139669321816   -0.002449942763108288
-0.0030779839522186913   -0.07   -0.0022650180475552307
-0.0014790738689830214   -0.0651880693756625   -0.0020859282865273903
0.0013191958562299628   -0.06490344622720842   -0.0021526593196176578
-0.0030779839522186913   -0.07   -0.0022650180475552307
0.0008282227477014138   -0.0650139669321816   -0.002449942763108288
-0.0014790738689830214   -0.0651880693756625   -0.0020859282865273903
-0.0030779839522186913   -0.07   -0.0022650180475552307
-0.004021547570074389   -0.07   -0.002198234577152293
-0.004312365230469867   -0.07   -0.0024681575066588237
-0.0014790738689830214   -0.0651880693756625   -0.0020859282865273903
-0.0030779839522186913   -0.07   -0.0022650180475552307
-0.004312365230469867   -0.07   -0.0024681575066588237
0.0008282227477014138   -0.0650139669321816   -0.002449942763108288
-0.0014790738689830214   -0.0651880693756625   -0.0020859282865273903
-0.004021547570074389   -0.07   -0.002198234577152293
0.0013191958562299628   -0.06490344622720842   -0.0021526593196176578
-0.001263803553810288   -0.06517913294135437   -0.0019134084847047942
-0.004021547570074389   -0.07   -0.002198234577152293
-0.0030779839522186913   -0.07   -0.0022650180475552307
0.0013191958562299628   -0.06490344622720842   -0.0021526593196176578
-0.002592763807870265   -0.07   -0.0018913815804264197
-0.001263803553810288   -0.06517913294135437   -0.0019134084847047942
0.0017050195152537612   -0.06488108578864914   -0.0018734992949141116
-0.002592763807870265   -0.07   -0.0018913815804264197
0.0013191958562299628   -0.06490344622720842   -0.0021526593196176578
-0.001263803553810288   -0.06517913294135437   -0.0019134084847047942
-0.002592763807870265   -0.07   -0.0018913815804264197
-0.003729299198511485   -0.07   -0.0019251122280314593
-0.004021547570074389   -0.07   -0.002198234577152293
-0.001263803553810288   -0.06517913294135437   -0.0019134084847047942
-0.002592763807870265   -0.07   -0.0018913815804264197
-0.004021547570074389   -0.07   -0.002198234577152293
0.0013191958562299628   -0.06490344622720842   -0.0021526593196176578
-0.001263803553810288   -0.06517913294135437   -0.0019134084847047942
-0.003729299198511485   -0.07   -0.0019251122280314593
0.0017050195152537612   -0.06488108578864914   -0.0018734992949141116
-0.0011043857688926761   -0.06522107281443207   -0.0017566993584683314
-0.003729299198511485   -0.07   -0.0019251122280314593
-0.002592763807870265   -0.07   -0.0018913815804264197
0.0017050195152537612   -0.06488108578864914   -0.0018734992949141116
-0.0019933847445559203   -0.07   -0.001503500806529207
-0.0011043857688926761   -0.06522107281443207   -0.0017566993584683314
0.002106058772292612   -0.06490000055474064   -0.0016185135277756394
-0.0019933847445559203   -0.07   -0.001503500806529207
0.0017050195152537612   -0.06488108578864914   -0.0018734992949141116
-0.0011043857688926761   -0.06522107281443207   -0.0017566993584683314
-0.0019933847445559203   -0.07   -0.001503500806529207
-0.0034436802325622604   -0.07   -0.0016556048338152297
-0.003729299198511485   -0.07   -0.0019251122280314593
-0.0011043857688926761   -0.06522107281443207   -0.0017566993584683314
-0.0019933847445559203   -0.07   -0.001503500806529207
-0.003729299198511485   -0.07   -0.0019251122280314593
0.0017050195152537612   -0.06488108578864914   -0.0018734992949141116
-0.008318778828645526   -0.0683766558859459   -0.001722855829840551
-0.004977001911276506   -0.06856422469994827   -0.0014746835628432172
-0.007009693892598329   -0.06872077798044232   -0.0019295469152569471
-0.007937847702268611   -0.06830012389971739   -0.0019393055065683648
-0.004977001911276506   -0.06856422469994827   -0.0014746835628432172
-0.00527619378613269   -0.06882955195223796   -0.0017408251928368273
-0.007009693892598329   -0.06872077798044232   -0.0019295469152569471
-0.005140946988627352   -0.06873677831960977   -0.0018379661054268306
-0.007937847702268611   -0.06830012389971739   -0.0019393055065683648
-0.006830903333792588   -0.06865285498517025   -0.002000779941289902
-0.005140946988627352   -0.06873677831960977   -0.0018379661054268306
-0.007009693892598329   -0.06872077798044232   -0.0019295469152569471
-0.007937847702268611   -0.06830012389971739   -0.0019393055065683648
-0.005140946988627352   -0.06873677831960977   -0.0018379661054268306
-0.004631719509295786   -0.0684450895480217   -0.0017021109390700513
-0.004977001911276506   -0.06856422469994827   -0.0014746835628432172
-0.007937847702268611   -0.06830012389971739   -0.0019393055065683648
-0.005140946988627352   -0.06873677831960977   -0.0018379661054268306
-0.004977001911276506   -0.06856422469994827   -0.0014746835628432172
-0.007009693892598329   -0.06872077798044232   -0.0019295469152569471
-0.007937847702268611   -0.06830012389971739   -0.0019393055065683648
-0.004631719509295786   -0.0684450895480217   -0.0017021109390700513
-0.006830903333792588   -0.06865285498517025   -0.002000779941289902
-0.007609188672599271   -0.06830678316752946   -0.002154930320794333
-0.004631719509295786   -0.0684450895480217   -0.0017021109390700513
-0.005140946988627352   -0.06873677831960977   -0.0018379661054268306
-0.006830903333792588   -0.06865285498517025   -0.002000779941289902
-0.004982288969423619   -0.06870262998257957   -0.0019276032097972626
-0.007609188672599271   -0.06830678316752946   -0.002154930320794333
-0.006632848219283794   -0.06865631095544314   -0.0020727366268937994
-0.004982288969423619   -0.06870262998257957   -0.0019276032097972626
-0.006830903333792588   -0.06865285498517025   -0.002000779941289902
-0.007609188672599271   -0.06830678316752946   -0.002154930320794333
-0.004982288969423619   -0.06870262998257957   -0.0019276032097972626
-0.004344313694164846   -0.06840852772024193   -0.0019202273949612924
-0.004631719509295786   -0.0684450895480217   -0.0017021109390700513
-0.007609188672599271   -0.06830678316752946   -0.002154930320794333
-0.004982288969423619   -0.06870262998257957   -0.0019276032097972626
-0.004631719509295786   -0.0684450895480217   -0.0017021109390700513
-0.006830903333792588   -0.06865285498517025   -0.002000779941289902
-0.007609188672599271   -0.06830678316752946   -0.002154930320794333
-0.004344313694164846   -0.06840852772024193   -0.0019202273949612924
-0.006632848219283794   -0.06865631095544314   -0.0020727366268937994
-0.007219327858297401   -0.06840142133465213   -0.0023751968335826135
-0.004344313694164846   -0.06840852772024193   -0.0019202273949612924
-0.004982288969423619   -0.06870262998257957   -0.0019276032097972626
-0.006632848219283794   -0.06865631095544314   -0.0020727366268937994
-0.004846388788532534   -0.06872760504852046   -0.002009269174445812
-0.007219327858297401   -0.06840142133465213   -0.0023751968335826135
-0.0064488790867519435   -0.06873148203120581   -0.002145718018677679
-0.004846388788532534   -0.06872760504852046   -0.002009269174445812
-0.006632848219283794   -0.06865631095544314   -0.0020727366268937994
-0.007219327858297401   -0.06840142133465213   -0.0023751968335826135
-0.004846388788532534   -0.06872760504852046   -0.002009269174445812
-0.00401909162848609   -0.06843968100490941   -0.0021280668624727847
-0.004344313694164846   -0.06840852772024193   -0.0019202273949612924
-0.007219327858297401   -0.06840142133465213   -0.0023751968335826135
-0.004846388788532534   -0.06872760504852046   -0.002009269174445812
-0.004344313694164846   -0.06840852772024193   -0.0019202273949612924
-0.006632848219283794   -0.06865631095544314   -0.0020727366268937994
-0.007009693892598329   -0.06872077798044232   -0.0019295469152569471
-0.00527619378613269   -0.06882955195223796   -0.0017408251928368273
-0.006050585549106069   -0.06906576193140483   -0.002112194415552749
-0.006830903333792588   -0.06865285498517025   -0.002000779941289902
-0.00527619378613269   -0.06882955195223796   -0.0017408251928368273
-0.005682273548332699   -0.06899343278681982   -0.0019535956655754106
-0.006050585549106069   -0.06906576193140483   -0.002112194415552749
-0.00556258851577565   -0.06891058457188465   -0.0019561177140269763
-0.006830903333792588   -0.06865285498517025   -0.002000779941289902
-0.005861988093764332   -0.06899605036610242   -0.0020623965420730624
-0.00556258851577565   -0.06891058457188465   -0.0019561177140269763
-0.006050585549106069   -0.06906576193140483   -0.002112194415552749
-0.006830903333792588   -0.06865285498517025   -0.002000779941289902
-0.00556258851577565   -0.06891058457188465   -0.0019561177140269763
-0.005140946988627352   -0.06873677831960977   -0.0018379661054268306
-0.00527619378613269   -0.06882955195223796   -0.0017408251928368273
-0.006830903333792588   -0.06865285498517025   -0.002000779941289902
-0.00556258851577565   -0.06891058457188465   -0.0019561177140269763
-0.00527619378613269   -0.06882955195223796   -0.0017408251928368273
-0.006050585549106069   -0.06906576193140483   -0.002112194415552749
-0.006830903333792588   -0.06865285498517025   -0.002000779941289902
-0.005140946988627352   -0.06873677831960977   -0.0018379661054268306
-0.005861988093764332   -0.06899605036610242   -0.0020623965420730624
-0.006632848219283794   -0.06865631095544314   -0.0020727366268937994
-0.005140946988627352   -0.06873677831960977   -0.0018379661054268306
-0.00556258851577565   -0.06891058457188465   -0.0019561177140269763
-0.005861988093764332   -0.06899605036610242   -0.0020623965420730624
-0.005429376925438621   -0.06888083298644981   -0.0019489114538259265
-0.006632848219283794   -0.06865631095544314   -0.0020727366268937994
-0.005679623930818182   -0.06899487426185878   -0.00201198216459886
-0.005429376925438621   -0.06888083298644981   -0.0019489114538259265
-0.005861988093764332   -0.06899605036610242   -0.0020623965420730624
-0.006632848219283794   -0.06865631095544314   -0.0020727366268937994
-0.005429376925438621   -0.06888083298644981   -0.0019489114538259265
-0.004982288969423619   -0.06870262998257957   -0.0019276032097972626
-0.005140946988627352   -0.06873677831960977   -0.0018379661054268306
-0.006632848219283794   -0.06865631095544314   -0.0020727366268937994
-0.005429376925438621   -0.06888083298644981   -0.0019489114538259265
-0.005140946988627352   -0.06873677831960977   -0.0018379661054268306
-0.005861988093764332   -0.06899605036610242   -0.0020623965420730624
-0.006632848219283794   -0.06865631095544314   -0.0020727366268937994
-0.004982288969423619   -0.06870262998257957   -0.0019276032097972626
-0.005679623930818182   -0.06899487426185878   -0.00201198216459886
-0.0064488790867519435   -0.06873148203120581   -0.002145718018677679
-0.004982288969423619   -0.06870262998257957   -0.0019276032097972626
-0.005429376925438621   -0.06888083298644981   -0.0019489114538259265
-0.005679623930818182   -0.06899487426185878   -0.00201198216459886
-0.005293942606888807   -0.06890175999300263   -0.001934071140154278
-0.0064488790867519435   -0.06873148203120581   -0.002145718018677679
-0.005489516383797518   -0.06906080759497715   -0.0019635655470648743
-0.005293942606888807   -0.06890175999300263   -0.001934071140154278
-0.005679623930818182   -0.06899487426185878   -0.00201198216459886
-0.0064488790867519435   -0.06873148203120581   -0.002145718018677679
-0.005293942606888807   -0.06890175999300263   -0.001934071140154278
-0.004846388788532534   -0.06872760504852046   -0.002009269174445812
-0.004982288969423619   -0.06870262998257957   -0.0019276032097972626
-0.0064488790867519435   -0.06873148203120581   -0.002145718018677679
-0.005293942606888807   -0.06890175999300263   -0.001934071140154278
-0.004982288969423619   -0.06870262998257957   -0.0019276032097972626
-0.005679623930818182   -0.06899487426185878   -0.00201198216459886
-0.006050585549106069   -0.06906576193140483   -0.002112194415552749
-0.005682273548332699   -0.06899343278681982   -0.0019535956655754106
-0.0051745444657795925   -0.06948167396482592   -0.0023133849529884225
-0.005861988093764332   -0.06899605036610242   -0.0020623965420730624
-0.005682273548332699   -0.06899343278681982   -0.0019535956655754106
-0.006117734652566354   -0.0690620717650201   -0.002163035817878957
-0.0051745444657795925   -0.06948167396482592   -0.0023133849529884225
-0.005993753093642831   -0.06898305490519924   -0.0020745736978526074
-0.005861988093764332   -0.06899605036610242   -0.0020623965420730624
-0.004943369388062637   -0.0694211336021087   -0.002135775297008064
-0.005993753093642831   -0.06898305490519924   -0.0020745736978526074
-0.0051745444657795925   -0.06948167396482592   -0.0023133849529884225
-0.005861988093764332   -0.06899605036610242   -0.0020623965420730624
-0.005993753093642831   -0.06898305490519924   -0.0020745736978526074
-0.00556258851577565   -0.06891058457188465   -0.0019561177140269763
-0.005682273548332699   -0.06899343278681982   -0.0019535956655754106
-0.005861988093764332   -0.06899605036610242   -0.0020623965420730624
-0.005993753093642831   -0.06898305490519924   -0.0020745736978526074
-0.005682273548332699   -0.06899343278681982   -0.0019535956655754106
-0.0051745444657795925   -0.06948167396482592   -0.0023133849529884225
-0.005861988093764332   -0.06899605036610242   -0.0020623965420730624
-0.00556258851577565   -0.06891058457188465   -0.0019561177140269763
-0.004943369388062637   -0.0694211336021087   -0.002135775297008064
-0.005679623930818182   -0.06899487426185878   -0.00201198216459886
-0.00556258851577565   -0.06891058457188465   -0.0019561177140269763
-0.005993753093642831   -0.06898305490519924   -0.0020745736978526074
-0.004943369388062637   -0.0694211336021087   -0.002135775297008064
-0.005845055803923366   -0.06895800054185543   -0.001974262917242458
-0.005679623930818182   -0.06899487426185878   -0.00201198216459886
-0.004729137325176381   -0.0694179365265982   -0.0019587491829240068
-0.005845055803923366   -0.06895800054185543   -0.001974262917242458
-0.004943369388062637   -0.0694211336021087   -0.002135775297008064
-0.005679623930818182   -0.06899487426185878   -0.00201198216459886
-0.005845055803923366   -0.06895800054185543   -0.001974262917242458
-0.005429376925438621   -0.06888083298644981   -0.0019489114538259265
-0.00556258851577565   -0.06891058457188465   -0.0019561177140269763
-0.005679623930818182   -0.06899487426185878   -0.00201198216459886
-0.005845055803923366   -0.06895800054185543   -0.001974262917242458
-0.00556258851577565   -0.06891058457188465   -0.0019561177140269763
-0.004943369388062637   -0.0694211336021087   -0.002135775297008064
-0.005679623930818182   -0.06899487426185878   -0.00201198216459886
-0.005429376925438621   -0.06888083298644981   -0.0019489114538259265
-0.004729137325176381   -0.0694179365265982   -0.0019587491829240068
-0.005489516383797518   -0.06906080759497715   -0.0019635655470648743
-0.005429376925438621   -0.06888083298644981   -0.0019489114538259265
-0.005845055803923366   -0.06895800054185543   -0.001974262917242458
-0.004729137325176381   -0.0694179365265982   -0.0019587491829240068
-0.005692147333101222   -0.06897844854526596   -0.0018674287488914779
-0.005489516383797518   -0.06906080759497715   -0.0019635655470648743
-0.00449917149022094   -0.0694689971618372   -0.0017813568723597305
-0.005692147333101222   -0.06897844854526596   -0.0018674287488914779
-0.004729137325176381   -0.0694179365265982   -0.0019587491829240068
-0.005489516383797518   -0.06906080759497715   -0.0019635655470648743
-0.005692147333101222   -0.06897844854526596   -0.0018674287488914779
-0.005293942606888807   -0.06890175999300263   -0.001934071140154278
-0.005429376925438621   -0.06888083298644981   -0.0019489114538259265
-0.005489516383797518   -0.06906080759497715   -0.0019635655470648743
-0.005692147333101222   -0.06897844854526596   -0.0018674287488914779
-0.005429376925438621   -0.06888083298644981   -0.0019489114538259265
-0.004729137325176381   -0.0694179365265982   -0.0019587491829240068
-0.0051745444657795925   -0.06948167396482592   -0.0023133849529884225
-0.006117734652566354   -0.0690620717650201   -0.002163035817878957
-0.004312365230469867   -0.07   -0.0024681575066588237
-0.004943369388062637   -0.0694211336021087   -0.002135775297008064
-0.006117734652566354   -0.0690620717650201   -0.002163035817878957
-0.0067484904187202575   -0.06898747837862006   -0.002362088723860625
-0.004312365230469867   -0.07   -0.0024681575066588237
-0.00658655096234638   -0.068912844189366   -0.0021869874437467096
-0.004943369388062637   -0.0694211336021087   -0.002135775297008064
-0.004021547570074389   -0.07   -0.002198234577152293
-0.00658655096234638   -0.068912844189366   -0.0021869874437467096
-0.004312365230469867   -0.07   -0.0024681575066588237
-0.004943369388062637   -0.0694211336021087   -0.002135775297008064
-0.00658655096234638   -0.068912844189366   -0.0021869874437467096
-0.005993753093642831   -0.06898305490519924   -0.0020745736978526074
-0.006117734652566354   -0.0690620717650201   -0.002163035817878957
-0.004943369388062637   -0.0694211336021087   -0.002135775297008064
-0.00658655096234638   -0.068912844189366   -0.0021869874437467096
-0.006117734652566354   -0.0690620717650201   -0.002163035817878957
-0.004312365230469867   -0.07   -0.0024681575066588237
-0.004943369388062637   -0.0694211336021087   -0.002135775297008064
-0.005993753093642831   -0.06898305490519924   -0.0020745736978526074
-0.004021547570074389   -0.07   -0.002198234577152293
-0.004729137325176381   -0.0694179365265982   -0.0019587491829240068
-0.005993753093642831   -0.06898305490519924   -0.0020745736978526074
-0.00658655096234638   -0.068912844189366   -0.0021869874437467096
-0.004021547570074389   -0.07   -0.002198234577152293
-0.006372842262451322   -0.06889591782675504   -0.001998686516820494
-0.004729137325176381   -0.0694179365265982   -0.0019587491829240068
-0.003729299198511485   -0.07   -0.0019251122280314593
-0.006372842262451322   -0.06889591782675504   -0.001998686516820494
-0.004021547570074389   -0.07   -0.002198234577152293
-0.004729137325176381   -0.0694179365265982   -0.0019587491829240068
-0.006372842262451322   -0.06889591782675504   -0.001998686516820494
-0.005845055803923366   -0.06895800054185543   -0.001974262917242458
-0.005993753093642831   -0.06898305490519924   -0.0020745736978526074
-0.004729137325176381   -0.0694179365265982   -0.0019587491829240068
-0.006372842262451322   -0.06889591782675504   -0.001998686516820494
-0.005993753093642831   -0.06898305490519924   -0.0020745736978526074
-0.004021547570074389   -0.07   -0.002198234577152293
-0.004729137325176381   -0.0694179365265982   -0.0019587491829240068
-0.005845055803923366   -0.06895800054185543   -0.001974262917242458
-0.003729299198511485   -0.07   -0.0019251122280314593
-0.00449917149022094   -0.0694689971618372   -0.0017813568723597305
-0.005845055803923366   -0.06895800054185543   -0.001974262917242458
-0.006372842262451322   -0.06889591782675504   -0.001998686516820494
-0.003729299198511485   -0.07   -0.0019251122280314593
-0.006171861258121517   -0.06892557491811852   -0.0018031270886990202
-0.00449917149022094   -0.0694689971618372   -0.0017813568723597305
-0.0034436802325622604   -0.07   -0.0016556048338152297
-0.006171861258121517   -0.06892557491811852   -0.0018031270886990202
-0.003729299198511485   -0.07   -0.0019251122280314593
-0.00449917149022094   -0.0694689971618372   -0.0017813568723597305
-0.006171861258121517   -0.06892557491811852   -0.0018031270886990202
-0.005692147333101222   -0.06897844854526596   -0.0018674287488914779
-0.005845055803923366   -0.06895800054185543   -0.001974262917242458
-0.00449917149022094   -0.0694689971618372   -0.0017813568723597305
-0.006171861258121517   -0.06892557491811852   -0.0018031270886990202
-0.005845055803923366   -0.06895800054185543   -0.001974262917242458
-0.003729299198511485   -0.07   -0.0019251122280314593
-0.004312365230469867   -0.07   -0.0024681575066588237
-0.0067484904187202575   -0.06898747837862006   -0.002362088723860625
-0.003686426608722166   -0.07   -0.0026556009105848937
-0.004021547570074389   -0.07   -0.002198234577152293
-0.0067484904187202575   -0.06898747837862006   -0.002362088723860625
-0.007975442156832538   -0.06864994711786657   -0.002573275225331779
-0.003686426608722166   -0.07   -0.0026556009105848937
-0.007544613165073149   -0.06858698309711105   -0.002286005457590464
-0.004021547570074389   -0.07   -0.002198234577152293
-0.0030779839522186913   -0.07   -0.0022650180475552307
-0.007544613165073149   -0.06858698309711105   -0.002286005457590464
-0.003686426608722166   -0.07   -0.0026556009105848937
-0.004021547570074389   -0.07   -0.002198234577152293
-0.007544613165073149   -0.06858698309711105   -0.002286005457590464
-0.00658655096234638   -0.068912844189366   -0.0021869874437467096
-0.0067484904187202575   -0.06898747837862006   -0.002362088723860625
-0.004021547570074389   -0.07   -0.002198234577152293
-0.007544613165073149   -0.06858698309711105   -0.002286005457590464
-0.0067484904187202575   -0.06898747837862006   -0.002362088723860625
-0.003686426608722166   -0.07   -0.0026556009105848937
-0.004021547570074389   -0.07   -0.002198234577152293
-0.00658655096234638   -0.068912844189366   -0.0021869874437467096
-0.0030779839522186913   -0.07   -0.0022650180475552307
-0.003729299198511485   -0.07   -0.0019251122280314593
-0.00658655096234638   -0.068912844189366   -0.0021869874437467096
-0.007544613165073149   -0.06858698309711105   -0.002286005457590464
-0.0030779839522186913   -0.07   -0.0022650180475552307
-0.00714882984018329   -0.06857838020451615   -0.0019794066684475035
-0.003729299198511485   -0.07   -0.0019251122280314593
-0.002592763807870265   -0.07   -0.0018913815804264197
-0.00714882984018329   -0.06857838020451615   -0.0019794066684475035
-0.0030779839522186913   -0.07   -0.0022650180475552307
-0.003729299198511485   -0.07   -0.0019251122280314593
-0.00714882984018329   -0.06857838020451615   -0.0019794066684475035
-0.006372842262451322   -0.06889591782675504   -0.001998686516820494
-0.00658655096234638   -0.068912844189366   -0.0021869874437467096
-0.003729299198511485   -0.07   -0.0019251122280314593
-0.00714882984018329   -0.06857838020451615   -0.0019794066684475035
-0.00658655096234638   -0.068912844189366   -0.0021869874437467096
-0.0030779839522186913   -0.07   -0.0022650180475552307
-0.003729299198511485   -0.07   -0.0019251122280314593
-0.006372842262451322   -0.06889591782675504   -0.001998686516820494
-0.002592763807870265   -0.07   -0.0018913815804264197
-0.0034436802325622604   -0.07   -0.0016556048338152297
-0.006372842262451322   -0.06889591782675504   -0.001998686516820494
-0.00714882984018329   -0.06857838020451615   -0.0019794066684475035
-0.002592763807870265   -0.07   -0.0018913815804264197
-0.006648986387336645   -0.06866099796614734   -0.0016587759816536853
-0.0034436802325622604   -0.07   -0.0016556048338152297
-0.0019933847445559203   -0.07   -0.001503500806529207
-0.006648986387336645   -0.06866099796614734   -0.0016587759816536853
-0.002592763807870265   -0.07   -0.0018913815804264197
-0.0034436802325622604   -0.07   -0.0016556048338152297
-0.006648986387336645   -0.06866099796614734   -0.0016587759816536853
-0.006171861258121517   -0.06892557491811852   -0.0018031270886990202
-0.006372842262451322   -0.06889591782675504   -0.001998686516820494
-0.0034436802325622604   -0.07   -0.0016556048338152297
-0.006648986387336645   -0.06866099796614734   -0.0016587759816536853
-0.006372842262451322   -0.06889591782675504   -0.001998686516820494
-0.002592763807870265   -0.07   -0.0018913815804264197
-0.004977001911276506   -0.06856422469994827   -0.0014746835628432172
-0.0020366131064896605   -0.06597900098270408   -0.001274056497507691
-0.00527619378613269   -0.06882955195223796   -0.0017408251928368273
-0.004631719509295786   -0.0684450895480217   -0.0017021109390700513
-0.0020366131064896605   -0.06597900098270408   -0.001274056497507691
-0.003789298931054532   -0.06617923790371502   -0.001556767365945327
-0.00527619378613269   -0.06882955195223796   -0.0017408251928368273
-0.0036932258058193406   -0.06606697262110069   -0.001643397061998453
-0.004631719509295786   -0.0684450895480217   -0.0017021109390700513
-0.005140946988627352   -0.06873677831960977   -0.0018379661054268306
-0.0036932258058193406   -0.06606697262110069   -0.001643397061998453
-0.00527619378613269   -0.06882955195223796   -0.0017408251928368273
-0.004631719509295786   -0.0684450895480217   -0.0017021109390700513
-0.0036932258058193406   -0.06606697262110069   -0.001643397061998453
-0.0017612412870899959   -0.06584006105384639   -0.0014706706282025881
-0.0020366131064896605   -0.06597900098270408   -0.001274056497507691
-0.004631719509295786   -0.0684450895480217   -0.0017021109390700513
-0.0036932258058193406   -0.06606697262110069   -0.001643397061998453
-0.0020366131064896605   -0.06597900098270408   -0.001274056497507691
-0.00527619378613269   -0.06882955195223796   -0.0017408251928368273
-0.004631719509295786   -0.0684450895480217   -0.0017021109390700513
-0.0017612412870899959   -0.06584006105384639   -0.0014706706282025881
-0.005140946988627352   -0.06873677831960977   -0.0018379661054268306
-0.004344313694164846   -0.06840852772024193   -0.0019202273949612924
-0.0017612412870899959   -0.06584006105384639   -0.0014706706282025881
-0.0036932258058193406   -0.06606697262110069   -0.001643397061998453
-0.005140946988627352   -0.06873677831960977   -0.0018379661054268306
-0.003585044167222795   -0.06600485802351433   -0.0017222284965457408
-0.004344313694164846   -0.06840852772024193   -0.0019202273949612924
-0.004982288969423619   -0.06870262998257957   -0.0019276032097972626
-0.003585044167222795   -0.06600485802351433   -0.0017222284965457408
-0.005140946988627352   -0.06873677831960977   -0.0018379661054268306
-0.004344313694164846   -0.06840852772024193   -0.0019202273949612924
-0.003585044167222795   -0.06600485802351433   -0.0017222284965457408
-0.0015445540666771498   -0.065773989452965   -0.0016557263688541366
-0.0017612412870899959   -0.06584006105384639   -0.0014706706282025881
-0.004344313694164846   -0.06840852772024193   -0.0019202273949612924
-0.003585044167222795   -0.06600485802351433   -0.0017222284965457408
-0.0017612412870899959   -0.06584006105384639   -0.0014706706282025881
-0.005140946988627352   -0.06873677831960977   -0.0018379661054268306
-0.004344313694164846   -0.06840852772024193   -0.0019202273949612924
-0.0015445540666771498   -0.065773989452965   -0.0016557263688541366
-0.004982288969423619   -0.06870262998257957   -0.0019276032097972626
-0.00401909162848609   -0.06843968100490941   -0.0021280668624727847
-0.0015445540666771498   -0.065773989452965   -0.0016557263688541366
-0.003585044167222795   -0.06600485802351433   -0.0017222284965457408
-0.004982288969423619   -0.06870262998257957   -0.0019276032097972626
-0.0035021076087854404   -0.06599115775446653   -0.0017935115353626752
-0.00401909162848609   -0.06843968100490941   -0.0021280668624727847
-0.004846388788532534   -0.06872760504852046   -0.002009269174445812
-0.0035021076087854404   -0.06599115775446653   -0.0017935115353626752
-0.004982288969423619   -0.06870262998257957   -0.0019276032097972626
-0.00401909162848609   -0.06843968100490941   -0.0021280668624727847
-0.0035021076087854404   -0.06599115775446653   -0.0017935115353626752
-0.0013078606558311733   -0.06576178466771034   -0.0018287360407274159
-0.0015445540666771498   -0.065773989452965   -0.0016557263688541366
-0.00401909162848609   -0.06843968100490941   -0.0021280668624727847
-0.0035021076087854404   -0.06599115775446653   -0.0017935115353626752
-0.0015445540666771498   -0.065773989452965   -0.0016557263688541366
-0.004982288969423619   -0.06870262998257957   -0.0019276032097972626
-0.00527619378613269   -0.06882955195223796   -0.0017408251928368273
-0.003789298931054532   -0.06617923790371502   -0.001556767365945327
-0.005682273548332699   -0.06899343278681982   -0.0019535956655754106
-0.005140946988627352   -0.06873677831960977   -0.0018379661054268306
-0.003789298931054532   -0.06617923790371502   -0.001556767365945327
-0.005519821151543074   -0.06624984586002133   -0.0017873279211480834
-0.005682273548332699   -0.06899343278681982   -0.0019535956655754106
-0.005439057303419999   -0.06615190676711208   -0.0017920786020410252
-0.005140946988627352   -0.06873677831960977   -0.0018379661054268306
-0.00556258851577565   -0.06891058457188465   -0.0019561177140269763
-0.005439057303419999   -0.06615190676711208   -0.0017920786020410252
-0.005682273548332699   -0.06899343278681982   -0.0019535956655754106
-0.005140946988627352   -0.06873677831960977   -0.0018379661054268306
-0.005439057303419999   -0.06615190676711208   -0.0017920786020410252
-0.0036932258058193406   -0.06606697262110069   -0.001643397061998453
-0.003789298931054532   -0.06617923790371502   -0.001556767365945327
-0.005140946988627352   -0.06873677831960977   -0.0018379661054268306
-0.005439057303419999   -0.06615190676711208   -0.0017920786020410252
-0.003789298931054532   -0.06617923790371502   -0.001556767365945327
-0.005682273548332699   -0.06899343278681982   -0.0019535956655754106
-0.005140946988627352   -0.06873677831960977   -0.0018379661054268306
-0.0036932258058193406   -0.06606697262110069   -0.001643397061998453
-0.00556258851577565   -0.06891058457188465   -0.0019561177140269763
-0.004982288969423619   -0.06870262998257957   -0.0019276032097972626
-0.0036932258058193406   -0.06606697262110069   -0.001643397061998453
-0.005439057303419999   -0.06615190676711208   -0.0017920786020410252
-0.00556258851577565   -0.06891058457188465   -0.0019561177140269763
-0.005355522695432639   -0.06609917530734405   -0.0017896068725104714
-0.004982288969423619   -0.06870262998257957   -0.0019276032097972626
-0.005429376925438621   -0.06888083298644981   -0.0019489114538259265
-0.005355522695432639   -0.06609917530734405   -0.0017896068725104714
-0.00556258851577565   -0.06891058457188465   -0.0019561177140269763
-0.004982288969423619   -0.06870262998257957   -0.0019276032097972626
-0.005355522695432639   -0.06609917530734405   -0.0017896068725104714
-0.003585044167222795   -0.06600485802351433   -0.0017222284965457408
-0.0036932258058193406   -0.06606697262110069   -0.001643397061998453
-0.004982288969423619   -0.06870262998257957   -0.0019276032097972626
-0.005355522695432639   -0.06609917530734405   -0.0017896068725104714
-0.0036932258058193406   -0.06606697262110069   -0.001643397061998453
-0.00556258851577565   -0.06891058457188465   -0.0019561177140269763
-0.004982288969423619   -0.06870262998257957   -0.0019276032097972626
-0.003585044167222795   -0.06600485802351433   -0.0017222284965457408
-0.005429376925438621   -0.06888083298644981   -0.0019489114538259265
-0.004846388788532534   -0.06872760504852046   -0.002009269174445812
-0.003585044167222795   -0.06600485802351433   -0.0017222284965457408
-0.005355522695432639   -0.06609917530734405   -0.0017896068725104714
-0.005429376925438621   -0.06888083298644981   -0.0019489114538259265
-0.005274965077502944   -0.06608947866411796   -0.0017798464478075086
-0.004846388788532534   -0.06872760504852046   -0.002009269174445812
-0.005293942606888807   -0.06890175999300263   -0.001934071140154278
-0.005274965077502944   -0.06608947866411796   -0.0017798464478075086
-0.005429376925438621   -0.06888083298644981   -0.0019489114538259265
-0.004846388788532534   -0.06872760504852046   -0.002009269174445812
-0.005274965077502944   -0.06608947866411796   -0.0017798464478075086
-0.0035021076087854404   -0.06599115775446653   -0.0017935115353626752
-0.003585044167222795   -0.06600485802351433   -0.0017222284965457408
-0.004846388788532534   -0.06872760504852046   -0.002009269174445812
-0.005274965077502944   -0.06608947866411796   -0.0017798464478075086
-0.003585044167222795   -0.06600485802351433   -0.0017222284965457408
-0.005429376925438621   -0.06888083298644981   -0.0019489114538259265
-0.005682273548332699   -0.06899343278681982   -0.0019535956655754106
-0.005519821151543074   -0.06624984586002133   -0.0017873279211480834
-0.006117734652566354   -0.0690620717650201   -0.002163035817878957
-0.00556258851577565   -0.06891058457188465   -0.0019561177140269763
-0.005519821151543074   -0.06624984586002133   -0.0017873279211480834
-0.007238431900608746   -0.06618699603037366   -0.002003118826445315
-0.006117734652566354   -0.0690620717650201   -0.002163035817878957
-0.0071583062490503824   -0.06610000589706723   -0.0019293556245387803
-0.00556258851577565   -0.06891058457188465   -0.0019561177140269763
-0.005993753093642831   -0.06898305490519924   -0.0020745736978526074
-0.0071583062490503824   -0.06610000589706723   -0.0019293556245387803
-0.006117734652566354   -0.0690620717650201   -0.002163035817878957
-0.00556258851577565   -0.06891058457188465   -0.0019561177140269763
-0.0071583062490503824   -0.06610000589706723   -0.0019293556245387803
-0.005439057303419999   -0.06615190676711208   -0.0017920786020410252
-0.005519821151543074   -0.06624984586002133   -0.0017873279211480834
-0.00556258851577565   -0.06891058457188465   -0.0019561177140269763
-0.0071583062490503824   -0.06610000589706723   -0.0019293556245387803
-0.005519821151543074   -0.06624984586002133   -0.0017873279211480834
-0.006117734652566354   -0.0690620717650201   -0.002163035817878957
-0.00556258851577565   -0.06891058457188465   -0.0019561177140269763
-0.005439057303419999   -0.06615190676711208   -0.0017920786020410252
-0.005993753093642831   -0.06898305490519924   -0.0020745736978526074
-0.005429376925438621   -0.06888083298644981   -0.0019489114538259265
-0.005439057303419999   -0.06615190676711208   -0.0017920786020410252
-0.0071583062490503824   -0.06610000589706723   -0.0019293556245387803
-0.005993753093642831   -0.06898305490519924   -0.0020745736978526074
-0.007068387643590933   -0.06605746653451379   -0.0018484776067475607
-0.005429376925438621   -0.06888083298644981   -0.0019489114538259265
-0.005845055803923366   -0.06895800054185543   -0.001974262917242458
-0.007068387643590933   -0.06605746653451379   -0.0018484776067475607
-0.005993753093642831   -0.06898305490519924   -0.0020745736978526074
-0.005429376925438621   -0.06888083298644981   -0.0019489114538259265
-0.007068387643590933   -0.06605746653451379   -0.0018484776067475607
-0.005355522695432639   -0.06609917530734405   -0.0017896068725104714
-0.005439057303419999   -0.06615190676711208   -0.0017920786020410252
-0.005429376925438621   -0.06888083298644981   -0.0019489114538259265
-0.007068387643590933   -0.06605746653451379   -0.0018484776067475607
-0.005439057303419999   -0.06615190676711208   -0.0017920786020410252
-0.005993753093642831   -0.06898305490519924   -0.0020745736978526074
-0.005429376925438621   -0.06888083298644981   -0.0019489114538259265
-0.005355522695432639   -0.06609917530734405   -0.0017896068725104714
-0.005845055803923366   -0.06895800054185543   -0.001974262917242458
-0.005293942606888807   -0.06890175999300263   -0.001934071140154278
-0.005355522695432639   -0.06609917530734405   -0.0017896068725104714
-0.007068387643590933   -0.06605746653451379   -0.0018484776067475607
-0.005845055803923366   -0.06895800054185543   -0.001974262917242458
-0.006978103195494358   -0.06605510720629179   -0.001759618050613363
-0.005293942606888807   -0.06890175999300263   -0.001934071140154278
-0.005692147333101222   -0.06897844854526596   -0.0018674287488914779
-0.006978103195494358   -0.06605510720629179   -0.001759618050613363
-0.005845055803923366   -0.06895800054185543   -0.001974262917242458
-0.005293942606888807   -0.06890175999300263   -0.001934071140154278
-0.006978103195494358   -0.06605510720629179   -0.001759618050613363
-0.005274965077502944   -0.06608947866411796   -0.0017798464478075086
-0.005355522695432639   -0.06609917530734405   -0.0017896068725104714
-0.005293942606888807   -0.06890175999300263   -0.001934071140154278
-0.006978103195494358   -0.06605510720629179   -0.001759618050613363
-0.005355522695432639   -0.06609917530734405   -0.0017896068725104714
-0.005845055803923366   -0.06895800054185543   -0.001974262917242458
-0.006117734652566354   -0.0690620717650201   -0.002163035817878957
-0.007238431900608746   -0.06618699603037366   -0.002003118826445315
-0.0067484904187202575   -0.06898747837862006   -0.002362088723860625
-0.005993753093642831   -0.06898305490519924   -0.0020745736978526074
-0.007238431900608746   -0.06618699603037366   -0.002003118826445315
-0.009126447224242527   -0.0659823789400799   -0.002201355792281792
-0.0067484904187202575   -0.06898747837862006   -0.002362088723860625
-0.00902834464627036   -0.06590635637073293   -0.0020508205890123776
-0.005993753093642831   -0.06898305490519924   -0.0020745736978526074
-0.00658655096234638   -0.068912844189366   -0.0021869874437467096
-0.00902834464627036   -0.06590635637073293   -0.0020508205890123776
-0.0067484904187202575   -0.06898747837862006   -0.002362088723860625
-0.005993753093642831   -0.06898305490519924   -0.0020745736978526074
-0.00902834464627036   -0.06590635637073293   -0.0020508205890123776
-0.0071583062490503824   -0.06610000589706723   -0.0019293556245387803
-0.007238431900608746   -0.06618699603037366   -0.002003118826445315
-0.005993753093642831   -0.06898305490519924   -0.0020745736978526074
-0.00902834464627036   -0.06590635637073293   -0.0020508205890123776
-0.007238431900608746   -0.06618699603037366   -0.002003118826445315
-0.0067484904187202575   -0.06898747837862006   -0.002362088723860625
-0.005993753093642831   -0.06898305490519924   -0.0020745736978526074
-0.0071583062490503824   -0.06610000589706723   -0.0019293556245387803
-0.00658655096234638   -0.068912844189366   -0.0021869874437467096
-0.005845055803923366   -0.06895800054185543   -0.001974262917242458
-0.0071583062490503824   -0.06610000589706723   -0.0019293556245387803
-0.00902834464627036   -0.06590635637073293   -0.0020508205890123776
-0.00658655096234638   -0.068912844189366   -0.0021869874437467096
-0.008892880799638472   -0.0658739685365379   -0.0018936945955785394
-0.005845055803923366   -0.06895800054185543   -0.001974262917242458
-0.006372842262451322   -0.06889591782675504   -0.001998686516820494
-0.008892880799638472   -0.0658739685365379   -0.0018936945955785394
-0.00658655096234638   -0.068912844189366   -0.0021869874437467096
-0.005845055803923366   -0.06895800054185543   -0.001974262917242458
-0.008892880799638472   -0.0658739685365379   -0.0018936945955785394
-0.007068387643590933   -0.06605746653451379   -0.0018484776067475607
-0.0071583062490503824   -0.06610000589706723   -0.0019293556245387803
-0.005845055803923366   -0.06895800054185543   -0.001974262917242458
-0.008892880799638472   -0.0658739685365379   -0.0018936945955785394
-0.0071583062490503824   -0.06610000589706723   -0.0019293556245387803
-0.00658655096234638   -0.068912844189366   -0.0021869874437467096
-0.005845055803923366   -0.06895800054185543   -0.001974262917242458
-0.007068387643590933   -0.06605746653451379   -0.0018484776067475607
-0.006372842262451322   -0.06889591782675504   -0.001998686516820494
-0.005692147333101222   -0.06897844854526596   -0.0018674287488914779
-0.007068387643590933   -0.06605746653451379   -0.0018484776067475607
-0.008892880799638472   -0.0658739685365379   -0.0018936945955785394
-0.006372842262451322   -0.06889591782675504   -0.001998686516820494
-0.008774675372228724   -0.0658852653393351   -0.0017256045150563831
-0.005692147333101222   -0.06897844854526596   -0.0018674287488914779
-0.006171861258121517   -0.06892557491811852   -0.0018031270886990202
-0.008774675372228724   -0.0658852653393351   -0.0017256045150563831
-0.006372842262451322   -0.06889591782675504   -0.001998686516820494
-0.005692147333101222   -0.06897844854526596   -0.0018674287488914779
-0.008774675372228724   -0.0658852653393351   -0.0017256045150563831
-0.006978103195494358   -0.06605510720629179   -0.001759618050613363
-0.007068387643590933   -0.06605746653451379   -0.0018484776067475607
-0.005692147333101222   -0.06897844854526596   -0.0018674287488914779
-0.008774675372228724   -0.0658852653393351   -0.0017256045150563831
-0.007068387643590933   -0.06605746653451379   -0.0018484776067475607
-0.006372842262451322   -0.06889591782675504   -0.001998686516820494
-0.0067484904187202575   -0.06898747837862006   -0.002362088723860625
-0.009126447224242527   -0.0659823789400799   -0.002201355792281792
-0.007975442156832538   -0.06864994711786657   -0.002573275225331779
-0.00658655096234638   -0.068912844189366   -0.0021869874437467096
-0.009126447224242527   -0.0659823789400799   -0.002201355792281792
-0.011557727670109782   -0.0656496048362754   -0.002391691978515991
-0.007975442156832538   -0.06864994711786657   -0.002573275225331779
-0.01124151399754776   -0.06556715720363201   -0.002154015561726352
-0.00658655096234638   -0.068912844189366   -0.0021869874437467096
-0.007544613165073149   -0.06858698309711105   -0.002286005457590464
-0.01124151399754776   -0.06556715720363201   -0.002154015561726352
-0.007975442156832538   -0.06864994711786657   -0.002573275225331779
-0.00658655096234638   -0.068912844189366   -0.0021869874437467096
-0.01124151399754776   -0.06556715720363201   -0.002154015561726352
-0.00902834464627036   -0.06590635637073293   -0.0020508205890123776
-0.009126447224242527   -0.0659823789400799   -0.002201355792281792
-0.00658655096234638   -0.068912844189366   -0.0021869874437467096
-0.01124151399754776   -0.06556715720363201   -0.002154015561726352
-0.009126447224242527   -0.0659823789400799   -0.002201355792281792
-0.007975442156832538   -0.06864994711786657   -0.002573275225331779
-0.00658655096234638   -0.068912844189366   -0.0021869874437467096
-0.00902834464627036   -0.06590635637073293   -0.0020508205890123776
-0.007544613165073149   -0.06858698309711105   -0.002286005457590464
-0.006372842262451322   -0.06889591782675504   -0.001998686516820494
-0.00902834464627036   -0.06590635637073293   -0.0020508205890123776
-0.01124151399754776   -0.06556715720363201   -0.002154015561726352
-0.007544613165073149   -0.06858698309711105   -0.002286005457590464
-0.010958126706237805   -0.06553719946926331   -0.0019025137745647157
-0.006372842262451322   -0.06889591782675504   -0.001998686516820494
-0.00714882984018329   -0.06857838020451615   -0.0019794066684475035
-0.010958126706237805   -0.06553719946926331   -0.0019025137745647157
-0.007544613165073149   -0.06858698309711105   -0.002286005457590464
-0.006372842262451322   -0.06889591782675504   -0.001998686516820494
-0.010958126706237805   -0.06553719946926331   -0.0019025137745647157
-0.008892880799638472   -0.0658739685365379   -0.0018936945955785394
-0.00902834464627036   -0.06590635637073293   -0.0020508205890123776
-0.006372842262451322   -0.06889591782675504   -0.001998686516820494
-0.010958126706237805   -0.06553719946926331   -0.0019025137745647157
-0.00902834464627036   -0.06590635637073293   -0.0020508205890123776
-0.007544613165073149   -0.06858698309711105   -0.002286005457590464
-0.006372842262451322   -0.06889591782675504   -0.001998686516820494
-0.008892880799638472   -0.0658739685365379   -0.0018936945955785394
-0.00714882984018329   -0.06857838020451615   -0.0019794066684475035
-0.006171861258121517   -0.06892557491811852   -0.0018031270886990202
-0.008892880799638472   -0.0658739685365379   -0.0018936945955785394
-0.010958126706237805   -0.06553719946926331   -0.0019025137745647157
-0.00714882984018329   -0.06857838020451615   -0.0019794066684475035
-0.010590849421990225   -0.06557520511580817   -0.0016395743295355418
-0.006171861258121517   -0.06892557491811852   -0.0018031270886990202
-0.006648986387336645   -0.06866099796614734   -0.0016587759816536853
-0.010590849421990225   -0.06557520511580817   -0.0016395743295355418
-0.00714882984018329   -0.06857838020451615   -0.0019794066684475035
-0.006171861258121517   -0.06892557491811852   -0.0018031270886990202
-0.010590849421990225   -0.06557520511580817   -0.0016395743295355418
-0.008774675372228724   -0.0658852653393351   -0.0017256045150563831
-0.008892880799638472   -0.0658739685365379   -0.0018936945955785394
-0.006171861258121517   -0.06892557491811852   -0.0018031270886990202
-0.010590849421990225   -0.06557520511580817   -0.0016395743295355418
-0.008892880799638472   -0.0658739685365379   -0.0018936945955785394
-0.00714882984018329   -0.06857838020451615   -0.0019794066684475035
-0.0020366131064896605   -0.06597900098270408   -0.001274056497507691
0.0003493304609105622   -0.06121773731155571   -0.0010537638600264035
-0.003789298931054532   -0.06617923790371502   -0.001556767365945327
-0.0017612412870899959   -0.06584006105384639   -0.0014706706282025881
0.0003493304609105622   -0.06121773731155571   -0.0010537638600264035
-0.0026082214427868293   -0.06136464223337128   -0.0013313358137495958
-0.003789298931054532   -0.06617923790371502   -0.001556767365945327
-0.002557276619850345   -0.0612469840935454   -0.0014000846501306611
-0.0017612412870899959   -0.06584006105384639   -0.0014706706282025881
-0.0036932258058193406   -0.06606697262110069   -0.001643397061998453
-0.002557276619850345   -0.0612469840935454   -0.0014000846501306611
-0.003789298931054532   -0.06617923790371502   -0.001556767365945327
-0.0017612412870899959   -0.06584006105384639   -0.0014706706282025881
-0.002557276619850345   -0.0612469840935454   -0.0014000846501306611
0.0005417151564740906   -0.061076563228243   -0.0012103800215083232
0.0003493304609105622   -0.06121773731155571   -0.0010537638600264035
-0.0017612412870899959   -0.06584006105384639   -0.0014706706282025881
-0.002557276619850345   -0.0612469840935454   -0.0014000846501306611
0.0003493304609105622   -0.06121773731155571   -0.0010537638600264035
-0.003789298931054532   -0.06617923790371502   -0.001556767365945327
-0.0017612412870899959   -0.06584006105384639   -0.0014706706282025881
0.0005417151564740906   -0.061076563228243   -0.0012103800215083232
-0.0036932258058193406   -0.06606697262110069   -0.001643397061998453
-0.0015445540666771498   -0.065773989452965   -0.0016557263688541366
0.0005417151564740906   -0.061076563228243   -0.0012103800215083232
-0.002557276619850345   -0.0612469840935454   -0.0014000846501306611
-0.0036932258058193406   -0.06606697262110069   -0.001643397061998453
-0.002499246346187724   -0.06117023541424452   -0.0014608376977829256
-0.0015445540666771498   -0.065773989452965   -0.0016557263688541366
-0.003585044167222795   -0.06600485802351433   -0.0017222284965457408
-0.002499246346187724   -0.06117023541424452   -0.0014608376977829256
-0.0036932258058193406   -0.06606697262110069   -0.001643397061998453
-0.0015445540666771498   -0.065773989452965   -0.0016557263688541366
-0.002499246346187724   -0.06117023541424452   -0.0014608376977829256
0.0006832440493707878   -0.060995095424371655   -0.0013558046282941241
0.0005417151564740906   -0.061076563228243   -0.0012103800215083232
-0.0015445540666771498   -0.065773989452965   -0.0016557263688541366
-0.002499246346187724   -0.06117023541424452   -0.0014608376977829256
0.0005417151564740906   -0.061076563228243   -0.0012103800215083232
-0.0036932258058193406   -0.06606697262110069   -0.001643397061998453
-0.0015445540666771498   -0.065773989452965   -0.0016557263688541366
0.0006832440493707878   -0.060995095424371655   -0.0013558046282941241
-0.003585044167222795   -0.06600485802351433   -0.0017222284965457408
-0.0013078606558311733   -0.06576178466771034   -0.0018287360407274159
0.0006832440493707878   -0.060995095424371655   -0.0013558046282941241
-0.002499246346187724   -0.06117023541424452   -0.0014608376977829256
-0.003585044167222795   -0.06600485802351433   -0.0017222284965457408
-0.002464550240914645   -0.061132121754818594   -0.0015143845306529377
-0.0013078606558311733   -0.06576178466771034   -0.0018287360407274159
-0.0035021076087854404   -0.06599115775446653   -0.0017935115353626752
-0.002464550240914645   -0.061132121754818594   -0.0015143845306529377
-0.003585044167222795   -0.06600485802351433   -0.0017222284965457408
-0.0013078606558311733   -0.06576178466771034   -0.0018287360407274159
-0.002464550240914645   -0.061132121754818594   -0.0015143845306529377
0.0008348041517229803   -0.0609551003374021   -0.001489983760265835
0.0006832440493707878   -0.060995095424371655   -0.0013558046282941241
-0.0013078606558311733   -0.06576178466771034   -0.0018287360407274159
-0.002464550240914645   -0.061132121754818594   -0.0015143845306529377
0.0006832440493707878   -0.060995095424371655   -0.0013558046282941241
-0.003585044167222795   -0.06600485802351433   -0.0017222284965457408
-0.003789298931054532   -0.06617923790371502   -0.001556767365945327
-0.0026082214427868293   -0.06136464223337128   -0.0013313358137495958
-0.005519821151543074   -0.06624984586002133   -0.0017873279211480834
-0.0036932258058193406   -0.06606697262110069   -0.001643397061998453
-0.0026082214427868293   -0.06136464223337128   -0.0013313358137495958
-0.0054697018409844145   -0.06139275089566009   -0.00155999731166231
-0.005519821151543074   -0.06624984586002133   -0.0017873279211480834
-0.005432265356047673   -0.061291761086101605   -0.0015617513566270164
-0.0036932258058193406   -0.06606697262110069   -0.001643397061998453
-0.005439057303419999   -0.06615190676711208   -0.0017920786020410252
-0.005432265356047673   -0.061291761086101605   -0.0015617513566270164
-0.005519821151543074   -0.06624984586002133   -0.0017873279211480834
-0.0036932258058193406   -0.06606697262110069   -0.001643397061998453
-0.005432265356047673   -0.061291761086101605   -0.0015617513566270164
-0.002557276619850345   -0.0612469840935454   -0.0014000846501306611
-0.0026082214427868293   -0.06136464223337128   -0.0013313358137495958
-0.0036932258058193406   -0.06606697262110069   -0.001643397061998453
-0.005432265356047673   -0.061291761086101605   -0.0015617513566270164
-0.0026082214427868293   -0.06136464223337128   -0.0013313358137495958
-0.005519821151543074   -0.06624984586002133   -0.0017873279211480834
-0.0036932258058193406   -0.06606697262110069   -0.001643397061998453
-0.002557276619850345   -0.0612469840935454   -0.0014000846501306611
-0.005439057303419999   -0.06615190676711208   -0.0017920786020410252
-0.003585044167222795   -0.06600485802351433   -0.0017222284965457408
-0.002557276619850345   -0.0612469840935454   -0.0014000846501306611
-0.005432265356047673   -0.061291761086101605   -0.0015617513566270164
-0.005439057303419999   -0.06615190676711208   -0.0017920786020410252
-0.00539376719297256   -0.061227386092056406   -0.0015558440989866887
-0.003585044167222795   -0.06600485802351433   -0.0017222284965457408
-0.005355522695432639   -0.06609917530734405   -0.0017896068725104714
-0.00539376719297256   -0.061227386092056406   -0.0015558440989866887
-0.005439057303419999   -0.06615190676711208   -0.0017920786020410252
-0.003585044167222795   -0.06600485802351433   -0.0017222284965457408
-0.00539376719297256   -0.061227386092056406   -0.0015558440989866887
-0.002499246346187724   -0.06117023541424452   -0.0014608376977829256
-0.002557276619850345   -0.0612469840935454   -0.0014000846501306611
-0.003585044167222795   -0.06600485802351433   -0.0017222284965457408
-0.00539376719297256   -0.061227386092056406   -0.0015558440989866887
-0.002557276619850345   -0.0612469840935454   -0.0014000846501306611
-0.005439057303419999   -0.06615190676711208   -0.0017920786020410252
-0.003585044167222795   -0.06600485802351433   -0.0017222284965457408
-0.002499246346187724   -0.06117023541424452   -0.0014608376977829256
-0.005355522695432639   -0.06609917530734405   -0.0017896068725104714
-0.0035021076087854404   -0.06599115775446653   -0.0017935115353626752
-0.002499246346187724   -0.06117023541424452   -0.0014608376977829256
-0.00539376719297256   -0.061227386092056406   -0.0015558440989866887
-0.005355522695432639   -0.06609917530734405   -0.0017896068725104714
-0.005360095823226613   -0.0611990233977614   -0.001542786526661094
-0.0035021076087854404   -0.06599115775446653   -0.0017935115353626752
-0.005274965077502944   -0.06608947866411796   -0.0017798464478075086
-0.005360095823226613   -0.0611990233977614   -0.001542786526661094
-0.005355522695432639   -0.06609917530734405   -0.0017896068725104714
-0.0035021076087854404   -0.06599115775446653   -0.0017935115353626752
-0.005360095823226613   -0.0611990233977614   -0.001542786526661094
-0.002464550240914645   -0.061132121754818594   -0.0015143845306529377
-0.002499246346187724   -0.06117023541424452   -0.0014608376977829256
-0.0035021076087854404   -0.06599115775446653   -0.0017935115353626752
-0.005360095823226613   -0.0611990233977614   -0.001542786526661094
-0.002499246346187724   -0.06117023541424452   -0.0014608376977829256
-0.005355522695432639   -0.06609917530734405   -0.0017896068725104714
-0.005519821151543074   -0.06624984586002133   -0.0017873279211480834
-0.0054697018409844145   -0.06139275089566009   -0.00155999731166231
-0.007238431900608746   -0.06618699603037366   -0.002003118826445315
-0.005439057303419999   -0.06615190676711208   -0.0017920786020410252
-0.0054697018409844145   -0.06139275089566009   -0.00155999731166231
-0.008286275785982988   -0.061301590401872025   -0.0017663979689385568
-0.007238431900608746   -0.06618699603037366   -0.002003118826445315
-0.00825142375540467   -0.061214461038852884   -0.0017027719579903598
-0.005439057303419999   -0.06615190676711208   -0.0017920786020410252
-0.0071583062490503824   -0.06610000589706723   -0.0019293556245387803
-0.00825142375540467   -0.061214461038852884   -0.0017027719579903598
-0.007238431900608746   -0.06618699603037366   -0.002003118826445315
-0.005439057303419999   -0.06615190676711208   -0.0017920786020410252
-0.00825142375540467   -0.061214461038852884   -0.0017027719579903598
-0.005432265356047673   -0.061291761086101605   -0.0015617513566270164
-0.0054697018409844145   -0.06139275089566009   -0.00155999731166231
-0.005439057303419999   -0.06615190676711208   -0.0017920786020410252
-0.00825142375540467   -0.061214461038852884   -0.0017027719579903598
-0.0054697018409844145   -0.06139275089566009   -0.00155999731166231
-0.007238431900608746   -0.06618699603037366   -0.002003118826445315
-0.005439057303419999   -0.06615190676711208   -0.0017920786020410252
-0.005432265356047673   -0.061291761086101605   -0.0015617513566270164
-0.0071583062490503824   -0.06610000589706723   -0.0019293556245387803
-0.005355522695432639   -0.06609917530734405   -0.0017896068725104714
-0.005432265356047673   -0.061291761086101605   -0.0015617513566270164
-0.00825142375540467   -0.061214461038852884   -0.0017027719579903598
-0.0071583062490503824   -0.06610000589706723   -0.0019293556245387803
-0.00820930854607074   -0.06116354408891145   -0.0016316513512064173
-0.005355522695432639   -0.06609917530734405   -0.0017896068725104714
-0.007068387643590933   -0.06605746653451379   -0.0018484776067475607
-0.00820930854607074   -0.06116354408891145   -0.0016316513512064173
-0.0071583062490503824   -0.06610000589706723   -0.0019293556245387803
-0.005355522695432639   -0.06609917530734405   -0.0017896068725104714
-0.00820930854607074   -0.06116354408891145   -0.0016316513512064173
-0.00539376719297256   -0.061227386092056406   -0.0015558440989866887
-0.005432265356047673   -0.061291761086101605   -0.0015617513566270164
-0.005355522695432639   -0.06609917530734405   -0.0017896068725104714
-0.00820930854607074   -0.06116354408891145   -0.0016316513512064173
-0.005432265356047673   -0.061291761086101605   -0.0015617513566270164
-0.0071583062490503824   -0.06610000589706723   -0.0019293556245387803
-0.005355522695432639   -0.06609917530734405   -0.0017896068725104714
-0.00539376719297256   -0.061227386092056406   -0.0015558440989866887
-0.007068387643590933   -0.06605746653451379   -0.0018484776067475607
-0.005274965077502944   -0.06608947866411796   -0.0017798464478075086
-0.00539376719297256   -0.061227386092056406   -0.0015558440989866887
-0.00820930854607074   -0.06116354408891145   -0.0016316513512064173
-0.007068387643590933   -0.06605746653451379   -0.0018484776067475607
-0.008168350693612767   -0.06114716005218638   -0.001553266825526872
-0.005274965077502944   -0.06608947866411796   -0.0017798464478075086
-0.006978103195494358   -0.06605510720629179   -0.001759618050613363
-0.008168350693612767   -0.06114716005218638   -0.001553266825526872
-0.007068387643590933   -0.06605746653451379   -0.0018484776067475607
-0.005274965077502944   -0.06608947866411796   -0.0017798464478075086
-0.008168350693612767   -0.06114716005218638   -0.001553266825526872
-0.005360095823226613   -0.0611990233977614   -0.001542786526661094
-0.00539376719297256   -0.061227386092056406   -0.0015558440989866887
-0.005274965077502944   -0.06608947866411796   -0.0017798464478075086
-0.008168350693612767   -0.06114716005218638   -0.001553266825526872
-0.00539376719297256   -0.061227386092056406   -0.0015558440989866887
-0.007068387643590933   -0.06605746653451379   -0.0018484776067475607
-0.007238431900608746   -0.06618699603037366   -0.002003118826445315
-0.008286275785982988   -0.061301590401872025   -0.0017663979689385568
-0.009126447224242527   -0.0659823789400799   -0.002201355792281792
-0.0071583062490503824   -0.06610000589706723   -0.0019293556245387803
-0.008286275785982988   -0.061301590401872025   -0.0017663979689385568
-0.011237837775879733   -0.06109438120868287   -0.0019497584249073435
-0.009126447224242527   -0.0659823789400799   -0.002201355792281792
-0.011192292715832997   -0.061020479118287126   -0.0018206671270719304
-0.0071583062490503824   -0.06610000589706723   -0.0019293556245387803
-0.00902834464627036   -0.06590635637073293   -0.0020508205890123776
-0.011192292715832997   -0.061020479118287126   -0.0018206671270719304
-0.009126447224242527   -0.0659823789400799   -0.002201355792281792
-0.0071583062490503824   -0.06610000589706723   -0.0019293556245387803
-0.011192292715832997   -0.061020479118287126   -0.0018206671270719304
-0.00825142375540467   -0.061214461038852884   -0.0017027719579903598
-0.008286275785982988   -0.061301590401872025   -0.0017663979689385568
-0.0071583062490503824   -0.06610000589706723   -0.0019293556245387803
-0.011192292715832997   -0.061020479118287126   -0.0018206671270719304
-0.008286275785982988   -0.061301590401872025   -0.0017663979689385568
-0.009126447224242527   -0.0659823789400799   -0.002201355792281792
-0.0071583062490503824   -0.06610000589706723   -0.0019293556245387803
-0.00825142375540467   -0.061214461038852884   -0.0017027719579903598
-0.00902834464627036   -0.06590635637073293   -0.0020508205890123776
-0.007068387643590933   -0.06605746653451379   -0.0018484776067475607
-0.00825142375540467   -0.061214461038852884   -0.0017027719579903598
-0.011192292715832997   -0.061020479118287126   -0.0018206671270719304
-0.00902834464627036   -0.06590635637073293   -0.0020508205890123776
-0.011115071165671996   -0.060981763455737414   -0.0016852337354884073
-0.007068387643590933   -0.06605746653451379   -0.0018484776067475607
-0.008892880799638472   -0.0658739685365379   -0.0018936945955785394
-0.011115071165671996   -0.060981763455737414   -0.0016852337354884073
-0.00902834464627036   -0.06590635637073293   -0.0020508205890123776
-0.007068387643590933   -0.06605746653451379   -0.0018484776067475607
-0.011115071165671996   -0.060981763455737414   -0.0016852337354884073
-0.00820930854607074   -0.06116354408891145   -0.0016316513512064173
-0.00825142375540467   -0.061214461038852884   -0.0017027719579903598
-0.007068387643590933   -0.06605746653451379   -0.0018484776067475607
-0.011115071165671996   -0.060981763455737414   -0.0016852337354884073
-0.00825142375540467   -0.061214461038852884   -0.0017027719579903598
-0.00902834464627036   -0.06590635637073293   -0.0020508205890123776
-0.007068387643590933   -0.06605746653451379   -0.0018484776067475607
-0.00820930854607074   -0.06116354408891145   -0.0016316513512064173
-0.008892880799638472   -0.0658739685365379   -0.0018936945955785394
-0.006978103195494358   -0.06605510720629179   -0.001759618050613363
-0.00820930854607074   -0.06116354408891145   -0.0016316513512064173
-0.011115071165671996   -0.060981763455737414   -0.0016852337354884073
-0.008892880799638472   -0.0658739685365379   -0.0018936945955785394
-0.011052368377009974   -0.06098028658774757   -0.0015414790129997294
-0.006978103195494358   -0.06605510720629179   -0.001759618050613363
-0.008774675372228724   -0.0658852653393351   -0.0017256045150563831
-0.011052368377009974   -0.06098028658774757   -0.0015414790129997294
-0.008892880799638472   -0.0658739685365379   -0.0018936945955785394
-0.006978103195494358   -0.06605510720629179   -0.001759618050613363
-0.011052368377009974   -0.06098028658774757   -0.0015414790129997294
-0.008168350693612767   -0.06114716005218638   -0.001553266825526872
-0.00820930854607074   -0.06116354408891145   -0.0016316513512064173
-0.006978103195494358   -0.06605510720629179   -0.001759618050613363
-0.011052368377009974   -0.06098028658774757   -0.0015414790129997294
-0.00820930854607074   -0.06116354408891145   -0.0016316513512064173
-0.008892880799638472   -0.0658739685365379   -0.0018936945955785394
-0.009126447224242527   -0.0659823789400799   -0.002201355792281792
-0.011237837775879733   -0.06109438120868287   -0.0019497584249073435
-0.011557727670109782   -0.0656496048362754   -0.002391691978515991
-0.00902834464627036   -0.06590635637073293   -0.0020508205890123776
-0.011237837775879733   -0.06109438120868287   -0.0019497584249073435
-0.014679990883284798   -0.06079597045142662   -0.0021207620740773116
-0.011557727670109782   -0.0656496048362754   -0.002391691978515991
-0.014446546773900686   -0.06071887818073178   -0.0019186919763799475
-0.00902834464627036   -0.06590635637073293   -0.0020508205890123776
-0.01124151399754776   -0.06556715720363201   -0.002154015561726352
-0.014446546773900686   -0.06071887818073178   -0.0019186919763799475
-0.011557727670109782   -0.0656496048362754   -0.002391691978515991
-0.00902834464627036   -0.06590635637073293   -0.0020508205890123776
-0.014446546773900686   -0.06071887818073178   -0.0019186919763799475
-0.011192292715832997   -0.061020479118287126   -0.0018206671270719304
-0.011237837775879733   -0.06109438120868287   -0.0019497584249073435
-0.00902834464627036   -0.06590635637073293   -0.0020508205890123776
-0.014446546773900686   -0.06071887818073178   -0.0019186919763799475
-0.011237837775879733   -0.06109438120868287   -0.0019497584249073435
-0.011557727670109782   -0.0656496048362754   -0.002391691978515991
-0.00902834464627036   -0.06590635637073293   -0.0020508205890123776
-0.011192292715832997   -0.061020479118287126   -0.0018206671270719304
-0.01124151399754776   -0.06556715720363201   -0.002154015561726352
-0.008892880799638472   -0.0658739685365379   -0.0018936945955785394
-0.011192292715832997   -0.061020479118287126   -0.0018206671270719304
-0.014446546773900686   -0.06071887818073178   -0.0019186919763799475
-0.01124151399754776   -0.06556715720363201   -0.002154015561726352
-0.01424396770970571   -0.06068347497627952   -0.0017061626735424772
-0.008892880799638472   -0.0658739685365379   -0.0018936945955785394
-0.010958126706237805   -0.06553719946926331   -0.0019025137745647157
-0.01424396770970571   -0.06068347497627952   -0.0017061626735424772
-0.01124151399754776   -0.06556715720363201   -0.002154015561726352
-0.008892880799638472   -0.0658739685365379   -0.0018936945955785394
-0.01424396770970571   -0.06068347497627952   -0.0017061626735424772
-0.011115071165671996   -0.060981763455737414   -0.0016852337354884073
-0.011192292715832997   -0.061020479118287126   -0.0018206671270719304
-0.008892880799638472   -0.0658739685365379   -0.0018936945955785394
-0.01424396770970571   -0.06068347497627952   -0.0017061626735424772
-0.011192292715832997   -0.061020479118287126   -0.0018206671270719304
-0.01124151399754776   -0.06556715720363201   -0.002154015561726352
-0.008892880799638472   -0.0658739685365379   -0.0018936945955785394
-0.011115071165671996   -0.060981763455737414   -0.0016852337354884073
-0.010958126706237805   -0.06553719946926331   -0.0019025137745647157
-0.008774675372228724   -0.0658852653393351   -0.0017256045150563831
-0.011115071165671996   -0.060981763455737414   -0.0016852337354884073
-0.01424396770970571   -0.06068347497627952   -0.0017061626735424772
-0.010958126706237805   -0.06553719946926331   -0.0019025137745647157
-0.013971052637443792   -0.06070498068295962   -0.0014845280043998305
-0.008774675372228724   -0.0658852653393351   -0.0017256045150563831
-0.010590849421990225   -0.06557520511580817   -0.0016395743295355418
-0.013971052637443792   -0.06070498068295962   -0.0014845280043998305
-0.010958126706237805   -0.06553719946926331   -0.0019025137745647157
-0.008774675372228724   -0.0658852653393351   -0.0017256045150563831
-0.013971052637443792   -0.06070498068295962   -0.0014845280043998305
-0.011052368377009974   -0.06098028658774757   -0.0015414790129997294
-0.011115071165671996   -0.060981763455737414   -0.0016852337354884073
-0.008774675372228724   -0.0658852653393351   -0.0017256045150563831
-0.013971052637443792   -0.06070498068295962   -0.0014845280043998305
-0.011115071165671996   -0.060981763455737414   -0.0016852337354884073
-0.010958126706237805   -0.06553719946926331   -0.0019025137745647157
0.0003493304609105622   -0.06121773731155571   -0.0010537638600264035
0.0021616484360547847   -0.05475137461480713   -0.0008029657472593941
-0.0026082214427868293   -0.06136464223337128   -0.0013313358137495958
0.0005417151564740906   -0.061076563228243   -0.0012103800215083232
0.0021616484360547847   -0.05475137461480713   -0.0008029657472593941
-0.0017551195076674032   -0.05484853783404953   -0.001067917218810026
-0.0026082214427868293   -0.06136464223337128   -0.0013313358137495958
-0.0017444888509846018   -0.05473150884203336   -0.0011156045567720255
0.0005417151564740906   -0.061076563228243   -0.0012103800215083232
-0.002557276619850345   -0.0612469840935454   -0.0014000846501306611
-0.0017444888509846018   -0.05473150884203336   -0.0011156045567720255
-0.0026082214427868293   -0.06136464223337128   -0.0013313358137495958
0.0005417151564740906   -0.061076563228243   -0.0012103800215083232
-0.0017444888509846018   -0.05473150884203336   -0.0011156045567720255
0.002276027036131475   -0.054613606169120296   -0.0009188624041960741
0.0021616484360547847   -0.05475137461480713   -0.0008029657472593941
0.0005417151564740906   -0.061076563228243   -0.0012103800215083232
-0.0017444888509846018   -0.05473150884203336   -0.0011156045567720255
0.0021616484360547847   -0.05475137461480713   -0.0008029657472593941
-0.0026082214427868293   -0.06136464223337128   -0.0013313358137495958
0.0005417151564740906   -0.061076563228243   -0.0012103800215083232
0.002276027036131475   -0.054613606169120296   -0.0009188624041960741
-0.002557276619850345   -0.0612469840935454   -0.0014000846501306611
0.0006832440493707878   -0.060995095424371655   -0.0013558046282941241
0.002276027036131475   -0.054613606169120296   -0.0009188624041960741
-0.0017444888509846018   -0.05473150884203336   -0.0011156045567720255
-0.002557276619850345   -0.0612469840935454   -0.0014000846501306611
-0.0017309615282889658   -0.05464676418470126   -0.0011559820811954205
0.0006832440493707878   -0.060995095424371655   -0.0013558046282941241
-0.002499246346187724   -0.06117023541424452   -0.0014608376977829256
-0.0017309615282889658   -0.05464676418470126   -0.0011559820811954205
-0.002557276619850345   -0.0612469840935454   -0.0014000846501306611
0.0006832440493707878   -0.060995095424371655   -0.0013558046282941241
-0.0017309615282889658   -0.05464676418470126   -0.0011559820811954205
0.002349184296048646   -0.054523324981766555   -0.0010244285221153201
0.002276027036131475   -0.054613606169120296   -0.0009188624041960741
0.0006832440493707878   -0.060995095424371655   -0.0013558046282941241
-0.0017309615282889658   -0.05464676418470126   -0.0011559820811954205
0.002276027036131475   -0.054613606169120296   -0.0009188624041960741
-0.002557276619850345   -0.0612469840935454   -0.0014000846501306611
0.0006832440493707878   -0.060995095424371655   -0.0013558046282941241
0.002349184296048646   -0.054523324981766555   -0.0010244285221153201
-0.002499246346187724   -0.06117023541424452   -0.0014608376977829256
0.0008348041517229803   -0.0609551003374021   -0.001489983760265835
0.002349184296048646   -0.054523324981766555   -0.0010244285221153201
-0.0017309615282889658   -0.05464676418470126   -0.0011559820811954205
-0.002499246346187724   -0.06117023541424452   -0.0014608376977829256
-0.00173736125623008   -0.05459158676299763   -0.0011895828894373762
0.0008348041517229803   -0.0609551003374021   -0.001489983760265835
-0.002464550240914645   -0.061132121754818594   -0.0015143845306529377
-0.00173736125623008   -0.05459158676299763   -0.0011895828894373762
-0.002499246346187724   -0.06117023541424452   -0.0014608376977829256
0.0008348041517229803   -0.0609551003374021   -0.001489983760265835
-0.00173736125623008   -0.05459158676299763   -0.0011895828894373762
0.002424342088456624   -0.05446299187909626   -0.001119881307776891
0.002349184296048646   -0.054523324981766555   -0.0010244285221153201
0.0008348041517229803   -0.0609551003374021   -0.001489983760265835
-0.00173736125623008   -0.05459158676299763   -0.0011895828894373762
0.002349184296048646   -0.054523324981766555   -0.0010244285221153201
-0.002499246346187724   -0.06117023541424452   -0.0014608376977829256
-0.0026082214427868293   -0.06136464223337128   -0.0013313358137495958
-0.0017551195076674032   -0.05484853783404953   -0.001067917218810026
-0.0054697018409844145   -0.06139275089566009   -0.00155999731166231
-0.002557276619850345   -0.0612469840935454   -0.0014000846501306611
-0.0017551195076674032   -0.05484853783404953   -0.001067917218810026
-0.005524463439774682   -0.05484907587213993   -0.0012863732513844752
-0.0054697018409844145   -0.06139275089566009   -0.00155999731166231
-0.005524931208676119   -0.05475007972506283   -0.0012818705875278405
-0.002557276619850345   -0.0612469840935454   -0.0014000846501306611
-0.005432265356047673   -0.061291761086101605   -0.0015617513566270164
-0.005524931208676119   -0.05475007972506283   -0.0012818705875278405
-0.0054697018409844145   -0.06139275089566009   -0.00155999731166231
-0.002557276619850345   -0.0612469840935454   -0.0014000846501306611
-0.005524931208676119   -0.05475007972506283   -0.0012818705875278405
-0.0017444888509846018   -0.05473150884203336   -0.0011156045567720255
-0.0017551195076674032   -0.05484853783404953   -0.001067917218810026
-0.002557276619850345   -0.0612469840935454   -0.0014000846501306611
-0.005524931208676119   -0.05475007972506283   -0.0012818705875278405
-0.0017551195076674032   -0.05484853783404953   -0.001067917218810026
-0.0054697018409844145   -0.06139275089566009   -0.00155999731166231
-0.002557276619850345   -0.0612469840935454   -0.0014000846501306611
-0.0017444888509846018   -0.05473150884203336   -0.0011156045567720255
-0.005432265356047673   -0.061291761086101605   -0.0015617513566270164
-0.002499246346187724   -0.06117023541424452   -0.0014608376977829256
-0.0017444888509846018   -0.05473150884203336   -0.0011156045567720255
-0.005524931208676119   -0.05475007972506283   -0.0012818705875278405
-0.005432265356047673   -0.061291761086101605   -0.0015617513566270164
-0.005525145107907594   -0.05467954325256966   -0.0012700859891986466
-0.002499246346187724   -0.06117023541424452   -0.0014608376977829256
-0.00539376719297256   -0.061227386092056406   -0.0015558440989866887
-0.005525145107907594   -0.05467954325256966   -0.0012700859891986466
-0.005432265356047673   -0.061291761086101605   -0.0015617513566270164
-0.002499246346187724   -0.06117023541424452   -0.0014608376977829256
-0.005525145107907594   -0.05467954325256966   -0.0012700859891986466
-0.0017309615282889658   -0.05464676418470126   -0.0011559820811954205
-0.0017444888509846018   -0.05473150884203336   -0.0011156045567720255
-0.002499246346187724   -0.06117023541424452   -0.0014608376977829256
-0.005525145107907594   -0.05467954325256966   -0.0012700859891986466
-0.0017444888509846018   -0.05473150884203336   -0.0011156045567720255
-0.005432265356047673   -0.061291761086101605   -0.0015617513566270164
-0.002499246346187724   -0.06117023541424452   -0.0014608376977829256
-0.0017309615282889658   -0.05464676418470126   -0.0011559820811954205
-0.00539376719297256   -0.061227386092056406   -0.0015558440989866887
-0.002464550240914645   -0.061132121754818594   -0.0015143845306529377
-0.0017309615282889658   -0.05464676418470126   -0.0011559820811954205
-0.005525145107907594   -0.05467954325256966   -0.0012700859891986466
-0.00539376719297256   -0.061227386092056406   -0.0015558440989866887
-0.005530396647339954   -0.05463751699791804   -0.001251397982179265
-0.002464550240914645   -0.061132121754818594   -0.0015143845306529377
-0.005360095823226613   -0.0611990233977614   -0.001542786526661094
-0.005530396647339954   -0.05463751699791804   -0.001251397982179265
-0.00539376719297256   -0.061227386092056406   -0.0015558440989866887
-0.002464550240914645   -0.061132121754818594   -0.0015143845306529377
-0.005530396647339954   -0.05463751699791804   -0.001251397982179265
-0.00173736125623008   -0.05459158676299763   -0.0011895828894373762
-0.0017309615282889658   -0.05464676418470126   -0.0011559820811954205
-0.002464550240914645   -0.061132121754818594   -0.0015143845306529377
-0.005530396647339954   -0.05463751699791804   -0.001251397982179265
-0.0017309615282889658   -0.05464676418470126   -0.0011559820811954205
-0.00539376719297256   -0.061227386092056406   -0.0015558440989866887
-0.0054697018409844145   -0.06139275089566009   -0.00155999731166231
-0.005524463439774682   -0.05484907587213993   -0.0012863732513844752
-0.008286275785982988   -0.061301590401872025   -0.0017663979689385568
-0.005432265356047673   -0.061291761086101605   -0.0015617513566270164
-0.005524463439774682   -0.05484907587213993   -0.0012863732513844752
-0.009229852256374821   -0.05475523051664374   -0.001477716661816722
-0.008286275785982988   -0.061301590401872025   -0.0017663979689385568
-0.00923311192557394   -0.054672072651459465   -0.0014216544613043977
-0.005432265356047673   -0.061291761086101605   -0.0015617513566270164
-0.00825142375540467   -0.061214461038852884   -0.0017027719579903598
-0.00923311192557394   -0.054672072651459465   -0.0014216544613043977
-0.008286275785982988   -0.061301590401872025   -0.0017663979689385568
-0.005432265356047673   -0.061291761086101605   -0.0015617513566270164
-0.00923311192557394   -0.054672072651459465   -0.0014216544613043977
-0.005524931208676119   -0.05475007972506283   -0.0012818705875278405
-0.005524463439774682   -0.05484907587213993   -0.0012863732513844752
-0.005432265356047673   -0.061291761086101605   -0.0015617513566270164
-0.00923311192557394   -0.054672072651459465   -0.0014216544613043977
-0.005524463439774682   -0.05484907587213993   -0.0012863732513844752
-0.008286275785982988   -0.061301590401872025   -0.0017663979689385568
-0.005432265356047673   -0.061291761086101605   -0.0015617513566270164
-0.005524931208676119   -0.05475007972506283   -0.0012818705875278405
-0.00825142375540467   -0.061214461038852884   -0.0017027719579903598
-0.00539376719297256   -0.061227386092056406   -0.0015558440989866887
-0.005524931208676119   -0.05475007972506283   -0.0012818705875278405
-0.00923311192557394   -0.054672072651459465   -0.0014216544613043977
-0.00825142375540467   -0.061214461038852884   -0.0017027719579903598
-0.009230058289104516   -0.054617122767005095   -0.0013584520581460774
-0.00539376719297256   -0.061227386092056406   -0.0015558440989866887
-0.00820930854607074   -0.06116354408891145   -0.0016316513512064173
-0.009230058289104516   -0.054617122767005095   -0.0013584520581460774
-0.00825142375540467   -0.061214461038852884   -0.0017027719579903598
-0.00539376719297256   -0.061227386092056406   -0.0015558440989866887
-0.009230058289104516   -0.054617122767005095   -0.0013584520581460774
-0.005525145107907594   -0.05467954325256966   -0.0012700859891986466
-0.005524931208676119   -0.05475007972506283   -0.0012818705875278405
-0.00539376719297256   -0.061227386092056406   -0.0015558440989866887
-0.009230058289104516   -0.054617122767005095   -0.0013584520581460774
-0.005524931208676119   -0.05475007972506283   -0.0012818705875278405
-0.00825142375540467   -0.061214461038852884   -0.0017027719579903598
-0.00539376719297256   -0.061227386092056406   -0.0015558440989866887
-0.005525145107907594   -0.05467954325256966   -0.0012700859891986466
-0.00820930854607074   -0.06116354408891145   -0.0016316513512064173
-0.005360095823226613   -0.0611990233977614   -0.001542786526661094
-0.005525145107907594   -0.05467954325256966   -0.0012700859891986466
-0.009230058289104516   -0.054617122767005095   -0.0013584520581460774
-0.00820930854607074   -0.06116354408891145   -0.0016316513512064173
-0.009228144773353297   -0.054589886352331835   -0.001288317461158177
-0.005360095823226613   -0.0611990233977614   -0.001542786526661094
-0.008168350693612767   -0.06114716005218638   -0.001553266825526872
-0.009228144773353297   -0.054589886352331835   -0.001288317461158177
-0.00820930854607074   -0.06116354408891145   -0.0016316513512064173
-0.005360095823226613   -0.0611990233977614   -0.001542786526661094
-0.009228144773353297   -0.054589886352331835   -0.001288317461158177
-0.005530396647339954   -0.05463751699791804   -0.001251397982179265
-0.005525145107907594   -0.05467954325256966   -0.0012700859891986466
-0.005360095823226613   -0.0611990233977614   -0.001542786526661094
-0.009228144773353297   -0.054589886352331835   -0.001288317461158177
-0.005525145107907594   -0.05467954325256966   -0.0012700859891986466
-0.00820930854607074   -0.06116354408891145   -0.0016316513512064173
-0.008286275785982988   -0.061301590401872025   -0.0017663979689385568
-0.009229852256374821   -0.05475523051664374   -0.001477716661816722
-0.011237837775879733   -0.06109438120868287   -0.0019497584249073435
-0.00825142375540467   -0.061214461038852884   -0.0017027719579903598
-0.009229852256374821   -0.05475523051664374   -0.001477716661816722
-0.013050693377202185   -0.05457054737495364   -0.0016423153157987126
-0.011237837775879733   -0.06109438120868287   -0.0019497584249073435
-0.013046160159506817   -0.05450255205537648   -0.001534081919984796
-0.00825142375540467   -0.061214461038852884   -0.0017027719579903598
-0.011192292715832997   -0.061020479118287126   -0.0018206671270719304
-0.013046160159506817   -0.05450255205537648   -0.001534081919984796
-0.011237837775879733   -0.06109438120868287   -0.0019497584249073435
-0.00825142375540467   -0.061214461038852884   -0.0017027719579903598
-0.013046160159506817   -0.05450255205537648   -0.001534081919984796
-0.00923311192557394   -0.054672072651459465   -0.0014216544613043977
-0.009229852256374821   -0.05475523051664374   -0.001477716661816722
-0.00825142375540467   -0.061214461038852884   -0.0017027719579903598
-0.013046160159506817   -0.05450255205537648   -0.001534081919984796
-0.009229852256374821   -0.05475523051664374   -0.001477716661816722
-0.011237837775879733   -0.06109438120868287   -0.0019497584249073435
-0.00825142375540467   -0.061214461038852884   -0.0017027719579903598
-0.00923311192557394   -0.054672072651459465   -0.0014216544613043977
-0.011192292715832997   -0.061020479118287126   -0.0018206671270719304
-0.00820930854607074   -0.06116354408891145   -0.0016316513512064173
-0.00923311192557394   -0.054672072651459465   -0.0014216544613043977
-0.013046160159506817   -0.05450255205537648   -0.001534081919984796
-0.011192292715832997   -0.061020479118287126   -0.0018206671270719304
-0.013014081940441987   -0.05446173514480722   -0.0014197849041703344
-0.00820930854607074   -0.06116354408891145   -0.0016316513512064173
-0.011115071165671996   -0.060981763455737414   -0.0016852337354884073
-0.013014081940441987   -0.05446173514480722   -0.0014197849041703344
-0.011192292715832997   -0.061020479118287126   -0.0018206671270719304
-0.00820930854607074   -0.06116354408891145   -0.0016316513512064173
-0.013014081940441987   -0.05446173514480722   -0.0014197849041703344
-0.009230058289104516   -0.054617122767005095   -0.0013584520581460774
-0.00923311192557394   -0.054672072651459465   -0.0014216544613043977
-0.00820930854607074   -0.06116354408891145   -0.0016316513512064173
-0.013014081940441987   -0.05446173514480722   -0.0014197849041703344
-0.00923311192557394   -0.054672072651459465   -0.0014216544613043977
-0.011192292715832997   -0.061020479118287126   -0.0018206671270719304
-0.00820930854607074   -0.06116354408891145   -0.0016316513512064173
-0.009230058289104516   -0.054617122767005095   -0.0013584520581460774
-0.011115071165671996   -0.060981763455737414   -0.0016852337354884073
-0.008168350693612767   -0.06114716005218638   -0.001553266825526872
-0.009230058289104516   -0.054617122767005095   -0.0013584520581460774
-0.013014081940441987   -0.05446173514480722   -0.0014197849041703344
-0.011115071165671996   -0.060981763455737414   -0.0016852337354884073
-0.012992651108698409   -0.054450961498950796   -0.001297998231996844
-0.008168350693612767   -0.06114716005218638   -0.001553266825526872
-0.011052368377009974   -0.06098028658774757   -0.0015414790129997294
-0.012992651108698409   -0.054450961498950796   -0.001297998231996844
-0.011115071165671996   -0.060981763455737414   -0.0016852337354884073
-0.008168350693612767   -0.06114716005218638   -0.001553266825526872
-0.012992651108698409   -0.054450961498950796   -0.001297998231996844
-0.009228144773353297   -0.054589886352331835   -0.001288317461158177
-0.009230058289104516   -0.054617122767005095   -0.0013584520581460774
-0.008168350693612767   -0.06114716005218638   -0.001553266825526872
-0.012992651108698409   -0.054450961498950796   -0.001297998231996844
-0.009230058289104516   -0.054617122767005095   -0.0013584520581460774
-0.011115071165671996   -0.060981763455737414   -0.0016852337354884073
-0.011237837775879733   -0.06109438120868287   -0.0019497584249073435
-0.013050693377202185   -0.05457054737495364   -0.0016423153157987126
-0.014679990883284798   -0.06079597045142662   -0.0021207620740773116
-0.011192292715832997   -0.061020479118287126   -0.0018206671270719304
-0.013050693377202185   -0.05457054737495364   -0.0016423153157987126
-0.01731853011736038   -0.05431595762039926   -0.001790759938591124
-0.014679990883284798   -0.06079597045142662   -0.0021207620740773116
-0.017158801749845787   -0.054249215989149016   -0.0016251728125309774
-0.011192292715832997   -0.061020479118287126   -0.0018206671270719304
-0.014446546773900686   -0.06071887818073178   -0.0019186919763799475
-0.017158801749845787   -0.054249215989149016   -0.0016251728125309774
-0.014679990883284798   -0.06079597045142662   -0.0021207620740773116
-0.011192292715832997   -0.061020479118287126   -0.0018206671270719304
-0.017158801749845787   -0.054249215989149016   -0.0016251728125309774
-0.013046160159506817   -0.05450255205537648   -0.001534081919984796
-0.013050693377202185   -0.05457054737495364   -0.0016423153157987126
-0.011192292715832997   -0.061020479118287126   -0.0018206671270719304
-0.017158801749845787   -0.054249215989149016   -0.0016251728125309774
-0.013050693377202185   -0.05457054737495364   -0.0016423153157987126
-0.014679990883284798   -0.06079597045142662   -0.0021207620740773116
-0.011192292715832997   -0.061020479118287126   -0.0018206671270719304
-0.013046160159506817   -0.05450255205537648   -0.001534081919984796
-0.014446546773900686   -0.06071887818073178   -0.0019186919763799475
-0.011115071165671996   -0.060981763455737414   -0.0016852337354884073
-0.013046160159506817   -0.05450255205537648   -0.001534081919984796
-0.017158801749845787   -0.054249215989149016   -0.0016251728125309774
-0.014446546773900686   -0.06071887818073178   -0.0019186919763799475
-0.017022214996165158   -0.05421355517127293   -0.0014493923837188732
-0.011115071165671996   -0.060981763455737414   -0.0016852337354884073
-0.01424396770970571   -0.06068347497627952   -0.0017061626735424772
-0.017022214996165158   -0.05421355517127293   -0.0014493923837188732
-0.014446546773900686   -0.06071887818073178   -0.0019186919763799475
-0.011115071165671996   -0.060981763455737414   -0.0016852337354884073
-0.017022214996165158   -0.05421355517127293   -0.0014493923837188732
-0.013014081940441987   -0.05446173514480722   -0.0014197849041703344
-0.013046160159506817   -0.05450255205537648   -0.001534081919984796
-0.011115071165671996   -0.060981763455737414   -0.0016852337354884073
-0.017022214996165158   -0.05421355517127293   -0.0014493923837188732
-0.013046160159506817   -0.05450255205537648   -0.001534081919984796
-0.014446546773900686   -0.06071887818073178   -0.0019186919763799475
-0.011115071165671996   -0.060981763455737414   -0.0016852337354884073
-0.013014081940441987   -0.05446173514480722   -0.0014197849041703344
-0.01424396770970571   -0.06068347497627952   -0.0017061626735424772
-0.011052368377009974   -0.06098028658774757   -0.0015414790129997294
-0.013014081940441987   -0.05446173514480722   -0.0014197849041703344
-0.017022214996165158   -0.05421355517127293   -0.0014493923837188732
-0.01424396770970571   -0.06068347497627952   -0.0017061626735424772
-0.016825119530152314   -0.05422554138364374   -0.0012648165899996153
-0.011052368377009974   -0.06098028658774757   -0.0015414790129997294
-0.013971052637443792   -0.06070498068295962   -0.0014845280043998305
-0.016825119530152314   -0.05422554138364374   -0.0012648165899996153
-0.01424396770970571   -0.06068347497627952   -0.0017061626735424772
-0.011052368377009974   -0.06098028658774757   -0.0015414790129997294
-0.016825119530152314   -0.05422554138364374   -0.0012648165899996153
-0.012992651108698409   -0.054450961498950796   -0.001297998231996844
-0.013014081940441987   -0.05446173514480722   -0.0014197849041703344
-0.011052368377009974   -0.06098028658774757   -0.0015414790129997294
-0.016825119530152314   -0.05422554138364374   -0.0012648165899996153
-0.013014081940441987   -0.05446173514480722   -0.0014197849041703344
-0.01424396770970571   -0.06068347497627952   -0.0017061626735424772
0.0021616484360547847   -0.05475137461480713   -0.0008029657472593941
0.0034112590175631777   -0.046971440620094444   -0.0005349260953611137
-0.0017551195076674032   -0.05484853783404953   -0.001067917218810026
0.002276027036131475   -0.054613606169120296   -0.0009188624041960741
0.0034112590175631777   -0.046971440620094444   -0.0005349260953611137
-0.0012365460483274471   -0.04701928703597101   -0.0007841941682960503
-0.0017551195076674032   -0.05484853783404953   -0.001067917218810026
-0.0012583513619464572   -0.04690511354811016   -0.0008099264122756068
0.002276027036131475   -0.054613606169120296   -0.0009188624041960741
-0.0017444888509846018   -0.05473150884203336   -0.0011156045567720255
-0.0012583513619464572   -0.04690511354811016   -0.0008099264122756068
-0.0017551195076674032   -0.05484853783404953   -0.001067917218810026
0.002276027036131475   -0.054613606169120296   -0.0009188624041960741
-0.0012583513619464572   -0.04690511354811016   -0.0008099264122756068
0.003456579138365337   -0.04683870866642821   -0.0006109155412134025
0.0034112590175631777   -0.046971440620094444   -0.0005349260953611137
0.002276027036131475   -0.054613606169120296   -0.0009188624041960741
-0.0012583513619464572   -0.04690511354811016   -0.0008099264122756068
0.0034112590175631777   -0.046971440620094444   -0.0005349260953611137
-0.0017551195076674032   -0.05484853783404953   -0.001067917218810026
0.002276027036131475   -0.054613606169120296   -0.0009188624041960741
0.003456579138365337   -0.04683870866642821   -0.0006109155412134025
-0.0017444888509846018   -0.05473150884203336   -0.0011156045567720255
0.002349184296048646   -0.054523324981766555   -0.0010244285221153201
0.003456579138365337   -0.04683870866642821   -0.0006109155412134025
-0.0012583513619464572   -0.04690511354811016   -0.0008099264122756068
-0.0017444888509846018   -0.05473150884203336   -0.0011156045567720255
-0.0012812609996000575   -0.046814875769405156   -0.0008291303430673398
0.002349184296048646   -0.054523324981766555   -0.0010244285221153201
-0.0017309615282889658   -0.05464676418470126   -0.0011559820811954205
-0.0012812609996000575   -0.046814875769405156   -0.0008291303430673398
-0.0017444888509846018   -0.05473150884203336   -0.0011156045567720255
0.002349184296048646   -0.054523324981766555   -0.0010244285221153201
-0.0012812609996000575   -0.046814875769405156   -0.0008291303430673398
0.0034704476071521517   -0.046742085977044205   -0.000677273092849533
0.003456579138365337   -0.04683870866642821   -0.0006109155412134025
0.002349184296048646   -0.054523324981766555   -0.0010244285221153201
-0.0012812609996000575   -0.046814875769405156   -0.0008291303430673398
0.003456579138365337   -0.04683870866642821   -0.0006109155412134025
-0.0017444888509846018   -0.05473150884203336   -0.0011156045567720255
0.002349184296048646   -0.054523324981766555   -0.0010244285221153201
0.0034704476071521517   -0.046742085977044205   -0.000677273092849533
-0.0017309615282889658   -0.05464676418470126   -0.0011559820811954205
0.002424342088456624   -0.05446299187909626   -0.001119881307776891
0.0034704476071521517   -0.046742085977044205   -0.000677273092849533
-0.0012812609996000575   -0.046814875769405156   -0.0008291303430673398
-0.0017309615282889658   -0.05464676418470126   -0.0011559820811954205
-0.0013203254979229338   -0.04674573359195748   -0.0008420265490930108
0.002424342088456624   -0.05446299187909626   -0.001119881307776891
-0.00173736125623008   -0.05459158676299763   -0.0011895828894373762
-0.0013203254979229338   -0.04674573359195748   -0.0008420265490930108
-0.0017309615282889658   -0.05464676418470126   -0.0011559820811954205
0.002424342088456624   -0.05446299187909626   -0.001119881307776891
-0.0013203254979229338   -0.04674573359195748   -0.0008420265490930108
0.003478347821399557   -0.04666451573109054   -0.000734454911240326
0.0034704476071521517   -0.046742085977044205   -0.000677273092849533
0.002424342088456624   -0.05446299187909626   -0.001119881307776891
-0.0013203254979229338   -0.04674573359195748   -0.0008420265490930108
0.0034704476071521517   -0.046742085977044205   -0.000677273092849533
-0.0017309615282889658   -0.05464676418470126   -0.0011559820811954205
-0.0017551195076674032   -0.05484853783404953   -0.001067917218810026
-0.0012365460483274471   -0.04701928703597101   -0.0007841941682960503
-0.005524463439774682   -0.05484907587213993   -0.0012863732513844752
-0.0017444888509846018   -0.05473150884203336   -0.0011156045567720255
-0.0012365460483274471   -0.04701928703597101   -0.0007841941682960503
-0.005691824806752806   -0.046994777485099226   -0.0009893909979908442
-0.005524463439774682   -0.05484907587213993   -0.0012863732513844752
-0.0057220996103815695   -0.04689938508890168   -0.0009773812721454145
-0.0017444888509846018   -0.05473150884203336   -0.0011156045567720255
-0.005524931208676119   -0.05475007972506283   -0.0012818705875278405
-0.0057220996103815695   -0.04689938508890168   -0.0009773812721454145
-0.005524463439774682   -0.05484907587213993   -0.0012863732513844752
-0.0017444888509846018   -0.05473150884203336   -0.0011156045567720255
-0.0057220996103815695   -0.04689938508890168   -0.0009773812721454145
-0.0012583513619464572   -0.04690511354811016   -0.0008099264122756068
-0.0012365460483274471   -0.04701928703597101   -0.0007841941682960503
-0.0017444888509846018   -0.05473150884203336   -0.0011156045567720255
-0.0057220996103815695   -0.04689938508890168   -0.0009773812721454145
-0.0012365460483274471   -0.04701928703597101   -0.0007841941682960503
-0.005524463439774682   -0.05484907587213993   -0.0012863732513844752
-0.0017444888509846018   -0.05473150884203336   -0.0011156045567720255
-0.0012583513619464572   -0.04690511354811016   -0.0008099264122756068
-0.005524931208676119   -0.05475007972506283   -0.0012818705875278405
-0.0017309615282889658   -0.05464676418470126   -0.0011559820811954205
-0.0012583513619464572   -0.04690511354811016   -0.0008099264122756068
-0.0057220996103815695   -0.04689938508890168   -0.0009773812721454145
-0.005524931208676119   -0.05475007972506283   -0.0012818705875278405
-0.005752790481743052   -0.046824509915432716   -0.0009586502603028627
-0.0017309615282889658   -0.05464676418470126   -0.0011559820811954205
-0.005525145107907594   -0.05467954325256966   -0.0012700859891986466
-0.005752790481743052   -0.046824509915432716   -0.0009586502603028627
-0.005524931208676119   -0.05475007972506283   -0.0012818705875278405
-0.0017309615282889658   -0.05464676418470126   -0.0011559820811954205
-0.005752790481743052   -0.046824509915432716   -0.0009586502603028627
-0.0012812609996000575   -0.046814875769405156   -0.0008291303430673398
-0.0012583513619464572   -0.04690511354811016   -0.0008099264122756068
-0.0017309615282889658   -0.05464676418470126   -0.0011559820811954205
-0.005752790481743052   -0.046824509915432716   -0.0009586502603028627
-0.0012583513619464572   -0.04690511354811016   -0.0008099264122756068
-0.005524931208676119   -0.05475007972506283   -0.0012818705875278405
-0.0017309615282889658   -0.05464676418470126   -0.0011559820811954205
-0.0012812609996000575   -0.046814875769405156   -0.0008291303430673398
-0.005525145107907594   -0.05467954325256966   -0.0012700859891986466
-0.00173736125623008   -0.05459158676299763   -0.0011895828894373762
-0.0012812609996000575   -0.046814875769405156   -0.0008291303430673398
-0.005752790481743052   -0.046824509915432716   -0.0009586502603028627
-0.005525145107907594   -0.05467954325256966   -0.0012700859891986466
-0.0057882640366263985   -0.046770500102175996   -0.0009335226937275062
-0.00173736125623008   -0.05459158676299763   -0.0011895828894373762
-0.005530396647339954   -0.05463751699791804   -0.001251397982179265
-0.0057882640366263985   -0.046770500102175996   -0.0009335226937275062
-0.005525145107907594   -0.05467954325256966   -0.0012700859891986466
-0.00173736125623008   -0.05459158676299763   -0.0011895828894373762
-0.0057882640366263985   -0.046770500102175996   -0.0009335226937275062
-0.0013203254979229338   -0.04674573359195748   -0.0008420265490930108
-0.0012812609996000575   -0.046814875769405156   -0.0008291303430673398
-0.00173736125623008   -0.05459158676299763   -0.0011895828894373762
-0.0057882640366263985   -0.046770500102175996   -0.0009335226937275062
-0.0012812609996000575   -0.046814875769405156   -0.0008291303430673398
-0.005525145107907594   -0.05467954325256966   -0.0012700859891986466
-0.005524463439774682   -0.05484907587213993   -0.0012863732513844752
-0.005691824806752806   -0.046994777485099226   -0.0009893909979908442
-0.009229852256374821   -0.05475523051664374   -0.001477716661816722
-0.005524931208676119   -0.05475007972506283   -0.0012818705875278405
-0.005691824806752806   -0.046994777485099226   -0.0009893909979908442
-0.010071826269792066   -0.04690240734154978   -0.0011649371540831512
-0.009229852256374821   -0.05475523051664374   -0.001477716661816722
-0.010104496133360698   -0.04682407528691296   -0.001115369338727524
-0.005524931208676119   -0.05475007972506283   -0.0012818705875278405
-0.00923311192557394   -0.054672072651459465   -0.0014216544613043977
-0.010104496133360698   -0.04682407528691296   -0.001115369338727524
-0.009229852256374821   -0.05475523051664374   -0.001477716661816722
-0.005524931208676119   -0.05475007972506283   -0.0012818705875278405
-0.010104496133360698   -0.04682407528691296   -0.001115369338727524
-0.0057220996103815695   -0.04689938508890168   -0.0009773812721454145
-0.005691824806752806   -0.046994777485099226   -0.0009893909979908442
-0.005524931208676119   -0.05475007972506283   -0.0012818705875278405
-0.010104496133360698   -0.04682407528691296   -0.001115369338727524
-0.005691824806752806   -0.046994777485099226   -0.0009893909979908442
-0.009229852256374821   -0.05475523051664374   -0.001477716661816722
-0.005524931208676119   -0.05475007972506283   -0.0012818705875278405
-0.0057220996103815695   -0.04689938508890168   -0.0009773812721454145
-0.00923311192557394   -0.054672072651459465   -0.0014216544613043977
-0.005525145107907594   -0.05467954325256966   -0.0012700859891986466
-0.0057220996103815695   -0.04689938508890168   -0.0009773812721454145
-0.010104496133360698   -0.04682407528691296   -0.001115369338727524
-0.00923311192557394   -0.054672072651459465   -0.0014216544613043977
-0.01013155885150978   -0.04676606456874096   -0.001059199429770035
-0.005525145107907594   -0.05467954325256966   -0.0012700859891986466
-0.009230058289104516   -0.054617122767005095   -0.0013584520581460774
-0.01013155885150978   -0.04676606456874096   -0.001059199429770035
-0.00923311192557394   -0.054672072651459465   -0.0014216544613043977
-0.005525145107907594   -0.05467954325256966   -0.0012700859891986466
-0.01013155885150978   -0.04676606456874096   -0.001059199429770035
-0.005752790481743052   -0.046824509915432716   -0.0009586502603028627
-0.0057220996103815695   -0.04689938508890168   -0.0009773812721454145
-0.005525145107907594   -0.05467954325256966   -0.0012700859891986466
-0.01013155885150978   -0.04676606456874096   -0.001059199429770035
-0.0057220996103815695   -0.04689938508890168   -0.0009773812721454145
-0.00923311192557394   -0.054672072651459465   -0.0014216544613043977
-0.005525145107907594   -0.05467954325256966   -0.0012700859891986466
-0.005752790481743052   -0.046824509915432716   -0.0009586502603028627
-0.009230058289104516   -0.054617122767005095   -0.0013584520581460774
-0.005530396647339954   -0.05463751699791804   -0.001251397982179265
-0.005752790481743052   -0.046824509915432716   -0.0009586502603028627
-0.01013155885150978   -0.04676606456874096   -0.001059199429770035
-0.009230058289104516   -0.054617122767005095   -0.0013584520581460774
-0.010159409918795107   -0.046728289849625855   -0.0009966215897298815
-0.005530396647339954   -0.05463751699791804   -0.001251397982179265
-0.009228144773353297   -0.054589886352331835   -0.001288317461158177
-0.010159409918795107   -0.046728289849625855   -0.0009966215897298815
-0.009230058289104516   -0.054617122767005095   -0.0013584520581460774
-0.005530396647339954   -0.05463751699791804   -0.001251397982179265
-0.010159409918795107   -0.046728289849625855   -0.0009966215897298815
-0.0057882640366263985   -0.046770500102175996   -0.0009335226937275062
-0.005752790481743052   -0.046824509915432716   -0.0009586502603028627
-0.005530396647339954   -0.05463751699791804   -0.001251397982179265
-0.010159409918795107   -0.046728289849625855   -0.0009966215897298815
-0.005752790481743052   -0.046824509915432716   -0.0009586502603028627
-0.009230058289104516   -0.054617122767005095   -0.0013584520581460774
-0.009229852256374821   -0.05475523051664374   -0.001477716661816722
-0.010071826269792066   -0.04690240734154978   -0.0011649371540831512
-0.013050693377202185   -0.05457054737495364   -0.0016423153157987126
-0.00923311192557394   -0.054672072651459465   -0.0014216544613043977
-0.010071826269792066   -0.04690240734154978   -0.0011649371540831512
-0.014556002534494374   -0.046744015410493056   -0.0013115072302894543
-0.013050693377202185   -0.05457054737495364   -0.0016423153157987126
-0.014583020388991405   -0.04668234565704474   -0.0012238693912696116
-0.00923311192557394   -0.054672072651459465   -0.0014216544613043977
-0.013046160159506817   -0.05450255205537648   -0.001534081919984796
-0.014583020388991405   -0.04668234565704474   -0.0012238693912696116
-0.013050693377202185   -0.05457054737495364   -0.0016423153157987126
-0.00923311192557394   -0.054672072651459465   -0.0014216544613043977
-0.014583020388991405   -0.04668234565704474   -0.0012238693912696116
-0.010104496133360698   -0.04682407528691296   -0.001115369338727524
-0.010071826269792066   -0.04690240734154978   -0.0011649371540831512
-0.00923311192557394   -0.054672072651459465   -0.0014216544613043977
-0.014583020388991405   -0.04668234565704474   -0.0012238693912696116
-0.010071826269792066   -0.04690240734154978   -0.0011649371540831512
-0.013050693377202185   -0.05457054737495364   -0.0016423153157987126
-0.00923311192557394   -0.054672072651459465   -0.0014216544613043977
-0.010104496133360698   -0.04682407528691296   -0.001115369338727524
-0.013046160159506817   -0.05450255205537648   -0.001534081919984796
-0.009230058289104516   -0.054617122767005095   -0.0013584520581460774
-0.010104496133360698   -0.04682407528691296   -0.001115369338727524
-0.014583020388991405   -0.04668234565704474   -0.0012238693912696116
-0.013046160159506817   -0.05450255205537648   -0.001534081919984796
-0.014586447578115396   -0.0466397563697758   -0.001130542916726409
-0.009230058289104516   -0.054617122767005095   -0.0013584520581460774
-0.013014081940441987   -0.05446173514480722   -0.0014197849041703344
-0.014586447578115396   -0.0466397563697758   -0.001130542916726409
-0.013046160159506817   -0.05450255205537648   -0.001534081919984796
-0.009230058289104516   -0.054617122767005095   -0.0013584520581460774
-0.014586447578115396   -0.0466397563697758   -0.001130542916726409
-0.01013155885150978   -0.04676606456874096   -0.001059199429770035
-0.010104496133360698   -0.04682407528691296   -0.001115369338727524
-0.009230058289104516   -0.054617122767005095   -0.0013584520581460774
-0.014586447578115396   -0.0466397563697758   -0.001130542916726409
-0.010104496133360698   -0.04682407528691296   -0.001115369338727524
-0.013046160159506817   -0.05450255205537648   -0.001534081919984796
-0.009230058289104516   -0.054617122767005095   -0.0013584520581460774
-0.01013155885150978   -0.04676606456874096   -0.001059199429770035
-0.013014081940441987   -0.05446173514480722   -0.0014197849041703344
-0.009228144773353297   -0.054589886352331835   -0.001288317461158177
-0.01013155885150978   -0.04676606456874096   -0.001059199429770035
-0.014586447578115396   -0.0466397563697758   -0.001130542916726409
-0.013014081940441987   -0.05446173514480722   -0.0014197849041703344
-0.014596579432284451   -0.04661922461084833   -0.001030322690310644
-0.009228144773353297   -0.054589886352331835   -0.001288317461158177
-0.012992651108698409   -0.054450961498950796   -0.001297998231996844
-0.014596579432284451   -0.04661922461084833   -0.001030322690310644
-0.013014081940441987   -0.05446173514480722   -0.0014197849041703344
-0.009228144773353297   -0.054589886352331835   -0.001288317461158177
-0.014596579432284451   -0.04661922461084833   -0.001030322690310644
-0.010159409918795107   -0.046728289849625855   -0.0009966215897298815
-0.01013155885150978   -0.04676606456874096   -0.001059199429770035
-0.009228144773353297   -0.054589886352331835   -0.001288317461158177
-0.014596579432284451   -0.04661922461084833   -0.001030322690310644
-0.01013155885150978   -0.04676606456874096   -0.001059199429770035
-0.013014081940441987   -0.05446173514480722   -0.0014197849041703344
-0.013050693377202185   -0.05457054737495364   -0.0016423153157987126
-0.014556002534494374   -0.046744015410493056   -0.0013115072302894543
-0.01731853011736038   -0.05431595762039926   -0.001790759938591124
-0.013046160159506817   -0.05450255205537648   -0.001534081919984796
-0.014556002534494374   -0.046744015410493056   -0.0013115072302894543
-0.019445978999678964   -0.04653619775160556   -0.001436715856144091
-0.01731853011736038   -0.05431595762039926   -0.001790759938591124
-0.019352230986509615   -0.04647986422250097   -0.0013088078301112928
-0.013046160159506817   -0.05450255205537648   -0.001534081919984796
-0.017158801749845787   -0.054249215989149016   -0.0016251728125309774
-0.019352230986509615   -0.04647986422250097   -0.0013088078301112928
-0.01731853011736038   -0.05431595762039926   -0.001790759938591124
-0.013046160159506817   -0.05450255205537648   -0.001534081919984796
-0.019352230986509615   -0.04647986422250097   -0.0013088078301112928
-0.014583020388991405   -0.04668234565704474   -0.0012238693912696116
-0.014556002534494374   -0.046744015410493056   -0.0013115072302894543
-0.013046160159506817   -0.05450255205537648   -0.001534081919984796
-0.019352230986509615   -0.04647986422250097   -0.0013088078301112928
-0.014556002534494374   -0.046744015410493056   -0.0013115072302894543
-0.01731853011736038   -0.05431595762039926   -0.001790759938591124
-0.013046160159506817   -0.05450255205537648   -0.001534081919984796
-0.014583020388991405   -0.04668234565704474   -0.0012238693912696116
-0.017158801749845787   -0.054249215989149016   -0.0016251728125309774
-0.013014081940441987   -0.05446173514480722   -0.0014197849041703344
-0.014583020388991405   -0.04668234565704474   -0.0012238693912696116
-0.019352230986509615   -0.04647986422250097   -0.0013088078301112928
-0.017158801749845787   -0.054249215989149016   -0.0016251728125309774
-0.019273203343188935   -0.04644381342609286   -0.0011709668513575598
-0.013014081940441987   -0.05446173514480722   -0.0014197849041703344
-0.017022214996165158   -0.05421355517127293   -0.0014493923837188732
-0.019273203343188935   -0.04644381342609286   -0.0011709668513575598
-0.017158801749845787   -0.054249215989149016   -0.0016251728125309774
-0.013014081940441987   -0.05446173514480722   -0.0014197849041703344
-0.019273203343188935   -0.04644381342609286   -0.0011709668513575598
-0.014586447578115396   -0.0466397563697758   -0.001130542916726409
-0.014583020388991405   -0.04668234565704474   -0.0012238693912696116
-0.013014081940441987   -0.05446173514480722   -0.0014197849041703344
-0.019273203343188935   -0.04644381342609286   -0.0011709668513575598
-0.014583020388991405   -0.04668234565704474   -0.0012238693912696116
-0.017158801749845787   -0.054249215989149016   -0.0016251728125309774
-0.013014081940441987   -0.05446173514480722   -0.0014197849041703344
-0.014586447578115396   -0.0466397563697758   -0.001130542916726409
-0.017022214996165158   -0.05421355517127293   -0.0014493923837188732
-0.012992651108698409   -0.054450961498950796   -0.001297998231996844
-0.014586447578115396   -0.0466397563697758   -0.001130542916726409
-0.019273203343188935   -0.04644381342609286   -0.0011709668513575598
-0.017022214996165158   -0.05421355517127293   -0.0014493923837188732
-0.01914286970479873   -0.04644523560609703   -0.0010244314460895957
-0.012992651108698409   -0.054450961498950796   -0.001297998231996844
-0.016825119530152314   -0.05422554138364374   -0.0012648165899996153
-0.01914286970479873   -0.04644523560609703   -0.0010244314460895957
-0.017022214996165158   -0.05421355517127293   -0.0014493923837188732
-0.012992651108698409   -0.054450961498950796   -0.001297998231996844
-0.01914286970479873   -0.04644523560609703   -0.0010244314460895957
-0.014596579432284451   -0.04661922461084833   -0.001030322690310644
-0.014586447578115396   -0.0466397563697758   -0.001130542916726409
-0.012992651108698409   -0.054450961498950796   -0.001297998231996844
-0.01914286970479873   -0.04644523560609703   -0.0010244314460895957
-0.014586447578115396   -0.0466397563697758   -0.001130542916726409
-0.017022214996165158   -0.05421355517127293   -0.0014493923837188732
0.0034112590175631777   -0.046971440620094444   -0.0005349260953611137
0.004106167710169599   -0.03823947587176121   -0.00027256613844770325
-0.0012365460483274471   -0.04701928703597101   -0.0007841941682960503
0.003456579138365337   -0.04683870866642821   -0.0006109155412134025
0.004106167710169599   -0.03823947587176121   -0.00027256613844770325
-0.0010544744738194614   -0.03823848945312089   -0.0005036928416089662
-0.0012365460483274471   -0.04701928703597101   -0.0007841941682960503
-0.001100556269963257   -0.03812806366286498   -0.0005071802757150972
0.003456579138365337   -0.04683870866642821   -0.0006109155412134025
-0.0012583513619464572   -0.04690511354811016   -0.0008099264122756068
-0.001100556269963257   -0.03812806366286498   -0.0005071802757150972
-0.0012365460483274471   -0.04701928703597101   -0.0007841941682960503
0.003456579138365337   -0.04683870866642821   -0.0006109155412134025
-0.001100556269963257   -0.03812806366286498   -0.0005071802757150972
0.004091470415158641   -0.038112414943978455   -0.0003090761770639056
0.004106167710169599   -0.03823947587176121   -0.00027256613844770325
0.003456579138365337   -0.04683870866642821   -0.0006109155412134025
-0.001100556269963257   -0.03812806366286498   -0.0005071802757150972
0.004106167710169599   -0.03823947587176121   -0.00027256613844770325
-0.0012365460483274471   -0.04701928703597101   -0.0007841941682960503
0.003456579138365337   -0.04683870866642821   -0.0006109155412134025
0.004091470415158641   -0.038112414943978455   -0.0003090761770639056
-0.0012583513619464572   -0.04690511354811016   -0.0008099264122756068
0.0034704476071521517   -0.046742085977044205   -0.000677273092849533
0.004091470415158641   -0.038112414943978455   -0.0003090761770639056
-0.001100556269963257   -0.03812806366286498   -0.0005071802757150972
-0.0012583513619464572   -0.04690511354811016   -0.0008099264122756068
-0.0011517628814986076   -0.03803307715468529   -0.00050487633337323
0.0034704476071521517   -0.046742085977044205   -0.000677273092849533
-0.0012812609996000575   -0.046814875769405156   -0.0008291303430673398
-0.0011517628814986076   -0.03803307715468529   -0.00050487633337323
-0.0012583513619464572   -0.04690511354811016   -0.0008099264122756068
0.0034704476071521517   -0.046742085977044205   -0.000677273092849533
-0.0011517628814986076   -0.03803307715468529   -0.00050487633337323
0.004054517509793142   -0.03801026117488629   -0.0003363036439318538
0.004091470415158641   -0.038112414943978455   -0.0003090761770639056
0.0034704476071521517   -0.046742085977044205   -0.000677273092849533
-0.0011517628814986076   -0.03803307715468529   -0.00050487633337323
0.004091470415158641   -0.038112414943978455   -0.0003090761770639056
-0.0012583513619464572   -0.04690511354811016   -0.0008099264122756068
0.0034704476071521517   -0.046742085977044205   -0.000677273092849533
0.004054517509793142   -0.03801026117488629   -0.0003363036439318538
-0.0012812609996000575   -0.046814875769405156   -0.0008291303430673398
0.003478347821399557   -0.04666451573109054   -0.000734454911240326
0.004054517509793142   -0.03801026117488629   -0.0003363036439318538
-0.0011517628814986076   -0.03803307715468529   -0.00050487633337323
-0.0012812609996000575   -0.046814875769405156   -0.0008291303430673398
-0.0012153467226412207   -0.03795106459052448   -0.0004965526993368848
0.003478347821399557   -0.04666451573109054   -0.000734454911240326
-0.0013203254979229338   -0.04674573359195748   -0.0008420265490930108
-0.0012153467226412207   -0.03795106459052448   -0.0004965526993368848
-0.0012812609996000575   -0.046814875769405156   -0.0008291303430673398
0.003478347821399557   -0.04666451573109054   -0.000734454911240326
-0.0012153467226412207   -0.03795106459052448   -0.0004965526993368848
0.004002898332261091   -0.037916319685011975   -0.00035489681650375594
0.004054517509793142   -0.03801026117488629   -0.0003363036439318538
0.003478347821399557   -0.04666451573109054   -0.000734454911240326
-0.0012153467226412207   -0.03795106459052448   -0.0004965526993368848
0.004054517509793142   -0.03801026117488629   -0.0003363036439318538
-0.0012812609996000575   -0.046814875769405156   -0.0008291303430673398
-0.0012365460483274471   -0.04701928703597101   -0.0007841941682960503
-0.0010544744738194614   -0.03823848945312089   -0.0005036928416089662
-0.005691824806752806   -0.046994777485099226   -0.0009893909979908442
-0.0012583513619464572   -0.04690511354811016   -0.0008099264122756068
-0.0010544744738194614   -0.03823848945312089   -0.0005036928416089662
-0.005976908917037068   -0.0381918578832624   -0.0006943696392492292
-0.005691824806752806   -0.046994777485099226   -0.0009893909979908442
-0.006028512416609731   -0.03810022305220882   -0.0006742226025523375
-0.0012583513619464572   -0.04690511354811016   -0.0008099264122756068
-0.0057220996103815695   -0.04689938508890168   -0.0009773812721454145
-0.006028512416609731   -0.03810022305220882   -0.0006742226025523375
-0.005691824806752806   -0.046994777485099226   -0.0009893909979908442
-0.0012583513619464572   -0.04690511354811016   -0.0008099264122756068
-0.006028512416609731   -0.03810022305220882   -0.0006742226025523375
-0.001100556269963257   -0.03812806366286498   -0.0005071802757150972
-0.0010544744738194614   -0.03823848945312089   -0.0005036928416089662
-0.0012583513619464572   -0.04690511354811016   -0.0008099264122756068
-0.006028512416609731   -0.03810022305220882   -0.0006742226025523375
-0.0010544744738194614   -0.03823848945312089   -0.0005036928416089662
-0.005691824806752806   -0.046994777485099226   -0.0009893909979908442
-0.0012583513619464572   -0.04690511354811016   -0.0008099264122756068
-0.001100556269963257   -0.03812806366286498   -0.0005071802757150972
-0.0057220996103815695   -0.04689938508890168   -0.0009773812721454145
-0.0012812609996000575   -0.046814875769405156   -0.0008291303430673398
-0.001100556269963257   -0.03812806366286498   -0.0005071802757150972
-0.006028512416609731   -0.03810022305220882   -0.0006742226025523375
-0.0057220996103815695   -0.04689938508890168   -0.0009773812721454145
-0.006081155811798416   -0.03802115668834072   -0.0006480423739289047
-0.0012812609996000575   -0.046814875769405156   -0.0008291303430673398
-0.005752790481743052   -0.046824509915432716   -0.0009586502603028627
-0.006081155811798416   -0.03802115668834072   -0.0006480423739289047
-0.0057220996103815695   -0.04689938508890168   -0.0009773812721454145
-0.0012812609996000575   -0.046814875769405156   -0.0008291303430673398
-0.006081155811798416   -0.03802115668834072   -0.0006480423739289047
-0.0011517628814986076   -0.03803307715468529   -0.00050487633337323
-0.001100556269963257   -0.03812806366286498   -0.0005071802757150972
-0.0012812609996000575   -0.046814875769405156   -0.0008291303430673398
-0.006081155811798416   -0.03802115668834072   -0.0006480423739289047
-0.001100556269963257   -0.03812806366286498   -0.0005071802757150972
-0.0057220996103815695   -0.04689938508890168   -0.0009773812721454145
-0.0012812609996000575   -0.046814875769405156   -0.0008291303430673398
-0.0011517628814986076   -0.03803307715468529   -0.00050487633337323
-0.005752790481743052   -0.046824509915432716   -0.0009586502603028627
-0.0013203254979229338   -0.04674573359195748   -0.0008420265490930108
-0.0011517628814986076   -0.03803307715468529   -0.00050487633337323
-0.006081155811798416   -0.03802115668834072   -0.0006480423739289047
-0.005752790481743052   -0.046824509915432716   -0.0009586502603028627
-0.006138255523713901   -0.037955406957295136   -0.0006161124870886416
-0.0013203254979229338   -0.04674573359195748   -0.0008420265490930108
-0.0057882640366263985   -0.046770500102175996   -0.0009335226937275062
-0.006138255523713901   -0.037955406957295136   -0.0006161124870886416
-0.005752790481743052   -0.046824509915432716   -0.0009586502603028627
-0.0013203254979229338   -0.04674573359195748   -0.0008420265490930108
-0.006138255523713901   -0.037955406957295136   -0.0006161124870886416
-0.0012153467226412207   -0.03795106459052448   -0.0004965526993368848
-0.0011517628814986076   -0.03803307715468529   -0.00050487633337323
-0.0013203254979229338   -0.04674573359195748   -0.0008420265490930108
-0.006138255523713901   -0.037955406957295136   -0.0006161124870886416
-0.0011517628814986076   -0.03803307715468529   -0.00050487633337323
-0.005752790481743052   -0.046824509915432716   -0.0009586502603028627
-0.005691824806752806   -0.046994777485099226   -0.0009893909979908442
-0.005976908917037068   -0.0381918578832624   -0.0006943696392492292
-0.010071826269792066   -0.04690240734154978   -0.0011649371540831512
-0.0057220996103815695   -0.04689938508890168   -0.0009773812721454145
-0.005976908917037068   -0.0381918578832624   -0.0006943696392492292
-0.010816117090744795   -0.038104766677281535   -0.0008551903316165479
-0.010071826269792066   -0.04690240734154978   -0.0011649371540831512
-0.01086925368491424   -0.038030450522269235   -0.0008114534284075897
-0.0057220996103815695   -0.04689938508890168   -0.0009773812721454145
-0.010104496133360698   -0.04682407528691296   -0.001115369338727524
-0.01086925368491424   -0.038030450522269235   -0.0008114534284075897
-0.010071826269792066   -0.04690240734154978   -0.0011649371540831512
-0.0057220996103815695   -0.04689938508890168   -0.0009773812721454145
-0.01086925368491424   -0.038030450522269235   -0.0008114534284075897
-0.006028512416609731   -0.03810022305220882   -0.0006742226025523375
-0.005976908917037068   -0.0381918578832624   -0.0006943696392492292
-0.0057220996103815695   -0.04689938508890168   -0.0009773812721454145
-0.01086925368491424   -0.038030450522269235   -0.0008114534284075897
-0.005976908917037068   -0.0381918578832624   -0.0006943696392492292
-0.010071826269792066   -0.04690240734154978   -0.0011649371540831512
-0.0057220996103815695   -0.04689938508890168   -0.0009773812721454145
-0.006028512416609731   -0.03810022305220882   -0.0006742226025523375
-0.010104496133360698   -0.04682407528691296   -0.001115369338727524
-0.005752790481743052   -0.046824509915432716   -0.0009586502603028627
-0.006028512416609731   -0.03810022305220882   -0.0006742226025523375
-0.01086925368491424   -0.038030450522269235   -0.0008114534284075897
-0.010104496133360698   -0.04682407528691296   -0.001115369338727524
-0.010917453388209352   -0.037968614002356606   -0.0007618241480520389
-0.005752790481743052   -0.046824509915432716   -0.0009586502603028627
-0.01013155885150978   -0.04676606456874096   -0.001059199429770035
-0.010917453388209352   -0.037968614002356606   -0.0007618241480520389
-0.010104496133360698   -0.04682407528691296   -0.001115369338727524
-0.005752790481743052   -0.046824509915432716   -0.0009586502603028627
-0.010917453388209352   -0.037968614002356606   -0.0007618241480520389
-0.006081155811798416   -0.03802115668834072   -0.0006480423739289047
-0.006028512416609731   -0.03810022305220882   -0.0006742226025523375
-0.005752790481743052   -0.046824509915432716   -0.0009586502603028627
-0.010917453388209352   -0.037968614002356606   -0.0007618241480520389
-0.006028512416609731   -0.03810022305220882   -0.0006742226025523375
-0.010104496133360698   -0.04682407528691296   -0.001115369338727524
-0.005752790481743052   -0.046824509915432716   -0.0009586502603028627
-0.006081155811798416   -0.03802115668834072   -0.0006480423739289047
-0.01013155885150978   -0.04676606456874096   -0.001059199429770035
-0.0057882640366263985   -0.046770500102175996   -0.0009335226937275062
-0.006081155811798416   -0.03802115668834072   -0.0006480423739289047
-0.010917453388209352   -0.037968614002356606   -0.0007618241480520389
-0.01013155885150978   -0.04676606456874096   -0.001059199429770035
-0.010966110777120256   -0.03791936101470678   -0.0007065269241514256
-0.0057882640366263985   -0.046770500102175996   -0.0009335226937275062
-0.010159409918795107   -0.046728289849625855   -0.0009966215897298815
-0.010966110777120256   -0.03791936101470678   -0.0007065269241514256
-0.01013155885150978   -0.04676606456874096   -0.001059199429770035
-0.0057882640366263985   -0.046770500102175996   -0.0009335226937275062
-0.010966110777120256   -0.03791936101470678   -0.0007065269241514256
-0.006138255523713901   -0.037955406957295136   -0.0006161124870886416
-0.006081155811798416   -0.03802115668834072   -0.0006480423739289047
-0.0057882640366263985   -0.046770500102175996   -0.0009335226937275062
-0.010966110777120256   -0.03791936101470678   -0.0007065269241514256
-0.006081155811798416   -0.03802115668834072   -0.0006480423739289047
-0.01013155885150978   -0.04676606456874096   -0.001059199429770035
-0.010071826269792066   -0.04690240734154978   -0.0011649371540831512
-0.010816117090744795   -0.038104766677281535   -0.0008551903316165479
-0.014556002534494374   -0.046744015410493056   -0.0013115072302894543
-0.010104496133360698   -0.04682407528691296   -0.001115369338727524
-0.010816117090744795   -0.038104766677281535   -0.0008551903316165479
-0.01575119076454064   -0.037975364860233424   -0.0009865209435970762
-0.014556002534494374   -0.046744015410493056   -0.0013115072302894543
-0.015800519017980214   -0.037918512181618166   -0.0009190134730538132
-0.010104496133360698   -0.04682407528691296   -0.001115369338727524
-0.014583020388991405   -0.04668234565704474   -0.0012238693912696116
-0.015800519017980214   -0.037918512181618166   -0.0009190134730538132
-0.014556002534494374   -0.046744015410493056   -0.0013115072302894543
-0.010104496133360698   -0.04682407528691296   -0.001115369338727524
-0.015800519017980214   -0.037918512181618166   -0.0009190134730538132
-0.01086925368491424   -0.038030450522269235   -0.0008114534284075897
-0.010816117090744795   -0.038104766677281535   -0.0008551903316165479
-0.010104496133360698   -0.04682407528691296   -0.001115369338727524
-0.015800519017980214   -0.037918512181618166   -0.0009190134730538132
-0.010816117090744795   -0.038104766677281535   -0.0008551903316165479
-0.014556002534494374   -0.046744015410493056   -0.0013115072302894543
-0.010104496133360698   -0.04682407528691296   -0.001115369338727524
-0.01086925368491424   -0.038030450522269235   -0.0008114534284075897
-0.014583020388991405   -0.04668234565704474   -0.0012238693912696116
-0.01013155885150978   -0.04676606456874096   -0.001059199429770035
-0.01086925368491424   -0.038030450522269235   -0.0008114534284075897
-0.015800519017980214   -0.037918512181618166   -0.0009190134730538132
-0.014583020388991405   -0.04668234565704474   -0.0012238693912696116
-0.015830365551491744   -0.03787255543140225   -0.0008464081987781591
-0.01013155885150978   -0.04676606456874096   -0.001059199429770035
-0.014586447578115396   -0.0466397563697758   -0.001130542916726409
-0.015830365551491744   -0.03787255543140225   -0.0008464081987781591
-0.014583020388991405   -0.04668234565704474   -0.0012238693912696116
-0.01013155885150978   -0.04676606456874096   -0.001059199429770035
-0.015830365551491744   -0.03787255543140225   -0.0008464081987781591
-0.010917453388209352   -0.037968614002356606   -0.0007618241480520389
-0.01086925368491424   -0.038030450522269235   -0.0008114534284075897
-0.01013155885150978   -0.04676606456874096   -0.001059199429770035
-0.015830365551491744   -0.03787255543140225   -0.0008464081987781591
-0.01086925368491424   -0.038030450522269235   -0.0008114534284075897
-0.014583020388991405   -0.04668234565704474   -0.0012238693912696116
-0.01013155885150978   -0.04676606456874096   -0.001059199429770035
-0.010917453388209352   -0.037968614002356606   -0.0007618241480520389
-0.014586447578115396   -0.0466397563697758   -0.001130542916726409
-0.010159409918795107   -0.046728289849625855   -0.0009966215897298815
-0.010917453388209352   -0.037968614002356606   -0.0007618241480520389
-0.015830365551491744   -0.03787255543140225   -0.0008464081987781591
-0.014586447578115396   -0.0466397563697758   -0.001130542916726409
-0.015863165384812538   -0.03784027522569343   -0.0007676513435415303
-0.010159409918795107   -0.046728289849625855   -0.0009966215897298815
-0.014596579432284451   -0.04661922461084833   -0.001030322690310644
-0.015863165384812538   -0.03784027522569343   -0.0007676513435415303
-0.014586447578115396   -0.0466397563697758   -0.001130542916726409
-0.010159409918795107   -0.046728289849625855   -0.0009966215897298815
-0.015863165384812538   -0.03784027522569343   -0.0007676513435415303
-0.010966110777120256   -0.03791936101470678   -0.0007065269241514256
-0.010917453388209352   -0.037968614002356606   -0.0007618241480520389
-0.010159409918795107   -0.046728289849625855   -0.0009966215897298815
-0.015863165384812538   -0.03784027522569343   -0.0007676513435415303
-0.010917453388209352   -0.037968614002356606   -0.0007618241480520389
-0.014586447578115396   -0.0466397563697758   -0.001130542916726409
-0.014556002534494374   -0.046744015410493056   -0.0013115072302894543
-0.01575119076454064   -0.037975364860233424   -0.0009865209435970762
-0.019445978999678964   -0.04653619775160556   -0.001436715856144091
-0.014583020388991405   -0.04668234565704474   -0.0012238693912696116
-0.01575119076454064   -0.037975364860233424   -0.0009865209435970762
-0.02104793965252451   -0.03781611973142904   -0.0010909066568272003
-0.019445978999678964   -0.04653619775160556   -0.001436715856144091
-0.02101139188972221   -0.03776821538032308   -0.0010009396729602743
-0.014583020388991405   -0.04668234565704474   -0.0012238693912696116
-0.019352230986509615   -0.04647986422250097   -0.0013088078301112928
-0.02101139188972221   -0.03776821538032308   -0.0010009396729602743
-0.019445978999678964   -0.04653619775160556   -0.001436715856144091
-0.014583020388991405   -0.04668234565704474   -0.0012238693912696116
-0.02101139188972221   -0.03776821538032308   -0.0010009396729602743
-0.015800519017980214   -0.037918512181618166   -0.0009190134730538132
-0.01575119076454064   -0.037975364860233424   -0.0009865209435970762
-0.014583020388991405   -0.04668234565704474   -0.0012238693912696116
-0.02101139188972221   -0.03776821538032308   -0.0010009396729602743
-0.01575119076454064   -0.037975364860233424   -0.0009865209435970762
-0.019445978999678964   -0.04653619775160556   -0.001436715856144091
-0.014583020388991405   -0.04668234565704474   -0.0012238693912696116
-0.015800519017980214   -0.037918512181618166   -0.0009190134730538132
-0.019352230986509615   -0.04647986422250097   -0.0013088078301112928
-0.014586447578115396   -0.0466397563697758   -0.001130542916726409
-0.015800519017980214   -0.037918512181618166   -0.0009190134730538132
-0.02101139188972221   -0.03776821538032308   -0.0010009396729602743
-0.019352230986509615   -0.04647986422250097   -0.0013088078301112928
-0.020981606762159946   -0.03772974004992775   -0.0009016184053843463
-0.014586447578115396   -0.0466397563697758   -0.001130542916726409
-0.019273203343188935   -0.04644381342609286   -0.0011709668513575598
-0.020981606762159946   -0.03772974004992775   -0.0009016184053843463
-0.019352230986509615   -0.04647986422250097   -0.0013088078301112928
-0.014586447578115396   -0.0466397563697758   -0.001130542916726409
-0.020981606762159946   -0.03772974004992775   -0.0009016184053843463
-0.015830365551491744   -0.03787255543140225   -0.0008464081987781591
-0.015800519017980214   -0.037918512181618166   -0.0009190134730538132
-0.014586447578115396   -0.0466397563697758   -0.001130542916726409
-0.020981606762159946   -0.03772974004992775   -0.0009016184053843463
-0.015800519017980214   -0.037918512181618166   -0.0009190134730538132
-0.019352230986509615   -0.04647986422250097   -0.0013088078301112928
-0.014586447578115396   -0.0466397563697758   -0.001130542916726409
-0.015830365551491744   -0.03787255543140225   -0.0008464081987781591
-0.019273203343188935   -0.04644381342609286   -0.0011709668513575598
-0.014596579432284451   -0.04661922461084833   -0.001030322690310644
-0.015830365551491744   -0.03787255543140225   -0.0008464081987781591
-0.020981606762159946   -0.03772974004992775   -0.0009016184053843463
-0.019273203343188935   -0.04644381342609286   -0.0011709668513575598
-0.02091020176085765   -0.03771781650691769   -0.0007940096277969932
-0.014596579432284451   -0.04661922461084833   -0.001030322690310644
-0.01914286970479873   -0.04644523560609703   -0.0010244314460895957
-0.02091020176085765   -0.03771781650691769   -0.0007940096277969932
-0.019273203343188935   -0.04644381342609286   -0.0011709668513575598
-0.014596579432284451   -0.04661922461084833   -0.001030322690310644
-0.02091020176085765   -0.03771781650691769   -0.0007940096277969932
-0.015863165384812538   -0.03784027522569343   -0.0007676513435415303
-0.015830365551491744   -0.03787255543140225   -0.0008464081987781591
-0.014596579432284451   -0.04661922461084833   -0.001030322690310644
-0.02091020176085765   -0.03771781650691769   -0.0007940096277969932
-0.015830365551491744   -0.03787255543140225   -0.0008464081987781591
-0.019273203343188935   -0.04644381342609286   -0.0011709668513575598
0.004106167710169599   -0.03823947587176121   -0.00027256613844770325
0.004246360137989828   -0.02890251275474091   -4.2812059859606525e-05
-0.0010544744738194614   -0.03823848945312089   -0.0005036928416089662
0.004091470415158641   -0.038112414943978455   -0.0003090761770639056
0.004246360137989828   -0.02890251275474091   -4.2812059859606525e-05
-0.0012080187043662005   -0.028854628142176868   -0.0002505624052419374
-0.0010544744738194614   -0.03823848945312089   -0.0005036928416089662
-0.0012713080386897017   -0.028748962006248185   -0.00023180000812301257
0.004091470415158641   -0.038112414943978455   -0.0003090761770639056
-0.001100556269963257   -0.03812806366286498   -0.0005071802757150972
-0.0012713080386897017   -0.028748962006248185   -0.00023180000812301257
-0.0010544744738194614   -0.03823848945312089   -0.0005036928416089662
0.004091470415158641   -0.038112414943978455   -0.0003090761770639056
-0.0012713080386897017   -0.028748962006248185   -0.00023180000812301257
0.004179305163975562   -0.02878132756323223   -3.9139553350813954e-05
0.004246360137989828   -0.02890251275474091   -4.2812059859606525e-05
0.004091470415158641   -0.038112414943978455   -0.0003090761770639056
-0.0012713080386897017   -0.028748962006248185   -0.00023180000812301257
0.004246360137989828   -0.02890251275474091   -4.2812059859606525e-05
-0.0010544744738194614   -0.03823848945312089   -0.0005036928416089662
0.004091470415158641   -0.038112414943978455   -0.0003090761770639056
0.004179305163975562   -0.02878132756323223   -3.9139553350813954e-05
-0.001100556269963257   -0.03812806366286498   -0.0005071802757150972
0.004054517509793142   -0.03801026117488629   -0.0003363036439318538
0.004179305163975562   -0.02878132756323223   -3.9139553350813954e-05
-0.0012713080386897017   -0.028748962006248185   -0.00023180000812301257
-0.001100556269963257   -0.03812806366286498   -0.0005071802757150972
-0.0013437738391899397   -0.0286492732003516   -0.000207784181714299
0.004054517509793142   -0.03801026117488629   -0.0003363036439318538
-0.0011517628814986076   -0.03803307715468529   -0.00050487633337323
-0.0013437738391899397   -0.0286492732003516   -0.000207784181714299
-0.001100556269963257   -0.03812806366286498   -0.0005071802757150972
0.004054517509793142   -0.03801026117488629   -0.0003363036439318538
-0.0013437738391899397   -0.0286492732003516   -0.000207784181714299
0.004096912945323115   -0.02867310312394322   -2.473423003606271e-05
0.004179305163975562   -0.02878132756323223   -3.9139553350813954e-05
0.004054517509793142   -0.03801026117488629   -0.0003363036439318538
-0.0013437738391899397   -0.0286492732003516   -0.000207784181714299
0.004179305163975562   -0.02878132756323223   -3.9139553350813954e-05
-0.001100556269963257   -0.03812806366286498   -0.0005071802757150972
0.004054517509793142   -0.03801026117488629   -0.0003363036439318538
0.004096912945323115   -0.02867310312394322   -2.473423003606271e-05
-0.0011517628814986076   -0.03803307715468529   -0.00050487633337323
0.004002898332261091   -0.037916319685011975   -0.00035489681650375594
0.004096912945323115   -0.02867310312394322   -2.473423003606271e-05
-0.0013437738391899397   -0.0286492732003516   -0.000207784181714299
-0.0011517628814986076   -0.03803307715468529   -0.00050487633337323
-0.0014251292870905948   -0.028554195270368534   -0.00017719829521094864
0.004002898332261091   -0.037916319685011975   -0.00035489681650375594
-0.0012153467226412207   -0.03795106459052448   -0.0004965526993368848
-0.0014251292870905948   -0.028554195270368534   -0.00017719829521094864
-0.0011517628814986076   -0.03803307715468529   -0.00050487633337323
0.004002898332261091   -0.037916319685011975   -0.00035489681650375594
-0.0014251292870905948   -0.028554195270368534   -0.00017719829521094864
0.003988282267589755   -0.028559928288531503   -8.133372413889884e-08
0.004096912945323115   -0.02867310312394322   -2.473423003606271e-05
0.004002898332261091   -0.037916319685011975   -0.00035489681650375594
-0.0014251292870905948   -0.028554195270368534   -0.00017719829521094864
0.004096912945323115   -0.02867310312394322   -2.473423003606271e-05
-0.0011517628814986076   -0.03803307715468529   -0.00050487633337323
-0.0010544744738194614   -0.03823848945312089   -0.0005036928416089662
-0.0012080187043662005   -0.028854628142176868   -0.0002505624052419374
-0.005976908917037068   -0.0381918578832624   -0.0006943696392492292
-0.001100556269963257   -0.03812806366286498   -0.0005071802757150972
-0.0012080187043662005   -0.028854628142176868   -0.0002505624052419374
-0.006376291252361114   -0.028798730230576462   -0.0004262974136177956
-0.005976908917037068   -0.0381918578832624   -0.0006943696392492292
-0.0064408768661176575   -0.028710391102879942   -0.0003974925674261485
-0.001100556269963257   -0.03812806366286498   -0.0005071802757150972
-0.006028512416609731   -0.03810022305220882   -0.0006742226025523375
-0.0064408768661176575   -0.028710391102879942   -0.0003974925674261485
-0.005976908917037068   -0.0381918578832624   -0.0006943696392492292
-0.001100556269963257   -0.03812806366286498   -0.0005071802757150972
-0.0064408768661176575   -0.028710391102879942   -0.0003974925674261485
-0.0012713080386897017   -0.028748962006248185   -0.00023180000812301257
-0.0012080187043662005   -0.028854628142176868   -0.0002505624052419374
-0.001100556269963257   -0.03812806366286498   -0.0005071802757150972
-0.0064408768661176575   -0.028710391102879942   -0.0003974925674261485
-0.0012080187043662005   -0.028854628142176868   -0.0002505624052419374
-0.005976908917037068   -0.0381918578832624   -0.0006943696392492292
-0.001100556269963257   -0.03812806366286498   -0.0005071802757150972
-0.0012713080386897017   -0.028748962006248185   -0.00023180000812301257
-0.006028512416609731   -0.03810022305220882   -0.0006742226025523375
-0.0011517628814986076   -0.03803307715468529   -0.00050487633337323
-0.0012713080386897017   -0.028748962006248185   -0.00023180000812301257
-0.0064408768661176575   -0.028710391102879942   -0.0003974925674261485
-0.006028512416609731   -0.03810022305220882   -0.0006742226025523375
-0.0065069112886355935   -0.02862669076509724   -0.0003636803966489509
-0.0011517628814986076   -0.03803307715468529   -0.00050487633337323
-0.006081155811798416   -0.03802115668834072   -0.0006480423739289047
-0.0065069112886355935   -0.02862669076509724   -0.0003636803966489509
-0.006028512416609731   -0.03810022305220882   -0.0006742226025523375
-0.0011517628814986076   -0.03803307715468529   -0.00050487633337323
-0.0065069112886355935   -0.02862669076509724   -0.0003636803966489509
-0.0013437738391899397   -0.0286492732003516   -0.000207784181714299
-0.0012713080386897017   -0.028748962006248185   -0.00023180000812301257
-0.0011517628814986076   -0.03803307715468529   -0.00050487633337323
-0.0065069112886355935   -0.02862669076509724   -0.0003636803966489509
-0.0012713080386897017   -0.028748962006248185   -0.00023180000812301257
-0.006028512416609731   -0.03810022305220882   -0.0006742226025523375
-0.0011517628814986076   -0.03803307715468529   -0.00050487633337323
-0.0013437738391899397   -0.0286492732003516   -0.000207784181714299
-0.006081155811798416   -0.03802115668834072   -0.0006480423739289047
-0.0012153467226412207   -0.03795106459052448   -0.0004965526993368848
-0.0013437738391899397   -0.0286492732003516   -0.000207784181714299
-0.0065069112886355935   -0.02862669076509724   -0.0003636803966489509
-0.006081155811798416   -0.03802115668834072   -0.0006480423739289047
-0.006577148739563248   -0.028548928131925225   -0.0003248074941730149
-0.0012153467226412207   -0.03795106459052448   -0.0004965526993368848
-0.006138255523713901   -0.037955406957295136   -0.0006161124870886416
-0.006577148739563248   -0.028548928131925225   -0.0003248074941730149
-0.006081155811798416   -0.03802115668834072   -0.0006480423739289047
-0.0012153467226412207   -0.03795106459052448   -0.0004965526993368848
-0.006577148739563248   -0.028548928131925225   -0.0003248074941730149
-0.0014251292870905948   -0.028554195270368534   -0.00017719829521094864
-0.0013437738391899397   -0.0286492732003516   -0.000207784181714299
-0.0012153467226412207   -0.03795106459052448   -0.0004965526993368848
-0.006577148739563248   -0.028548928131925225   -0.0003248074941730149
-0.0013437738391899397   -0.0286492732003516   -0.000207784181714299
-0.006081155811798416   -0.03802115668834072   -0.0006480423739289047
-0.005976908917037068   -0.0381918578832624   -0.0006943696392492292
-0.006376291252361114   -0.028798730230576462   -0.0004262974136177956
-0.010816117090744795   -0.038104766677281535   -0.0008551903316165479
-0.006028512416609731   -0.03810022305220882   -0.0006742226025523375
-0.006376291252361114   -0.028798730230576462   -0.0004262974136177956
-0.011460439461735857   -0.028731658104964832   -0.0005754902405776205
-0.010816117090744795   -0.038104766677281535   -0.0008551903316165479
-0.011524566697636674   -0.028659371143159956   -0.000536653540254874
-0.006028512416609731   -0.03810022305220882   -0.0006742226025523375
-0.01086925368491424   -0.038030450522269235   -0.0008114534284075897
-0.011524566697636674   -0.028659371143159956   -0.000536653540254874
-0.010816117090744795   -0.038104766677281535   -0.0008551903316165479
-0.006028512416609731   -0.03810022305220882   -0.0006742226025523375
-0.011524566697636674   -0.028659371143159956   -0.000536653540254874
-0.0064408768661176575   -0.028710391102879942   -0.0003974925674261485
-0.006376291252361114   -0.028798730230576462   -0.0004262974136177956
-0.006028512416609731   -0.03810022305220882   -0.0006742226025523375
-0.011524566697636674   -0.028659371143159956   -0.000536653540254874
-0.006376291252361114   -0.028798730230576462   -0.0004262974136177956
-0.010816117090744795   -0.038104766677281535   -0.0008551903316165479
-0.006028512416609731   -0.03810022305220882   -0.0006742226025523375
-0.0064408768661176575   -0.028710391102879942   -0.0003974925674261485
-0.01086925368491424   -0.038030450522269235   -0.0008114534284075897
-0.006081155811798416   -0.03802115668834072   -0.0006480423739289047
-0.0064408768661176575   -0.028710391102879942   -0.0003974925674261485
-0.011524566697636674   -0.028659371143159956   -0.000536653540254874
-0.01086925368491424   -0.038030450522269235   -0.0008114534284075897
-0.01158454234043572   -0.02859198488975402   -0.0004929806793220658
-0.006081155811798416   -0.03802115668834072   -0.0006480423739289047
-0.010917453388209352   -0.037968614002356606   -0.0007618241480520389
-0.01158454234043572   -0.02859198488975402   -0.0004929806793220658
-0.01086925368491424   -0.038030450522269235   -0.0008114534284075897
-0.006081155811798416   -0.03802115668834072   -0.0006480423739289047
-0.01158454234043572   -0.02859198488975402   -0.0004929806793220658
-0.0065069112886355935   -0.02862669076509724   -0.0003636803966489509
-0.0064408768661176575   -0.028710391102879942   -0.0003974925674261485
-0.006081155811798416   -0.03802115668834072   -0.0006480423739289047
-0.01158454234043572   -0.02859198488975402   -0.0004929806793220658
-0.0064408768661176575   -0.028710391102879942   -0.0003974925674261485
-0.01086925368491424   -0.038030450522269235   -0.0008114534284075897
-0.006081155811798416   -0.03802115668834072   -0.0006480423739289047
-0.0065069112886355935   -0.02862669076509724   -0.0003636803966489509
-0.010917453388209352   -0.037968614002356606   -0.0007618241480520389
-0.006138255523713901   -0.037955406957295136   -0.0006161124870886416
-0.0065069112886355935   -0.02862669076509724   -0.0003636803966489509
-0.01158454234043572   -0.02859198488975402   -0.0004929806793220658
-0.010917453388209352   -0.037968614002356606   -0.0007618241480520389
-0.011644732599058363   -0.0285296856422323   -0.0004447109877343791
-0.006138255523713901   -0.037955406957295136   -0.0006161124870886416
-0.010966110777120256   -0.03791936101470678   -0.0007065269241514256
-0.011644732599058363   -0.0285296856422323   -0.0004447109877343791
-0.010917453388209352   -0.037968614002356606   -0.0007618241480520389
-0.006138255523713901   -0.037955406957295136   -0.0006161124870886416
-0.011644732599058363   -0.0285296856422323   -0.0004447109877343791
-0.006577148739563248   -0.028548928131925225   -0.0003248074941730149
-0.0065069112886355935   -0.02862669076509724   -0.0003636803966489509
-0.006138255523713901   -0.037955406957295136   -0.0006161124870886416
-0.011644732599058363   -0.0285296856422323   -0.0004447109877343791
-0.0065069112886355935   -0.02862669076509724   -0.0003636803966489509
-0.010917453388209352   -0.037968614002356606   -0.0007618241480520389
-0.010816117090744795   -0.038104766677281535   -0.0008551903316165479
-0.011460439461735857   -0.028731658104964832   -0.0005754902405776205
-0.01575119076454064   -0.037975364860233424   -0.0009865209435970762
-0.01086925368491424   -0.038030450522269235   -0.0008114534284075897
-0.011460439461735857   -0.028731658104964832   -0.0005754902405776205
-0.016636447133103097   -0.02864095751007338   -0.0006968651245707287
-0.01575119076454064   -0.037975364860233424   -0.0009865209435970762
-0.0166978527734148   -0.028585558205391808   -0.0006481160306758049
-0.01086925368491424   -0.038030450522269235   -0.0008114534284075897
-0.015800519017980214   -0.037918512181618166   -0.0009190134730538132
-0.0166978527734148   -0.028585558205391808   -0.0006481160306758049
-0.01575119076454064   -0.037975364860233424   -0.0009865209435970762
-0.01086925368491424   -0.038030450522269235   -0.0008114534284075897
-0.0166978527734148   -0.028585558205391808   -0.0006481160306758049
-0.011524566697636674   -0.028659371143159956   -0.000536653540254874
-0.011460439461735857   -0.028731658104964832   -0.0005754902405776205
-0.01086925368491424   -0.038030450522269235   -0.0008114534284075897
-0.0166978527734148   -0.028585558205391808   -0.0006481160306758049
-0.011460439461735857   -0.028731658104964832   -0.0005754902405776205
-0.01575119076454064   -0.037975364860233424   -0.0009865209435970762
-0.01086925368491424   -0.038030450522269235   -0.0008114534284075897
-0.011524566697636674   -0.028659371143159956   -0.000536653540254874
-0.015800519017980214   -0.037918512181618166   -0.0009190134730538132
-0.010917453388209352   -0.037968614002356606   -0.0007618241480520389
-0.011524566697636674   -0.028659371143159956   -0.000536653540254874
-0.0166978527734148   -0.028585558205391808   -0.0006481160306758049
-0.015800519017980214   -0.037918512181618166   -0.0009190134730538132
-0.016744382572403235   -0.028533197763880976   -0.0005953279043853496
-0.010917453388209352   -0.037968614002356606   -0.0007618241480520389
-0.015830365551491744   -0.03787255543140225   -0.0008464081987781591
-0.016744382572403235   -0.028533197763880976   -0.0005953279043853496
-0.015800519017980214   -0.037918512181618166   -0.0009190134730538132
-0.010917453388209352   -0.037968614002356606   -0.0007618241480520389
-0.016744382572403235   -0.028533197763880976   -0.0005953279043853496
-0.01158454234043572   -0.02859198488975402   -0.0004929806793220658
-0.011524566697636674   -0.028659371143159956   -0.000536653540254874
-0.010917453388209352   -0.037968614002356606   -0.0007618241480520389
-0.016744382572403235   -0.028533197763880976   -0.0005953279043853496
-0.011524566697636674   -0.028659371143159956   -0.000536653540254874
-0.015800519017980214   -0.037918512181618166   -0.0009190134730538132
-0.010917453388209352   -0.037968614002356606   -0.0007618241480520389
-0.01158454234043572   -0.02859198488975402   -0.0004929806793220658
-0.015830365551491744   -0.03787255543140225   -0.0008464081987781591
-0.010966110777120256   -0.03791936101470678   -0.0007065269241514256
-0.01158454234043572   -0.02859198488975402   -0.0004929806793220658
-0.016744382572403235   -0.028533197763880976   -0.0005953279043853496
-0.015830365551491744   -0.03787255543140225   -0.0008464081987781591
-0.016790555255351117   -0.028486207501970683   -0.0005374478314889782
-0.010966110777120256   -0.03791936101470678   -0.0007065269241514256
-0.015863165384812538   -0.03784027522569343   -0.0007676513435415303
-0.016790555255351117   -0.028486207501970683   -0.0005374478314889782
-0.015830365551491744   -0.03787255543140225   -0.0008464081987781591
-0.010966110777120256   -0.03791936101470678   -0.0007065269241514256
-0.016790555255351117   -0.028486207501970683   -0.0005374478314889782
-0.011644732599058363   -0.0285296856422323   -0.0004447109877343791
-0.01158454234043572   -0.02859198488975402   -0.0004929806793220658
-0.010966110777120256   -0.03791936101470678   -0.0007065269241514256
-0.016790555255351117   -0.028486207501970683   -0.0005374478314889782
-0.01158454234043572   -0.02859198488975402   -0.0004929806793220658
-0.015830365551491744   -0.03787255543140225   -0.0008464081987781591
-0.01575119076454064   -0.037975364860233424   -0.0009865209435970762
-0.016636447133103097   -0.02864095751007338   -0.0006968651245707287
-0.02104793965252451   -0.03781611973142904   -0.0010909066568272003
-0.015800519017980214   -0.037918512181618166   -0.0009190134730538132
-0.016636447133103097   -0.02864095751007338   -0.0006968651245707287
-0.022122514801328447   -0.028533752993276488   -0.0007868474559200137
-0.02104793965252451   -0.03781611973142904   -0.0010909066568272003
-0.022131773073366903   -0.028489590547603503   -0.0007329493305209468
-0.015800519017980214   -0.037918512181618166   -0.0009190134730538132
-0.02101139188972221   -0.03776821538032308   -0.0010009396729602743
-0.022131773073366903   -0.028489590547603503   -0.0007329493305209468
-0.02104793965252451   -0.03781611973142904   -0.0010909066568272003
-0.015800519017980214   -0.037918512181618166   -0.0009190134730538132
-0.022131773073366903   -0.028489590547603503   -0.0007329493305209468
-0.0166978527734148   -0.028585558205391808   -0.0006481160306758049
-0.016636447133103097   -0.02864095751007338   -0.0006968651245707287
-0.015800519017980214   -0.037918512181618166   -0.0009190134730538132
-0.022131773073366903   -0.028489590547603503   -0.0007329493305209468
-0.016636447133103097   -0.02864095751007338   -0.0006968651245707287
-0.02104793965252451   -0.03781611973142904   -0.0010909066568272003
-0.015800519017980214   -0.037918512181618166   -0.0009190134730538132
-0.0166978527734148   -0.028585558205391808   -0.0006481160306758049
-0.02101139188972221   -0.03776821538032308   -0.0010009396729602743
-0.015830365551491744   -0.03787255543140225   -0.0008464081987781591
-0.0166978527734148   -0.028585558205391808   -0.0006481160306758049
-0.022131773073366903   -0.028489590547603503   -0.0007329493305209468
-0.02101139188972221   -0.03776821538032308   -0.0010009396729602743
-0.02214130901846903   -0.02844494824685275   -0.0006709199493245057
-0.015830365551491744   -0.03787255543140225   -0.0008464081987781591
-0.020981606762159946   -0.03772974004992775   -0.0009016184053843463
-0.02214130901846903   -0.02844494824685275   -0.0006709199493245057
-0.02101139188972221   -0.03776821538032308   -0.0010009396729602743
-0.015830365551491744   -0.03787255543140225   -0.0008464081987781591
-0.02214130901846903   -0.02844494824685275   -0.0006709199493245057
-0.016744382572403235   -0.028533197763880976   -0.0005953279043853496
-0.0166978527734148   -0.028585558205391808   -0.0006481160306758049
-0.015830365551491744   -0.03787255543140225   -0.0008464081987781591
-0.02214130901846903   -0.02844494824685275   -0.0006709199493245057
-0.0166978527734148   -0.028585558205391808   -0.0006481160306758049
-0.02101139188972221   -0.03776821538032308   -0.0010009396729602743
-0.015830365551491744   -0.03787255543140225   -0.0008464081987781591
-0.016744382572403235   -0.028533197763880976   -0.0005953279043853496
-0.020981606762159946   -0.03772974004992775   -0.0009016184053843463
-0.015863165384812538   -0.03784027522569343   -0.0007676513435415303
-0.016744382572403235   -0.028533197763880976   -0.0005953279043853496
-0.02214130901846903   -0.02844494824685275   -0.0006709199493245057
-0.020981606762159946   -0.03772974004992775   -0.0009016184053843463
-0.022119961093624206   -0.02841568589403867   -0.0006017233764554986
-0.015863165384812538   -0.03784027522569343   -0.0007676513435415303
-0.02091020176085765   -0.03771781650691769   -0.0007940096277969932
-0.022119961093624206   -0.02841568589403867   -0.0006017233764554986
-0.020981606762159946   -0.03772974004992775   -0.0009016184053843463
-0.015863165384812538   -0.03784027522569343   -0.0007676513435415303
-0.022119961093624206   -0.02841568589403867   -0.0006017233764554986
-0.016790555255351117   -0.028486207501970683   -0.0005374478314889782
-0.016744382572403235   -0.028533197763880976   -0.0005953279043853496
-0.015863165384812538   -0.03784027522569343   -0.0007676513435415303
-0.022119961093624206   -0.02841568589403867   -0.0006017233764554986
-0.016744382572403235   -0.028533197763880976   -0.0005953279043853496
-0.020981606762159946   -0.03772974004992775   -0.0009016184053843463
0.004246360137989828   -0.02890251275474091   -4.2812059859606525e-05
0.0038076173854728027   -0.019286539488361953   0.00011578223239676145
-0.0012080187043662005   -0.028854628142176868   -0.0002505624052419374
0.004179305163975562   -0.02878132756323223   -3.9139553350813954e-05
0.0038076173854728027   -0.019286539488361953   0.00011578223239676145
-0.0016883317761820227   -0.019196040534996794   -4.918767129055092e-05
-0.0012080187043662005   -0.028854628142176868   -0.0002505624052419374
-0.001763999461634795   -0.019100412963269094   -9.934497695234671e-06
0.004179305163975562   -0.02878132756323223   -3.9139553350813954e-05
-0.0012713080386897017   -0.028748962006248185   -0.00023180000812301257
-0.001763999461634795   -0.019100412963269094   -9.934497695234671e-06
-0.0012080187043662005   -0.028854628142176868   -0.0002505624052419374
0.004179305163975562   -0.02878132756323223   -3.9139553350813954e-05
-0.001763999461634795   -0.019100412963269094   -9.934497695234671e-06
0.0036885195691490854   -0.01917110576194437   0.00016456775017897814
0.0038076173854728027   -0.019286539488361953   0.00011578223239676145
0.004179305163975562   -0.02878132756323223   -3.9139553350813954e-05
-0.001763999461634795   -0.019100412963269094   -9.934497695234671e-06
0.0038076173854728027   -0.019286539488361953   0.00011578223239676145
-0.0012080187043662005   -0.028854628142176868   -0.0002505624052419374
0.004179305163975562   -0.02878132756323223   -3.9139553350813954e-05
0.0036885195691490854   -0.01917110576194437   0.00016456775017897814
-0.0012713080386897017   -0.028748962006248185   -0.00023180000812301257
0.004096912945323115   -0.02867310312394322   -2.473423003606271e-05
0.0036885195691490854   -0.01917110576194437   0.00016456775017897814
-0.001763999461634795   -0.019100412963269094   -9.934497695234671e-06
-0.0012713080386897017   -0.028748962006248185   -0.00023180000812301257
-0.0018525301498118994   -0.018999503986967446   3.631247740810105e-05
0.004096912945323115   -0.02867310312394322   -2.473423003606271e-05
-0.0013437738391899397   -0.0286492732003516   -0.000207784181714299
-0.0018525301498118994   -0.018999503986967446   3.631247740810105e-05
-0.0012713080386897017   -0.028748962006248185   -0.00023180000812301257
0.004096912945323115   -0.02867310312394322   -2.473423003606271e-05
-0.0018525301498118994   -0.018999503986967446   3.631247740810105e-05
0.0035555049529163362   -0.01905650925290508   0.0002347040797384217
0.0036885195691490854   -0.01917110576194437   0.00016456775017897814
0.004096912945323115   -0.02867310312394322   -2.473423003606271e-05
-0.0018525301498118994   -0.018999503986967446   3.631247740810105e-05
0.0036885195691490854   -0.01917110576194437   0.00016456775017897814
-0.0012713080386897017   -0.028748962006248185   -0.00023180000812301257
0.004096912945323115   -0.02867310312394322   -2.473423003606271e-05
0.0035555049529163362   -0.01905650925290508   0.0002347040797384217
-0.0013437738391899397   -0.0286492732003516   -0.000207784181714299
0.003988282267589755   -0.028559928288531503   -8.133372413889884e-08
0.0035555049529163362   -0.01905650925290508   0.0002347040797384217
-0.0018525301498118994   -0.018999503986967446   3.631247740810105e-05
-0.0013437738391899397   -0.0286492732003516   -0.000207784181714299
-0.001944119615097728   -0.018892376095708863   8.946193106221241e-05
0.003988282267589755   -0.028559928288531503   -8.133372413889884e-08
-0.0014251292870905948   -0.028554195270368534   -0.00017719829521094864
-0.001944119615097728   -0.018892376095708863   8.946193106221241e-05
-0.0013437738391899397   -0.0286492732003516   -0.000207784181714299
0.003988282267589755   -0.028559928288531503   -8.133372413889884e-08
-0.001944119615097728   -0.018892376095708863   8.946193106221241e-05
0.0033929716157088067   -0.01891571807146825   0.00031189098513618123
0.0035555049529163362   -0.01905650925290508   0.0002347040797384217
0.003988282267589755   -0.028559928288531503   -8.133372413889884e-08
-0.001944119615097728   -0.018892376095708863   8.946193106221241e-05
0.0035555049529163362   -0.01905650925290508   0.0002347040797384217
-0.0013437738391899397   -0.0286492732003516   -0.000207784181714299
-0.0012080187043662005   -0.028854628142176868   -0.0002505624052419374
-0.0016883317761820227   -0.019196040534996794   -4.918767129055092e-05
-0.006376291252361114   -0.028798730230576462   -0.0004262974136177956
-0.0012713080386897017   -0.028748962006248185   -0.00023180000812301257
-0.0016883317761820227   -0.019196040534996794   -4.918767129055092e-05
-0.0068634656424099065   -0.019172612950456833   -0.0002081422376002414
-0.006376291252361114   -0.028798730230576462   -0.0004262974136177956
-0.006931891334386903   -0.019089193640280416   -0.00017158579734303676
-0.0012713080386897017   -0.028748962006248185   -0.00023180000812301257
-0.0064408768661176575   -0.028710391102879942   -0.0003974925674261485
-0.006931891334386903   -0.019089193640280416   -0.00017158579734303676
-0.006376291252361114   -0.028798730230576462   -0.0004262974136177956
-0.0012713080386897017   -0.028748962006248185   -0.00023180000812301257
-0.006931891334386903   -0.019089193640280416   -0.00017158579734303676
-0.001763999461634795   -0.019100412963269094   -9.934497695234671e-06
-0.0016883317761820227   -0.019196040534996794   -4.918767129055092e-05
-0.0012713080386897017   -0.028748962006248185   -0.00023180000812301257
-0.006931891334386903   -0.019089193640280416   -0.00017158579734303676
-0.0016883317761820227   -0.019196040534996794   -4.918767129055092e-05
-0.006376291252361114   -0.028798730230576462   -0.0004262974136177956
-0.0012713080386897017   -0.028748962006248185   -0.00023180000812301257
-0.001763999461634795   -0.019100412963269094   -9.934497695234671e-06
-0.0064408768661176575   -0.028710391102879942   -0.0003974925674261485
-0.0013437738391899397   -0.0286492732003516   -0.000207784181714299
-0.001763999461634795   -0.019100412963269094   -9.934497695234671e-06
-0.006931891334386903   -0.019089193640280416   -0.00017158579734303676
-0.0064408768661176575   -0.028710391102879942   -0.0003974925674261485
-0.007002681099832823   -0.01900242870615148   -0.00013139616804124456
-0.0013437738391899397   -0.0286492732003516   -0.000207784181714299
-0.0065069112886355935   -0.02862669076509724   -0.0003636803966489509
-0.007002681099832823   -0.01900242870615148   -0.00013139616804124456
-0.0064408768661176575   -0.028710391102879942   -0.0003974925674261485
-0.0013437738391899397   -0.0286492732003516   -0.000207784181714299
-0.007002681099832823   -0.01900242870615148   -0.00013139616804124456
-0.0018525301498118994   -0.018999503986967446   3.631247740810105e-05
-0.001763999461634795   -0.019100412963269094   -9.934497695234671e-06
-0.0013437738391899397   -0.0286492732003516   -0.000207784181714299
-0.007002681099832823   -0.01900242870615148   -0.00013139616804124456
-0.001763999461634795   -0.019100412963269094   -9.934497695234671e-06
-0.0064408768661176575   -0.028710391102879942   -0.0003974925674261485
-0.0013437738391899397   -0.0286492732003516   -0.000207784181714299
-0.0018525301498118994   -0.018999503986967446   3.631247740810105e-05
-0.0065069112886355935   -0.02862669076509724   -0.0003636803966489509
-0.0014251292870905948   -0.028554195270368534   -0.00017719829521094864
-0.0018525301498118994   -0.018999503986967446   3.631247740810105e-05
-0.007002681099832823   -0.01900242870615148   -0.00013139616804124456
-0.0065069112886355935   -0.02862669076509724   -0.0003636803966489509
-0.007076385727210288   -0.018913879702860837   -8.684871153848329e-05
-0.0014251292870905948   -0.028554195270368534   -0.00017719829521094864
-0.006577148739563248   -0.028548928131925225   -0.0003248074941730149
-0.007076385727210288   -0.018913879702860837   -8.684871153848329e-05
-0.0065069112886355935   -0.02862669076509724   -0.0003636803966489509
-0.0014251292870905948   -0.028554195270368534   -0.00017719829521094864
-0.007076385727210288   -0.018913879702860837   -8.684871153848329e-05
-0.001944119615097728   -0.018892376095708863   8.946193106221241e-05
-0.0018525301498118994   -0.018999503986967446   3.631247740810105e-05
-0.0014251292870905948   -0.028554195270368534   -0.00017719829521094864
-0.007076385727210288   -0.018913879702860837   -8.684871153848329e-05
-0.0018525301498118994   -0.018999503986967446   3.631247740810105e-05
-0.0065069112886355935   -0.02862669076509724   -0.0003636803966489509
-0.006376291252361114   -0.028798730230576462   -0.0004262974136177956
-0.0068634656424099065   -0.019172612950456833   -0.0002081422376002414
-0.011460439461735857   -0.028731658104964832   -0.0005754902405776205
-0.0064408768661176575   -0.028710391102879942   -0.0003974925674261485
-0.0068634656424099065   -0.019172612950456833   -0.0002081422376002414
-0.011985336972546817   -0.019166090786869438   -0.0003517847148758057
-0.011460439461735857   -0.028731658104964832   -0.0005754902405776205
-0.012050765436383374   -0.019092976248169274   -0.0003168813013663958
-0.0064408768661176575   -0.028710391102879942   -0.0003974925674261485
-0.011524566697636674   -0.028659371143159956   -0.000536653540254874
-0.012050765436383374   -0.019092976248169274   -0.0003168813013663958
-0.011460439461735857   -0.028731658104964832   -0.0005754902405776205
-0.0064408768661176575   -0.028710391102879942   -0.0003974925674261485
-0.012050765436383374   -0.019092976248169274   -0.0003168813013663958
-0.006931891334386903   -0.019089193640280416   -0.00017158579734303676
-0.0068634656424099065   -0.019172612950456833   -0.0002081422376002414
-0.0064408768661176575   -0.028710391102879942   -0.0003974925674261485
-0.012050765436383374   -0.019092976248169274   -0.0003168813013663958
-0.0068634656424099065   -0.019172612950456833   -0.0002081422376002414
-0.011460439461735857   -0.028731658104964832   -0.0005754902405776205
-0.0064408768661176575   -0.028710391102879942   -0.0003974925674261485
-0.006931891334386903   -0.019089193640280416   -0.00017158579734303676
-0.011524566697636674   -0.028659371143159956   -0.000536653540254874
-0.0065069112886355935   -0.02862669076509724   -0.0003636803966489509
-0.006931891334386903   -0.019089193640280416   -0.00017158579734303676
-0.012050765436383374   -0.019092976248169274   -0.0003168813013663958
-0.011524566697636674   -0.028659371143159956   -0.000536653540254874
-0.012113093784958172   -0.019018550380855138   -0.00027879988681321145
-0.0065069112886355935   -0.02862669076509724   -0.0003636803966489509
-0.01158454234043572   -0.02859198488975402   -0.0004929806793220658
-0.012113093784958172   -0.019018550380855138   -0.00027879988681321145
-0.011524566697636674   -0.028659371143159956   -0.000536653540254874
-0.0065069112886355935   -0.02862669076509724   -0.0003636803966489509
-0.012113093784958172   -0.019018550380855138   -0.00027879988681321145
-0.007002681099832823   -0.01900242870615148   -0.00013139616804124456
-0.006931891334386903   -0.019089193640280416   -0.00017158579734303676
-0.0065069112886355935   -0.02862669076509724   -0.0003636803966489509
-0.012113093784958172   -0.019018550380855138   -0.00027879988681321145
-0.006931891334386903   -0.019089193640280416   -0.00017158579734303676
-0.011524566697636674   -0.028659371143159956   -0.000536653540254874
-0.0065069112886355935   -0.02862669076509724   -0.0003636803966489509
-0.007002681099832823   -0.01900242870615148   -0.00013139616804124456
-0.01158454234043572   -0.02859198488975402   -0.0004929806793220658
-0.006577148739563248   -0.028548928131925225   -0.0003248074941730149
-0.007002681099832823   -0.01900242870615148   -0.00013139616804124456
-0.012113093784958172   -0.019018550380855138   -0.00027879988681321145
-0.01158454234043572   -0.02859198488975402   -0.0004929806793220658
-0.0121747958603249   -0.018942386937522492   -0.00023771965814018228
-0.006577148739563248   -0.028548928131925225   -0.0003248074941730149
-0.011644732599058363   -0.0285296856422323   -0.0004447109877343791
-0.0121747958603249   -0.018942386937522492   -0.00023771965814018228
-0.01158454234043572   -0.02859198488975402   -0.0004929806793220658
-0.006577148739563248   -0.028548928131925225   -0.0003248074941730149
-0.0121747958603249   -0.018942386937522492   -0.00023771965814018228
-0.007076385727210288   -0.018913879702860837   -8.684871153848329e-05
-0.007002681099832823   -0.01900242870615148   -0.00013139616804124456
-0.006577148739563248   -0.028548928131925225   -0.0003248074941730149
-0.0121747958603249   -0.018942386937522492   -0.00023771965814018228
-0.007002681099832823   -0.01900242870615148   -0.00013139616804124456
-0.01158454234043572   -0.02859198488975402   -0.0004929806793220658
-0.011460439461735857   -0.028731658104964832   -0.0005754902405776205
-0.011985336972546817   -0.019166090786869438   -0.0003517847148758057
-0.016636447133103097   -0.02864095751007338   -0.0006968651245707287
-0.011524566697636674   -0.028659371143159956   -0.000536653540254874
-0.011985336972546817   -0.019166090786869438   -0.0003517847148758057
-0.017215738815647585   -0.01913629355880782   -0.0004723682797035121
-0.016636447133103097   -0.02864095751007338   -0.0006968651245707287
-0.017278112704345813   -0.01907675790196015   -0.0004392977444752975
-0.011524566697636674   -0.028659371143159956   -0.000536653540254874
-0.0166978527734148   -0.028585558205391808   -0.0006481160306758049
-0.017278112704345813   -0.01907675790196015   -0.0004392977444752975
-0.016636447133103097   -0.02864095751007338   -0.0006968651245707287
-0.011524566697636674   -0.028659371143159956   -0.000536653540254874
-0.017278112704345813   -0.01907675790196015   -0.0004392977444752975
-0.012050765436383374   -0.019092976248169274   -0.0003168813013663958
-0.011985336972546817   -0.019166090786869438   -0.0003517847148758057
-0.011524566697636674   -0.028659371143159956   -0.000536653540254874
-0.017278112704345813   -0.01907675790196015   -0.0004392977444752975
-0.011985336972546817   -0.019166090786869438   -0.0003517847148758057
-0.016636447133103097   -0.02864095751007338   -0.0006968651245707287
-0.011524566697636674   -0.028659371143159956   -0.000536653540254874
-0.012050765436383374   -0.019092976248169274   -0.0003168813013663958
-0.0166978527734148   -0.028585558205391808   -0.0006481160306758049
-0.01158454234043572   -0.02859198488975402   -0.0004929806793220658
-0.012050765436383374   -0.019092976248169274   -0.0003168813013663958
-0.017278112704345813   -0.01907675790196015   -0.0004392977444752975
-0.0166978527734148   -0.028585558205391808   -0.0006481160306758049
-0.017330948174522794   -0.019013960662484196   -0.0004039674609126647
-0.01158454234043572   -0.02859198488975402   -0.0004929806793220658
-0.016744382572403235   -0.028533197763880976   -0.0005953279043853496
-0.017330948174522794   -0.019013960662484196   -0.0004039674609126647
-0.0166978527734148   -0.028585558205391808   -0.0006481160306758049
-0.01158454234043572   -0.02859198488975402   -0.0004929806793220658
-0.017330948174522794   -0.019013960662484196   -0.0004039674609126647
-0.012113093784958172   -0.019018550380855138   -0.00027879988681321145
-0.012050765436383374   -0.019092976248169274   -0.0003168813013663958
-0.01158454234043572   -0.02859198488975402   -0.0004929806793220658
-0.017330948174522794   -0.019013960662484196   -0.0004039674609126647
-0.012050765436383374   -0.019092976248169274   -0.0003168813013663958
-0.0166978527734148   -0.028585558205391808   -0.0006481160306758049
-0.01158454234043572   -0.02859198488975402   -0.0004929806793220658
-0.012113093784958172   -0.019018550380855138   -0.00027879988681321145
-0.016744382572403235   -0.028533197763880976   -0.0005953279043853496
-0.011644732599058363   -0.0285296856422323   -0.0004447109877343791
-0.012113093784958172   -0.019018550380855138   -0.00027879988681321145
-0.017330948174522794   -0.019013960662484196   -0.0004039674609126647
-0.016744382572403235   -0.028533197763880976   -0.0005953279043853496
-0.01738088465240128   -0.018949520466462318   -0.0003653960225279127
-0.011644732599058363   -0.0285296856422323   -0.0004447109877343791
-0.016790555255351117   -0.028486207501970683   -0.0005374478314889782
-0.01738088465240128   -0.018949520466462318   -0.0003653960225279127
-0.016744382572403235   -0.028533197763880976   -0.0005953279043853496
-0.011644732599058363   -0.0285296856422323   -0.0004447109877343791
-0.01738088465240128   -0.018949520466462318   -0.0003653960225279127
-0.0121747958603249   -0.018942386937522492   -0.00023771965814018228
-0.012113093784958172   -0.019018550380855138   -0.00027879988681321145
-0.011644732599058363   -0.0285296856422323   -0.0004447109877343791
-0.01738088465240128   -0.018949520466462318   -0.0003653960225279127
-0.012113093784958172   -0.019018550380855138   -0.00027879988681321145
-0.016744382572403235   -0.028533197763880976   -0.0005953279043853496
-0.016636447133103097   -0.02864095751007338   -0.0006968651245707287
-0.017215738815647585   -0.01913629355880782   -0.0004723682797035121
-0.022122514801328447   -0.028533752993276488   -0.0007868474559200137
-0.0166978527734148   -0.028585558205391808   -0.0006481160306758049
-0.017215738815647585   -0.01913629355880782   -0.0004723682797035121
-0.022694889059531452   -0.019087163708899096   -0.0005614648729135056
-0.022122514801328447   -0.028533752993276488   -0.0007868474559200137
-0.022733581267955716   -0.019037240158436657   -0.0005366155971397519
-0.0166978527734148   -0.028585558205391808   -0.0006481160306758049
-0.022131773073366903   -0.028489590547603503   -0.0007329493305209468
-0.022733581267955716   -0.019037240158436657   -0.0005366155971397519
-0.022122514801328447   -0.028533752993276488   -0.0007868474559200137
-0.0166978527734148   -0.028585558205391808   -0.0006481160306758049
-0.022733581267955716   -0.019037240158436657   -0.0005366155971397519
-0.017278112704345813   -0.01907675790196015   -0.0004392977444752975
-0.017215738815647585   -0.01913629355880782   -0.0004723682797035121
-0.0166978527734148   -0.028585558205391808   -0.0006481160306758049
-0.022733581267955716   -0.019037240158436657   -0.0005366155971397519
-0.017215738815647585   -0.01913629355880782   -0.0004723682797035121
-0.022122514801328447   -0.028533752993276488   -0.0007868474559200137
-0.0166978527734148   -0.028585558205391808   -0.0006481160306758049
-0.017278112704345813   -0.01907675790196015   -0.0004392977444752975
-0.022131773073366903   -0.028489590547603503   -0.0007329493305209468
-0.016744382572403235   -0.028533197763880976   -0.0005953279043853496
-0.017278112704345813   -0.01907675790196015   -0.0004392977444752975
-0.022733581267955716   -0.019037240158436657   -0.0005366155971397519
-0.022131773073366903   -0.028489590547603503   -0.0007329493305209468
-0.02276896088413173   -0.018980727450545527   -0.000506228807937753
-0.016744382572403235   -0.028533197763880976   -0.0005953279043853496
-0.02214130901846903   -0.02844494824685275   -0.0006709199493245057
-0.02276896088413173   -0.018980727450545527   -0.000506228807937753
-0.022131773073366903   -0.028489590547603503   -0.0007329493305209468
-0.016744382572403235   -0.028533197763880976   -0.0005953279043853496
-0.02276896088413173   -0.018980727450545527   -0.000506228807937753
-0.017330948174522794   -0.019013960662484196   -0.0004039674609126647
-0.017278112704345813   -0.01907675790196015   -0.0004392977444752975
-0.016744382572403235   -0.028533197763880976   -0.0005953279043853496
-0.02276896088413173   -0.018980727450545527   -0.000506228807937753
-0.017278112704345813   -0.01907675790196015   -0.0004392977444752975
-0.022131773073366903   -0.028489590547603503   -0.0007329493305209468
-0.016744382572403235   -0.028533197763880976   -0.0005953279043853496
-0.017330948174522794   -0.019013960662484196   -0.0004039674609126647
-0.02214130901846903   -0.02844494824685275   -0.0006709199493245057
-0.016790555255351117   -0.028486207501970683   -0.0005374478314889782
-0.017330948174522794   -0.019013960662484196   -0.0004039674609126647
-0.02276896088413173   -0.018980727450545527   -0.000506228807937753
-0.02214130901846903   -0.02844494824685275   -0.0006709199493245057
-0.022786024881037856   -0.01892893409246973   -0.00047168543235763093
-0.016790555255351117   -0.028486207501970683   -0.0005374478314889782
-0.022119961093624206   -0.02841568589403867   -0.0006017233764554986
-0.022786024881037856   -0.01892893409246973   -0.00047168543235763093
-0.02214130901846903   -0.02844494824685275   -0.0006709199493245057
-0.016790555255351117   -0.028486207501970683   -0.0005374478314889782
-0.022786024881037856   -0.01892893409246973   -0.00047168543235763093
-0.01738088465240128   -0.018949520466462318   -0.0003653960225279127
-0.017330948174522794   -0.019013960662484196   -0.0004039674609126647
-0.016790555255351117   -0.028486207501970683   -0.0005374478314889782
-0.022786024881037856   -0.01892893409246973   -0.00047168543235763093
-0.017330948174522794   -0.019013960662484196   -0.0004039674609126647
-0.02214130901846903   -0.02844494824685275   -0.0006709199493245057
0.0038076173854728027   -0.019286539488361953   0.00011578223239676145
0.002668584527188484   -0.009687031084224107   0.00012449310675213045
-0.0016883317761820227   -0.019196040534996794   -4.918767129055092e-05
0.0036885195691490854   -0.01917110576194437   0.00016456775017897814
0.002668584527188484   -0.009687031084224107   0.00012449310675213045
-0.0024574064934047663   -0.009561725688125003   6.380631320381945e-05
-0.0016883317761820227   -0.019196040534996794   -4.918767129055092e-05
-0.002532711830254735   -0.009513594655537326   0.00011839982856337515
0.0036885195691490854   -0.01917110576194437   0.00016456775017897814
-0.001763999461634795   -0.019100412963269094   -9.934497695234671e-06
-0.002532711830254735   -0.009513594655537326   0.00011839982856337515
-0.0016883317761820227   -0.019196040534996794   -4.918767129055092e-05
0.0036885195691490854   -0.01917110576194437   0.00016456775017897814
-0.002532711830254735   -0.009513594655537326   0.00011839982856337515
0.0024338264016972293   -0.00956434292564999   0.000259583118840706
0.002668584527188484   -0.009687031084224107   0.00012449310675213045
0.0036885195691490854   -0.01917110576194437   0.00016456775017897814
-0.002532711830254735   -0.009513594655537326   0.00011839982856337515
0.002668584527188484   -0.009687031084224107   0.00012449310675213045
-0.0016883317761820227   -0.019196040534996794   -4.918767129055092e-05
0.0036885195691490854   -0.01917110576194437   0.00016456775017897814
0.0024338264016972293   -0.00956434292564999   0.000259583118840706
-0.001763999461634795   -0.019100412963269094   -9.934497695234671e-06
0.0035555049529163362   -0.01905650925290508   0.0002347040797384217
0.0024338264016972293   -0.00956434292564999   0.000259583118840706
-0.002532711830254735   -0.009513594655537326   0.00011839982856337515
-0.001763999461634795   -0.019100412963269094   -9.934497695234671e-06
-0.002631742012547345   -0.009427673868797061   0.00018470921339800356
0.0035555049529163362   -0.01905650925290508   0.0002347040797384217
-0.0018525301498118994   -0.018999503986967446   3.631247740810105e-05
-0.002631742012547345   -0.009427673868797061   0.00018470921339800356
-0.001763999461634795   -0.019100412963269094   -9.934497695234671e-06
0.0035555049529163362   -0.01905650925290508   0.0002347040797384217
-0.002631742012547345   -0.009427673868797061   0.00018470921339800356
0.002296383906929726   -0.009464084899759875   0.0003603625372577179
0.0024338264016972293   -0.00956434292564999   0.000259583118840706
0.0035555049529163362   -0.01905650925290508   0.0002347040797384217
-0.002631742012547345   -0.009427673868797061   0.00018470921339800356
0.0024338264016972293   -0.00956434292564999   0.000259583118840706
-0.001763999461634795   -0.019100412963269094   -9.934497695234671e-06
0.0035555049529163362   -0.01905650925290508   0.0002347040797384217
0.002296383906929726   -0.009464084899759875   0.0003603625372577179
-0.0018525301498118994   -0.018999503986967446   3.631247740810105e-05
0.0033929716157088067   -0.01891571807146825   0.00031189098513618123
0.002296383906929726   -0.009464084899759875   0.0003603625372577179
-0.002631742012547345   -0.009427673868797061   0.00018470921339800356
-0.0018525301498118994   -0.018999503986967446   3.631247740810105e-05
-0.002715026647686643   -0.009335326381203653   0.0002430769689312415
0.0033929716157088067   -0.01891571807146825   0.00031189098513618123
-0.001944119615097728   -0.018892376095708863   8.946193106221241e-05
-0.002715026647686643   -0.009335326381203653   0.0002430769689312415
-0.0018525301498118994   -0.018999503986967446   3.631247740810105e-05
0.0033929716157088067   -0.01891571807146825   0.00031189098513618123
-0.002715026647686643   -0.009335326381203653   0.0002430769689312415
0.0021202027739250077   -0.009310763629158563   0.00047577452868827484
0.002296383906929726   -0.009464084899759875   0.0003603625372577179
0.0033929716157088067   -0.01891571807146825   0.00031189098513618123
-0.002715026647686643   -0.009335326381203653   0.0002430769689312415
0.002296383906929726   -0.009464084899759875   0.0003603625372577179
-0.0018525301498118994   -0.018999503986967446   3.631247740810105e-05
-0.0016883317761820227   -0.019196040534996794   -4.918767129055092e-05
-0.0024574064934047663   -0.009561725688125003   6.380631320381945e-05
-0.0068634656424099065   -0.019172612950456833   -0.0002081422376002414
-0.001763999461634795   -0.019100412963269094   -9.934497695234671e-06
-0.0024574064934047663   -0.009561725688125003   6.380631320381945e-05
-0.007335408734622515   -0.009703267060587637   -6.252194427760238e-05
-0.0068634656424099065   -0.019172612950456833   -0.0002081422376002414
-0.00740480175298695   -0.009629521953398815   -2.3829330402995858e-05
-0.001763999461634795   -0.019100412963269094   -9.934497695234671e-06
-0.006931891334386903   -0.019089193640280416   -0.00017158579734303676
-0.00740480175298695   -0.009629521953398815   -2.3829330402995858e-05
-0.0068634656424099065   -0.019172612950456833   -0.0002081422376002414
-0.001763999461634795   -0.019100412963269094   -9.934497695234671e-06
-0.00740480175298695   -0.009629521953398815   -2.3829330402995858e-05
-0.002532711830254735   -0.009513594655537326   0.00011839982856337515
-0.0024574064934047663   -0.009561725688125003   6.380631320381945e-05
-0.001763999461634795   -0.019100412963269094   -9.934497695234671e-06
-0.00740480175298695   -0.009629521953398815   -2.3829330402995858e-05
-0.0024574064934047663   -0.009561725688125003   6.380631320381945e-05
-0.0068634656424099065   -0.019172612950456833   -0.0002081422376002414
-0.001763999461634795   -0.019100412963269094   -9.934497695234671e-06
-0.002532711830254735   -0.009513594655537326   0.00011839982856337515
-0.006931891334386903   -0.019089193640280416   -0.00017158579734303676
-0.0018525301498118994   -0.018999503986967446   3.631247740810105e-05
-0.002532711830254735   -0.009513594655537326   0.00011839982856337515
-0.00740480175298695   -0.009629521953398815   -2.3829330402995858e-05
-0.006931891334386903   -0.019089193640280416   -0.00017158579734303676
-0.007477466046244185   -0.009546220166444665   1.7134126924142046e-05
-0.0018525301498118994   -0.018999503986967446   3.631247740810105e-05
-0.007002681099832823   -0.01900242870615148   -0.00013139616804124456
-0.007477466046244185   -0.009546220166444665   1.7134126924142046e-05
-0.006931891334386903   -0.019089193640280416   -0.00017158579734303676
-0.0018525301498118994   -0.018999503986967446   3.631247740810105e-05
-0.007477466046244185   -0.009546220166444665   1.7134126924142046e-05
-0.002631742012547345   -0.009427673868797061   0.00018470921339800356
-0.002532711830254735   -0.009513594655537326   0.00011839982856337515
-0.0018525301498118994   -0.018999503986967446   3.631247740810105e-05
-0.007477466046244185   -0.009546220166444665   1.7134126924142046e-05
-0.002532711830254735   -0.009513594655537326   0.00011839982856337515
-0.006931891334386903   -0.019089193640280416   -0.00017158579734303676
-0.0018525301498118994   -0.018999503986967446   3.631247740810105e-05
-0.002631742012547345   -0.009427673868797061   0.00018470921339800356
-0.007002681099832823   -0.01900242870615148   -0.00013139616804124456
-0.001944119615097728   -0.018892376095708863   8.946193106221241e-05
-0.002631742012547345   -0.009427673868797061   0.00018470921339800356
-0.007477466046244185   -0.009546220166444665   1.7134126924142046e-05
-0.007002681099832823   -0.01900242870615148   -0.00013139616804124456
-0.007546556520724897   -0.009454921018953987   6.23190159840098e-05
-0.001944119615097728   -0.018892376095708863   8.946193106221241e-05
-0.007076385727210288   -0.018913879702860837   -8.684871153848329e-05
-0.007546556520724897   -0.009454921018953987   6.23190159840098e-05
-0.007002681099832823   -0.01900242870615148   -0.00013139616804124456
-0.001944119615097728   -0.018892376095708863   8.946193106221241e-05
-0.007546556520724897   -0.009454921018953987   6.23190159840098e-05
-0.002715026647686643   -0.009335326381203653   0.0002430769689312415
-0.002631742012547345   -0.009427673868797061   0.00018470921339800356
-0.001944119615097728   -0.018892376095708863   8.946193106221241e-05
-0.007546556520724897   -0.009454921018953987   6.23190159840098e-05
-0.002631742012547345   -0.009427673868797061   0.00018470921339800356
-0.007002681099832823   -0.01900242870615148   -0.00013139616804124456
-0.0068634656424099065   -0.019172612950456833   -0.0002081422376002414
-0.007335408734622515   -0.009703267060587637   -6.252194427760238e-05
-0.011985336972546817   -0.019166090786869438   -0.0003517847148758057
-0.006931891334386903   -0.019089193640280416   -0.00017158579734303676
-0.007335408734622515   -0.009703267060587637   -6.252194427760238e-05
-0.012332721171105489   -0.00981384178409782   -0.0002026259641153865
-0.011985336972546817   -0.019166090786869438   -0.0003517847148758057
-0.012395069309373544   -0.009738119374756847   -0.00017262662311466961
-0.006931891334386903   -0.019089193640280416   -0.00017158579734303676
-0.012050765436383374   -0.019092976248169274   -0.0003168813013663958
-0.012395069309373544   -0.009738119374756847   -0.00017262662311466961
-0.011985336972546817   -0.019166090786869438   -0.0003517847148758057
-0.006931891334386903   -0.019089193640280416   -0.00017158579734303676
-0.012395069309373544   -0.009738119374756847   -0.00017262662311466961
-0.00740480175298695   -0.009629521953398815   -2.3829330402995858e-05
-0.007335408734622515   -0.009703267060587637   -6.252194427760238e-05
-0.006931891334386903   -0.019089193640280416   -0.00017158579734303676
-0.012395069309373544   -0.009738119374756847   -0.00017262662311466961
-0.007335408734622515   -0.009703267060587637   -6.252194427760238e-05
-0.011985336972546817   -0.019166090786869438   -0.0003517847148758057
-0.006931891334386903   -0.019089193640280416   -0.00017158579734303676
-0.00740480175298695   -0.009629521953398815   -2.3829330402995858e-05
-0.012050765436383374   -0.019092976248169274   -0.0003168813013663958
-0.007002681099832823   -0.01900242870615148   -0.00013139616804124456
-0.00740480175298695   -0.009629521953398815   -2.3829330402995858e-05
-0.012395069309373544   -0.009738119374756847   -0.00017262662311466961
-0.012050765436383374   -0.019092976248169274   -0.0003168813013663958
-0.012454763329742768   -0.009658127691433812   -0.00014271497390073393
-0.007002681099832823   -0.01900242870615148   -0.00013139616804124456
-0.012113093784958172   -0.019018550380855138   -0.00027879988681321145
-0.012454763329742768   -0.009658127691433812   -0.00014271497390073393
-0.012050765436383374   -0.019092976248169274   -0.0003168813013663958
-0.007002681099832823   -0.01900242870615148   -0.00013139616804124456
-0.012454763329742768   -0.009658127691433812   -0.00014271497390073393
-0.007477466046244185   -0.009546220166444665   1.7134126924142046e-05
-0.00740480175298695   -0.009629521953398815   -2.3829330402995858e-05
-0.007002681099832823   -0.01900242870615148   -0.00013139616804124456
-0.012454763329742768   -0.009658127691433812   -0.00014271497390073393
-0.00740480175298695   -0.009629521953398815   -2.3829330402995858e-05
-0.012050765436383374   -0.019092976248169274   -0.0003168813013663958
-0.007002681099832823   -0.01900242870615148   -0.00013139616804124456
-0.007477466046244185   -0.009546220166444665   1.7134126924142046e-05
-0.012113093784958172   -0.019018550380855138   -0.00027879988681321145
-0.007076385727210288   -0.018913879702860837   -8.684871153848329e-05
-0.007477466046244185   -0.009546220166444665   1.7134126924142046e-05
-0.012454763329742768   -0.009658127691433812   -0.00014271497390073393
-0.012113093784958172   -0.019018550380855138   -0.00027879988681321145
-0.012509799048137173   -0.00957150823743722   -0.00011013980045365923
-0.007076385727210288   -0.018913879702860837   -8.684871153848329e-05
-0.0121747958603249   -0.018942386937522492   -0.00023771965814018228
-0.012509799048137173   -0.00957150823743722   -0.00011013980045365923
-0.012113093784958172   -0.019018550380855138   -0.00027879988681321145
-0.007076385727210288   -0.018913879702860837   -8.684871153848329e-05
-0.012509799048137173   -0.00957150823743722   -0.00011013980045365923
-0.007546556520724897   -0.009454921018953987   6.23190159840098e-05
-0.007477466046244185   -0.009546220166444665   1.7134126924142046e-05
-0.007076385727210288   -0.018913879702860837   -8.684871153848329e-05
-0.012509799048137173   -0.00957150823743722   -0.00011013980045365923
-0.007477466046244185   -0.009546220166444665   1.7134126924142046e-05
-0.012113093784958172   -0.019018550380855138   -0.00027879988681321145
-0.011985336972546817   -0.019166090786869438   -0.0003517847148758057
-0.012332721171105489   -0.00981384178409782   -0.0002026259641153865
-0.017215738815647585   -0.01913629355880782   -0.0004723682797035121
-0.012050765436383374   -0.019092976248169274   -0.0003168813013663958
-0.012332721171105489   -0.00981384178409782   -0.0002026259641153865
-0.017505577708341716   -0.0098592251019762   -0.0003319472537285692
-0.017215738815647585   -0.01913629355880782   -0.0004723682797035121
-0.017561753199928906   -0.009791234794706094   -0.0003100664284038696
-0.012050765436383374   -0.019092976248169274   -0.0003168813013663958
-0.017278112704345813   -0.01907675790196015   -0.0004392977444752975
-0.017561753199928906   -0.009791234794706094   -0.0003100664284038696
-0.017215738815647585   -0.01913629355880782   -0.0004723682797035121
-0.012050765436383374   -0.019092976248169274   -0.0003168813013663958
-0.017561753199928906   -0.009791234794706094   -0.0003100664284038696
-0.012395069309373544   -0.009738119374756847   -0.00017262662311466961
-0.012332721171105489   -0.00981384178409782   -0.0002026259641153865
-0.012050765436383374   -0.019092976248169274   -0.0003168813013663958
-0.017561753199928906   -0.009791234794706094   -0.0003100664284038696
-0.012332721171105489   -0.00981384178409782   -0.0002026259641153865
-0.017215738815647585   -0.01913629355880782   -0.0004723682797035121
-0.012050765436383374   -0.019092976248169274   -0.0003168813013663958
-0.012395069309373544   -0.009738119374756847   -0.00017262662311466961
-0.017278112704345813   -0.01907675790196015   -0.0004392977444752975
-0.012113093784958172   -0.019018550380855138   -0.00027879988681321145
-0.012395069309373544   -0.009738119374756847   -0.00017262662311466961
-0.017561753199928906   -0.009791234794706094   -0.0003100664284038696
-0.017278112704345813   -0.01907675790196015   -0.0004392977444752975
-0.017611812613495502   -0.00971716238888258   -0.00028880079331010557
-0.012113093784958172   -0.019018550380855138   -0.00027879988681321145
-0.017330948174522794   -0.019013960662484196   -0.0004039674609126647
-0.017611812613495502   -0.00971716238888258   -0.00028880079331010557
-0.017278112704345813   -0.01907675790196015   -0.0004392977444752975
-0.012113093784958172   -0.019018550380855138   -0.00027879988681321145
-0.017611812613495502   -0.00971716238888258   -0.00028880079331010557
-0.012454763329742768   -0.009658127691433812   -0.00014271497390073393
-0.012395069309373544   -0.009738119374756847   -0.00017262662311466961
-0.012113093784958172   -0.019018550380855138   -0.00027879988681321145
-0.017611812613495502   -0.00971716238888258   -0.00028880079331010557
-0.012395069309373544   -0.009738119374756847   -0.00017262662311466961
-0.017278112704345813   -0.01907675790196015   -0.0004392977444752975
-0.012113093784958172   -0.019018550380855138   -0.00027879988681321145
-0.012454763329742768   -0.009658127691433812   -0.00014271497390073393
-0.017330948174522794   -0.019013960662484196   -0.0004039674609126647
-0.0121747958603249   -0.018942386937522492   -0.00023771965814018228
-0.012454763329742768   -0.009658127691433812   -0.00014271497390073393
-0.017611812613495502   -0.00971716238888258   -0.00028880079331010557
-0.017330948174522794   -0.019013960662484196   -0.0004039674609126647
-0.017657146387652943   -0.009638303622800774   -0.0002668936825562827
-0.0121747958603249   -0.018942386937522492   -0.00023771965814018228
-0.01738088465240128   -0.018949520466462318   -0.0003653960225279127
-0.017657146387652943   -0.009638303622800774   -0.0002668936825562827
-0.017330948174522794   -0.019013960662484196   -0.0004039674609126647
-0.0121747958603249   -0.018942386937522492   -0.00023771965814018228
-0.017657146387652943   -0.009638303622800774   -0.0002668936825562827
-0.012509799048137173   -0.00957150823743722   -0.00011013980045365923
-0.012454763329742768   -0.009658127691433812   -0.00014271497390073393
-0.0121747958603249   -0.018942386937522492   -0.00023771965814018228
-0.017657146387652943   -0.009638303622800774   -0.0002668936825562827
-0.012454763329742768   -0.009658127691433812   -0.00014271497390073393
-0.017330948174522794   -0.019013960662484196   -0.0004039674609126647
-0.017215738815647585   -0.01913629355880782   -0.0004723682797035121
-0.017505577708341716   -0.0098592251019762   -0.0003319472537285692
-0.022694889059531452   -0.019087163708899096   -0.0005614648729135056
-0.017278112704345813   -0.01907675790196015   -0.0004392977444752975
-0.017505577708341716   -0.0098592251019762   -0.0003319472537285692
-0.02286283751518603   -0.009864286950357877   -0.00043924295125078697
-0.022694889059531452   -0.019087163708899096   -0.0005614648729135056
-0.02291109027707784   -0.009798299227827982   -0.0004298267471242292
-0.017278112704345813   -0.01907675790196015   -0.0004392977444752975
-0.022733581267955716   -0.019037240158436657   -0.0005366155971397519
-0.02291109027707784   -0.009798299227827982   -0.0004298267471242292
-0.022694889059531452   -0.019087163708899096   -0.0005614648729135056
-0.017278112704345813   -0.01907675790196015   -0.0004392977444752975
-0.02291109027707784   -0.009798299227827982   -0.0004298267471242292
-0.017561753199928906   -0.009791234794706094   -0.0003100664284038696
-0.017505577708341716   -0.0098592251019762   -0.0003319472537285692
-0.017278112704345813   -0.01907675790196015   -0.0004392977444752975
-0.02291109027707784   -0.009798299227827982   -0.0004298267471242292
-0.017505577708341716   -0.0098592251019762   -0.0003319472537285692
-0.022694889059531452   -0.019087163708899096   -0.0005614648729135056
-0.017278112704345813   -0.01907675790196015   -0.0004392977444752975
-0.017561753199928906   -0.009791234794706094   -0.0003100664284038696
-0.022733581267955716   -0.019037240158436657   -0.0005366155971397519
-0.017330948174522794   -0.019013960662484196   -0.0004039674609126647
-0.017561753199928906   -0.009791234794706094   -0.0003100664284038696
-0.02291109027707784   -0.009798299227827982   -0.0004298267471242292
-0.022733581267955716   -0.019037240158436657   -0.0005366155971397519
-0.022954320542342557   -0.009726935483453596   -0.0004188098517267401
-0.017330948174522794   -0.019013960662484196   -0.0004039674609126647
-0.02276896088413173   -0.018980727450545527   -0.000506228807937753
-0.022954320542342557   -0.009726935483453596   -0.0004188098517267401
-0.022733581267955716   -0.019037240158436657   -0.0005366155971397519
-0.017330948174522794   -0.019013960662484196   -0.0004039674609126647
-0.022954320542342557   -0.009726935483453596   -0.0004188098517267401
-0.017611812613495502   -0.00971716238888258   -0.00028880079331010557
-0.017561753199928906   -0.009791234794706094   -0.0003100664284038696
-0.017330948174522794   -0.019013960662484196   -0.0004039674609126647
-0.022954320542342557   -0.009726935483453596   -0.0004188098517267401
-0.017561753199928906   -0.009791234794706094   -0.0003100664284038696
-0.022733581267955716   -0.019037240158436657   -0.0005366155971397519
-0.017330948174522794   -0.019013960662484196   -0.0004039674609126647
-0.017611812613495502   -0.00971716238888258   -0.00028880079331010557
-0.02276896088413173   -0.018980727450545527   -0.000506228807937753
-0.01738088465240128   -0.018949520466462318   -0.0003653960225279127
-0.017611812613495502   -0.00971716238888258   -0.00028880079331010557
-0.022954320542342557   -0.009726935483453596   -0.0004188098517267401
-0.02276896088413173   -0.018980727450545527   -0.000506228807937753
-0.022990656740373466   -0.009651371486436704   -0.00040854948964693185
-0.01738088465240128   -0.018949520466462318   -0.0003653960225279127
-0.022786024881037856   -0.01892893409246973   -0.00047168543235763093
-0.022990656740373466   -0.009651371486436704   -0.00040854948964693185
-0.02276896088413173   -0.018980727450545527   -0.000506228807937753
-0.01738088465240128   -0.018949520466462318   -0.0003653960225279127
-0.022990656740373466   -0.009651371486436704   -0.00040854948964693185
-0.017657146387652943   -0.009638303622800774   -0.0002668936825562827
-0.017611812613495502   -0.00971716238888258   -0.00028880079331010557
-0.01738088465240128   -0.018949520466462318   -0.0003653960225279127
-0.022990656740373466   -0.009651371486436704   -0.00040854948964693185
-0.017611812613495502   -0.00971716238888258   -0.00028880079331010557
-0.02276896088413173   -0.018980727450545527   -0.000506228807937753
0.002668584527188484   -0.009687031084224107   0.00012449310675213045
0.0   0.0   0.0
-0.0024574064934047663   -0.009561725688125003   6.380631320381945e-05
0.0024338264016972293   -0.00956434292564999   0.000259583118840706
0.0   0.0   0.0
-0.003084744867363632   -0.0007825148361087989   -2.5900246508474514e-05
-0.0024574064934047663   -0.009561725688125003   6.380631320381945e-05
-0.0032690587434314076   -0.000608225391558222   8.039993742898992e-05
0.0024338264016972293   -0.00956434292564999   0.000259583118840706
-0.002532711830254735   -0.009513594655537326   0.00011839982856337515
-0.0032690587434314076   -0.000608225391558222   8.039993742898992e-05
-0.0024574064934047663   -0.009561725688125003   6.380631320381945e-05
0.0024338264016972293   -0.00956434292564999   0.000259583118840706
-0.0032690587434314076   -0.000608225391558222   8.039993742898992e-05
0.0   0.0   0.0
0.0   0.0   0.0
0.0024338264016972293   -0.00956434292564999   0.000259583118840706
-0.0032690587434314076   -0.000608225391558222   8.039993742898992e-05
0.0   0.0   0.0
-0.0024574064934047663   -0.009561725688125003   6.380631320381945e-05
0.0024338264016972293   -0.00956434292564999   0.000259583118840706
0.0   0.0   0.0
-0.002532711830254735   -0.009513594655537326   0.00011839982856337515
0.002296383906929726   -0.009464084899759875   0.0003603625372577179
0.0   0.0   0.0
-0.0032690587434314076   -0.000608225391558222   8.039993742898992e-05
-0.002532711830254735   -0.009513594655537326   0.00011839982856337515
-0.003384745109979943   -0.0005242452621917679   0.00014177564964574198
0.002296383906929726   -0.009464084899759875   0.0003603625372577179
-0.002631742012547345   -0.009427673868797061   0.00018470921339800356
-0.003384745109979943   -0.0005242452621917679   0.00014177564964574198
-0.002532711830254735   -0.009513594655537326   0.00011839982856337515
0.002296383906929726   -0.009464084899759875   0.0003603625372577179
-0.003384745109979943   -0.0005242452621917679   0.00014177564964574198
0.0   0.0   0.0
0.0   0.0   0.0
0.002296383906929726   -0.009464084899759875   0.0003603625372577179
-0.003384745109979943   -0.0005242452621917679   0.00014177564964574198
0.0   0.0   0.0
-0.002532711830254735   -0.009513594655537326   0.00011839982856337515
0.002296383906929726   -0.009464084899759875   0.0003603625372577179
0.0   0.0   0.0
-0.002631742012547345   -0.009427673868797061   0.00018470921339800356
0.0021202027739250077   -0.009310763629158563   0.00047577452868827484
0.0   0.0   0.0
-0.003384745109979943   -0.0005242452621917679   0.00014177564964574198
-0.002631742012547345   -0.009427673868797061   0.00018470921339800356
-0.003539869872497601   -0.00041271881272937134   0.00021222733500912187
0.0021202027739250077   -0.009310763629158563   0.00047577452868827484
-0.002715026647686643   -0.009335326381203653   0.0002430769689312415
-0.003539869872497601   -0.00041271881272937134   0.00021222733500912187
-0.002631742012547345   -0.009427673868797061   0.00018470921339800356
0.0021202027739250077   -0.009310763629158563   0.00047577452868827484
-0.003539869872497601   -0.00041271881272937134   0.00021222733500912187
0.0   0.0   0.0
0.0   0.0   0.0
0.0021202027739250077   -0.009310763629158563   0.00047577452868827484
-0.003539869872497601   -0.00041271881272937134   0.00021222733500912187
0.0   0.0   0.0
-0.002631742012547345   -0.009427673868797061   0.00018470921339800356
-0.0024574064934047663   -0.009561725688125003   6.380631320381945e-05
-0.003084744867363632   -0.0007825148361087989   -2.5900246508474514e-05
-0.007335408734622515   -0.009703267060587637   -6.252194427760238e-05
-0.002532711830254735   -0.009513594655537326   0.00011839982856337515
-0.003084744867363632   -0.0007825148361087989   -2.5900246508474514e-05
-0.007553931535572479   -0.0010251226628648707   -2.431677510628069e-05
-0.007335408734622515   -0.009703267060587637   -6.252194427760238e-05
-0.00764892111935059   -0.0009298692152950956   2.936886049298134e-06
-0.002532711830254735   -0.009513594655537326   0.00011839982856337515
-0.00740480175298695   -0.009629521953398815   -2.3829330402995858e-05
-0.00764892111935059   -0.0009298692152950956   2.936886049298134e-06
-0.007335408734622515   -0.009703267060587637   -6.252194427760238e-05
-0.002532711830254735   -0.009513594655537326   0.00011839982856337515
-0.00764892111935059   -0.0009298692152950956   2.936886049298134e-06
-0.0032690587434314076   -0.000608225391558222   8.039993742898992e-05
-0.003084744867363632   -0.0007825148361087989   -2.5900246508474514e-05
-0.002532711830254735   -0.009513594655537326   0.00011839982856337515
-0.00764892111935059   -0.0009298692152950956   2.936886049298134e-06
-0.003084744867363632   -0.0007825148361087989   -2.5900246508474514e-05
-0.007335408734622515   -0.009703267060587637   -6.252194427760238e-05
-0.002532711830254735   -0.009513594655537326   0.00011839982856337515
-0.0032690587434314076   -0.000608225391558222   8.039993742898992e-05
-0.00740480175298695   -0.009629521953398815   -2.3829330402995858e-05
-0.002631742012547345   -0.009427673868797061   0.00018470921339800356
-0.0032690587434314076   -0.000608225391558222   8.039993742898992e-05
-0.00764892111935059   -0.0009298692152950956   2.936886049298134e-06
-0.00740480175298695   -0.009629521953398815   -2.3829330402995858e-05
-0.007743515830897636   -0.0008184187857008513   5.175204001548816e-05
-0.002631742012547345   -0.009427673868797061   0.00018470921339800356
-0.007477466046244185   -0.009546220166444665   1.7134126924142046e-05
-0.007743515830897636   -0.0008184187857008513   5.175204001548816e-05
-0.00740480175298695   -0.009629521953398815   -2.3829330402995858e-05
-0.002631742012547345   -0.009427673868797061   0.00018470921339800356
-0.007743515830897636   -0.0008184187857008513   5.175204001548816e-05
-0.003384745109979943   -0.0005242452621917679   0.00014177564964574198
-0.0032690587434314076   -0.000608225391558222   8.039993742898992e-05
-0.002631742012547345   -0.009427673868797061   0.00018470921339800356
-0.007743515830897636   -0.0008184187857008513   5.175204001548816e-05
-0.0032690587434314076   -0.000608225391558222   8.039993742898992e-05
-0.00740480175298695   -0.009629521953398815   -2.3829330402995858e-05
-0.002631742012547345   -0.009427673868797061   0.00018470921339800356
-0.003384745109979943   -0.0005242452621917679   0.00014177564964574198
-0.007477466046244185   -0.009546220166444665   1.7134126924142046e-05
-0.002715026647686643   -0.009335326381203653   0.0002430769689312415
-0.003384745109979943   -0.0005242452621917679   0.00014177564964574198
-0.007743515830897636   -0.0008184187857008513   5.175204001548816e-05
-0.007477466046244185   -0.009546220166444665   1.7134126924142046e-05
-0.007848281051123994   -0.0006895651857331494   9.849436794935555e-05
-0.002715026647686643   -0.009335326381203653   0.0002430769689312415
-0.007546556520724897   -0.009454921018953987   6.23190159840098e-05
-0.007848281051123994   -0.0006895651857331494   9.849436794935555e-05
-0.007477466046244185   -0.009546220166444665   1.7134126924142046e-05
-0.002715026647686643   -0.009335326381203653   0.0002430769689312415
-0.007848281051123994   -0.0006895651857331494   9.849436794935555e-05
-0.003539869872497601   -0.00041271881272937134   0.00021222733500912187
-0.003384745109979943   -0.0005242452621917679   0.00014177564964574198
-0.002715026647686643   -0.009335326381203653   0.0002430769689312415
-0.007848281051123994   -0.0006895651857331494   9.849436794935555e-05
-0.003384745109979943   -0.0005242452621917679   0.00014177564964574198
-0.007477466046244185   -0.009546220166444665   1.7134126924142046e-05
-0.007335408734622515   -0.009703267060587637   -6.252194427760238e-05
-0.007553931535572479   -0.0010251226628648707   -2.431677510628069e-05
-0.012332721171105489   -0.00981384178409782   -0.0002026259641153865
-0.00740480175298695   -0.009629521953398815   -2.3829330402995858e-05
-0.007553931535572479   -0.0010251226628648707   -2.431677510628069e-05
-0.012454643667776119   -0.0010929197349551188   -0.00011297827984350021
-0.012332721171105489   -0.00981384178409782   -0.0002026259641153865
-0.01251226656117906   -0.0010186072512773084   -0.00010545434098255228
-0.00740480175298695   -0.009629521953398815   -2.3829330402995858e-05
-0.012395069309373544   -0.009738119374756847   -0.00017262662311466961
-0.01251226656117906   -0.0010186072512773084   -0.00010545434098255228
-0.012332721171105489   -0.00981384178409782   -0.0002026259641153865
-0.00740480175298695   -0.009629521953398815   -2.3829330402995858e-05
-0.01251226656117906   -0.0010186072512773084   -0.00010545434098255228
-0.00764892111935059   -0.0009298692152950956   2.936886049298134e-06
-0.007553931535572479   -0.0010251226628648707   -2.431677510628069e-05
-0.00740480175298695   -0.009629521953398815   -2.3829330402995858e-05
-0.01251226656117906   -0.0010186072512773084   -0.00010545434098255228
-0.007553931535572479   -0.0010251226628648707   -2.431677510628069e-05
-0.012332721171105489   -0.00981384178409782   -0.0002026259641153865
-0.00740480175298695   -0.009629521953398815   -2.3829330402995858e-05
-0.00764892111935059   -0.0009298692152950956   2.936886049298134e-06
-0.012395069309373544   -0.009738119374756847   -0.00017262662311466961
-0.007477466046244185   -0.009546220166444665   1.7134126924142046e-05
-0.00764892111935059   -0.0009298692152950956   2.936886049298134e-06
-0.01251226656117906   -0.0010186072512773084   -0.00010545434098255228
-0.012395069309373544   -0.009738119374756847   -0.00017262662311466961
-0.012572181341294808   -0.000932374021260288   -9.223561834703589e-05
-0.007477466046244185   -0.009546220166444665   1.7134126924142046e-05
-0.012454763329742768   -0.009658127691433812   -0.00014271497390073393
-0.012572181341294808   -0.000932374021260288   -9.223561834703589e-05
-0.012395069309373544   -0.009738119374756847   -0.00017262662311466961
-0.007477466046244185   -0.009546220166444665   1.7134126924142046e-05
-0.012572181341294808   -0.000932374021260288   -9.223561834703589e-05
-0.007743515830897636   -0.0008184187857008513   5.175204001548816e-05
-0.00764892111935059   -0.0009298692152950956   2.936886049298134e-06
-0.007477466046244185   -0.009546220166444665   1.7134126924142046e-05
-0.012572181341294808   -0.000932374021260288   -9.223561834703589e-05
-0.00764892111935059   -0.0009298692152950956   2.936886049298134e-06
-0.012395069309373544   -0.009738119374756847   -0.00017262662311466961
-0.007477466046244185   -0.009546220166444665   1.7134126924142046e-05
-0.007743515830897636   -0.0008184187857008513   5.175204001548816e-05
-0.012454763329742768   -0.009658127691433812   -0.00014271497390073393
-0.007546556520724897   -0.009454921018953987   6.23190159840098e-05
-0.007743515830897636   -0.0008184187857008513   5.175204001548816e-05
-0.012572181341294808   -0.000932374021260288   -9.223561834703589e-05
-0.012454763329742768   -0.009658127691433812   -0.00014271497390073393
-0.012629044022886806   -0.0008274839626826215   -7.474565389453939e-05
-0.007546556520724897   -0.009454921018953987   6.23190159840098e-05
-0.012509799048137173   -0.00957150823743722   -0.00011013980045365923
-0.012629044022886806   -0.0008274839626826215   -7.474565389453939e-05
-0.012454763329742768   -0.009658127691433812   -0.00014271497390073393
-0.007546556520724897   -0.009454921018953987   6.23190159840098e-05
-0.012629044022886806   -0.0008274839626826215   -7.474565389453939e-05
-0.007848281051123994   -0.0006895651857331494   9.849436794935555e-05
-0.007743515830897636   -0.0008184187857008513   5.175204001548816e-05
-0.007546556520724897   -0.009454921018953987   6.23190159840098e-05
-0.012629044022886806   -0.0008274839626826215   -7.474565389453939e-05
-0.007743515830897636   -0.0008184187857008513   5.175204001548816e-05
-0.012454763329742768   -0.009658127691433812   -0.00014271497390073393
-0.012332721171105489   -0.00981384178409782   -0.0002026259641153865
-0.012454643667776119   -0.0010929197349551188   -0.00011297827984350021
-0.017505577708341716   -0.0098592251019762   -0.0003319472537285692
-0.012395069309373544   -0.009738119374756847   -0.00017262662311466961
-0.012454643667776119   -0.0010929197349551188   -0.00011297827984350021
-0.017596157647763552   -0.001081272791280368   -0.00024040901265762193
-0.017505577708341716   -0.0098592251019762   -0.0003319472537285692
-0.017635074249030817   -0.0010144686976865588   -0.0002371915760510622
-0.012395069309373544   -0.009738119374756847   -0.00017262662311466961
-0.017561753199928906   -0.009791234794706094   -0.0003100664284038696
-0.017635074249030817   -0.0010144686976865588   -0.0002371915760510622
-0.017505577708341716   -0.0098592251019762   -0.0003319472537285692
-0.012395069309373544   -0.009738119374756847   -0.00017262662311466961
-0.017635074249030817   -0.0010144686976865588   -0.0002371915760510622
-0.01251226656117906   -0.0010186072512773084   -0.00010545434098255228
-0.012454643667776119   -0.0010929197349551188   -0.00011297827984350021
-0.012395069309373544   -0.009738119374756847   -0.00017262662311466961
-0.017635074249030817   -0.0010144686976865588   -0.0002371915760510622
-0.012454643667776119   -0.0010929197349551188   -0.00011297827984350021
-0.017505577708341716   -0.0098592251019762   -0.0003319472537285692
-0.012395069309373544   -0.009738119374756847   -0.00017262662311466961
-0.01251226656117906   -0.0010186072512773084   -0.00010545434098255228
-0.017561753199928906   -0.009791234794706094   -0.0003100664284038696
-0.012454763329742768   -0.009658127691433812   -0.00014271497390073393
-0.01251226656117906   -0.0010186072512773084   -0.00010545434098255228
-0.017635074249030817   -0.0010144686976865588   -0.0002371915760510622
-0.017561753199928906   -0.009791234794706094   -0.0003100664284038696
-0.017675676303746356   -0.0009401291197565643   -0.00023497472994607257
-0.012454763329742768   -0.009658127691433812   -0.00014271497390073393
-0.017611812613495502   -0.00971716238888258   -0.00028880079331010557
-0.017675676303746356   -0.0009401291197565643   -0.00023497472994607257
-0.017561753199928906   -0.009791234794706094   -0.0003100664284038696
-0.012454763329742768   -0.009658127691433812   -0.00014271497390073393
-0.017675676303746356   -0.0009401291197565643   -0.00023497472994607257
-0.012572181341294808   -0.000932374021260288   -9.223561834703589e-05
-0.01251226656117906   -0.0010186072512773084   -0.00010545434098255228
-0.012454763329742768   -0.009658127691433812   -0.00014271497390073393
-0.017675676303746356   -0.0009401291197565643   -0.00023497472994607257
-0.01251226656117906   -0.0010186072512773084   -0.00010545434098255228
-0.017561753199928906   -0.009791234794706094   -0.0003100664284038696
-0.012454763329742768   -0.009658127691433812   -0.00014271497390073393
-0.012572181341294808   -0.000932374021260288   -9.223561834703589e-05
-0.017611812613495502   -0.00971716238888258   -0.00028880079331010557
-0.012509799048137173   -0.00957150823743722   -0.00011013980045365923
-0.012572181341294808   -0.000932374021260288   -9.223561834703589e-05
-0.017675676303746356   -0.0009401291197565643   -0.00023497472994607257
-0.017611812613495502   -0.00971716238888258   -0.00028880079331010557
-0.01770650550148477   -0.0008596557536495156   -0.00023393331701587134
-0.012509799048137173   -0.00957150823743722   -0.00011013980045365923
-0.017657146387652943   -0.009638303622800774   -0.0002668936825562827
-0.01770650550148477   -0.0008596557536495156   -0.00023393331701587134
-0.017611812613495502   -0.00971716238888258   -0.00028880079331010557
-0.012509799048137173   -0.00957150823743722   -0.00011013980045365923
-0.01770650550148477   -0.0008596557536495156   -0.00023393331701587134
-0.012629044022886806   -0.0008274839626826215   -7.474565389453939e-05
-0.012572181341294808   -0.000932374021260288   -9.223561834703589e-05
-0.012509799048137173   -0.00957150823743722   -0.00011013980045365923
-0.01770650550148477   -0.0008596557536495156   -0.00023393331701587134
-0.012572181341294808   -0.000932374021260288   -9.223561834703589e-05
-0.017611812613495502   -0.00971716238888258   -0.00028880079331010557
-0.017505577708341716   -0.0098592251019762   -0.0003319472537285692
-0.017596157647763552   -0.001081272791280368   -0.00024040901265762193
-0.02286283751518603   -0.009864286950357877   -0.00043924295125078697
-0.017561753199928906   -0.009791234794706094   -0.0003100664284038696
-0.017596157647763552   -0.001081272791280368   -0.00024040901265762193
-0.022879729074178623   -0.0010735011376881605   -0.0003658502836316443
-0.02286283751518603   -0.009864286950357877   -0.00043924295125078697
-0.022911035597149524   -0.0010010275462311678   -0.00036579733833686195
-0.017561753199928906   -0.009791234794706094   -0.0003100664284038696
-0.02291109027707784   -0.009798299227827982   -0.0004298267471242292
-0.022911035597149524   -0.0010010275462311678   -0.00036579733833686195
-0.02286283751518603   -0.009864286950357877   -0.00043924295125078697
-0.017561753199928906   -0.009791234794706094   -0.0003100664284038696
-0.022911035597149524   -0.0010010275462311678   -0.00036579733833686195
-0.017635074249030817   -0.0010144686976865588   -0.0002371915760510622
-0.017596157647763552   -0.001081272791280368   -0.00024040901265762193
-0.017561753199928906   -0.009791234794706094   -0.0003100664284038696
-0.022911035597149524   -0.0010010275462311678   -0.00036579733833686195
-0.017596157647763552   -0.001081272791280368   -0.00024040901265762193
-0.02286283751518603   -0.009864286950357877   -0.00043924295125078697
-0.017561753199928906   -0.009791234794706094   -0.0003100664284038696
-0.017635074249030817   -0.0010144686976865588   -0.0002371915760510622
-0.02291109027707784   -0.009798299227827982   -0.0004298267471242292
-0.017611812613495502   -0.00971716238888258   -0.00028880079331010557
-0.017635074249030817   -0.0010144686976865588   -0.0002371915760510622
-0.022911035597149524   -0.0010010275462311678   -0.00036579733833686195
-0.02291109027707784   -0.009798299227827982   -0.0004298267471242292
-0.022945402948280413   -0.0009286367138958621   -0.0003713988746767
-0.017611812613495502   -0.00971716238888258   -0.00028880079331010557
-0.022954320542342557   -0.009726935483453596   -0.0004188098517267401
-0.022945402948280413   -0.0009286367138958621   -0.0003713988746767
-0.02291109027707784   -0.009798299227827982   -0.0004298267471242292
-0.017611812613495502   -0.00971716238888258   -0.00028880079331010557
-0.022945402948280413   -0.0009286367138958621   -0.0003713988746767
-0.017675676303746356   -0.0009401291197565643   -0.00023497472994607257
-0.017635074249030817   -0.0010144686976865588   -0.0002371915760510622
-0.017611812613495502   -0.00971716238888258   -0.00028880079331010557
-0.022945402948280413   -0.0009286367138958621   -0.0003713988746767
-0.017635074249030817   -0.0010144686976865588   -0.0002371915760510622
-0.02291109027707784   -0.009798299227827982   -0.0004298267471242292
-0.017611812613495502   -0.00971716238888258   -0.00028880079331010557
-0.017675676303746356   -0.0009401291197565643   -0.00023497472994607257
-0.022954320542342557   -0.009726935483453596   -0.0004188098517267401
-0.017657146387652943   -0.009638303622800774   -0.0002668936825562827
-0.017675676303746356   -0.0009401291197565643   -0.00023497472994607257
-0.022945402948280413   -0.0009286367138958621   -0.0003713988746767
-0.022954320542342557   -0.009726935483453596   -0.0004188098517267401
-0.022970719512612297   -0.0008498313758036758   -0.00037735730436689436
-0.017657146387652943   -0.009638303622800774   -0.0002668936825562827
-0.022990656740373466   -0.009651371486436704   -0.00040854948964693185
-0.022970719512612297   -0.0008498313758036758   -0.00037735730436689436
-0.022954320542342557   -0.009726935483453596   -0.0004188098517267401
-0.017657146387652943   -0.009638303622800774   -0.0002668936825562827
-0.022970719512612297   -0.0008498313758036758   -0.00037735730436689436
-0.01770650550148477   -0.0008596557536495156   -0.00023393331701587134
-0.017675676303746356   -0.0009401291197565643   -0.00023497472994607257
-0.017657146387652943   -0.009638303622800774   -0.0002668936825562827
-0.022970719512612297   -0.0008498313758036758   -0.00037735730436689436
-0.017675676303746356   -0.0009401291197565643   -0.00023497472994607257
-0.022954320542342557   -0.009726935483453596   -0.0004188098517267401
              </DataArray>   
          </PointData>  
       </Piece>  
   </UnstructuredGrid> 
</VTKFile> 
