<?xml version="1.0"?> 
<VTKFile type="UnstructuredGrid"> 
   <UnstructuredGrid> 
      <Piece NumberOfPoints="6000"  NumberOfCells="1500">  
          <Points>  
             <DataArray type="Float64" NumberOfComponents="3" format="ascii">   
-500.0   0.0   0.0
-450.0   0.0   0.0
-500.0   30.0   0.0
-500.0   0.0   16.666666666666668
-450.0   0.0   0.0
-450.0   30.0   0.0
-500.0   30.0   0.0
-450.0   30.0   16.666666666666668
-500.0   0.0   16.666666666666668
-500.0   30.0   16.666666666666668
-450.0   30.0   16.666666666666668
-500.0   30.0   0.0
-500.0   0.0   16.666666666666668
-450.0   30.0   16.666666666666668
-450.0   0.0   16.666666666666668
-450.0   0.0   0.0
-500.0   0.0   16.666666666666668
-450.0   30.0   16.666666666666668
-450.0   0.0   0.0
-500.0   30.0   0.0
-500.0   0.0   16.666666666666668
-450.0   0.0   16.666666666666668
-500.0   30.0   16.666666666666668
-500.0   0.0   33.333333333333336
-450.0   0.0   16.666666666666668
-450.0   30.0   16.666666666666668
-500.0   30.0   16.666666666666668
-450.0   30.0   33.333333333333336
-500.0   0.0   33.333333333333336
-500.0   30.0   33.333333333333336
-450.0   30.0   33.333333333333336
-500.0   30.0   16.666666666666668
-500.0   0.0   33.333333333333336
-450.0   30.0   33.333333333333336
-450.0   0.0   33.333333333333336
-450.0   0.0   16.666666666666668
-500.0   0.0   33.333333333333336
-450.0   30.0   33.333333333333336
-450.0   0.0   16.666666666666668
-500.0   30.0   16.666666666666668
-500.0   0.0   33.333333333333336
-450.0   0.0   33.333333333333336
-500.0   30.0   33.333333333333336
-500.0   0.0   50.0
-450.0   0.0   33.333333333333336
-450.0   30.0   33.333333333333336
-500.0   30.0   33.333333333333336
-450.0   30.0   50.0
-500.0   0.0   50.0
-500.0   30.0   50.0
-450.0   30.0   50.0
-500.0   30.0   33.333333333333336
-500.0   0.0   50.0
-450.0   30.0   50.0
-450.0   0.0   50.0
-450.0   0.0   33.333333333333336
-500.0   0.0   50.0
-450.0   30.0   50.0
-450.0   0.0   33.333333333333336
-500.0   30.0   33.333333333333336
-500.0   30.0   0.0
-450.0   30.0   0.0
-500.0   60.0   0.0
-500.0   30.0   16.666666666666668
-450.0   30.0   0.0
-450.0   60.0   0.0
-500.0   60.0   0.0
-450.0   60.0   16.666666666666668
-500.0   30.0   16.666666666666668
-500.0   60.0   16.666666666666668
-450.0   60.0   16.666666666666668
-500.0   60.0   0.0
-500.0   30.0   16.666666666666668
-450.0   60.0   16.666666666666668
-450.0   30.0   16.666666666666668
-450.0   30.0   0.0
-500.0   30.0   16.666666666666668
-450.0   60.0   16.666666666666668
-450.0   30.0   0.0
-500.0   60.0   0.0
-500.0   30.0   16.666666666666668
-450.0   30.0   16.666666666666668
-500.0   60.0   16.666666666666668
-500.0   30.0   33.333333333333336
-450.0   30.0   16.666666666666668
-450.0   60.0   16.666666666666668
-500.0   60.0   16.666666666666668
-450.0   60.0   33.333333333333336
-500.0   30.0   33.333333333333336
-500.0   60.0   33.333333333333336
-450.0   60.0   33.333333333333336
-500.0   60.0   16.666666666666668
-500.0   30.0   33.333333333333336
-450.0   60.0   33.333333333333336
-450.0   30.0   33.333333333333336
-450.0   30.0   16.666666666666668
-500.0   30.0   33.333333333333336
-450.0   60.0   33.333333333333336
-450.0   30.0   16.666666666666668
-500.0   60.0   16.666666666666668
-500.0   30.0   33.333333333333336
-450.0   30.0   33.333333333333336
-500.0   60.0   33.333333333333336
-500.0   30.0   50.0
-450.0   30.0   33.333333333333336
-450.0   60.0   33.333333333333336
-500.0   60.0   33.333333333333336
-450.0   60.0   50.0
-500.0   30.0   50.0
-500.0   60.0   50.0
-450.0   60.0   50.0
-500.0   60.0   33.333333333333336
-500.0   30.0   50.0
-450.0   60.0   50.0
-450.0   30.0   50.0
-450.0   30.0   33.333333333333336
-500.0   30.0   50.0
-450.0   60.0   50.0
-450.0   30.0   33.333333333333336
-500.0   60.0   33.333333333333336
-500.0   60.0   0.0
-450.0   60.0   0.0
-500.0   90.0   0.0
-500.0   60.0   16.666666666666668
-450.0   60.0   0.0
-450.0   90.0   0.0
-500.0   90.0   0.0
-450.0   90.0   16.666666666666668
-500.0   60.0   16.666666666666668
-500.0   90.0   16.666666666666668
-450.0   90.0   16.666666666666668
-500.0   90.0   0.0
-500.0   60.0   16.666666666666668
-450.0   90.0   16.666666666666668
-450.0   60.0   16.666666666666668
-450.0   60.0   0.0
-500.0   60.0   16.666666666666668
-450.0   90.0   16.666666666666668
-450.0   60.0   0.0
-500.0   90.0   0.0
-500.0   60.0   16.666666666666668
-450.0   60.0   16.666666666666668
-500.0   90.0   16.666666666666668
-500.0   60.0   33.333333333333336
-450.0   60.0   16.666666666666668
-450.0   90.0   16.666666666666668
-500.0   90.0   16.666666666666668
-450.0   90.0   33.333333333333336
-500.0   60.0   33.333333333333336
-500.0   90.0   33.333333333333336
-450.0   90.0   33.333333333333336
-500.0   90.0   16.666666666666668
-500.0   60.0   33.333333333333336
-450.0   90.0   33.333333333333336
-450.0   60.0   33.333333333333336
-450.0   60.0   16.666666666666668
-500.0   60.0   33.333333333333336
-450.0   90.0   33.333333333333336
-450.0   60.0   16.666666666666668
-500.0   90.0   16.666666666666668
-500.0   60.0   33.333333333333336
-450.0   60.0   33.333333333333336
-500.0   90.0   33.333333333333336
-500.0   60.0   50.0
-450.0   60.0   33.333333333333336
-450.0   90.0   33.333333333333336
-500.0   90.0   33.333333333333336
-450.0   90.0   50.0
-500.0   60.0   50.0
-500.0   90.0   50.0
-450.0   90.0   50.0
-500.0   90.0   33.333333333333336
-500.0   60.0   50.0
-450.0   90.0   50.0
-450.0   60.0   50.0
-450.0   60.0   33.333333333333336
-500.0   60.0   50.0
-450.0   90.0   50.0
-450.0   60.0   33.333333333333336
-500.0   90.0   33.333333333333336
-500.0   90.0   0.0
-450.0   90.0   0.0
-500.0   120.0   0.0
-500.0   90.0   16.666666666666668
-450.0   90.0   0.0
-450.0   120.0   0.0
-500.0   120.0   0.0
-450.0   120.0   16.666666666666668
-500.0   90.0   16.666666666666668
-500.0   120.0   16.666666666666668
-450.0   120.0   16.666666666666668
-500.0   120.0   0.0
-500.0   90.0   16.666666666666668
-450.0   120.0   16.666666666666668
-450.0   90.0   16.666666666666668
-450.0   90.0   0.0
-500.0   90.0   16.666666666666668
-450.0   120.0   16.666666666666668
-450.0   90.0   0.0
-500.0   120.0   0.0
-500.0   90.0   16.666666666666668
-450.0   90.0   16.666666666666668
-500.0   120.0   16.666666666666668
-500.0   90.0   33.333333333333336
-450.0   90.0   16.666666666666668
-450.0   120.0   16.666666666666668
-500.0   120.0   16.666666666666668
-450.0   120.0   33.333333333333336
-500.0   90.0   33.333333333333336
-500.0   120.0   33.333333333333336
-450.0   120.0   33.333333333333336
-500.0   120.0   16.666666666666668
-500.0   90.0   33.333333333333336
-450.0   120.0   33.333333333333336
-450.0   90.0   33.333333333333336
-450.0   90.0   16.666666666666668
-500.0   90.0   33.333333333333336
-450.0   120.0   33.333333333333336
-450.0   90.0   16.666666666666668
-500.0   120.0   16.666666666666668
-500.0   90.0   33.333333333333336
-450.0   90.0   33.333333333333336
-500.0   120.0   33.333333333333336
-500.0   90.0   50.0
-450.0   90.0   33.333333333333336
-450.0   120.0   33.333333333333336
-500.0   120.0   33.333333333333336
-450.0   120.0   50.0
-500.0   90.0   50.0
-500.0   120.0   50.0
-450.0   120.0   50.0
-500.0   120.0   33.333333333333336
-500.0   90.0   50.0
-450.0   120.0   50.0
-450.0   90.0   50.0
-450.0   90.0   33.333333333333336
-500.0   90.0   50.0
-450.0   120.0   50.0
-450.0   90.0   33.333333333333336
-500.0   120.0   33.333333333333336
-500.0   120.0   0.0
-450.0   120.0   0.0
-500.0   150.0   0.0
-500.0   120.0   16.666666666666668
-450.0   120.0   0.0
-450.0   150.0   0.0
-500.0   150.0   0.0
-450.0   150.0   16.666666666666668
-500.0   120.0   16.666666666666668
-500.0   150.0   16.666666666666668
-450.0   150.0   16.666666666666668
-500.0   150.0   0.0
-500.0   120.0   16.666666666666668
-450.0   150.0   16.666666666666668
-450.0   120.0   16.666666666666668
-450.0   120.0   0.0
-500.0   120.0   16.666666666666668
-450.0   150.0   16.666666666666668
-450.0   120.0   0.0
-500.0   150.0   0.0
-500.0   120.0   16.666666666666668
-450.0   120.0   16.666666666666668
-500.0   150.0   16.666666666666668
-500.0   120.0   33.333333333333336
-450.0   120.0   16.666666666666668
-450.0   150.0   16.666666666666668
-500.0   150.0   16.666666666666668
-450.0   150.0   33.333333333333336
-500.0   120.0   33.333333333333336
-500.0   150.0   33.333333333333336
-450.0   150.0   33.333333333333336
-500.0   150.0   16.666666666666668
-500.0   120.0   33.333333333333336
-450.0   150.0   33.333333333333336
-450.0   120.0   33.333333333333336
-450.0   120.0   16.666666666666668
-500.0   120.0   33.333333333333336
-450.0   150.0   33.333333333333336
-450.0   120.0   16.666666666666668
-500.0   150.0   16.666666666666668
-500.0   120.0   33.333333333333336
-450.0   120.0   33.333333333333336
-500.0   150.0   33.333333333333336
-500.0   120.0   50.0
-450.0   120.0   33.333333333333336
-450.0   150.0   33.333333333333336
-500.0   150.0   33.333333333333336
-450.0   150.0   50.0
-500.0   120.0   50.0
-500.0   150.0   50.0
-450.0   150.0   50.0
-500.0   150.0   33.333333333333336
-500.0   120.0   50.0
-450.0   150.0   50.0
-450.0   120.0   50.0
-450.0   120.0   33.333333333333336
-500.0   120.0   50.0
-450.0   150.0   50.0
-450.0   120.0   33.333333333333336
-500.0   150.0   33.333333333333336
-450.0   0.0   0.0
-400.0   0.0   0.0
-450.0   30.0   0.0
-450.0   0.0   16.666666666666668
-400.0   0.0   0.0
-400.0   30.0   0.0
-450.0   30.0   0.0
-400.0   30.0   16.666666666666668
-450.0   0.0   16.666666666666668
-450.0   30.0   16.666666666666668
-400.0   30.0   16.666666666666668
-450.0   30.0   0.0
-450.0   0.0   16.666666666666668
-400.0   30.0   16.666666666666668
-400.0   0.0   16.666666666666668
-400.0   0.0   0.0
-450.0   0.0   16.666666666666668
-400.0   30.0   16.666666666666668
-400.0   0.0   0.0
-450.0   30.0   0.0
-450.0   0.0   16.666666666666668
-400.0   0.0   16.666666666666668
-450.0   30.0   16.666666666666668
-450.0   0.0   33.333333333333336
-400.0   0.0   16.666666666666668
-400.0   30.0   16.666666666666668
-450.0   30.0   16.666666666666668
-400.0   30.0   33.333333333333336
-450.0   0.0   33.333333333333336
-450.0   30.0   33.333333333333336
-400.0   30.0   33.333333333333336
-450.0   30.0   16.666666666666668
-450.0   0.0   33.333333333333336
-400.0   30.0   33.333333333333336
-400.0   0.0   33.333333333333336
-400.0   0.0   16.666666666666668
-450.0   0.0   33.333333333333336
-400.0   30.0   33.333333333333336
-400.0   0.0   16.666666666666668
-450.0   30.0   16.666666666666668
-450.0   0.0   33.333333333333336
-400.0   0.0   33.333333333333336
-450.0   30.0   33.333333333333336
-450.0   0.0   50.0
-400.0   0.0   33.333333333333336
-400.0   30.0   33.333333333333336
-450.0   30.0   33.333333333333336
-400.0   30.0   50.0
-450.0   0.0   50.0
-450.0   30.0   50.0
-400.0   30.0   50.0
-450.0   30.0   33.333333333333336
-450.0   0.0   50.0
-400.0   30.0   50.0
-400.0   0.0   50.0
-400.0   0.0   33.333333333333336
-450.0   0.0   50.0
-400.0   30.0   50.0
-400.0   0.0   33.333333333333336
-450.0   30.0   33.333333333333336
-450.0   30.0   0.0
-400.0   30.0   0.0
-450.0   60.0   0.0
-450.0   30.0   16.666666666666668
-400.0   30.0   0.0
-400.0   60.0   0.0
-450.0   60.0   0.0
-400.0   60.0   16.666666666666668
-450.0   30.0   16.666666666666668
-450.0   60.0   16.666666666666668
-400.0   60.0   16.666666666666668
-450.0   60.0   0.0
-450.0   30.0   16.666666666666668
-400.0   60.0   16.666666666666668
-400.0   30.0   16.666666666666668
-400.0   30.0   0.0
-450.0   30.0   16.666666666666668
-400.0   60.0   16.666666666666668
-400.0   30.0   0.0
-450.0   60.0   0.0
-450.0   30.0   16.666666666666668
-400.0   30.0   16.666666666666668
-450.0   60.0   16.666666666666668
-450.0   30.0   33.333333333333336
-400.0   30.0   16.666666666666668
-400.0   60.0   16.666666666666668
-450.0   60.0   16.666666666666668
-400.0   60.0   33.333333333333336
-450.0   30.0   33.333333333333336
-450.0   60.0   33.333333333333336
-400.0   60.0   33.333333333333336
-450.0   60.0   16.666666666666668
-450.0   30.0   33.333333333333336
-400.0   60.0   33.333333333333336
-400.0   30.0   33.333333333333336
-400.0   30.0   16.666666666666668
-450.0   30.0   33.333333333333336
-400.0   60.0   33.333333333333336
-400.0   30.0   16.666666666666668
-450.0   60.0   16.666666666666668
-450.0   30.0   33.333333333333336
-400.0   30.0   33.333333333333336
-450.0   60.0   33.333333333333336
-450.0   30.0   50.0
-400.0   30.0   33.333333333333336
-400.0   60.0   33.333333333333336
-450.0   60.0   33.333333333333336
-400.0   60.0   50.0
-450.0   30.0   50.0
-450.0   60.0   50.0
-400.0   60.0   50.0
-450.0   60.0   33.333333333333336
-450.0   30.0   50.0
-400.0   60.0   50.0
-400.0   30.0   50.0
-400.0   30.0   33.333333333333336
-450.0   30.0   50.0
-400.0   60.0   50.0
-400.0   30.0   33.333333333333336
-450.0   60.0   33.333333333333336
-450.0   60.0   0.0
-400.0   60.0   0.0
-450.0   90.0   0.0
-450.0   60.0   16.666666666666668
-400.0   60.0   0.0
-400.0   90.0   0.0
-450.0   90.0   0.0
-400.0   90.0   16.666666666666668
-450.0   60.0   16.666666666666668
-450.0   90.0   16.666666666666668
-400.0   90.0   16.666666666666668
-450.0   90.0   0.0
-450.0   60.0   16.666666666666668
-400.0   90.0   16.666666666666668
-400.0   60.0   16.666666666666668
-400.0   60.0   0.0
-450.0   60.0   16.666666666666668
-400.0   90.0   16.666666666666668
-400.0   60.0   0.0
-450.0   90.0   0.0
-450.0   60.0   16.666666666666668
-400.0   60.0   16.666666666666668
-450.0   90.0   16.666666666666668
-450.0   60.0   33.333333333333336
-400.0   60.0   16.666666666666668
-400.0   90.0   16.666666666666668
-450.0   90.0   16.666666666666668
-400.0   90.0   33.333333333333336
-450.0   60.0   33.333333333333336
-450.0   90.0   33.333333333333336
-400.0   90.0   33.333333333333336
-450.0   90.0   16.666666666666668
-450.0   60.0   33.333333333333336
-400.0   90.0   33.333333333333336
-400.0   60.0   33.333333333333336
-400.0   60.0   16.666666666666668
-450.0   60.0   33.333333333333336
-400.0   90.0   33.333333333333336
-400.0   60.0   16.666666666666668
-450.0   90.0   16.666666666666668
-450.0   60.0   33.333333333333336
-400.0   60.0   33.333333333333336
-450.0   90.0   33.333333333333336
-450.0   60.0   50.0
-400.0   60.0   33.333333333333336
-400.0   90.0   33.333333333333336
-450.0   90.0   33.333333333333336
-400.0   90.0   50.0
-450.0   60.0   50.0
-450.0   90.0   50.0
-400.0   90.0   50.0
-450.0   90.0   33.333333333333336
-450.0   60.0   50.0
-400.0   90.0   50.0
-400.0   60.0   50.0
-400.0   60.0   33.333333333333336
-450.0   60.0   50.0
-400.0   90.0   50.0
-400.0   60.0   33.333333333333336
-450.0   90.0   33.333333333333336
-450.0   90.0   0.0
-400.0   90.0   0.0
-450.0   120.0   0.0
-450.0   90.0   16.666666666666668
-400.0   90.0   0.0
-400.0   120.0   0.0
-450.0   120.0   0.0
-400.0   120.0   16.666666666666668
-450.0   90.0   16.666666666666668
-450.0   120.0   16.666666666666668
-400.0   120.0   16.666666666666668
-450.0   120.0   0.0
-450.0   90.0   16.666666666666668
-400.0   120.0   16.666666666666668
-400.0   90.0   16.666666666666668
-400.0   90.0   0.0
-450.0   90.0   16.666666666666668
-400.0   120.0   16.666666666666668
-400.0   90.0   0.0
-450.0   120.0   0.0
-450.0   90.0   16.666666666666668
-400.0   90.0   16.666666666666668
-450.0   120.0   16.666666666666668
-450.0   90.0   33.333333333333336
-400.0   90.0   16.666666666666668
-400.0   120.0   16.666666666666668
-450.0   120.0   16.666666666666668
-400.0   120.0   33.333333333333336
-450.0   90.0   33.333333333333336
-450.0   120.0   33.333333333333336
-400.0   120.0   33.333333333333336
-450.0   120.0   16.666666666666668
-450.0   90.0   33.333333333333336
-400.0   120.0   33.333333333333336
-400.0   90.0   33.333333333333336
-400.0   90.0   16.666666666666668
-450.0   90.0   33.333333333333336
-400.0   120.0   33.333333333333336
-400.0   90.0   16.666666666666668
-450.0   120.0   16.666666666666668
-450.0   90.0   33.333333333333336
-400.0   90.0   33.333333333333336
-450.0   120.0   33.333333333333336
-450.0   90.0   50.0
-400.0   90.0   33.333333333333336
-400.0   120.0   33.333333333333336
-450.0   120.0   33.333333333333336
-400.0   120.0   50.0
-450.0   90.0   50.0
-450.0   120.0   50.0
-400.0   120.0   50.0
-450.0   120.0   33.333333333333336
-450.0   90.0   50.0
-400.0   120.0   50.0
-400.0   90.0   50.0
-400.0   90.0   33.333333333333336
-450.0   90.0   50.0
-400.0   120.0   50.0
-400.0   90.0   33.333333333333336
-450.0   120.0   33.333333333333336
-450.0   120.0   0.0
-400.0   120.0   0.0
-450.0   150.0   0.0
-450.0   120.0   16.666666666666668
-400.0   120.0   0.0
-400.0   150.0   0.0
-450.0   150.0   0.0
-400.0   150.0   16.666666666666668
-450.0   120.0   16.666666666666668
-450.0   150.0   16.666666666666668
-400.0   150.0   16.666666666666668
-450.0   150.0   0.0
-450.0   120.0   16.666666666666668
-400.0   150.0   16.666666666666668
-400.0   120.0   16.666666666666668
-400.0   120.0   0.0
-450.0   120.0   16.666666666666668
-400.0   150.0   16.666666666666668
-400.0   120.0   0.0
-450.0   150.0   0.0
-450.0   120.0   16.666666666666668
-400.0   120.0   16.666666666666668
-450.0   150.0   16.666666666666668
-450.0   120.0   33.333333333333336
-400.0   120.0   16.666666666666668
-400.0   150.0   16.666666666666668
-450.0   150.0   16.666666666666668
-400.0   150.0   33.333333333333336
-450.0   120.0   33.333333333333336
-450.0   150.0   33.333333333333336
-400.0   150.0   33.333333333333336
-450.0   150.0   16.666666666666668
-450.0   120.0   33.333333333333336
-400.0   150.0   33.333333333333336
-400.0   120.0   33.333333333333336
-400.0   120.0   16.666666666666668
-450.0   120.0   33.333333333333336
-400.0   150.0   33.333333333333336
-400.0   120.0   16.666666666666668
-450.0   150.0   16.666666666666668
-450.0   120.0   33.333333333333336
-400.0   120.0   33.333333333333336
-450.0   150.0   33.333333333333336
-450.0   120.0   50.0
-400.0   120.0   33.333333333333336
-400.0   150.0   33.333333333333336
-450.0   150.0   33.333333333333336
-400.0   150.0   50.0
-450.0   120.0   50.0
-450.0   150.0   50.0
-400.0   150.0   50.0
-450.0   150.0   33.333333333333336
-450.0   120.0   50.0
-400.0   150.0   50.0
-400.0   120.0   50.0
-400.0   120.0   33.333333333333336
-450.0   120.0   50.0
-400.0   150.0   50.0
-400.0   120.0   33.333333333333336
-450.0   150.0   33.333333333333336
-400.0   0.0   0.0
-350.0   0.0   0.0
-400.0   30.0   0.0
-400.0   0.0   16.666666666666668
-350.0   0.0   0.0
-350.0   30.0   0.0
-400.0   30.0   0.0
-350.0   30.0   16.666666666666668
-400.0   0.0   16.666666666666668
-400.0   30.0   16.666666666666668
-350.0   30.0   16.666666666666668
-400.0   30.0   0.0
-400.0   0.0   16.666666666666668
-350.0   30.0   16.666666666666668
-350.0   0.0   16.666666666666668
-350.0   0.0   0.0
-400.0   0.0   16.666666666666668
-350.0   30.0   16.666666666666668
-350.0   0.0   0.0
-400.0   30.0   0.0
-400.0   0.0   16.666666666666668
-350.0   0.0   16.666666666666668
-400.0   30.0   16.666666666666668
-400.0   0.0   33.333333333333336
-350.0   0.0   16.666666666666668
-350.0   30.0   16.666666666666668
-400.0   30.0   16.666666666666668
-350.0   30.0   33.333333333333336
-400.0   0.0   33.333333333333336
-400.0   30.0   33.333333333333336
-350.0   30.0   33.333333333333336
-400.0   30.0   16.666666666666668
-400.0   0.0   33.333333333333336
-350.0   30.0   33.333333333333336
-350.0   0.0   33.333333333333336
-350.0   0.0   16.666666666666668
-400.0   0.0   33.333333333333336
-350.0   30.0   33.333333333333336
-350.0   0.0   16.666666666666668
-400.0   30.0   16.666666666666668
-400.0   0.0   33.333333333333336
-350.0   0.0   33.333333333333336
-400.0   30.0   33.333333333333336
-400.0   0.0   50.0
-350.0   0.0   33.333333333333336
-350.0   30.0   33.333333333333336
-400.0   30.0   33.333333333333336
-350.0   30.0   50.0
-400.0   0.0   50.0
-400.0   30.0   50.0
-350.0   30.0   50.0
-400.0   30.0   33.333333333333336
-400.0   0.0   50.0
-350.0   30.0   50.0
-350.0   0.0   50.0
-350.0   0.0   33.333333333333336
-400.0   0.0   50.0
-350.0   30.0   50.0
-350.0   0.0   33.333333333333336
-400.0   30.0   33.333333333333336
-400.0   30.0   0.0
-350.0   30.0   0.0
-400.0   60.0   0.0
-400.0   30.0   16.666666666666668
-350.0   30.0   0.0
-350.0   60.0   0.0
-400.0   60.0   0.0
-350.0   60.0   16.666666666666668
-400.0   30.0   16.666666666666668
-400.0   60.0   16.666666666666668
-350.0   60.0   16.666666666666668
-400.0   60.0   0.0
-400.0   30.0   16.666666666666668
-350.0   60.0   16.666666666666668
-350.0   30.0   16.666666666666668
-350.0   30.0   0.0
-400.0   30.0   16.666666666666668
-350.0   60.0   16.666666666666668
-350.0   30.0   0.0
-400.0   60.0   0.0
-400.0   30.0   16.666666666666668
-350.0   30.0   16.666666666666668
-400.0   60.0   16.666666666666668
-400.0   30.0   33.333333333333336
-350.0   30.0   16.666666666666668
-350.0   60.0   16.666666666666668
-400.0   60.0   16.666666666666668
-350.0   60.0   33.333333333333336
-400.0   30.0   33.333333333333336
-400.0   60.0   33.333333333333336
-350.0   60.0   33.333333333333336
-400.0   60.0   16.666666666666668
-400.0   30.0   33.333333333333336
-350.0   60.0   33.333333333333336
-350.0   30.0   33.333333333333336
-350.0   30.0   16.666666666666668
-400.0   30.0   33.333333333333336
-350.0   60.0   33.333333333333336
-350.0   30.0   16.666666666666668
-400.0   60.0   16.666666666666668
-400.0   30.0   33.333333333333336
-350.0   30.0   33.333333333333336
-400.0   60.0   33.333333333333336
-400.0   30.0   50.0
-350.0   30.0   33.333333333333336
-350.0   60.0   33.333333333333336
-400.0   60.0   33.333333333333336
-350.0   60.0   50.0
-400.0   30.0   50.0
-400.0   60.0   50.0
-350.0   60.0   50.0
-400.0   60.0   33.333333333333336
-400.0   30.0   50.0
-350.0   60.0   50.0
-350.0   30.0   50.0
-350.0   30.0   33.333333333333336
-400.0   30.0   50.0
-350.0   60.0   50.0
-350.0   30.0   33.333333333333336
-400.0   60.0   33.333333333333336
-400.0   60.0   0.0
-350.0   60.0   0.0
-400.0   90.0   0.0
-400.0   60.0   16.666666666666668
-350.0   60.0   0.0
-350.0   90.0   0.0
-400.0   90.0   0.0
-350.0   90.0   16.666666666666668
-400.0   60.0   16.666666666666668
-400.0   90.0   16.666666666666668
-350.0   90.0   16.666666666666668
-400.0   90.0   0.0
-400.0   60.0   16.666666666666668
-350.0   90.0   16.666666666666668
-350.0   60.0   16.666666666666668
-350.0   60.0   0.0
-400.0   60.0   16.666666666666668
-350.0   90.0   16.666666666666668
-350.0   60.0   0.0
-400.0   90.0   0.0
-400.0   60.0   16.666666666666668
-350.0   60.0   16.666666666666668
-400.0   90.0   16.666666666666668
-400.0   60.0   33.333333333333336
-350.0   60.0   16.666666666666668
-350.0   90.0   16.666666666666668
-400.0   90.0   16.666666666666668
-350.0   90.0   33.333333333333336
-400.0   60.0   33.333333333333336
-400.0   90.0   33.333333333333336
-350.0   90.0   33.333333333333336
-400.0   90.0   16.666666666666668
-400.0   60.0   33.333333333333336
-350.0   90.0   33.333333333333336
-350.0   60.0   33.333333333333336
-350.0   60.0   16.666666666666668
-400.0   60.0   33.333333333333336
-350.0   90.0   33.333333333333336
-350.0   60.0   16.666666666666668
-400.0   90.0   16.666666666666668
-400.0   60.0   33.333333333333336
-350.0   60.0   33.333333333333336
-400.0   90.0   33.333333333333336
-400.0   60.0   50.0
-350.0   60.0   33.333333333333336
-350.0   90.0   33.333333333333336
-400.0   90.0   33.333333333333336
-350.0   90.0   50.0
-400.0   60.0   50.0
-400.0   90.0   50.0
-350.0   90.0   50.0
-400.0   90.0   33.333333333333336
-400.0   60.0   50.0
-350.0   90.0   50.0
-350.0   60.0   50.0
-350.0   60.0   33.333333333333336
-400.0   60.0   50.0
-350.0   90.0   50.0
-350.0   60.0   33.333333333333336
-400.0   90.0   33.333333333333336
-400.0   90.0   0.0
-350.0   90.0   0.0
-400.0   120.0   0.0
-400.0   90.0   16.666666666666668
-350.0   90.0   0.0
-350.0   120.0   0.0
-400.0   120.0   0.0
-350.0   120.0   16.666666666666668
-400.0   90.0   16.666666666666668
-400.0   120.0   16.666666666666668
-350.0   120.0   16.666666666666668
-400.0   120.0   0.0
-400.0   90.0   16.666666666666668
-350.0   120.0   16.666666666666668
-350.0   90.0   16.666666666666668
-350.0   90.0   0.0
-400.0   90.0   16.666666666666668
-350.0   120.0   16.666666666666668
-350.0   90.0   0.0
-400.0   120.0   0.0
-400.0   90.0   16.666666666666668
-350.0   90.0   16.666666666666668
-400.0   120.0   16.666666666666668
-400.0   90.0   33.333333333333336
-350.0   90.0   16.666666666666668
-350.0   120.0   16.666666666666668
-400.0   120.0   16.666666666666668
-350.0   120.0   33.333333333333336
-400.0   90.0   33.333333333333336
-400.0   120.0   33.333333333333336
-350.0   120.0   33.333333333333336
-400.0   120.0   16.666666666666668
-400.0   90.0   33.333333333333336
-350.0   120.0   33.333333333333336
-350.0   90.0   33.333333333333336
-350.0   90.0   16.666666666666668
-400.0   90.0   33.333333333333336
-350.0   120.0   33.333333333333336
-350.0   90.0   16.666666666666668
-400.0   120.0   16.666666666666668
-400.0   90.0   33.333333333333336
-350.0   90.0   33.333333333333336
-400.0   120.0   33.333333333333336
-400.0   90.0   50.0
-350.0   90.0   33.333333333333336
-350.0   120.0   33.333333333333336
-400.0   120.0   33.333333333333336
-350.0   120.0   50.0
-400.0   90.0   50.0
-400.0   120.0   50.0
-350.0   120.0   50.0
-400.0   120.0   33.333333333333336
-400.0   90.0   50.0
-350.0   120.0   50.0
-350.0   90.0   50.0
-350.0   90.0   33.333333333333336
-400.0   90.0   50.0
-350.0   120.0   50.0
-350.0   90.0   33.333333333333336
-400.0   120.0   33.333333333333336
-400.0   120.0   0.0
-350.0   120.0   0.0
-400.0   150.0   0.0
-400.0   120.0   16.666666666666668
-350.0   120.0   0.0
-350.0   150.0   0.0
-400.0   150.0   0.0
-350.0   150.0   16.666666666666668
-400.0   120.0   16.666666666666668
-400.0   150.0   16.666666666666668
-350.0   150.0   16.666666666666668
-400.0   150.0   0.0
-400.0   120.0   16.666666666666668
-350.0   150.0   16.666666666666668
-350.0   120.0   16.666666666666668
-350.0   120.0   0.0
-400.0   120.0   16.666666666666668
-350.0   150.0   16.666666666666668
-350.0   120.0   0.0
-400.0   150.0   0.0
-400.0   120.0   16.666666666666668
-350.0   120.0   16.666666666666668
-400.0   150.0   16.666666666666668
-400.0   120.0   33.333333333333336
-350.0   120.0   16.666666666666668
-350.0   150.0   16.666666666666668
-400.0   150.0   16.666666666666668
-350.0   150.0   33.333333333333336
-400.0   120.0   33.333333333333336
-400.0   150.0   33.333333333333336
-350.0   150.0   33.333333333333336
-400.0   150.0   16.666666666666668
-400.0   120.0   33.333333333333336
-350.0   150.0   33.333333333333336
-350.0   120.0   33.333333333333336
-350.0   120.0   16.666666666666668
-400.0   120.0   33.333333333333336
-350.0   150.0   33.333333333333336
-350.0   120.0   16.666666666666668
-400.0   150.0   16.666666666666668
-400.0   120.0   33.333333333333336
-350.0   120.0   33.333333333333336
-400.0   150.0   33.333333333333336
-400.0   120.0   50.0
-350.0   120.0   33.333333333333336
-350.0   150.0   33.333333333333336
-400.0   150.0   33.333333333333336
-350.0   150.0   50.0
-400.0   120.0   50.0
-400.0   150.0   50.0
-350.0   150.0   50.0
-400.0   150.0   33.333333333333336
-400.0   120.0   50.0
-350.0   150.0   50.0
-350.0   120.0   50.0
-350.0   120.0   33.333333333333336
-400.0   120.0   50.0
-350.0   150.0   50.0
-350.0   120.0   33.333333333333336
-400.0   150.0   33.333333333333336
-350.0   0.0   0.0
-300.0   0.0   0.0
-350.0   30.0   0.0
-350.0   0.0   16.666666666666668
-300.0   0.0   0.0
-300.0   30.0   0.0
-350.0   30.0   0.0
-300.0   30.0   16.666666666666668
-350.0   0.0   16.666666666666668
-350.0   30.0   16.666666666666668
-300.0   30.0   16.666666666666668
-350.0   30.0   0.0
-350.0   0.0   16.666666666666668
-300.0   30.0   16.666666666666668
-300.0   0.0   16.666666666666668
-300.0   0.0   0.0
-350.0   0.0   16.666666666666668
-300.0   30.0   16.666666666666668
-300.0   0.0   0.0
-350.0   30.0   0.0
-350.0   0.0   16.666666666666668
-300.0   0.0   16.666666666666668
-350.0   30.0   16.666666666666668
-350.0   0.0   33.333333333333336
-300.0   0.0   16.666666666666668
-300.0   30.0   16.666666666666668
-350.0   30.0   16.666666666666668
-300.0   30.0   33.333333333333336
-350.0   0.0   33.333333333333336
-350.0   30.0   33.333333333333336
-300.0   30.0   33.333333333333336
-350.0   30.0   16.666666666666668
-350.0   0.0   33.333333333333336
-300.0   30.0   33.333333333333336
-300.0   0.0   33.333333333333336
-300.0   0.0   16.666666666666668
-350.0   0.0   33.333333333333336
-300.0   30.0   33.333333333333336
-300.0   0.0   16.666666666666668
-350.0   30.0   16.666666666666668
-350.0   0.0   33.333333333333336
-300.0   0.0   33.333333333333336
-350.0   30.0   33.333333333333336
-350.0   0.0   50.0
-300.0   0.0   33.333333333333336
-300.0   30.0   33.333333333333336
-350.0   30.0   33.333333333333336
-300.0   30.0   50.0
-350.0   0.0   50.0
-350.0   30.0   50.0
-300.0   30.0   50.0
-350.0   30.0   33.333333333333336
-350.0   0.0   50.0
-300.0   30.0   50.0
-300.0   0.0   50.0
-300.0   0.0   33.333333333333336
-350.0   0.0   50.0
-300.0   30.0   50.0
-300.0   0.0   33.333333333333336
-350.0   30.0   33.333333333333336
-350.0   30.0   0.0
-300.0   30.0   0.0
-350.0   60.0   0.0
-350.0   30.0   16.666666666666668
-300.0   30.0   0.0
-300.0   60.0   0.0
-350.0   60.0   0.0
-300.0   60.0   16.666666666666668
-350.0   30.0   16.666666666666668
-350.0   60.0   16.666666666666668
-300.0   60.0   16.666666666666668
-350.0   60.0   0.0
-350.0   30.0   16.666666666666668
-300.0   60.0   16.666666666666668
-300.0   30.0   16.666666666666668
-300.0   30.0   0.0
-350.0   30.0   16.666666666666668
-300.0   60.0   16.666666666666668
-300.0   30.0   0.0
-350.0   60.0   0.0
-350.0   30.0   16.666666666666668
-300.0   30.0   16.666666666666668
-350.0   60.0   16.666666666666668
-350.0   30.0   33.333333333333336
-300.0   30.0   16.666666666666668
-300.0   60.0   16.666666666666668
-350.0   60.0   16.666666666666668
-300.0   60.0   33.333333333333336
-350.0   30.0   33.333333333333336
-350.0   60.0   33.333333333333336
-300.0   60.0   33.333333333333336
-350.0   60.0   16.666666666666668
-350.0   30.0   33.333333333333336
-300.0   60.0   33.333333333333336
-300.0   30.0   33.333333333333336
-300.0   30.0   16.666666666666668
-350.0   30.0   33.333333333333336
-300.0   60.0   33.333333333333336
-300.0   30.0   16.666666666666668
-350.0   60.0   16.666666666666668
-350.0   30.0   33.333333333333336
-300.0   30.0   33.333333333333336
-350.0   60.0   33.333333333333336
-350.0   30.0   50.0
-300.0   30.0   33.333333333333336
-300.0   60.0   33.333333333333336
-350.0   60.0   33.333333333333336
-300.0   60.0   50.0
-350.0   30.0   50.0
-350.0   60.0   50.0
-300.0   60.0   50.0
-350.0   60.0   33.333333333333336
-350.0   30.0   50.0
-300.0   60.0   50.0
-300.0   30.0   50.0
-300.0   30.0   33.333333333333336
-350.0   30.0   50.0
-300.0   60.0   50.0
-300.0   30.0   33.333333333333336
-350.0   60.0   33.333333333333336
-350.0   60.0   0.0
-300.0   60.0   0.0
-350.0   90.0   0.0
-350.0   60.0   16.666666666666668
-300.0   60.0   0.0
-300.0   90.0   0.0
-350.0   90.0   0.0
-300.0   90.0   16.666666666666668
-350.0   60.0   16.666666666666668
-350.0   90.0   16.666666666666668
-300.0   90.0   16.666666666666668
-350.0   90.0   0.0
-350.0   60.0   16.666666666666668
-300.0   90.0   16.666666666666668
-300.0   60.0   16.666666666666668
-300.0   60.0   0.0
-350.0   60.0   16.666666666666668
-300.0   90.0   16.666666666666668
-300.0   60.0   0.0
-350.0   90.0   0.0
-350.0   60.0   16.666666666666668
-300.0   60.0   16.666666666666668
-350.0   90.0   16.666666666666668
-350.0   60.0   33.333333333333336
-300.0   60.0   16.666666666666668
-300.0   90.0   16.666666666666668
-350.0   90.0   16.666666666666668
-300.0   90.0   33.333333333333336
-350.0   60.0   33.333333333333336
-350.0   90.0   33.333333333333336
-300.0   90.0   33.333333333333336
-350.0   90.0   16.666666666666668
-350.0   60.0   33.333333333333336
-300.0   90.0   33.333333333333336
-300.0   60.0   33.333333333333336
-300.0   60.0   16.666666666666668
-350.0   60.0   33.333333333333336
-300.0   90.0   33.333333333333336
-300.0   60.0   16.666666666666668
-350.0   90.0   16.666666666666668
-350.0   60.0   33.333333333333336
-300.0   60.0   33.333333333333336
-350.0   90.0   33.333333333333336
-350.0   60.0   50.0
-300.0   60.0   33.333333333333336
-300.0   90.0   33.333333333333336
-350.0   90.0   33.333333333333336
-300.0   90.0   50.0
-350.0   60.0   50.0
-350.0   90.0   50.0
-300.0   90.0   50.0
-350.0   90.0   33.333333333333336
-350.0   60.0   50.0
-300.0   90.0   50.0
-300.0   60.0   50.0
-300.0   60.0   33.333333333333336
-350.0   60.0   50.0
-300.0   90.0   50.0
-300.0   60.0   33.333333333333336
-350.0   90.0   33.333333333333336
-350.0   90.0   0.0
-300.0   90.0   0.0
-350.0   120.0   0.0
-350.0   90.0   16.666666666666668
-300.0   90.0   0.0
-300.0   120.0   0.0
-350.0   120.0   0.0
-300.0   120.0   16.666666666666668
-350.0   90.0   16.666666666666668
-350.0   120.0   16.666666666666668
-300.0   120.0   16.666666666666668
-350.0   120.0   0.0
-350.0   90.0   16.666666666666668
-300.0   120.0   16.666666666666668
-300.0   90.0   16.666666666666668
-300.0   90.0   0.0
-350.0   90.0   16.666666666666668
-300.0   120.0   16.666666666666668
-300.0   90.0   0.0
-350.0   120.0   0.0
-350.0   90.0   16.666666666666668
-300.0   90.0   16.666666666666668
-350.0   120.0   16.666666666666668
-350.0   90.0   33.333333333333336
-300.0   90.0   16.666666666666668
-300.0   120.0   16.666666666666668
-350.0   120.0   16.666666666666668
-300.0   120.0   33.333333333333336
-350.0   90.0   33.333333333333336
-350.0   120.0   33.333333333333336
-300.0   120.0   33.333333333333336
-350.0   120.0   16.666666666666668
-350.0   90.0   33.333333333333336
-300.0   120.0   33.333333333333336
-300.0   90.0   33.333333333333336
-300.0   90.0   16.666666666666668
-350.0   90.0   33.333333333333336
-300.0   120.0   33.333333333333336
-300.0   90.0   16.666666666666668
-350.0   120.0   16.666666666666668
-350.0   90.0   33.333333333333336
-300.0   90.0   33.333333333333336
-350.0   120.0   33.333333333333336
-350.0   90.0   50.0
-300.0   90.0   33.333333333333336
-300.0   120.0   33.333333333333336
-350.0   120.0   33.333333333333336
-300.0   120.0   50.0
-350.0   90.0   50.0
-350.0   120.0   50.0
-300.0   120.0   50.0
-350.0   120.0   33.333333333333336
-350.0   90.0   50.0
-300.0   120.0   50.0
-300.0   90.0   50.0
-300.0   90.0   33.333333333333336
-350.0   90.0   50.0
-300.0   120.0   50.0
-300.0   90.0   33.333333333333336
-350.0   120.0   33.333333333333336
-350.0   120.0   0.0
-300.0   120.0   0.0
-350.0   150.0   0.0
-350.0   120.0   16.666666666666668
-300.0   120.0   0.0
-300.0   150.0   0.0
-350.0   150.0   0.0
-300.0   150.0   16.666666666666668
-350.0   120.0   16.666666666666668
-350.0   150.0   16.666666666666668
-300.0   150.0   16.666666666666668
-350.0   150.0   0.0
-350.0   120.0   16.666666666666668
-300.0   150.0   16.666666666666668
-300.0   120.0   16.666666666666668
-300.0   120.0   0.0
-350.0   120.0   16.666666666666668
-300.0   150.0   16.666666666666668
-300.0   120.0   0.0
-350.0   150.0   0.0
-350.0   120.0   16.666666666666668
-300.0   120.0   16.666666666666668
-350.0   150.0   16.666666666666668
-350.0   120.0   33.333333333333336
-300.0   120.0   16.666666666666668
-300.0   150.0   16.666666666666668
-350.0   150.0   16.666666666666668
-300.0   150.0   33.333333333333336
-350.0   120.0   33.333333333333336
-350.0   150.0   33.333333333333336
-300.0   150.0   33.333333333333336
-350.0   150.0   16.666666666666668
-350.0   120.0   33.333333333333336
-300.0   150.0   33.333333333333336
-300.0   120.0   33.333333333333336
-300.0   120.0   16.666666666666668
-350.0   120.0   33.333333333333336
-300.0   150.0   33.333333333333336
-300.0   120.0   16.666666666666668
-350.0   150.0   16.666666666666668
-350.0   120.0   33.333333333333336
-300.0   120.0   33.333333333333336
-350.0   150.0   33.333333333333336
-350.0   120.0   50.0
-300.0   120.0   33.333333333333336
-300.0   150.0   33.333333333333336
-350.0   150.0   33.333333333333336
-300.0   150.0   50.0
-350.0   120.0   50.0
-350.0   150.0   50.0
-300.0   150.0   50.0
-350.0   150.0   33.333333333333336
-350.0   120.0   50.0
-300.0   150.0   50.0
-300.0   120.0   50.0
-300.0   120.0   33.333333333333336
-350.0   120.0   50.0
-300.0   150.0   50.0
-300.0   120.0   33.333333333333336
-350.0   150.0   33.333333333333336
-300.0   0.0   0.0
-250.0   0.0   0.0
-300.0   30.0   0.0
-300.0   0.0   16.666666666666668
-250.0   0.0   0.0
-250.0   30.0   0.0
-300.0   30.0   0.0
-250.0   30.0   16.666666666666668
-300.0   0.0   16.666666666666668
-300.0   30.0   16.666666666666668
-250.0   30.0   16.666666666666668
-300.0   30.0   0.0
-300.0   0.0   16.666666666666668
-250.0   30.0   16.666666666666668
-250.0   0.0   16.666666666666668
-250.0   0.0   0.0
-300.0   0.0   16.666666666666668
-250.0   30.0   16.666666666666668
-250.0   0.0   0.0
-300.0   30.0   0.0
-300.0   0.0   16.666666666666668
-250.0   0.0   16.666666666666668
-300.0   30.0   16.666666666666668
-300.0   0.0   33.333333333333336
-250.0   0.0   16.666666666666668
-250.0   30.0   16.666666666666668
-300.0   30.0   16.666666666666668
-250.0   30.0   33.333333333333336
-300.0   0.0   33.333333333333336
-300.0   30.0   33.333333333333336
-250.0   30.0   33.333333333333336
-300.0   30.0   16.666666666666668
-300.0   0.0   33.333333333333336
-250.0   30.0   33.333333333333336
-250.0   0.0   33.333333333333336
-250.0   0.0   16.666666666666668
-300.0   0.0   33.333333333333336
-250.0   30.0   33.333333333333336
-250.0   0.0   16.666666666666668
-300.0   30.0   16.666666666666668
-300.0   0.0   33.333333333333336
-250.0   0.0   33.333333333333336
-300.0   30.0   33.333333333333336
-300.0   0.0   50.0
-250.0   0.0   33.333333333333336
-250.0   30.0   33.333333333333336
-300.0   30.0   33.333333333333336
-250.0   30.0   50.0
-300.0   0.0   50.0
-300.0   30.0   50.0
-250.0   30.0   50.0
-300.0   30.0   33.333333333333336
-300.0   0.0   50.0
-250.0   30.0   50.0
-250.0   0.0   50.0
-250.0   0.0   33.333333333333336
-300.0   0.0   50.0
-250.0   30.0   50.0
-250.0   0.0   33.333333333333336
-300.0   30.0   33.333333333333336
-300.0   30.0   0.0
-250.0   30.0   0.0
-300.0   60.0   0.0
-300.0   30.0   16.666666666666668
-250.0   30.0   0.0
-250.0   60.0   0.0
-300.0   60.0   0.0
-250.0   60.0   16.666666666666668
-300.0   30.0   16.666666666666668
-300.0   60.0   16.666666666666668
-250.0   60.0   16.666666666666668
-300.0   60.0   0.0
-300.0   30.0   16.666666666666668
-250.0   60.0   16.666666666666668
-250.0   30.0   16.666666666666668
-250.0   30.0   0.0
-300.0   30.0   16.666666666666668
-250.0   60.0   16.666666666666668
-250.0   30.0   0.0
-300.0   60.0   0.0
-300.0   30.0   16.666666666666668
-250.0   30.0   16.666666666666668
-300.0   60.0   16.666666666666668
-300.0   30.0   33.333333333333336
-250.0   30.0   16.666666666666668
-250.0   60.0   16.666666666666668
-300.0   60.0   16.666666666666668
-250.0   60.0   33.333333333333336
-300.0   30.0   33.333333333333336
-300.0   60.0   33.333333333333336
-250.0   60.0   33.333333333333336
-300.0   60.0   16.666666666666668
-300.0   30.0   33.333333333333336
-250.0   60.0   33.333333333333336
-250.0   30.0   33.333333333333336
-250.0   30.0   16.666666666666668
-300.0   30.0   33.333333333333336
-250.0   60.0   33.333333333333336
-250.0   30.0   16.666666666666668
-300.0   60.0   16.666666666666668
-300.0   30.0   33.333333333333336
-250.0   30.0   33.333333333333336
-300.0   60.0   33.333333333333336
-300.0   30.0   50.0
-250.0   30.0   33.333333333333336
-250.0   60.0   33.333333333333336
-300.0   60.0   33.333333333333336
-250.0   60.0   50.0
-300.0   30.0   50.0
-300.0   60.0   50.0
-250.0   60.0   50.0
-300.0   60.0   33.333333333333336
-300.0   30.0   50.0
-250.0   60.0   50.0
-250.0   30.0   50.0
-250.0   30.0   33.333333333333336
-300.0   30.0   50.0
-250.0   60.0   50.0
-250.0   30.0   33.333333333333336
-300.0   60.0   33.333333333333336
-300.0   60.0   0.0
-250.0   60.0   0.0
-300.0   90.0   0.0
-300.0   60.0   16.666666666666668
-250.0   60.0   0.0
-250.0   90.0   0.0
-300.0   90.0   0.0
-250.0   90.0   16.666666666666668
-300.0   60.0   16.666666666666668
-300.0   90.0   16.666666666666668
-250.0   90.0   16.666666666666668
-300.0   90.0   0.0
-300.0   60.0   16.666666666666668
-250.0   90.0   16.666666666666668
-250.0   60.0   16.666666666666668
-250.0   60.0   0.0
-300.0   60.0   16.666666666666668
-250.0   90.0   16.666666666666668
-250.0   60.0   0.0
-300.0   90.0   0.0
-300.0   60.0   16.666666666666668
-250.0   60.0   16.666666666666668
-300.0   90.0   16.666666666666668
-300.0   60.0   33.333333333333336
-250.0   60.0   16.666666666666668
-250.0   90.0   16.666666666666668
-300.0   90.0   16.666666666666668
-250.0   90.0   33.333333333333336
-300.0   60.0   33.333333333333336
-300.0   90.0   33.333333333333336
-250.0   90.0   33.333333333333336
-300.0   90.0   16.666666666666668
-300.0   60.0   33.333333333333336
-250.0   90.0   33.333333333333336
-250.0   60.0   33.333333333333336
-250.0   60.0   16.666666666666668
-300.0   60.0   33.333333333333336
-250.0   90.0   33.333333333333336
-250.0   60.0   16.666666666666668
-300.0   90.0   16.666666666666668
-300.0   60.0   33.333333333333336
-250.0   60.0   33.333333333333336
-300.0   90.0   33.333333333333336
-300.0   60.0   50.0
-250.0   60.0   33.333333333333336
-250.0   90.0   33.333333333333336
-300.0   90.0   33.333333333333336
-250.0   90.0   50.0
-300.0   60.0   50.0
-300.0   90.0   50.0
-250.0   90.0   50.0
-300.0   90.0   33.333333333333336
-300.0   60.0   50.0
-250.0   90.0   50.0
-250.0   60.0   50.0
-250.0   60.0   33.333333333333336
-300.0   60.0   50.0
-250.0   90.0   50.0
-250.0   60.0   33.333333333333336
-300.0   90.0   33.333333333333336
-300.0   90.0   0.0
-250.0   90.0   0.0
-300.0   120.0   0.0
-300.0   90.0   16.666666666666668
-250.0   90.0   0.0
-250.0   120.0   0.0
-300.0   120.0   0.0
-250.0   120.0   16.666666666666668
-300.0   90.0   16.666666666666668
-300.0   120.0   16.666666666666668
-250.0   120.0   16.666666666666668
-300.0   120.0   0.0
-300.0   90.0   16.666666666666668
-250.0   120.0   16.666666666666668
-250.0   90.0   16.666666666666668
-250.0   90.0   0.0
-300.0   90.0   16.666666666666668
-250.0   120.0   16.666666666666668
-250.0   90.0   0.0
-300.0   120.0   0.0
-300.0   90.0   16.666666666666668
-250.0   90.0   16.666666666666668
-300.0   120.0   16.666666666666668
-300.0   90.0   33.333333333333336
-250.0   90.0   16.666666666666668
-250.0   120.0   16.666666666666668
-300.0   120.0   16.666666666666668
-250.0   120.0   33.333333333333336
-300.0   90.0   33.333333333333336
-300.0   120.0   33.333333333333336
-250.0   120.0   33.333333333333336
-300.0   120.0   16.666666666666668
-300.0   90.0   33.333333333333336
-250.0   120.0   33.333333333333336
-250.0   90.0   33.333333333333336
-250.0   90.0   16.666666666666668
-300.0   90.0   33.333333333333336
-250.0   120.0   33.333333333333336
-250.0   90.0   16.666666666666668
-300.0   120.0   16.666666666666668
-300.0   90.0   33.333333333333336
-250.0   90.0   33.333333333333336
-300.0   120.0   33.333333333333336
-300.0   90.0   50.0
-250.0   90.0   33.333333333333336
-250.0   120.0   33.333333333333336
-300.0   120.0   33.333333333333336
-250.0   120.0   50.0
-300.0   90.0   50.0
-300.0   120.0   50.0
-250.0   120.0   50.0
-300.0   120.0   33.333333333333336
-300.0   90.0   50.0
-250.0   120.0   50.0
-250.0   90.0   50.0
-250.0   90.0   33.333333333333336
-300.0   90.0   50.0
-250.0   120.0   50.0
-250.0   90.0   33.333333333333336
-300.0   120.0   33.333333333333336
-300.0   120.0   0.0
-250.0   120.0   0.0
-300.0   150.0   0.0
-300.0   120.0   16.666666666666668
-250.0   120.0   0.0
-250.0   150.0   0.0
-300.0   150.0   0.0
-250.0   150.0   16.666666666666668
-300.0   120.0   16.666666666666668
-300.0   150.0   16.666666666666668
-250.0   150.0   16.666666666666668
-300.0   150.0   0.0
-300.0   120.0   16.666666666666668
-250.0   150.0   16.666666666666668
-250.0   120.0   16.666666666666668
-250.0   120.0   0.0
-300.0   120.0   16.666666666666668
-250.0   150.0   16.666666666666668
-250.0   120.0   0.0
-300.0   150.0   0.0
-300.0   120.0   16.666666666666668
-250.0   120.0   16.666666666666668
-300.0   150.0   16.666666666666668
-300.0   120.0   33.333333333333336
-250.0   120.0   16.666666666666668
-250.0   150.0   16.666666666666668
-300.0   150.0   16.666666666666668
-250.0   150.0   33.333333333333336
-300.0   120.0   33.333333333333336
-300.0   150.0   33.333333333333336
-250.0   150.0   33.333333333333336
-300.0   150.0   16.666666666666668
-300.0   120.0   33.333333333333336
-250.0   150.0   33.333333333333336
-250.0   120.0   33.333333333333336
-250.0   120.0   16.666666666666668
-300.0   120.0   33.333333333333336
-250.0   150.0   33.333333333333336
-250.0   120.0   16.666666666666668
-300.0   150.0   16.666666666666668
-300.0   120.0   33.333333333333336
-250.0   120.0   33.333333333333336
-300.0   150.0   33.333333333333336
-300.0   120.0   50.0
-250.0   120.0   33.333333333333336
-250.0   150.0   33.333333333333336
-300.0   150.0   33.333333333333336
-250.0   150.0   50.0
-300.0   120.0   50.0
-300.0   150.0   50.0
-250.0   150.0   50.0
-300.0   150.0   33.333333333333336
-300.0   120.0   50.0
-250.0   150.0   50.0
-250.0   120.0   50.0
-250.0   120.0   33.333333333333336
-300.0   120.0   50.0
-250.0   150.0   50.0
-250.0   120.0   33.333333333333336
-300.0   150.0   33.333333333333336
-250.0   0.0   0.0
-200.0   0.0   0.0
-250.0   30.0   0.0
-250.0   0.0   16.666666666666668
-200.0   0.0   0.0
-200.0   30.0   0.0
-250.0   30.0   0.0
-200.0   30.0   16.666666666666668
-250.0   0.0   16.666666666666668
-250.0   30.0   16.666666666666668
-200.0   30.0   16.666666666666668
-250.0   30.0   0.0
-250.0   0.0   16.666666666666668
-200.0   30.0   16.666666666666668
-200.0   0.0   16.666666666666668
-200.0   0.0   0.0
-250.0   0.0   16.666666666666668
-200.0   30.0   16.666666666666668
-200.0   0.0   0.0
-250.0   30.0   0.0
-250.0   0.0   16.666666666666668
-200.0   0.0   16.666666666666668
-250.0   30.0   16.666666666666668
-250.0   0.0   33.333333333333336
-200.0   0.0   16.666666666666668
-200.0   30.0   16.666666666666668
-250.0   30.0   16.666666666666668
-200.0   30.0   33.333333333333336
-250.0   0.0   33.333333333333336
-250.0   30.0   33.333333333333336
-200.0   30.0   33.333333333333336
-250.0   30.0   16.666666666666668
-250.0   0.0   33.333333333333336
-200.0   30.0   33.333333333333336
-200.0   0.0   33.333333333333336
-200.0   0.0   16.666666666666668
-250.0   0.0   33.333333333333336
-200.0   30.0   33.333333333333336
-200.0   0.0   16.666666666666668
-250.0   30.0   16.666666666666668
-250.0   0.0   33.333333333333336
-200.0   0.0   33.333333333333336
-250.0   30.0   33.333333333333336
-250.0   0.0   50.0
-200.0   0.0   33.333333333333336
-200.0   30.0   33.333333333333336
-250.0   30.0   33.333333333333336
-200.0   30.0   50.0
-250.0   0.0   50.0
-250.0   30.0   50.0
-200.0   30.0   50.0
-250.0   30.0   33.333333333333336
-250.0   0.0   50.0
-200.0   30.0   50.0
-200.0   0.0   50.0
-200.0   0.0   33.333333333333336
-250.0   0.0   50.0
-200.0   30.0   50.0
-200.0   0.0   33.333333333333336
-250.0   30.0   33.333333333333336
-250.0   30.0   0.0
-200.0   30.0   0.0
-250.0   60.0   0.0
-250.0   30.0   16.666666666666668
-200.0   30.0   0.0
-200.0   60.0   0.0
-250.0   60.0   0.0
-200.0   60.0   16.666666666666668
-250.0   30.0   16.666666666666668
-250.0   60.0   16.666666666666668
-200.0   60.0   16.666666666666668
-250.0   60.0   0.0
-250.0   30.0   16.666666666666668
-200.0   60.0   16.666666666666668
-200.0   30.0   16.666666666666668
-200.0   30.0   0.0
-250.0   30.0   16.666666666666668
-200.0   60.0   16.666666666666668
-200.0   30.0   0.0
-250.0   60.0   0.0
-250.0   30.0   16.666666666666668
-200.0   30.0   16.666666666666668
-250.0   60.0   16.666666666666668
-250.0   30.0   33.333333333333336
-200.0   30.0   16.666666666666668
-200.0   60.0   16.666666666666668
-250.0   60.0   16.666666666666668
-200.0   60.0   33.333333333333336
-250.0   30.0   33.333333333333336
-250.0   60.0   33.333333333333336
-200.0   60.0   33.333333333333336
-250.0   60.0   16.666666666666668
-250.0   30.0   33.333333333333336
-200.0   60.0   33.333333333333336
-200.0   30.0   33.333333333333336
-200.0   30.0   16.666666666666668
-250.0   30.0   33.333333333333336
-200.0   60.0   33.333333333333336
-200.0   30.0   16.666666666666668
-250.0   60.0   16.666666666666668
-250.0   30.0   33.333333333333336
-200.0   30.0   33.333333333333336
-250.0   60.0   33.333333333333336
-250.0   30.0   50.0
-200.0   30.0   33.333333333333336
-200.0   60.0   33.333333333333336
-250.0   60.0   33.333333333333336
-200.0   60.0   50.0
-250.0   30.0   50.0
-250.0   60.0   50.0
-200.0   60.0   50.0
-250.0   60.0   33.333333333333336
-250.0   30.0   50.0
-200.0   60.0   50.0
-200.0   30.0   50.0
-200.0   30.0   33.333333333333336
-250.0   30.0   50.0
-200.0   60.0   50.0
-200.0   30.0   33.333333333333336
-250.0   60.0   33.333333333333336
-250.0   60.0   0.0
-200.0   60.0   0.0
-250.0   90.0   0.0
-250.0   60.0   16.666666666666668
-200.0   60.0   0.0
-200.0   90.0   0.0
-250.0   90.0   0.0
-200.0   90.0   16.666666666666668
-250.0   60.0   16.666666666666668
-250.0   90.0   16.666666666666668
-200.0   90.0   16.666666666666668
-250.0   90.0   0.0
-250.0   60.0   16.666666666666668
-200.0   90.0   16.666666666666668
-200.0   60.0   16.666666666666668
-200.0   60.0   0.0
-250.0   60.0   16.666666666666668
-200.0   90.0   16.666666666666668
-200.0   60.0   0.0
-250.0   90.0   0.0
-250.0   60.0   16.666666666666668
-200.0   60.0   16.666666666666668
-250.0   90.0   16.666666666666668
-250.0   60.0   33.333333333333336
-200.0   60.0   16.666666666666668
-200.0   90.0   16.666666666666668
-250.0   90.0   16.666666666666668
-200.0   90.0   33.333333333333336
-250.0   60.0   33.333333333333336
-250.0   90.0   33.333333333333336
-200.0   90.0   33.333333333333336
-250.0   90.0   16.666666666666668
-250.0   60.0   33.333333333333336
-200.0   90.0   33.333333333333336
-200.0   60.0   33.333333333333336
-200.0   60.0   16.666666666666668
-250.0   60.0   33.333333333333336
-200.0   90.0   33.333333333333336
-200.0   60.0   16.666666666666668
-250.0   90.0   16.666666666666668
-250.0   60.0   33.333333333333336
-200.0   60.0   33.333333333333336
-250.0   90.0   33.333333333333336
-250.0   60.0   50.0
-200.0   60.0   33.333333333333336
-200.0   90.0   33.333333333333336
-250.0   90.0   33.333333333333336
-200.0   90.0   50.0
-250.0   60.0   50.0
-250.0   90.0   50.0
-200.0   90.0   50.0
-250.0   90.0   33.333333333333336
-250.0   60.0   50.0
-200.0   90.0   50.0
-200.0   60.0   50.0
-200.0   60.0   33.333333333333336
-250.0   60.0   50.0
-200.0   90.0   50.0
-200.0   60.0   33.333333333333336
-250.0   90.0   33.333333333333336
-250.0   90.0   0.0
-200.0   90.0   0.0
-250.0   120.0   0.0
-250.0   90.0   16.666666666666668
-200.0   90.0   0.0
-200.0   120.0   0.0
-250.0   120.0   0.0
-200.0   120.0   16.666666666666668
-250.0   90.0   16.666666666666668
-250.0   120.0   16.666666666666668
-200.0   120.0   16.666666666666668
-250.0   120.0   0.0
-250.0   90.0   16.666666666666668
-200.0   120.0   16.666666666666668
-200.0   90.0   16.666666666666668
-200.0   90.0   0.0
-250.0   90.0   16.666666666666668
-200.0   120.0   16.666666666666668
-200.0   90.0   0.0
-250.0   120.0   0.0
-250.0   90.0   16.666666666666668
-200.0   90.0   16.666666666666668
-250.0   120.0   16.666666666666668
-250.0   90.0   33.333333333333336
-200.0   90.0   16.666666666666668
-200.0   120.0   16.666666666666668
-250.0   120.0   16.666666666666668
-200.0   120.0   33.333333333333336
-250.0   90.0   33.333333333333336
-250.0   120.0   33.333333333333336
-200.0   120.0   33.333333333333336
-250.0   120.0   16.666666666666668
-250.0   90.0   33.333333333333336
-200.0   120.0   33.333333333333336
-200.0   90.0   33.333333333333336
-200.0   90.0   16.666666666666668
-250.0   90.0   33.333333333333336
-200.0   120.0   33.333333333333336
-200.0   90.0   16.666666666666668
-250.0   120.0   16.666666666666668
-250.0   90.0   33.333333333333336
-200.0   90.0   33.333333333333336
-250.0   120.0   33.333333333333336
-250.0   90.0   50.0
-200.0   90.0   33.333333333333336
-200.0   120.0   33.333333333333336
-250.0   120.0   33.333333333333336
-200.0   120.0   50.0
-250.0   90.0   50.0
-250.0   120.0   50.0
-200.0   120.0   50.0
-250.0   120.0   33.333333333333336
-250.0   90.0   50.0
-200.0   120.0   50.0
-200.0   90.0   50.0
-200.0   90.0   33.333333333333336
-250.0   90.0   50.0
-200.0   120.0   50.0
-200.0   90.0   33.333333333333336
-250.0   120.0   33.333333333333336
-250.0   120.0   0.0
-200.0   120.0   0.0
-250.0   150.0   0.0
-250.0   120.0   16.666666666666668
-200.0   120.0   0.0
-200.0   150.0   0.0
-250.0   150.0   0.0
-200.0   150.0   16.666666666666668
-250.0   120.0   16.666666666666668
-250.0   150.0   16.666666666666668
-200.0   150.0   16.666666666666668
-250.0   150.0   0.0
-250.0   120.0   16.666666666666668
-200.0   150.0   16.666666666666668
-200.0   120.0   16.666666666666668
-200.0   120.0   0.0
-250.0   120.0   16.666666666666668
-200.0   150.0   16.666666666666668
-200.0   120.0   0.0
-250.0   150.0   0.0
-250.0   120.0   16.666666666666668
-200.0   120.0   16.666666666666668
-250.0   150.0   16.666666666666668
-250.0   120.0   33.333333333333336
-200.0   120.0   16.666666666666668
-200.0   150.0   16.666666666666668
-250.0   150.0   16.666666666666668
-200.0   150.0   33.333333333333336
-250.0   120.0   33.333333333333336
-250.0   150.0   33.333333333333336
-200.0   150.0   33.333333333333336
-250.0   150.0   16.666666666666668
-250.0   120.0   33.333333333333336
-200.0   150.0   33.333333333333336
-200.0   120.0   33.333333333333336
-200.0   120.0   16.666666666666668
-250.0   120.0   33.333333333333336
-200.0   150.0   33.333333333333336
-200.0   120.0   16.666666666666668
-250.0   150.0   16.666666666666668
-250.0   120.0   33.333333333333336
-200.0   120.0   33.333333333333336
-250.0   150.0   33.333333333333336
-250.0   120.0   50.0
-200.0   120.0   33.333333333333336
-200.0   150.0   33.333333333333336
-250.0   150.0   33.333333333333336
-200.0   150.0   50.0
-250.0   120.0   50.0
-250.0   150.0   50.0
-200.0   150.0   50.0
-250.0   150.0   33.333333333333336
-250.0   120.0   50.0
-200.0   150.0   50.0
-200.0   120.0   50.0
-200.0   120.0   33.333333333333336
-250.0   120.0   50.0
-200.0   150.0   50.0
-200.0   120.0   33.333333333333336
-250.0   150.0   33.333333333333336
-200.0   0.0   0.0
-150.0   0.0   0.0
-200.0   30.0   0.0
-200.0   0.0   16.666666666666668
-150.0   0.0   0.0
-150.0   30.0   0.0
-200.0   30.0   0.0
-150.0   30.0   16.666666666666668
-200.0   0.0   16.666666666666668
-200.0   30.0   16.666666666666668
-150.0   30.0   16.666666666666668
-200.0   30.0   0.0
-200.0   0.0   16.666666666666668
-150.0   30.0   16.666666666666668
-150.0   0.0   16.666666666666668
-150.0   0.0   0.0
-200.0   0.0   16.666666666666668
-150.0   30.0   16.666666666666668
-150.0   0.0   0.0
-200.0   30.0   0.0
-200.0   0.0   16.666666666666668
-150.0   0.0   16.666666666666668
-200.0   30.0   16.666666666666668
-200.0   0.0   33.333333333333336
-150.0   0.0   16.666666666666668
-150.0   30.0   16.666666666666668
-200.0   30.0   16.666666666666668
-150.0   30.0   33.333333333333336
-200.0   0.0   33.333333333333336
-200.0   30.0   33.333333333333336
-150.0   30.0   33.333333333333336
-200.0   30.0   16.666666666666668
-200.0   0.0   33.333333333333336
-150.0   30.0   33.333333333333336
-150.0   0.0   33.333333333333336
-150.0   0.0   16.666666666666668
-200.0   0.0   33.333333333333336
-150.0   30.0   33.333333333333336
-150.0   0.0   16.666666666666668
-200.0   30.0   16.666666666666668
-200.0   0.0   33.333333333333336
-150.0   0.0   33.333333333333336
-200.0   30.0   33.333333333333336
-200.0   0.0   50.0
-150.0   0.0   33.333333333333336
-150.0   30.0   33.333333333333336
-200.0   30.0   33.333333333333336
-150.0   30.0   50.0
-200.0   0.0   50.0
-200.0   30.0   50.0
-150.0   30.0   50.0
-200.0   30.0   33.333333333333336
-200.0   0.0   50.0
-150.0   30.0   50.0
-150.0   0.0   50.0
-150.0   0.0   33.333333333333336
-200.0   0.0   50.0
-150.0   30.0   50.0
-150.0   0.0   33.333333333333336
-200.0   30.0   33.333333333333336
-200.0   30.0   0.0
-150.0   30.0   0.0
-200.0   60.0   0.0
-200.0   30.0   16.666666666666668
-150.0   30.0   0.0
-150.0   60.0   0.0
-200.0   60.0   0.0
-150.0   60.0   16.666666666666668
-200.0   30.0   16.666666666666668
-200.0   60.0   16.666666666666668
-150.0   60.0   16.666666666666668
-200.0   60.0   0.0
-200.0   30.0   16.666666666666668
-150.0   60.0   16.666666666666668
-150.0   30.0   16.666666666666668
-150.0   30.0   0.0
-200.0   30.0   16.666666666666668
-150.0   60.0   16.666666666666668
-150.0   30.0   0.0
-200.0   60.0   0.0
-200.0   30.0   16.666666666666668
-150.0   30.0   16.666666666666668
-200.0   60.0   16.666666666666668
-200.0   30.0   33.333333333333336
-150.0   30.0   16.666666666666668
-150.0   60.0   16.666666666666668
-200.0   60.0   16.666666666666668
-150.0   60.0   33.333333333333336
-200.0   30.0   33.333333333333336
-200.0   60.0   33.333333333333336
-150.0   60.0   33.333333333333336
-200.0   60.0   16.666666666666668
-200.0   30.0   33.333333333333336
-150.0   60.0   33.333333333333336
-150.0   30.0   33.333333333333336
-150.0   30.0   16.666666666666668
-200.0   30.0   33.333333333333336
-150.0   60.0   33.333333333333336
-150.0   30.0   16.666666666666668
-200.0   60.0   16.666666666666668
-200.0   30.0   33.333333333333336
-150.0   30.0   33.333333333333336
-200.0   60.0   33.333333333333336
-200.0   30.0   50.0
-150.0   30.0   33.333333333333336
-150.0   60.0   33.333333333333336
-200.0   60.0   33.333333333333336
-150.0   60.0   50.0
-200.0   30.0   50.0
-200.0   60.0   50.0
-150.0   60.0   50.0
-200.0   60.0   33.333333333333336
-200.0   30.0   50.0
-150.0   60.0   50.0
-150.0   30.0   50.0
-150.0   30.0   33.333333333333336
-200.0   30.0   50.0
-150.0   60.0   50.0
-150.0   30.0   33.333333333333336
-200.0   60.0   33.333333333333336
-200.0   60.0   0.0
-150.0   60.0   0.0
-200.0   90.0   0.0
-200.0   60.0   16.666666666666668
-150.0   60.0   0.0
-150.0   90.0   0.0
-200.0   90.0   0.0
-150.0   90.0   16.666666666666668
-200.0   60.0   16.666666666666668
-200.0   90.0   16.666666666666668
-150.0   90.0   16.666666666666668
-200.0   90.0   0.0
-200.0   60.0   16.666666666666668
-150.0   90.0   16.666666666666668
-150.0   60.0   16.666666666666668
-150.0   60.0   0.0
-200.0   60.0   16.666666666666668
-150.0   90.0   16.666666666666668
-150.0   60.0   0.0
-200.0   90.0   0.0
-200.0   60.0   16.666666666666668
-150.0   60.0   16.666666666666668
-200.0   90.0   16.666666666666668
-200.0   60.0   33.333333333333336
-150.0   60.0   16.666666666666668
-150.0   90.0   16.666666666666668
-200.0   90.0   16.666666666666668
-150.0   90.0   33.333333333333336
-200.0   60.0   33.333333333333336
-200.0   90.0   33.333333333333336
-150.0   90.0   33.333333333333336
-200.0   90.0   16.666666666666668
-200.0   60.0   33.333333333333336
-150.0   90.0   33.333333333333336
-150.0   60.0   33.333333333333336
-150.0   60.0   16.666666666666668
-200.0   60.0   33.333333333333336
-150.0   90.0   33.333333333333336
-150.0   60.0   16.666666666666668
-200.0   90.0   16.666666666666668
-200.0   60.0   33.333333333333336
-150.0   60.0   33.333333333333336
-200.0   90.0   33.333333333333336
-200.0   60.0   50.0
-150.0   60.0   33.333333333333336
-150.0   90.0   33.333333333333336
-200.0   90.0   33.333333333333336
-150.0   90.0   50.0
-200.0   60.0   50.0
-200.0   90.0   50.0
-150.0   90.0   50.0
-200.0   90.0   33.333333333333336
-200.0   60.0   50.0
-150.0   90.0   50.0
-150.0   60.0   50.0
-150.0   60.0   33.333333333333336
-200.0   60.0   50.0
-150.0   90.0   50.0
-150.0   60.0   33.333333333333336
-200.0   90.0   33.333333333333336
-200.0   90.0   0.0
-150.0   90.0   0.0
-200.0   120.0   0.0
-200.0   90.0   16.666666666666668
-150.0   90.0   0.0
-150.0   120.0   0.0
-200.0   120.0   0.0
-150.0   120.0   16.666666666666668
-200.0   90.0   16.666666666666668
-200.0   120.0   16.666666666666668
-150.0   120.0   16.666666666666668
-200.0   120.0   0.0
-200.0   90.0   16.666666666666668
-150.0   120.0   16.666666666666668
-150.0   90.0   16.666666666666668
-150.0   90.0   0.0
-200.0   90.0   16.666666666666668
-150.0   120.0   16.666666666666668
-150.0   90.0   0.0
-200.0   120.0   0.0
-200.0   90.0   16.666666666666668
-150.0   90.0   16.666666666666668
-200.0   120.0   16.666666666666668
-200.0   90.0   33.333333333333336
-150.0   90.0   16.666666666666668
-150.0   120.0   16.666666666666668
-200.0   120.0   16.666666666666668
-150.0   120.0   33.333333333333336
-200.0   90.0   33.333333333333336
-200.0   120.0   33.333333333333336
-150.0   120.0   33.333333333333336
-200.0   120.0   16.666666666666668
-200.0   90.0   33.333333333333336
-150.0   120.0   33.333333333333336
-150.0   90.0   33.333333333333336
-150.0   90.0   16.666666666666668
-200.0   90.0   33.333333333333336
-150.0   120.0   33.333333333333336
-150.0   90.0   16.666666666666668
-200.0   120.0   16.666666666666668
-200.0   90.0   33.333333333333336
-150.0   90.0   33.333333333333336
-200.0   120.0   33.333333333333336
-200.0   90.0   50.0
-150.0   90.0   33.333333333333336
-150.0   120.0   33.333333333333336
-200.0   120.0   33.333333333333336
-150.0   120.0   50.0
-200.0   90.0   50.0
-200.0   120.0   50.0
-150.0   120.0   50.0
-200.0   120.0   33.333333333333336
-200.0   90.0   50.0
-150.0   120.0   50.0
-150.0   90.0   50.0
-150.0   90.0   33.333333333333336
-200.0   90.0   50.0
-150.0   120.0   50.0
-150.0   90.0   33.333333333333336
-200.0   120.0   33.333333333333336
-200.0   120.0   0.0
-150.0   120.0   0.0
-200.0   150.0   0.0
-200.0   120.0   16.666666666666668
-150.0   120.0   0.0
-150.0   150.0   0.0
-200.0   150.0   0.0
-150.0   150.0   16.666666666666668
-200.0   120.0   16.666666666666668
-200.0   150.0   16.666666666666668
-150.0   150.0   16.666666666666668
-200.0   150.0   0.0
-200.0   120.0   16.666666666666668
-150.0   150.0   16.666666666666668
-150.0   120.0   16.666666666666668
-150.0   120.0   0.0
-200.0   120.0   16.666666666666668
-150.0   150.0   16.666666666666668
-150.0   120.0   0.0
-200.0   150.0   0.0
-200.0   120.0   16.666666666666668
-150.0   120.0   16.666666666666668
-200.0   150.0   16.666666666666668
-200.0   120.0   33.333333333333336
-150.0   120.0   16.666666666666668
-150.0   150.0   16.666666666666668
-200.0   150.0   16.666666666666668
-150.0   150.0   33.333333333333336
-200.0   120.0   33.333333333333336
-200.0   150.0   33.333333333333336
-150.0   150.0   33.333333333333336
-200.0   150.0   16.666666666666668
-200.0   120.0   33.333333333333336
-150.0   150.0   33.333333333333336
-150.0   120.0   33.333333333333336
-150.0   120.0   16.666666666666668
-200.0   120.0   33.333333333333336
-150.0   150.0   33.333333333333336
-150.0   120.0   16.666666666666668
-200.0   150.0   16.666666666666668
-200.0   120.0   33.333333333333336
-150.0   120.0   33.333333333333336
-200.0   150.0   33.333333333333336
-200.0   120.0   50.0
-150.0   120.0   33.333333333333336
-150.0   150.0   33.333333333333336
-200.0   150.0   33.333333333333336
-150.0   150.0   50.0
-200.0   120.0   50.0
-200.0   150.0   50.0
-150.0   150.0   50.0
-200.0   150.0   33.333333333333336
-200.0   120.0   50.0
-150.0   150.0   50.0
-150.0   120.0   50.0
-150.0   120.0   33.333333333333336
-200.0   120.0   50.0
-150.0   150.0   50.0
-150.0   120.0   33.333333333333336
-200.0   150.0   33.333333333333336
-150.0   0.0   0.0
-100.0   0.0   0.0
-150.0   30.0   0.0
-150.0   0.0   16.666666666666668
-100.0   0.0   0.0
-100.0   30.0   0.0
-150.0   30.0   0.0
-100.0   30.0   16.666666666666668
-150.0   0.0   16.666666666666668
-150.0   30.0   16.666666666666668
-100.0   30.0   16.666666666666668
-150.0   30.0   0.0
-150.0   0.0   16.666666666666668
-100.0   30.0   16.666666666666668
-100.0   0.0   16.666666666666668
-100.0   0.0   0.0
-150.0   0.0   16.666666666666668
-100.0   30.0   16.666666666666668
-100.0   0.0   0.0
-150.0   30.0   0.0
-150.0   0.0   16.666666666666668
-100.0   0.0   16.666666666666668
-150.0   30.0   16.666666666666668
-150.0   0.0   33.333333333333336
-100.0   0.0   16.666666666666668
-100.0   30.0   16.666666666666668
-150.0   30.0   16.666666666666668
-100.0   30.0   33.333333333333336
-150.0   0.0   33.333333333333336
-150.0   30.0   33.333333333333336
-100.0   30.0   33.333333333333336
-150.0   30.0   16.666666666666668
-150.0   0.0   33.333333333333336
-100.0   30.0   33.333333333333336
-100.0   0.0   33.333333333333336
-100.0   0.0   16.666666666666668
-150.0   0.0   33.333333333333336
-100.0   30.0   33.333333333333336
-100.0   0.0   16.666666666666668
-150.0   30.0   16.666666666666668
-150.0   0.0   33.333333333333336
-100.0   0.0   33.333333333333336
-150.0   30.0   33.333333333333336
-150.0   0.0   50.0
-100.0   0.0   33.333333333333336
-100.0   30.0   33.333333333333336
-150.0   30.0   33.333333333333336
-100.0   30.0   50.0
-150.0   0.0   50.0
-150.0   30.0   50.0
-100.0   30.0   50.0
-150.0   30.0   33.333333333333336
-150.0   0.0   50.0
-100.0   30.0   50.0
-100.0   0.0   50.0
-100.0   0.0   33.333333333333336
-150.0   0.0   50.0
-100.0   30.0   50.0
-100.0   0.0   33.333333333333336
-150.0   30.0   33.333333333333336
-150.0   30.0   0.0
-100.0   30.0   0.0
-150.0   60.0   0.0
-150.0   30.0   16.666666666666668
-100.0   30.0   0.0
-100.0   60.0   0.0
-150.0   60.0   0.0
-100.0   60.0   16.666666666666668
-150.0   30.0   16.666666666666668
-150.0   60.0   16.666666666666668
-100.0   60.0   16.666666666666668
-150.0   60.0   0.0
-150.0   30.0   16.666666666666668
-100.0   60.0   16.666666666666668
-100.0   30.0   16.666666666666668
-100.0   30.0   0.0
-150.0   30.0   16.666666666666668
-100.0   60.0   16.666666666666668
-100.0   30.0   0.0
-150.0   60.0   0.0
-150.0   30.0   16.666666666666668
-100.0   30.0   16.666666666666668
-150.0   60.0   16.666666666666668
-150.0   30.0   33.333333333333336
-100.0   30.0   16.666666666666668
-100.0   60.0   16.666666666666668
-150.0   60.0   16.666666666666668
-100.0   60.0   33.333333333333336
-150.0   30.0   33.333333333333336
-150.0   60.0   33.333333333333336
-100.0   60.0   33.333333333333336
-150.0   60.0   16.666666666666668
-150.0   30.0   33.333333333333336
-100.0   60.0   33.333333333333336
-100.0   30.0   33.333333333333336
-100.0   30.0   16.666666666666668
-150.0   30.0   33.333333333333336
-100.0   60.0   33.333333333333336
-100.0   30.0   16.666666666666668
-150.0   60.0   16.666666666666668
-150.0   30.0   33.333333333333336
-100.0   30.0   33.333333333333336
-150.0   60.0   33.333333333333336
-150.0   30.0   50.0
-100.0   30.0   33.333333333333336
-100.0   60.0   33.333333333333336
-150.0   60.0   33.333333333333336
-100.0   60.0   50.0
-150.0   30.0   50.0
-150.0   60.0   50.0
-100.0   60.0   50.0
-150.0   60.0   33.333333333333336
-150.0   30.0   50.0
-100.0   60.0   50.0
-100.0   30.0   50.0
-100.0   30.0   33.333333333333336
-150.0   30.0   50.0
-100.0   60.0   50.0
-100.0   30.0   33.333333333333336
-150.0   60.0   33.333333333333336
-150.0   60.0   0.0
-100.0   60.0   0.0
-150.0   90.0   0.0
-150.0   60.0   16.666666666666668
-100.0   60.0   0.0
-100.0   90.0   0.0
-150.0   90.0   0.0
-100.0   90.0   16.666666666666668
-150.0   60.0   16.666666666666668
-150.0   90.0   16.666666666666668
-100.0   90.0   16.666666666666668
-150.0   90.0   0.0
-150.0   60.0   16.666666666666668
-100.0   90.0   16.666666666666668
-100.0   60.0   16.666666666666668
-100.0   60.0   0.0
-150.0   60.0   16.666666666666668
-100.0   90.0   16.666666666666668
-100.0   60.0   0.0
-150.0   90.0   0.0
-150.0   60.0   16.666666666666668
-100.0   60.0   16.666666666666668
-150.0   90.0   16.666666666666668
-150.0   60.0   33.333333333333336
-100.0   60.0   16.666666666666668
-100.0   90.0   16.666666666666668
-150.0   90.0   16.666666666666668
-100.0   90.0   33.333333333333336
-150.0   60.0   33.333333333333336
-150.0   90.0   33.333333333333336
-100.0   90.0   33.333333333333336
-150.0   90.0   16.666666666666668
-150.0   60.0   33.333333333333336
-100.0   90.0   33.333333333333336
-100.0   60.0   33.333333333333336
-100.0   60.0   16.666666666666668
-150.0   60.0   33.333333333333336
-100.0   90.0   33.333333333333336
-100.0   60.0   16.666666666666668
-150.0   90.0   16.666666666666668
-150.0   60.0   33.333333333333336
-100.0   60.0   33.333333333333336
-150.0   90.0   33.333333333333336
-150.0   60.0   50.0
-100.0   60.0   33.333333333333336
-100.0   90.0   33.333333333333336
-150.0   90.0   33.333333333333336
-100.0   90.0   50.0
-150.0   60.0   50.0
-150.0   90.0   50.0
-100.0   90.0   50.0
-150.0   90.0   33.333333333333336
-150.0   60.0   50.0
-100.0   90.0   50.0
-100.0   60.0   50.0
-100.0   60.0   33.333333333333336
-150.0   60.0   50.0
-100.0   90.0   50.0
-100.0   60.0   33.333333333333336
-150.0   90.0   33.333333333333336
-150.0   90.0   0.0
-100.0   90.0   0.0
-150.0   120.0   0.0
-150.0   90.0   16.666666666666668
-100.0   90.0   0.0
-100.0   120.0   0.0
-150.0   120.0   0.0
-100.0   120.0   16.666666666666668
-150.0   90.0   16.666666666666668
-150.0   120.0   16.666666666666668
-100.0   120.0   16.666666666666668
-150.0   120.0   0.0
-150.0   90.0   16.666666666666668
-100.0   120.0   16.666666666666668
-100.0   90.0   16.666666666666668
-100.0   90.0   0.0
-150.0   90.0   16.666666666666668
-100.0   120.0   16.666666666666668
-100.0   90.0   0.0
-150.0   120.0   0.0
-150.0   90.0   16.666666666666668
-100.0   90.0   16.666666666666668
-150.0   120.0   16.666666666666668
-150.0   90.0   33.333333333333336
-100.0   90.0   16.666666666666668
-100.0   120.0   16.666666666666668
-150.0   120.0   16.666666666666668
-100.0   120.0   33.333333333333336
-150.0   90.0   33.333333333333336
-150.0   120.0   33.333333333333336
-100.0   120.0   33.333333333333336
-150.0   120.0   16.666666666666668
-150.0   90.0   33.333333333333336
-100.0   120.0   33.333333333333336
-100.0   90.0   33.333333333333336
-100.0   90.0   16.666666666666668
-150.0   90.0   33.333333333333336
-100.0   120.0   33.333333333333336
-100.0   90.0   16.666666666666668
-150.0   120.0   16.666666666666668
-150.0   90.0   33.333333333333336
-100.0   90.0   33.333333333333336
-150.0   120.0   33.333333333333336
-150.0   90.0   50.0
-100.0   90.0   33.333333333333336
-100.0   120.0   33.333333333333336
-150.0   120.0   33.333333333333336
-100.0   120.0   50.0
-150.0   90.0   50.0
-150.0   120.0   50.0
-100.0   120.0   50.0
-150.0   120.0   33.333333333333336
-150.0   90.0   50.0
-100.0   120.0   50.0
-100.0   90.0   50.0
-100.0   90.0   33.333333333333336
-150.0   90.0   50.0
-100.0   120.0   50.0
-100.0   90.0   33.333333333333336
-150.0   120.0   33.333333333333336
-150.0   120.0   0.0
-100.0   120.0   0.0
-150.0   150.0   0.0
-150.0   120.0   16.666666666666668
-100.0   120.0   0.0
-100.0   150.0   0.0
-150.0   150.0   0.0
-100.0   150.0   16.666666666666668
-150.0   120.0   16.666666666666668
-150.0   150.0   16.666666666666668
-100.0   150.0   16.666666666666668
-150.0   150.0   0.0
-150.0   120.0   16.666666666666668
-100.0   150.0   16.666666666666668
-100.0   120.0   16.666666666666668
-100.0   120.0   0.0
-150.0   120.0   16.666666666666668
-100.0   150.0   16.666666666666668
-100.0   120.0   0.0
-150.0   150.0   0.0
-150.0   120.0   16.666666666666668
-100.0   120.0   16.666666666666668
-150.0   150.0   16.666666666666668
-150.0   120.0   33.333333333333336
-100.0   120.0   16.666666666666668
-100.0   150.0   16.666666666666668
-150.0   150.0   16.666666666666668
-100.0   150.0   33.333333333333336
-150.0   120.0   33.333333333333336
-150.0   150.0   33.333333333333336
-100.0   150.0   33.333333333333336
-150.0   150.0   16.666666666666668
-150.0   120.0   33.333333333333336
-100.0   150.0   33.333333333333336
-100.0   120.0   33.333333333333336
-100.0   120.0   16.666666666666668
-150.0   120.0   33.333333333333336
-100.0   150.0   33.333333333333336
-100.0   120.0   16.666666666666668
-150.0   150.0   16.666666666666668
-150.0   120.0   33.333333333333336
-100.0   120.0   33.333333333333336
-150.0   150.0   33.333333333333336
-150.0   120.0   50.0
-100.0   120.0   33.333333333333336
-100.0   150.0   33.333333333333336
-150.0   150.0   33.333333333333336
-100.0   150.0   50.0
-150.0   120.0   50.0
-150.0   150.0   50.0
-100.0   150.0   50.0
-150.0   150.0   33.333333333333336
-150.0   120.0   50.0
-100.0   150.0   50.0
-100.0   120.0   50.0
-100.0   120.0   33.333333333333336
-150.0   120.0   50.0
-100.0   150.0   50.0
-100.0   120.0   33.333333333333336
-150.0   150.0   33.333333333333336
-100.0   0.0   0.0
-50.0   0.0   0.0
-100.0   30.0   0.0
-100.0   0.0   16.666666666666668
-50.0   0.0   0.0
-50.0   30.0   0.0
-100.0   30.0   0.0
-50.0   30.0   16.666666666666668
-100.0   0.0   16.666666666666668
-100.0   30.0   16.666666666666668
-50.0   30.0   16.666666666666668
-100.0   30.0   0.0
-100.0   0.0   16.666666666666668
-50.0   30.0   16.666666666666668
-50.0   0.0   16.666666666666668
-50.0   0.0   0.0
-100.0   0.0   16.666666666666668
-50.0   30.0   16.666666666666668
-50.0   0.0   0.0
-100.0   30.0   0.0
-100.0   0.0   16.666666666666668
-50.0   0.0   16.666666666666668
-100.0   30.0   16.666666666666668
-100.0   0.0   33.333333333333336
-50.0   0.0   16.666666666666668
-50.0   30.0   16.666666666666668
-100.0   30.0   16.666666666666668
-50.0   30.0   33.333333333333336
-100.0   0.0   33.333333333333336
-100.0   30.0   33.333333333333336
-50.0   30.0   33.333333333333336
-100.0   30.0   16.666666666666668
-100.0   0.0   33.333333333333336
-50.0   30.0   33.333333333333336
-50.0   0.0   33.333333333333336
-50.0   0.0   16.666666666666668
-100.0   0.0   33.333333333333336
-50.0   30.0   33.333333333333336
-50.0   0.0   16.666666666666668
-100.0   30.0   16.666666666666668
-100.0   0.0   33.333333333333336
-50.0   0.0   33.333333333333336
-100.0   30.0   33.333333333333336
-100.0   0.0   50.0
-50.0   0.0   33.333333333333336
-50.0   30.0   33.333333333333336
-100.0   30.0   33.333333333333336
-50.0   30.0   50.0
-100.0   0.0   50.0
-100.0   30.0   50.0
-50.0   30.0   50.0
-100.0   30.0   33.333333333333336
-100.0   0.0   50.0
-50.0   30.0   50.0
-50.0   0.0   50.0
-50.0   0.0   33.333333333333336
-100.0   0.0   50.0
-50.0   30.0   50.0
-50.0   0.0   33.333333333333336
-100.0   30.0   33.333333333333336
-100.0   30.0   0.0
-50.0   30.0   0.0
-100.0   60.0   0.0
-100.0   30.0   16.666666666666668
-50.0   30.0   0.0
-50.0   60.0   0.0
-100.0   60.0   0.0
-50.0   60.0   16.666666666666668
-100.0   30.0   16.666666666666668
-100.0   60.0   16.666666666666668
-50.0   60.0   16.666666666666668
-100.0   60.0   0.0
-100.0   30.0   16.666666666666668
-50.0   60.0   16.666666666666668
-50.0   30.0   16.666666666666668
-50.0   30.0   0.0
-100.0   30.0   16.666666666666668
-50.0   60.0   16.666666666666668
-50.0   30.0   0.0
-100.0   60.0   0.0
-100.0   30.0   16.666666666666668
-50.0   30.0   16.666666666666668
-100.0   60.0   16.666666666666668
-100.0   30.0   33.333333333333336
-50.0   30.0   16.666666666666668
-50.0   60.0   16.666666666666668
-100.0   60.0   16.666666666666668
-50.0   60.0   33.333333333333336
-100.0   30.0   33.333333333333336
-100.0   60.0   33.333333333333336
-50.0   60.0   33.333333333333336
-100.0   60.0   16.666666666666668
-100.0   30.0   33.333333333333336
-50.0   60.0   33.333333333333336
-50.0   30.0   33.333333333333336
-50.0   30.0   16.666666666666668
-100.0   30.0   33.333333333333336
-50.0   60.0   33.333333333333336
-50.0   30.0   16.666666666666668
-100.0   60.0   16.666666666666668
-100.0   30.0   33.333333333333336
-50.0   30.0   33.333333333333336
-100.0   60.0   33.333333333333336
-100.0   30.0   50.0
-50.0   30.0   33.333333333333336
-50.0   60.0   33.333333333333336
-100.0   60.0   33.333333333333336
-50.0   60.0   50.0
-100.0   30.0   50.0
-100.0   60.0   50.0
-50.0   60.0   50.0
-100.0   60.0   33.333333333333336
-100.0   30.0   50.0
-50.0   60.0   50.0
-50.0   30.0   50.0
-50.0   30.0   33.333333333333336
-100.0   30.0   50.0
-50.0   60.0   50.0
-50.0   30.0   33.333333333333336
-100.0   60.0   33.333333333333336
-100.0   60.0   0.0
-50.0   60.0   0.0
-100.0   90.0   0.0
-100.0   60.0   16.666666666666668
-50.0   60.0   0.0
-50.0   90.0   0.0
-100.0   90.0   0.0
-50.0   90.0   16.666666666666668
-100.0   60.0   16.666666666666668
-100.0   90.0   16.666666666666668
-50.0   90.0   16.666666666666668
-100.0   90.0   0.0
-100.0   60.0   16.666666666666668
-50.0   90.0   16.666666666666668
-50.0   60.0   16.666666666666668
-50.0   60.0   0.0
-100.0   60.0   16.666666666666668
-50.0   90.0   16.666666666666668
-50.0   60.0   0.0
-100.0   90.0   0.0
-100.0   60.0   16.666666666666668
-50.0   60.0   16.666666666666668
-100.0   90.0   16.666666666666668
-100.0   60.0   33.333333333333336
-50.0   60.0   16.666666666666668
-50.0   90.0   16.666666666666668
-100.0   90.0   16.666666666666668
-50.0   90.0   33.333333333333336
-100.0   60.0   33.333333333333336
-100.0   90.0   33.333333333333336
-50.0   90.0   33.333333333333336
-100.0   90.0   16.666666666666668
-100.0   60.0   33.333333333333336
-50.0   90.0   33.333333333333336
-50.0   60.0   33.333333333333336
-50.0   60.0   16.666666666666668
-100.0   60.0   33.333333333333336
-50.0   90.0   33.333333333333336
-50.0   60.0   16.666666666666668
-100.0   90.0   16.666666666666668
-100.0   60.0   33.333333333333336
-50.0   60.0   33.333333333333336
-100.0   90.0   33.333333333333336
-100.0   60.0   50.0
-50.0   60.0   33.333333333333336
-50.0   90.0   33.333333333333336
-100.0   90.0   33.333333333333336
-50.0   90.0   50.0
-100.0   60.0   50.0
-100.0   90.0   50.0
-50.0   90.0   50.0
-100.0   90.0   33.333333333333336
-100.0   60.0   50.0
-50.0   90.0   50.0
-50.0   60.0   50.0
-50.0   60.0   33.333333333333336
-100.0   60.0   50.0
-50.0   90.0   50.0
-50.0   60.0   33.333333333333336
-100.0   90.0   33.333333333333336
-100.0   90.0   0.0
-50.0   90.0   0.0
-100.0   120.0   0.0
-100.0   90.0   16.666666666666668
-50.0   90.0   0.0
-50.0   120.0   0.0
-100.0   120.0   0.0
-50.0   120.0   16.666666666666668
-100.0   90.0   16.666666666666668
-100.0   120.0   16.666666666666668
-50.0   120.0   16.666666666666668
-100.0   120.0   0.0
-100.0   90.0   16.666666666666668
-50.0   120.0   16.666666666666668
-50.0   90.0   16.666666666666668
-50.0   90.0   0.0
-100.0   90.0   16.666666666666668
-50.0   120.0   16.666666666666668
-50.0   90.0   0.0
-100.0   120.0   0.0
-100.0   90.0   16.666666666666668
-50.0   90.0   16.666666666666668
-100.0   120.0   16.666666666666668
-100.0   90.0   33.333333333333336
-50.0   90.0   16.666666666666668
-50.0   120.0   16.666666666666668
-100.0   120.0   16.666666666666668
-50.0   120.0   33.333333333333336
-100.0   90.0   33.333333333333336
-100.0   120.0   33.333333333333336
-50.0   120.0   33.333333333333336
-100.0   120.0   16.666666666666668
-100.0   90.0   33.333333333333336
-50.0   120.0   33.333333333333336
-50.0   90.0   33.333333333333336
-50.0   90.0   16.666666666666668
-100.0   90.0   33.333333333333336
-50.0   120.0   33.333333333333336
-50.0   90.0   16.666666666666668
-100.0   120.0   16.666666666666668
-100.0   90.0   33.333333333333336
-50.0   90.0   33.333333333333336
-100.0   120.0   33.333333333333336
-100.0   90.0   50.0
-50.0   90.0   33.333333333333336
-50.0   120.0   33.333333333333336
-100.0   120.0   33.333333333333336
-50.0   120.0   50.0
-100.0   90.0   50.0
-100.0   120.0   50.0
-50.0   120.0   50.0
-100.0   120.0   33.333333333333336
-100.0   90.0   50.0
-50.0   120.0   50.0
-50.0   90.0   50.0
-50.0   90.0   33.333333333333336
-100.0   90.0   50.0
-50.0   120.0   50.0
-50.0   90.0   33.333333333333336
-100.0   120.0   33.333333333333336
-100.0   120.0   0.0
-50.0   120.0   0.0
-100.0   150.0   0.0
-100.0   120.0   16.666666666666668
-50.0   120.0   0.0
-50.0   150.0   0.0
-100.0   150.0   0.0
-50.0   150.0   16.666666666666668
-100.0   120.0   16.666666666666668
-100.0   150.0   16.666666666666668
-50.0   150.0   16.666666666666668
-100.0   150.0   0.0
-100.0   120.0   16.666666666666668
-50.0   150.0   16.666666666666668
-50.0   120.0   16.666666666666668
-50.0   120.0   0.0
-100.0   120.0   16.666666666666668
-50.0   150.0   16.666666666666668
-50.0   120.0   0.0
-100.0   150.0   0.0
-100.0   120.0   16.666666666666668
-50.0   120.0   16.666666666666668
-100.0   150.0   16.666666666666668
-100.0   120.0   33.333333333333336
-50.0   120.0   16.666666666666668
-50.0   150.0   16.666666666666668
-100.0   150.0   16.666666666666668
-50.0   150.0   33.333333333333336
-100.0   120.0   33.333333333333336
-100.0   150.0   33.333333333333336
-50.0   150.0   33.333333333333336
-100.0   150.0   16.666666666666668
-100.0   120.0   33.333333333333336
-50.0   150.0   33.333333333333336
-50.0   120.0   33.333333333333336
-50.0   120.0   16.666666666666668
-100.0   120.0   33.333333333333336
-50.0   150.0   33.333333333333336
-50.0   120.0   16.666666666666668
-100.0   150.0   16.666666666666668
-100.0   120.0   33.333333333333336
-50.0   120.0   33.333333333333336
-100.0   150.0   33.333333333333336
-100.0   120.0   50.0
-50.0   120.0   33.333333333333336
-50.0   150.0   33.333333333333336
-100.0   150.0   33.333333333333336
-50.0   150.0   50.0
-100.0   120.0   50.0
-100.0   150.0   50.0
-50.0   150.0   50.0
-100.0   150.0   33.333333333333336
-100.0   120.0   50.0
-50.0   150.0   50.0
-50.0   120.0   50.0
-50.0   120.0   33.333333333333336
-100.0   120.0   50.0
-50.0   150.0   50.0
-50.0   120.0   33.333333333333336
-100.0   150.0   33.333333333333336
-50.0   0.0   0.0
0.0   0.0   0.0
-50.0   30.0   0.0
-50.0   0.0   16.666666666666668
0.0   0.0   0.0
0.0   30.0   0.0
-50.0   30.0   0.0
0.0   30.0   16.666666666666668
-50.0   0.0   16.666666666666668
-50.0   30.0   16.666666666666668
0.0   30.0   16.666666666666668
-50.0   30.0   0.0
-50.0   0.0   16.666666666666668
0.0   30.0   16.666666666666668
0.0   0.0   16.666666666666668
0.0   0.0   0.0
-50.0   0.0   16.666666666666668
0.0   30.0   16.666666666666668
0.0   0.0   0.0
-50.0   30.0   0.0
-50.0   0.0   16.666666666666668
0.0   0.0   16.666666666666668
-50.0   30.0   16.666666666666668
-50.0   0.0   33.333333333333336
0.0   0.0   16.666666666666668
0.0   30.0   16.666666666666668
-50.0   30.0   16.666666666666668
0.0   30.0   33.333333333333336
-50.0   0.0   33.333333333333336
-50.0   30.0   33.333333333333336
0.0   30.0   33.333333333333336
-50.0   30.0   16.666666666666668
-50.0   0.0   33.333333333333336
0.0   30.0   33.333333333333336
0.0   0.0   33.333333333333336
0.0   0.0   16.666666666666668
-50.0   0.0   33.333333333333336
0.0   30.0   33.333333333333336
0.0   0.0   16.666666666666668
-50.0   30.0   16.666666666666668
-50.0   0.0   33.333333333333336
0.0   0.0   33.333333333333336
-50.0   30.0   33.333333333333336
-50.0   0.0   50.0
0.0   0.0   33.333333333333336
0.0   30.0   33.333333333333336
-50.0   30.0   33.333333333333336
0.0   30.0   50.0
-50.0   0.0   50.0
-50.0   30.0   50.0
0.0   30.0   50.0
-50.0   30.0   33.333333333333336
-50.0   0.0   50.0
0.0   30.0   50.0
0.0   0.0   50.0
0.0   0.0   33.333333333333336
-50.0   0.0   50.0
0.0   30.0   50.0
0.0   0.0   33.333333333333336
-50.0   30.0   33.333333333333336
-50.0   30.0   0.0
0.0   30.0   0.0
-50.0   60.0   0.0
-50.0   30.0   16.666666666666668
0.0   30.0   0.0
0.0   60.0   0.0
-50.0   60.0   0.0
0.0   60.0   16.666666666666668
-50.0   30.0   16.666666666666668
-50.0   60.0   16.666666666666668
0.0   60.0   16.666666666666668
-50.0   60.0   0.0
-50.0   30.0   16.666666666666668
0.0   60.0   16.666666666666668
0.0   30.0   16.666666666666668
0.0   30.0   0.0
-50.0   30.0   16.666666666666668
0.0   60.0   16.666666666666668
0.0   30.0   0.0
-50.0   60.0   0.0
-50.0   30.0   16.666666666666668
0.0   30.0   16.666666666666668
-50.0   60.0   16.666666666666668
-50.0   30.0   33.333333333333336
0.0   30.0   16.666666666666668
0.0   60.0   16.666666666666668
-50.0   60.0   16.666666666666668
0.0   60.0   33.333333333333336
-50.0   30.0   33.333333333333336
-50.0   60.0   33.333333333333336
0.0   60.0   33.333333333333336
-50.0   60.0   16.666666666666668
-50.0   30.0   33.333333333333336
0.0   60.0   33.333333333333336
0.0   30.0   33.333333333333336
0.0   30.0   16.666666666666668
-50.0   30.0   33.333333333333336
0.0   60.0   33.333333333333336
0.0   30.0   16.666666666666668
-50.0   60.0   16.666666666666668
-50.0   30.0   33.333333333333336
0.0   30.0   33.333333333333336
-50.0   60.0   33.333333333333336
-50.0   30.0   50.0
0.0   30.0   33.333333333333336
0.0   60.0   33.333333333333336
-50.0   60.0   33.333333333333336
0.0   60.0   50.0
-50.0   30.0   50.0
-50.0   60.0   50.0
0.0   60.0   50.0
-50.0   60.0   33.333333333333336
-50.0   30.0   50.0
0.0   60.0   50.0
0.0   30.0   50.0
0.0   30.0   33.333333333333336
-50.0   30.0   50.0
0.0   60.0   50.0
0.0   30.0   33.333333333333336
-50.0   60.0   33.333333333333336
-50.0   60.0   0.0
0.0   60.0   0.0
-50.0   90.0   0.0
-50.0   60.0   16.666666666666668
0.0   60.0   0.0
0.0   90.0   0.0
-50.0   90.0   0.0
0.0   90.0   16.666666666666668
-50.0   60.0   16.666666666666668
-50.0   90.0   16.666666666666668
0.0   90.0   16.666666666666668
-50.0   90.0   0.0
-50.0   60.0   16.666666666666668
0.0   90.0   16.666666666666668
0.0   60.0   16.666666666666668
0.0   60.0   0.0
-50.0   60.0   16.666666666666668
0.0   90.0   16.666666666666668
0.0   60.0   0.0
-50.0   90.0   0.0
-50.0   60.0   16.666666666666668
0.0   60.0   16.666666666666668
-50.0   90.0   16.666666666666668
-50.0   60.0   33.333333333333336
0.0   60.0   16.666666666666668
0.0   90.0   16.666666666666668
-50.0   90.0   16.666666666666668
0.0   90.0   33.333333333333336
-50.0   60.0   33.333333333333336
-50.0   90.0   33.333333333333336
0.0   90.0   33.333333333333336
-50.0   90.0   16.666666666666668
-50.0   60.0   33.333333333333336
0.0   90.0   33.333333333333336
0.0   60.0   33.333333333333336
0.0   60.0   16.666666666666668
-50.0   60.0   33.333333333333336
0.0   90.0   33.333333333333336
0.0   60.0   16.666666666666668
-50.0   90.0   16.666666666666668
-50.0   60.0   33.333333333333336
0.0   60.0   33.333333333333336
-50.0   90.0   33.333333333333336
-50.0   60.0   50.0
0.0   60.0   33.333333333333336
0.0   90.0   33.333333333333336
-50.0   90.0   33.333333333333336
0.0   90.0   50.0
-50.0   60.0   50.0
-50.0   90.0   50.0
0.0   90.0   50.0
-50.0   90.0   33.333333333333336
-50.0   60.0   50.0
0.0   90.0   50.0
0.0   60.0   50.0
0.0   60.0   33.333333333333336
-50.0   60.0   50.0
0.0   90.0   50.0
0.0   60.0   33.333333333333336
-50.0   90.0   33.333333333333336
-50.0   90.0   0.0
0.0   90.0   0.0
-50.0   120.0   0.0
-50.0   90.0   16.666666666666668
0.0   90.0   0.0
0.0   120.0   0.0
-50.0   120.0   0.0
0.0   120.0   16.666666666666668
-50.0   90.0   16.666666666666668
-50.0   120.0   16.666666666666668
0.0   120.0   16.666666666666668
-50.0   120.0   0.0
-50.0   90.0   16.666666666666668
0.0   120.0   16.666666666666668
0.0   90.0   16.666666666666668
0.0   90.0   0.0
-50.0   90.0   16.666666666666668
0.0   120.0   16.666666666666668
0.0   90.0   0.0
-50.0   120.0   0.0
-50.0   90.0   16.666666666666668
0.0   90.0   16.666666666666668
-50.0   120.0   16.666666666666668
-50.0   90.0   33.333333333333336
0.0   90.0   16.666666666666668
0.0   120.0   16.666666666666668
-50.0   120.0   16.666666666666668
0.0   120.0   33.333333333333336
-50.0   90.0   33.333333333333336
-50.0   120.0   33.333333333333336
0.0   120.0   33.333333333333336
-50.0   120.0   16.666666666666668
-50.0   90.0   33.333333333333336
0.0   120.0   33.333333333333336
0.0   90.0   33.333333333333336
0.0   90.0   16.666666666666668
-50.0   90.0   33.333333333333336
0.0   120.0   33.333333333333336
0.0   90.0   16.666666666666668
-50.0   120.0   16.666666666666668
-50.0   90.0   33.333333333333336
0.0   90.0   33.333333333333336
-50.0   120.0   33.333333333333336
-50.0   90.0   50.0
0.0   90.0   33.333333333333336
0.0   120.0   33.333333333333336
-50.0   120.0   33.333333333333336
0.0   120.0   50.0
-50.0   90.0   50.0
-50.0   120.0   50.0
0.0   120.0   50.0
-50.0   120.0   33.333333333333336
-50.0   90.0   50.0
0.0   120.0   50.0
0.0   90.0   50.0
0.0   90.0   33.333333333333336
-50.0   90.0   50.0
0.0   120.0   50.0
0.0   90.0   33.333333333333336
-50.0   120.0   33.333333333333336
-50.0   120.0   0.0
0.0   120.0   0.0
-50.0   150.0   0.0
-50.0   120.0   16.666666666666668
0.0   120.0   0.0
0.0   150.0   0.0
-50.0   150.0   0.0
0.0   150.0   16.666666666666668
-50.0   120.0   16.666666666666668
-50.0   150.0   16.666666666666668
0.0   150.0   16.666666666666668
-50.0   150.0   0.0
-50.0   120.0   16.666666666666668
0.0   150.0   16.666666666666668
0.0   120.0   16.666666666666668
0.0   120.0   0.0
-50.0   120.0   16.666666666666668
0.0   150.0   16.666666666666668
0.0   120.0   0.0
-50.0   150.0   0.0
-50.0   120.0   16.666666666666668
0.0   120.0   16.666666666666668
-50.0   150.0   16.666666666666668
-50.0   120.0   33.333333333333336
0.0   120.0   16.666666666666668
0.0   150.0   16.666666666666668
-50.0   150.0   16.666666666666668
0.0   150.0   33.333333333333336
-50.0   120.0   33.333333333333336
-50.0   150.0   33.333333333333336
0.0   150.0   33.333333333333336
-50.0   150.0   16.666666666666668
-50.0   120.0   33.333333333333336
0.0   150.0   33.333333333333336
0.0   120.0   33.333333333333336
0.0   120.0   16.666666666666668
-50.0   120.0   33.333333333333336
0.0   150.0   33.333333333333336
0.0   120.0   16.666666666666668
-50.0   150.0   16.666666666666668
-50.0   120.0   33.333333333333336
0.0   120.0   33.333333333333336
-50.0   150.0   33.333333333333336
-50.0   120.0   50.0
0.0   120.0   33.333333333333336
0.0   150.0   33.333333333333336
-50.0   150.0   33.333333333333336
0.0   150.0   50.0
-50.0   120.0   50.0
-50.0   150.0   50.0
0.0   150.0   50.0
-50.0   150.0   33.333333333333336
-50.0   120.0   50.0
0.0   150.0   50.0
0.0   120.0   50.0
0.0   120.0   33.333333333333336
-50.0   120.0   50.0
0.0   150.0   50.0
0.0   120.0   33.333333333333336
-50.0   150.0   33.333333333333336
0.0   0.0   0.0
50.0   0.0   0.0
0.0   30.0   0.0
0.0   0.0   16.666666666666668
50.0   0.0   0.0
50.0   30.0   0.0
0.0   30.0   0.0
50.0   30.0   16.666666666666668
0.0   0.0   16.666666666666668
0.0   30.0   16.666666666666668
50.0   30.0   16.666666666666668
0.0   30.0   0.0
0.0   0.0   16.666666666666668
50.0   30.0   16.666666666666668
50.0   0.0   16.666666666666668
50.0   0.0   0.0
0.0   0.0   16.666666666666668
50.0   30.0   16.666666666666668
50.0   0.0   0.0
0.0   30.0   0.0
0.0   0.0   16.666666666666668
50.0   0.0   16.666666666666668
0.0   30.0   16.666666666666668
0.0   0.0   33.333333333333336
50.0   0.0   16.666666666666668
50.0   30.0   16.666666666666668
0.0   30.0   16.666666666666668
50.0   30.0   33.333333333333336
0.0   0.0   33.333333333333336
0.0   30.0   33.333333333333336
50.0   30.0   33.333333333333336
0.0   30.0   16.666666666666668
0.0   0.0   33.333333333333336
50.0   30.0   33.333333333333336
50.0   0.0   33.333333333333336
50.0   0.0   16.666666666666668
0.0   0.0   33.333333333333336
50.0   30.0   33.333333333333336
50.0   0.0   16.666666666666668
0.0   30.0   16.666666666666668
0.0   0.0   33.333333333333336
50.0   0.0   33.333333333333336
0.0   30.0   33.333333333333336
0.0   0.0   50.0
50.0   0.0   33.333333333333336
50.0   30.0   33.333333333333336
0.0   30.0   33.333333333333336
50.0   30.0   50.0
0.0   0.0   50.0
0.0   30.0   50.0
50.0   30.0   50.0
0.0   30.0   33.333333333333336
0.0   0.0   50.0
50.0   30.0   50.0
50.0   0.0   50.0
50.0   0.0   33.333333333333336
0.0   0.0   50.0
50.0   30.0   50.0
50.0   0.0   33.333333333333336
0.0   30.0   33.333333333333336
0.0   30.0   0.0
50.0   30.0   0.0
0.0   60.0   0.0
0.0   30.0   16.666666666666668
50.0   30.0   0.0
50.0   60.0   0.0
0.0   60.0   0.0
50.0   60.0   16.666666666666668
0.0   30.0   16.666666666666668
0.0   60.0   16.666666666666668
50.0   60.0   16.666666666666668
0.0   60.0   0.0
0.0   30.0   16.666666666666668
50.0   60.0   16.666666666666668
50.0   30.0   16.666666666666668
50.0   30.0   0.0
0.0   30.0   16.666666666666668
50.0   60.0   16.666666666666668
50.0   30.0   0.0
0.0   60.0   0.0
0.0   30.0   16.666666666666668
50.0   30.0   16.666666666666668
0.0   60.0   16.666666666666668
0.0   30.0   33.333333333333336
50.0   30.0   16.666666666666668
50.0   60.0   16.666666666666668
0.0   60.0   16.666666666666668
50.0   60.0   33.333333333333336
0.0   30.0   33.333333333333336
0.0   60.0   33.333333333333336
50.0   60.0   33.333333333333336
0.0   60.0   16.666666666666668
0.0   30.0   33.333333333333336
50.0   60.0   33.333333333333336
50.0   30.0   33.333333333333336
50.0   30.0   16.666666666666668
0.0   30.0   33.333333333333336
50.0   60.0   33.333333333333336
50.0   30.0   16.666666666666668
0.0   60.0   16.666666666666668
0.0   30.0   33.333333333333336
50.0   30.0   33.333333333333336
0.0   60.0   33.333333333333336
0.0   30.0   50.0
50.0   30.0   33.333333333333336
50.0   60.0   33.333333333333336
0.0   60.0   33.333333333333336
50.0   60.0   50.0
0.0   30.0   50.0
0.0   60.0   50.0
50.0   60.0   50.0
0.0   60.0   33.333333333333336
0.0   30.0   50.0
50.0   60.0   50.0
50.0   30.0   50.0
50.0   30.0   33.333333333333336
0.0   30.0   50.0
50.0   60.0   50.0
50.0   30.0   33.333333333333336
0.0   60.0   33.333333333333336
0.0   60.0   0.0
50.0   60.0   0.0
0.0   90.0   0.0
0.0   60.0   16.666666666666668
50.0   60.0   0.0
50.0   90.0   0.0
0.0   90.0   0.0
50.0   90.0   16.666666666666668
0.0   60.0   16.666666666666668
0.0   90.0   16.666666666666668
50.0   90.0   16.666666666666668
0.0   90.0   0.0
0.0   60.0   16.666666666666668
50.0   90.0   16.666666666666668
50.0   60.0   16.666666666666668
50.0   60.0   0.0
0.0   60.0   16.666666666666668
50.0   90.0   16.666666666666668
50.0   60.0   0.0
0.0   90.0   0.0
0.0   60.0   16.666666666666668
50.0   60.0   16.666666666666668
0.0   90.0   16.666666666666668
0.0   60.0   33.333333333333336
50.0   60.0   16.666666666666668
50.0   90.0   16.666666666666668
0.0   90.0   16.666666666666668
50.0   90.0   33.333333333333336
0.0   60.0   33.333333333333336
0.0   90.0   33.333333333333336
50.0   90.0   33.333333333333336
0.0   90.0   16.666666666666668
0.0   60.0   33.333333333333336
50.0   90.0   33.333333333333336
50.0   60.0   33.333333333333336
50.0   60.0   16.666666666666668
0.0   60.0   33.333333333333336
50.0   90.0   33.333333333333336
50.0   60.0   16.666666666666668
0.0   90.0   16.666666666666668
0.0   60.0   33.333333333333336
50.0   60.0   33.333333333333336
0.0   90.0   33.333333333333336
0.0   60.0   50.0
50.0   60.0   33.333333333333336
50.0   90.0   33.333333333333336
0.0   90.0   33.333333333333336
50.0   90.0   50.0
0.0   60.0   50.0
0.0   90.0   50.0
50.0   90.0   50.0
0.0   90.0   33.333333333333336
0.0   60.0   50.0
50.0   90.0   50.0
50.0   60.0   50.0
50.0   60.0   33.333333333333336
0.0   60.0   50.0
50.0   90.0   50.0
50.0   60.0   33.333333333333336
0.0   90.0   33.333333333333336
0.0   90.0   0.0
50.0   90.0   0.0
0.0   120.0   0.0
0.0   90.0   16.666666666666668
50.0   90.0   0.0
50.0   120.0   0.0
0.0   120.0   0.0
50.0   120.0   16.666666666666668
0.0   90.0   16.666666666666668
0.0   120.0   16.666666666666668
50.0   120.0   16.666666666666668
0.0   120.0   0.0
0.0   90.0   16.666666666666668
50.0   120.0   16.666666666666668
50.0   90.0   16.666666666666668
50.0   90.0   0.0
0.0   90.0   16.666666666666668
50.0   120.0   16.666666666666668
50.0   90.0   0.0
0.0   120.0   0.0
0.0   90.0   16.666666666666668
50.0   90.0   16.666666666666668
0.0   120.0   16.666666666666668
0.0   90.0   33.333333333333336
50.0   90.0   16.666666666666668
50.0   120.0   16.666666666666668
0.0   120.0   16.666666666666668
50.0   120.0   33.333333333333336
0.0   90.0   33.333333333333336
0.0   120.0   33.333333333333336
50.0   120.0   33.333333333333336
0.0   120.0   16.666666666666668
0.0   90.0   33.333333333333336
50.0   120.0   33.333333333333336
50.0   90.0   33.333333333333336
50.0   90.0   16.666666666666668
0.0   90.0   33.333333333333336
50.0   120.0   33.333333333333336
50.0   90.0   16.666666666666668
0.0   120.0   16.666666666666668
0.0   90.0   33.333333333333336
50.0   90.0   33.333333333333336
0.0   120.0   33.333333333333336
0.0   90.0   50.0
50.0   90.0   33.333333333333336
50.0   120.0   33.333333333333336
0.0   120.0   33.333333333333336
50.0   120.0   50.0
0.0   90.0   50.0
0.0   120.0   50.0
50.0   120.0   50.0
0.0   120.0   33.333333333333336
0.0   90.0   50.0
50.0   120.0   50.0
50.0   90.0   50.0
50.0   90.0   33.333333333333336
0.0   90.0   50.0
50.0   120.0   50.0
50.0   90.0   33.333333333333336
0.0   120.0   33.333333333333336
0.0   120.0   0.0
50.0   120.0   0.0
0.0   150.0   0.0
0.0   120.0   16.666666666666668
50.0   120.0   0.0
50.0   150.0   0.0
0.0   150.0   0.0
50.0   150.0   16.666666666666668
0.0   120.0   16.666666666666668
0.0   150.0   16.666666666666668
50.0   150.0   16.666666666666668
0.0   150.0   0.0
0.0   120.0   16.666666666666668
50.0   150.0   16.666666666666668
50.0   120.0   16.666666666666668
50.0   120.0   0.0
0.0   120.0   16.666666666666668
50.0   150.0   16.666666666666668
50.0   120.0   0.0
0.0   150.0   0.0
0.0   120.0   16.666666666666668
50.0   120.0   16.666666666666668
0.0   150.0   16.666666666666668
0.0   120.0   33.333333333333336
50.0   120.0   16.666666666666668
50.0   150.0   16.666666666666668
0.0   150.0   16.666666666666668
50.0   150.0   33.333333333333336
0.0   120.0   33.333333333333336
0.0   150.0   33.333333333333336
50.0   150.0   33.333333333333336
0.0   150.0   16.666666666666668
0.0   120.0   33.333333333333336
50.0   150.0   33.333333333333336
50.0   120.0   33.333333333333336
50.0   120.0   16.666666666666668
0.0   120.0   33.333333333333336
50.0   150.0   33.333333333333336
50.0   120.0   16.666666666666668
0.0   150.0   16.666666666666668
0.0   120.0   33.333333333333336
50.0   120.0   33.333333333333336
0.0   150.0   33.333333333333336
0.0   120.0   50.0
50.0   120.0   33.333333333333336
50.0   150.0   33.333333333333336
0.0   150.0   33.333333333333336
50.0   150.0   50.0
0.0   120.0   50.0
0.0   150.0   50.0
50.0   150.0   50.0
0.0   150.0   33.333333333333336
0.0   120.0   50.0
50.0   150.0   50.0
50.0   120.0   50.0
50.0   120.0   33.333333333333336
0.0   120.0   50.0
50.0   150.0   50.0
50.0   120.0   33.333333333333336
0.0   150.0   33.333333333333336
50.0   0.0   0.0
100.0   0.0   0.0
50.0   30.0   0.0
50.0   0.0   16.666666666666668
100.0   0.0   0.0
100.0   30.0   0.0
50.0   30.0   0.0
100.0   30.0   16.666666666666668
50.0   0.0   16.666666666666668
50.0   30.0   16.666666666666668
100.0   30.0   16.666666666666668
50.0   30.0   0.0
50.0   0.0   16.666666666666668
100.0   30.0   16.666666666666668
100.0   0.0   16.666666666666668
100.0   0.0   0.0
50.0   0.0   16.666666666666668
100.0   30.0   16.666666666666668
100.0   0.0   0.0
50.0   30.0   0.0
50.0   0.0   16.666666666666668
100.0   0.0   16.666666666666668
50.0   30.0   16.666666666666668
50.0   0.0   33.333333333333336
100.0   0.0   16.666666666666668
100.0   30.0   16.666666666666668
50.0   30.0   16.666666666666668
100.0   30.0   33.333333333333336
50.0   0.0   33.333333333333336
50.0   30.0   33.333333333333336
100.0   30.0   33.333333333333336
50.0   30.0   16.666666666666668
50.0   0.0   33.333333333333336
100.0   30.0   33.333333333333336
100.0   0.0   33.333333333333336
100.0   0.0   16.666666666666668
50.0   0.0   33.333333333333336
100.0   30.0   33.333333333333336
100.0   0.0   16.666666666666668
50.0   30.0   16.666666666666668
50.0   0.0   33.333333333333336
100.0   0.0   33.333333333333336
50.0   30.0   33.333333333333336
50.0   0.0   50.0
100.0   0.0   33.333333333333336
100.0   30.0   33.333333333333336
50.0   30.0   33.333333333333336
100.0   30.0   50.0
50.0   0.0   50.0
50.0   30.0   50.0
100.0   30.0   50.0
50.0   30.0   33.333333333333336
50.0   0.0   50.0
100.0   30.0   50.0
100.0   0.0   50.0
100.0   0.0   33.333333333333336
50.0   0.0   50.0
100.0   30.0   50.0
100.0   0.0   33.333333333333336
50.0   30.0   33.333333333333336
50.0   30.0   0.0
100.0   30.0   0.0
50.0   60.0   0.0
50.0   30.0   16.666666666666668
100.0   30.0   0.0
100.0   60.0   0.0
50.0   60.0   0.0
100.0   60.0   16.666666666666668
50.0   30.0   16.666666666666668
50.0   60.0   16.666666666666668
100.0   60.0   16.666666666666668
50.0   60.0   0.0
50.0   30.0   16.666666666666668
100.0   60.0   16.666666666666668
100.0   30.0   16.666666666666668
100.0   30.0   0.0
50.0   30.0   16.666666666666668
100.0   60.0   16.666666666666668
100.0   30.0   0.0
50.0   60.0   0.0
50.0   30.0   16.666666666666668
100.0   30.0   16.666666666666668
50.0   60.0   16.666666666666668
50.0   30.0   33.333333333333336
100.0   30.0   16.666666666666668
100.0   60.0   16.666666666666668
50.0   60.0   16.666666666666668
100.0   60.0   33.333333333333336
50.0   30.0   33.333333333333336
50.0   60.0   33.333333333333336
100.0   60.0   33.333333333333336
50.0   60.0   16.666666666666668
50.0   30.0   33.333333333333336
100.0   60.0   33.333333333333336
100.0   30.0   33.333333333333336
100.0   30.0   16.666666666666668
50.0   30.0   33.333333333333336
100.0   60.0   33.333333333333336
100.0   30.0   16.666666666666668
50.0   60.0   16.666666666666668
50.0   30.0   33.333333333333336
100.0   30.0   33.333333333333336
50.0   60.0   33.333333333333336
50.0   30.0   50.0
100.0   30.0   33.333333333333336
100.0   60.0   33.333333333333336
50.0   60.0   33.333333333333336
100.0   60.0   50.0
50.0   30.0   50.0
50.0   60.0   50.0
100.0   60.0   50.0
50.0   60.0   33.333333333333336
50.0   30.0   50.0
100.0   60.0   50.0
100.0   30.0   50.0
100.0   30.0   33.333333333333336
50.0   30.0   50.0
100.0   60.0   50.0
100.0   30.0   33.333333333333336
50.0   60.0   33.333333333333336
50.0   60.0   0.0
100.0   60.0   0.0
50.0   90.0   0.0
50.0   60.0   16.666666666666668
100.0   60.0   0.0
100.0   90.0   0.0
50.0   90.0   0.0
100.0   90.0   16.666666666666668
50.0   60.0   16.666666666666668
50.0   90.0   16.666666666666668
100.0   90.0   16.666666666666668
50.0   90.0   0.0
50.0   60.0   16.666666666666668
100.0   90.0   16.666666666666668
100.0   60.0   16.666666666666668
100.0   60.0   0.0
50.0   60.0   16.666666666666668
100.0   90.0   16.666666666666668
100.0   60.0   0.0
50.0   90.0   0.0
50.0   60.0   16.666666666666668
100.0   60.0   16.666666666666668
50.0   90.0   16.666666666666668
50.0   60.0   33.333333333333336
100.0   60.0   16.666666666666668
100.0   90.0   16.666666666666668
50.0   90.0   16.666666666666668
100.0   90.0   33.333333333333336
50.0   60.0   33.333333333333336
50.0   90.0   33.333333333333336
100.0   90.0   33.333333333333336
50.0   90.0   16.666666666666668
50.0   60.0   33.333333333333336
100.0   90.0   33.333333333333336
100.0   60.0   33.333333333333336
100.0   60.0   16.666666666666668
50.0   60.0   33.333333333333336
100.0   90.0   33.333333333333336
100.0   60.0   16.666666666666668
50.0   90.0   16.666666666666668
50.0   60.0   33.333333333333336
100.0   60.0   33.333333333333336
50.0   90.0   33.333333333333336
50.0   60.0   50.0
100.0   60.0   33.333333333333336
100.0   90.0   33.333333333333336
50.0   90.0   33.333333333333336
100.0   90.0   50.0
50.0   60.0   50.0
50.0   90.0   50.0
100.0   90.0   50.0
50.0   90.0   33.333333333333336
50.0   60.0   50.0
100.0   90.0   50.0
100.0   60.0   50.0
100.0   60.0   33.333333333333336
50.0   60.0   50.0
100.0   90.0   50.0
100.0   60.0   33.333333333333336
50.0   90.0   33.333333333333336
50.0   90.0   0.0
100.0   90.0   0.0
50.0   120.0   0.0
50.0   90.0   16.666666666666668
100.0   90.0   0.0
100.0   120.0   0.0
50.0   120.0   0.0
100.0   120.0   16.666666666666668
50.0   90.0   16.666666666666668
50.0   120.0   16.666666666666668
100.0   120.0   16.666666666666668
50.0   120.0   0.0
50.0   90.0   16.666666666666668
100.0   120.0   16.666666666666668
100.0   90.0   16.666666666666668
100.0   90.0   0.0
50.0   90.0   16.666666666666668
100.0   120.0   16.666666666666668
100.0   90.0   0.0
50.0   120.0   0.0
50.0   90.0   16.666666666666668
100.0   90.0   16.666666666666668
50.0   120.0   16.666666666666668
50.0   90.0   33.333333333333336
100.0   90.0   16.666666666666668
100.0   120.0   16.666666666666668
50.0   120.0   16.666666666666668
100.0   120.0   33.333333333333336
50.0   90.0   33.333333333333336
50.0   120.0   33.333333333333336
100.0   120.0   33.333333333333336
50.0   120.0   16.666666666666668
50.0   90.0   33.333333333333336
100.0   120.0   33.333333333333336
100.0   90.0   33.333333333333336
100.0   90.0   16.666666666666668
50.0   90.0   33.333333333333336
100.0   120.0   33.333333333333336
100.0   90.0   16.666666666666668
50.0   120.0   16.666666666666668
50.0   90.0   33.333333333333336
100.0   90.0   33.333333333333336
50.0   120.0   33.333333333333336
50.0   90.0   50.0
100.0   90.0   33.333333333333336
100.0   120.0   33.333333333333336
50.0   120.0   33.333333333333336
100.0   120.0   50.0
50.0   90.0   50.0
50.0   120.0   50.0
100.0   120.0   50.0
50.0   120.0   33.333333333333336
50.0   90.0   50.0
100.0   120.0   50.0
100.0   90.0   50.0
100.0   90.0   33.333333333333336
50.0   90.0   50.0
100.0   120.0   50.0
100.0   90.0   33.333333333333336
50.0   120.0   33.333333333333336
50.0   120.0   0.0
100.0   120.0   0.0
50.0   150.0   0.0
50.0   120.0   16.666666666666668
100.0   120.0   0.0
100.0   150.0   0.0
50.0   150.0   0.0
100.0   150.0   16.666666666666668
50.0   120.0   16.666666666666668
50.0   150.0   16.666666666666668
100.0   150.0   16.666666666666668
50.0   150.0   0.0
50.0   120.0   16.666666666666668
100.0   150.0   16.666666666666668
100.0   120.0   16.666666666666668
100.0   120.0   0.0
50.0   120.0   16.666666666666668
100.0   150.0   16.666666666666668
100.0   120.0   0.0
50.0   150.0   0.0
50.0   120.0   16.666666666666668
100.0   120.0   16.666666666666668
50.0   150.0   16.666666666666668
50.0   120.0   33.333333333333336
100.0   120.0   16.666666666666668
100.0   150.0   16.666666666666668
50.0   150.0   16.666666666666668
100.0   150.0   33.333333333333336
50.0   120.0   33.333333333333336
50.0   150.0   33.333333333333336
100.0   150.0   33.333333333333336
50.0   150.0   16.666666666666668
50.0   120.0   33.333333333333336
100.0   150.0   33.333333333333336
100.0   120.0   33.333333333333336
100.0   120.0   16.666666666666668
50.0   120.0   33.333333333333336
100.0   150.0   33.333333333333336
100.0   120.0   16.666666666666668
50.0   150.0   16.666666666666668
50.0   120.0   33.333333333333336
100.0   120.0   33.333333333333336
50.0   150.0   33.333333333333336
50.0   120.0   50.0
100.0   120.0   33.333333333333336
100.0   150.0   33.333333333333336
50.0   150.0   33.333333333333336
100.0   150.0   50.0
50.0   120.0   50.0
50.0   150.0   50.0
100.0   150.0   50.0
50.0   150.0   33.333333333333336
50.0   120.0   50.0
100.0   150.0   50.0
100.0   120.0   50.0
100.0   120.0   33.333333333333336
50.0   120.0   50.0
100.0   150.0   50.0
100.0   120.0   33.333333333333336
50.0   150.0   33.333333333333336
100.0   0.0   0.0
150.0   0.0   0.0
100.0   30.0   0.0
100.0   0.0   16.666666666666668
150.0   0.0   0.0
150.0   30.0   0.0
100.0   30.0   0.0
150.0   30.0   16.666666666666668
100.0   0.0   16.666666666666668
100.0   30.0   16.666666666666668
150.0   30.0   16.666666666666668
100.0   30.0   0.0
100.0   0.0   16.666666666666668
150.0   30.0   16.666666666666668
150.0   0.0   16.666666666666668
150.0   0.0   0.0
100.0   0.0   16.666666666666668
150.0   30.0   16.666666666666668
150.0   0.0   0.0
100.0   30.0   0.0
100.0   0.0   16.666666666666668
150.0   0.0   16.666666666666668
100.0   30.0   16.666666666666668
100.0   0.0   33.333333333333336
150.0   0.0   16.666666666666668
150.0   30.0   16.666666666666668
100.0   30.0   16.666666666666668
150.0   30.0   33.333333333333336
100.0   0.0   33.333333333333336
100.0   30.0   33.333333333333336
150.0   30.0   33.333333333333336
100.0   30.0   16.666666666666668
100.0   0.0   33.333333333333336
150.0   30.0   33.333333333333336
150.0   0.0   33.333333333333336
150.0   0.0   16.666666666666668
100.0   0.0   33.333333333333336
150.0   30.0   33.333333333333336
150.0   0.0   16.666666666666668
100.0   30.0   16.666666666666668
100.0   0.0   33.333333333333336
150.0   0.0   33.333333333333336
100.0   30.0   33.333333333333336
100.0   0.0   50.0
150.0   0.0   33.333333333333336
150.0   30.0   33.333333333333336
100.0   30.0   33.333333333333336
150.0   30.0   50.0
100.0   0.0   50.0
100.0   30.0   50.0
150.0   30.0   50.0
100.0   30.0   33.333333333333336
100.0   0.0   50.0
150.0   30.0   50.0
150.0   0.0   50.0
150.0   0.0   33.333333333333336
100.0   0.0   50.0
150.0   30.0   50.0
150.0   0.0   33.333333333333336
100.0   30.0   33.333333333333336
100.0   30.0   0.0
150.0   30.0   0.0
100.0   60.0   0.0
100.0   30.0   16.666666666666668
150.0   30.0   0.0
150.0   60.0   0.0
100.0   60.0   0.0
150.0   60.0   16.666666666666668
100.0   30.0   16.666666666666668
100.0   60.0   16.666666666666668
150.0   60.0   16.666666666666668
100.0   60.0   0.0
100.0   30.0   16.666666666666668
150.0   60.0   16.666666666666668
150.0   30.0   16.666666666666668
150.0   30.0   0.0
100.0   30.0   16.666666666666668
150.0   60.0   16.666666666666668
150.0   30.0   0.0
100.0   60.0   0.0
100.0   30.0   16.666666666666668
150.0   30.0   16.666666666666668
100.0   60.0   16.666666666666668
100.0   30.0   33.333333333333336
150.0   30.0   16.666666666666668
150.0   60.0   16.666666666666668
100.0   60.0   16.666666666666668
150.0   60.0   33.333333333333336
100.0   30.0   33.333333333333336
100.0   60.0   33.333333333333336
150.0   60.0   33.333333333333336
100.0   60.0   16.666666666666668
100.0   30.0   33.333333333333336
150.0   60.0   33.333333333333336
150.0   30.0   33.333333333333336
150.0   30.0   16.666666666666668
100.0   30.0   33.333333333333336
150.0   60.0   33.333333333333336
150.0   30.0   16.666666666666668
100.0   60.0   16.666666666666668
100.0   30.0   33.333333333333336
150.0   30.0   33.333333333333336
100.0   60.0   33.333333333333336
100.0   30.0   50.0
150.0   30.0   33.333333333333336
150.0   60.0   33.333333333333336
100.0   60.0   33.333333333333336
150.0   60.0   50.0
100.0   30.0   50.0
100.0   60.0   50.0
150.0   60.0   50.0
100.0   60.0   33.333333333333336
100.0   30.0   50.0
150.0   60.0   50.0
150.0   30.0   50.0
150.0   30.0   33.333333333333336
100.0   30.0   50.0
150.0   60.0   50.0
150.0   30.0   33.333333333333336
100.0   60.0   33.333333333333336
100.0   60.0   0.0
150.0   60.0   0.0
100.0   90.0   0.0
100.0   60.0   16.666666666666668
150.0   60.0   0.0
150.0   90.0   0.0
100.0   90.0   0.0
150.0   90.0   16.666666666666668
100.0   60.0   16.666666666666668
100.0   90.0   16.666666666666668
150.0   90.0   16.666666666666668
100.0   90.0   0.0
100.0   60.0   16.666666666666668
150.0   90.0   16.666666666666668
150.0   60.0   16.666666666666668
150.0   60.0   0.0
100.0   60.0   16.666666666666668
150.0   90.0   16.666666666666668
150.0   60.0   0.0
100.0   90.0   0.0
100.0   60.0   16.666666666666668
150.0   60.0   16.666666666666668
100.0   90.0   16.666666666666668
100.0   60.0   33.333333333333336
150.0   60.0   16.666666666666668
150.0   90.0   16.666666666666668
100.0   90.0   16.666666666666668
150.0   90.0   33.333333333333336
100.0   60.0   33.333333333333336
100.0   90.0   33.333333333333336
150.0   90.0   33.333333333333336
100.0   90.0   16.666666666666668
100.0   60.0   33.333333333333336
150.0   90.0   33.333333333333336
150.0   60.0   33.333333333333336
150.0   60.0   16.666666666666668
100.0   60.0   33.333333333333336
150.0   90.0   33.333333333333336
150.0   60.0   16.666666666666668
100.0   90.0   16.666666666666668
100.0   60.0   33.333333333333336
150.0   60.0   33.333333333333336
100.0   90.0   33.333333333333336
100.0   60.0   50.0
150.0   60.0   33.333333333333336
150.0   90.0   33.333333333333336
100.0   90.0   33.333333333333336
150.0   90.0   50.0
100.0   60.0   50.0
100.0   90.0   50.0
150.0   90.0   50.0
100.0   90.0   33.333333333333336
100.0   60.0   50.0
150.0   90.0   50.0
150.0   60.0   50.0
150.0   60.0   33.333333333333336
100.0   60.0   50.0
150.0   90.0   50.0
150.0   60.0   33.333333333333336
100.0   90.0   33.333333333333336
100.0   90.0   0.0
150.0   90.0   0.0
100.0   120.0   0.0
100.0   90.0   16.666666666666668
150.0   90.0   0.0
150.0   120.0   0.0
100.0   120.0   0.0
150.0   120.0   16.666666666666668
100.0   90.0   16.666666666666668
100.0   120.0   16.666666666666668
150.0   120.0   16.666666666666668
100.0   120.0   0.0
100.0   90.0   16.666666666666668
150.0   120.0   16.666666666666668
150.0   90.0   16.666666666666668
150.0   90.0   0.0
100.0   90.0   16.666666666666668
150.0   120.0   16.666666666666668
150.0   90.0   0.0
100.0   120.0   0.0
100.0   90.0   16.666666666666668
150.0   90.0   16.666666666666668
100.0   120.0   16.666666666666668
100.0   90.0   33.333333333333336
150.0   90.0   16.666666666666668
150.0   120.0   16.666666666666668
100.0   120.0   16.666666666666668
150.0   120.0   33.333333333333336
100.0   90.0   33.333333333333336
100.0   120.0   33.333333333333336
150.0   120.0   33.333333333333336
100.0   120.0   16.666666666666668
100.0   90.0   33.333333333333336
150.0   120.0   33.333333333333336
150.0   90.0   33.333333333333336
150.0   90.0   16.666666666666668
100.0   90.0   33.333333333333336
150.0   120.0   33.333333333333336
150.0   90.0   16.666666666666668
100.0   120.0   16.666666666666668
100.0   90.0   33.333333333333336
150.0   90.0   33.333333333333336
100.0   120.0   33.333333333333336
100.0   90.0   50.0
150.0   90.0   33.333333333333336
150.0   120.0   33.333333333333336
100.0   120.0   33.333333333333336
150.0   120.0   50.0
100.0   90.0   50.0
100.0   120.0   50.0
150.0   120.0   50.0
100.0   120.0   33.333333333333336
100.0   90.0   50.0
150.0   120.0   50.0
150.0   90.0   50.0
150.0   90.0   33.333333333333336
100.0   90.0   50.0
150.0   120.0   50.0
150.0   90.0   33.333333333333336
100.0   120.0   33.333333333333336
100.0   120.0   0.0
150.0   120.0   0.0
100.0   150.0   0.0
100.0   120.0   16.666666666666668
150.0   120.0   0.0
150.0   150.0   0.0
100.0   150.0   0.0
150.0   150.0   16.666666666666668
100.0   120.0   16.666666666666668
100.0   150.0   16.666666666666668
150.0   150.0   16.666666666666668
100.0   150.0   0.0
100.0   120.0   16.666666666666668
150.0   150.0   16.666666666666668
150.0   120.0   16.666666666666668
150.0   120.0   0.0
100.0   120.0   16.666666666666668
150.0   150.0   16.666666666666668
150.0   120.0   0.0
100.0   150.0   0.0
100.0   120.0   16.666666666666668
150.0   120.0   16.666666666666668
100.0   150.0   16.666666666666668
100.0   120.0   33.333333333333336
150.0   120.0   16.666666666666668
150.0   150.0   16.666666666666668
100.0   150.0   16.666666666666668
150.0   150.0   33.333333333333336
100.0   120.0   33.333333333333336
100.0   150.0   33.333333333333336
150.0   150.0   33.333333333333336
100.0   150.0   16.666666666666668
100.0   120.0   33.333333333333336
150.0   150.0   33.333333333333336
150.0   120.0   33.333333333333336
150.0   120.0   16.666666666666668
100.0   120.0   33.333333333333336
150.0   150.0   33.333333333333336
150.0   120.0   16.666666666666668
100.0   150.0   16.666666666666668
100.0   120.0   33.333333333333336
150.0   120.0   33.333333333333336
100.0   150.0   33.333333333333336
100.0   120.0   50.0
150.0   120.0   33.333333333333336
150.0   150.0   33.333333333333336
100.0   150.0   33.333333333333336
150.0   150.0   50.0
100.0   120.0   50.0
100.0   150.0   50.0
150.0   150.0   50.0
100.0   150.0   33.333333333333336
100.0   120.0   50.0
150.0   150.0   50.0
150.0   120.0   50.0
150.0   120.0   33.333333333333336
100.0   120.0   50.0
150.0   150.0   50.0
150.0   120.0   33.333333333333336
100.0   150.0   33.333333333333336
150.0   0.0   0.0
200.0   0.0   0.0
150.0   30.0   0.0
150.0   0.0   16.666666666666668
200.0   0.0   0.0
200.0   30.0   0.0
150.0   30.0   0.0
200.0   30.0   16.666666666666668
150.0   0.0   16.666666666666668
150.0   30.0   16.666666666666668
200.0   30.0   16.666666666666668
150.0   30.0   0.0
150.0   0.0   16.666666666666668
200.0   30.0   16.666666666666668
200.0   0.0   16.666666666666668
200.0   0.0   0.0
150.0   0.0   16.666666666666668
200.0   30.0   16.666666666666668
200.0   0.0   0.0
150.0   30.0   0.0
150.0   0.0   16.666666666666668
200.0   0.0   16.666666666666668
150.0   30.0   16.666666666666668
150.0   0.0   33.333333333333336
200.0   0.0   16.666666666666668
200.0   30.0   16.666666666666668
150.0   30.0   16.666666666666668
200.0   30.0   33.333333333333336
150.0   0.0   33.333333333333336
150.0   30.0   33.333333333333336
200.0   30.0   33.333333333333336
150.0   30.0   16.666666666666668
150.0   0.0   33.333333333333336
200.0   30.0   33.333333333333336
200.0   0.0   33.333333333333336
200.0   0.0   16.666666666666668
150.0   0.0   33.333333333333336
200.0   30.0   33.333333333333336
200.0   0.0   16.666666666666668
150.0   30.0   16.666666666666668
150.0   0.0   33.333333333333336
200.0   0.0   33.333333333333336
150.0   30.0   33.333333333333336
150.0   0.0   50.0
200.0   0.0   33.333333333333336
200.0   30.0   33.333333333333336
150.0   30.0   33.333333333333336
200.0   30.0   50.0
150.0   0.0   50.0
150.0   30.0   50.0
200.0   30.0   50.0
150.0   30.0   33.333333333333336
150.0   0.0   50.0
200.0   30.0   50.0
200.0   0.0   50.0
200.0   0.0   33.333333333333336
150.0   0.0   50.0
200.0   30.0   50.0
200.0   0.0   33.333333333333336
150.0   30.0   33.333333333333336
150.0   30.0   0.0
200.0   30.0   0.0
150.0   60.0   0.0
150.0   30.0   16.666666666666668
200.0   30.0   0.0
200.0   60.0   0.0
150.0   60.0   0.0
200.0   60.0   16.666666666666668
150.0   30.0   16.666666666666668
150.0   60.0   16.666666666666668
200.0   60.0   16.666666666666668
150.0   60.0   0.0
150.0   30.0   16.666666666666668
200.0   60.0   16.666666666666668
200.0   30.0   16.666666666666668
200.0   30.0   0.0
150.0   30.0   16.666666666666668
200.0   60.0   16.666666666666668
200.0   30.0   0.0
150.0   60.0   0.0
150.0   30.0   16.666666666666668
200.0   30.0   16.666666666666668
150.0   60.0   16.666666666666668
150.0   30.0   33.333333333333336
200.0   30.0   16.666666666666668
200.0   60.0   16.666666666666668
150.0   60.0   16.666666666666668
200.0   60.0   33.333333333333336
150.0   30.0   33.333333333333336
150.0   60.0   33.333333333333336
200.0   60.0   33.333333333333336
150.0   60.0   16.666666666666668
150.0   30.0   33.333333333333336
200.0   60.0   33.333333333333336
200.0   30.0   33.333333333333336
200.0   30.0   16.666666666666668
150.0   30.0   33.333333333333336
200.0   60.0   33.333333333333336
200.0   30.0   16.666666666666668
150.0   60.0   16.666666666666668
150.0   30.0   33.333333333333336
200.0   30.0   33.333333333333336
150.0   60.0   33.333333333333336
150.0   30.0   50.0
200.0   30.0   33.333333333333336
200.0   60.0   33.333333333333336
150.0   60.0   33.333333333333336
200.0   60.0   50.0
150.0   30.0   50.0
150.0   60.0   50.0
200.0   60.0   50.0
150.0   60.0   33.333333333333336
150.0   30.0   50.0
200.0   60.0   50.0
200.0   30.0   50.0
200.0   30.0   33.333333333333336
150.0   30.0   50.0
200.0   60.0   50.0
200.0   30.0   33.333333333333336
150.0   60.0   33.333333333333336
150.0   60.0   0.0
200.0   60.0   0.0
150.0   90.0   0.0
150.0   60.0   16.666666666666668
200.0   60.0   0.0
200.0   90.0   0.0
150.0   90.0   0.0
200.0   90.0   16.666666666666668
150.0   60.0   16.666666666666668
150.0   90.0   16.666666666666668
200.0   90.0   16.666666666666668
150.0   90.0   0.0
150.0   60.0   16.666666666666668
200.0   90.0   16.666666666666668
200.0   60.0   16.666666666666668
200.0   60.0   0.0
150.0   60.0   16.666666666666668
200.0   90.0   16.666666666666668
200.0   60.0   0.0
150.0   90.0   0.0
150.0   60.0   16.666666666666668
200.0   60.0   16.666666666666668
150.0   90.0   16.666666666666668
150.0   60.0   33.333333333333336
200.0   60.0   16.666666666666668
200.0   90.0   16.666666666666668
150.0   90.0   16.666666666666668
200.0   90.0   33.333333333333336
150.0   60.0   33.333333333333336
150.0   90.0   33.333333333333336
200.0   90.0   33.333333333333336
150.0   90.0   16.666666666666668
150.0   60.0   33.333333333333336
200.0   90.0   33.333333333333336
200.0   60.0   33.333333333333336
200.0   60.0   16.666666666666668
150.0   60.0   33.333333333333336
200.0   90.0   33.333333333333336
200.0   60.0   16.666666666666668
150.0   90.0   16.666666666666668
150.0   60.0   33.333333333333336
200.0   60.0   33.333333333333336
150.0   90.0   33.333333333333336
150.0   60.0   50.0
200.0   60.0   33.333333333333336
200.0   90.0   33.333333333333336
150.0   90.0   33.333333333333336
200.0   90.0   50.0
150.0   60.0   50.0
150.0   90.0   50.0
200.0   90.0   50.0
150.0   90.0   33.333333333333336
150.0   60.0   50.0
200.0   90.0   50.0
200.0   60.0   50.0
200.0   60.0   33.333333333333336
150.0   60.0   50.0
200.0   90.0   50.0
200.0   60.0   33.333333333333336
150.0   90.0   33.333333333333336
150.0   90.0   0.0
200.0   90.0   0.0
150.0   120.0   0.0
150.0   90.0   16.666666666666668
200.0   90.0   0.0
200.0   120.0   0.0
150.0   120.0   0.0
200.0   120.0   16.666666666666668
150.0   90.0   16.666666666666668
150.0   120.0   16.666666666666668
200.0   120.0   16.666666666666668
150.0   120.0   0.0
150.0   90.0   16.666666666666668
200.0   120.0   16.666666666666668
200.0   90.0   16.666666666666668
200.0   90.0   0.0
150.0   90.0   16.666666666666668
200.0   120.0   16.666666666666668
200.0   90.0   0.0
150.0   120.0   0.0
150.0   90.0   16.666666666666668
200.0   90.0   16.666666666666668
150.0   120.0   16.666666666666668
150.0   90.0   33.333333333333336
200.0   90.0   16.666666666666668
200.0   120.0   16.666666666666668
150.0   120.0   16.666666666666668
200.0   120.0   33.333333333333336
150.0   90.0   33.333333333333336
150.0   120.0   33.333333333333336
200.0   120.0   33.333333333333336
150.0   120.0   16.666666666666668
150.0   90.0   33.333333333333336
200.0   120.0   33.333333333333336
200.0   90.0   33.333333333333336
200.0   90.0   16.666666666666668
150.0   90.0   33.333333333333336
200.0   120.0   33.333333333333336
200.0   90.0   16.666666666666668
150.0   120.0   16.666666666666668
150.0   90.0   33.333333333333336
200.0   90.0   33.333333333333336
150.0   120.0   33.333333333333336
150.0   90.0   50.0
200.0   90.0   33.333333333333336
200.0   120.0   33.333333333333336
150.0   120.0   33.333333333333336
200.0   120.0   50.0
150.0   90.0   50.0
150.0   120.0   50.0
200.0   120.0   50.0
150.0   120.0   33.333333333333336
150.0   90.0   50.0
200.0   120.0   50.0
200.0   90.0   50.0
200.0   90.0   33.333333333333336
150.0   90.0   50.0
200.0   120.0   50.0
200.0   90.0   33.333333333333336
150.0   120.0   33.333333333333336
150.0   120.0   0.0
200.0   120.0   0.0
150.0   150.0   0.0
150.0   120.0   16.666666666666668
200.0   120.0   0.0
200.0   150.0   0.0
150.0   150.0   0.0
200.0   150.0   16.666666666666668
150.0   120.0   16.666666666666668
150.0   150.0   16.666666666666668
200.0   150.0   16.666666666666668
150.0   150.0   0.0
150.0   120.0   16.666666666666668
200.0   150.0   16.666666666666668
200.0   120.0   16.666666666666668
200.0   120.0   0.0
150.0   120.0   16.666666666666668
200.0   150.0   16.666666666666668
200.0   120.0   0.0
150.0   150.0   0.0
150.0   120.0   16.666666666666668
200.0   120.0   16.666666666666668
150.0   150.0   16.666666666666668
150.0   120.0   33.333333333333336
200.0   120.0   16.666666666666668
200.0   150.0   16.666666666666668
150.0   150.0   16.666666666666668
200.0   150.0   33.333333333333336
150.0   120.0   33.333333333333336
150.0   150.0   33.333333333333336
200.0   150.0   33.333333333333336
150.0   150.0   16.666666666666668
150.0   120.0   33.333333333333336
200.0   150.0   33.333333333333336
200.0   120.0   33.333333333333336
200.0   120.0   16.666666666666668
150.0   120.0   33.333333333333336
200.0   150.0   33.333333333333336
200.0   120.0   16.666666666666668
150.0   150.0   16.666666666666668
150.0   120.0   33.333333333333336
200.0   120.0   33.333333333333336
150.0   150.0   33.333333333333336
150.0   120.0   50.0
200.0   120.0   33.333333333333336
200.0   150.0   33.333333333333336
150.0   150.0   33.333333333333336
200.0   150.0   50.0
150.0   120.0   50.0
150.0   150.0   50.0
200.0   150.0   50.0
150.0   150.0   33.333333333333336
150.0   120.0   50.0
200.0   150.0   50.0
200.0   120.0   50.0
200.0   120.0   33.333333333333336
150.0   120.0   50.0
200.0   150.0   50.0
200.0   120.0   33.333333333333336
150.0   150.0   33.333333333333336
200.0   0.0   0.0
250.0   0.0   0.0
200.0   30.0   0.0
200.0   0.0   16.666666666666668
250.0   0.0   0.0
250.0   30.0   0.0
200.0   30.0   0.0
250.0   30.0   16.666666666666668
200.0   0.0   16.666666666666668
200.0   30.0   16.666666666666668
250.0   30.0   16.666666666666668
200.0   30.0   0.0
200.0   0.0   16.666666666666668
250.0   30.0   16.666666666666668
250.0   0.0   16.666666666666668
250.0   0.0   0.0
200.0   0.0   16.666666666666668
250.0   30.0   16.666666666666668
250.0   0.0   0.0
200.0   30.0   0.0
200.0   0.0   16.666666666666668
250.0   0.0   16.666666666666668
200.0   30.0   16.666666666666668
200.0   0.0   33.333333333333336
250.0   0.0   16.666666666666668
250.0   30.0   16.666666666666668
200.0   30.0   16.666666666666668
250.0   30.0   33.333333333333336
200.0   0.0   33.333333333333336
200.0   30.0   33.333333333333336
250.0   30.0   33.333333333333336
200.0   30.0   16.666666666666668
200.0   0.0   33.333333333333336
250.0   30.0   33.333333333333336
250.0   0.0   33.333333333333336
250.0   0.0   16.666666666666668
200.0   0.0   33.333333333333336
250.0   30.0   33.333333333333336
250.0   0.0   16.666666666666668
200.0   30.0   16.666666666666668
200.0   0.0   33.333333333333336
250.0   0.0   33.333333333333336
200.0   30.0   33.333333333333336
200.0   0.0   50.0
250.0   0.0   33.333333333333336
250.0   30.0   33.333333333333336
200.0   30.0   33.333333333333336
250.0   30.0   50.0
200.0   0.0   50.0
200.0   30.0   50.0
250.0   30.0   50.0
200.0   30.0   33.333333333333336
200.0   0.0   50.0
250.0   30.0   50.0
250.0   0.0   50.0
250.0   0.0   33.333333333333336
200.0   0.0   50.0
250.0   30.0   50.0
250.0   0.0   33.333333333333336
200.0   30.0   33.333333333333336
200.0   30.0   0.0
250.0   30.0   0.0
200.0   60.0   0.0
200.0   30.0   16.666666666666668
250.0   30.0   0.0
250.0   60.0   0.0
200.0   60.0   0.0
250.0   60.0   16.666666666666668
200.0   30.0   16.666666666666668
200.0   60.0   16.666666666666668
250.0   60.0   16.666666666666668
200.0   60.0   0.0
200.0   30.0   16.666666666666668
250.0   60.0   16.666666666666668
250.0   30.0   16.666666666666668
250.0   30.0   0.0
200.0   30.0   16.666666666666668
250.0   60.0   16.666666666666668
250.0   30.0   0.0
200.0   60.0   0.0
200.0   30.0   16.666666666666668
250.0   30.0   16.666666666666668
200.0   60.0   16.666666666666668
200.0   30.0   33.333333333333336
250.0   30.0   16.666666666666668
250.0   60.0   16.666666666666668
200.0   60.0   16.666666666666668
250.0   60.0   33.333333333333336
200.0   30.0   33.333333333333336
200.0   60.0   33.333333333333336
250.0   60.0   33.333333333333336
200.0   60.0   16.666666666666668
200.0   30.0   33.333333333333336
250.0   60.0   33.333333333333336
250.0   30.0   33.333333333333336
250.0   30.0   16.666666666666668
200.0   30.0   33.333333333333336
250.0   60.0   33.333333333333336
250.0   30.0   16.666666666666668
200.0   60.0   16.666666666666668
200.0   30.0   33.333333333333336
250.0   30.0   33.333333333333336
200.0   60.0   33.333333333333336
200.0   30.0   50.0
250.0   30.0   33.333333333333336
250.0   60.0   33.333333333333336
200.0   60.0   33.333333333333336
250.0   60.0   50.0
200.0   30.0   50.0
200.0   60.0   50.0
250.0   60.0   50.0
200.0   60.0   33.333333333333336
200.0   30.0   50.0
250.0   60.0   50.0
250.0   30.0   50.0
250.0   30.0   33.333333333333336
200.0   30.0   50.0
250.0   60.0   50.0
250.0   30.0   33.333333333333336
200.0   60.0   33.333333333333336
200.0   60.0   0.0
250.0   60.0   0.0
200.0   90.0   0.0
200.0   60.0   16.666666666666668
250.0   60.0   0.0
250.0   90.0   0.0
200.0   90.0   0.0
250.0   90.0   16.666666666666668
200.0   60.0   16.666666666666668
200.0   90.0   16.666666666666668
250.0   90.0   16.666666666666668
200.0   90.0   0.0
200.0   60.0   16.666666666666668
250.0   90.0   16.666666666666668
250.0   60.0   16.666666666666668
250.0   60.0   0.0
200.0   60.0   16.666666666666668
250.0   90.0   16.666666666666668
250.0   60.0   0.0
200.0   90.0   0.0
200.0   60.0   16.666666666666668
250.0   60.0   16.666666666666668
200.0   90.0   16.666666666666668
200.0   60.0   33.333333333333336
250.0   60.0   16.666666666666668
250.0   90.0   16.666666666666668
200.0   90.0   16.666666666666668
250.0   90.0   33.333333333333336
200.0   60.0   33.333333333333336
200.0   90.0   33.333333333333336
250.0   90.0   33.333333333333336
200.0   90.0   16.666666666666668
200.0   60.0   33.333333333333336
250.0   90.0   33.333333333333336
250.0   60.0   33.333333333333336
250.0   60.0   16.666666666666668
200.0   60.0   33.333333333333336
250.0   90.0   33.333333333333336
250.0   60.0   16.666666666666668
200.0   90.0   16.666666666666668
200.0   60.0   33.333333333333336
250.0   60.0   33.333333333333336
200.0   90.0   33.333333333333336
200.0   60.0   50.0
250.0   60.0   33.333333333333336
250.0   90.0   33.333333333333336
200.0   90.0   33.333333333333336
250.0   90.0   50.0
200.0   60.0   50.0
200.0   90.0   50.0
250.0   90.0   50.0
200.0   90.0   33.333333333333336
200.0   60.0   50.0
250.0   90.0   50.0
250.0   60.0   50.0
250.0   60.0   33.333333333333336
200.0   60.0   50.0
250.0   90.0   50.0
250.0   60.0   33.333333333333336
200.0   90.0   33.333333333333336
200.0   90.0   0.0
250.0   90.0   0.0
200.0   120.0   0.0
200.0   90.0   16.666666666666668
250.0   90.0   0.0
250.0   120.0   0.0
200.0   120.0   0.0
250.0   120.0   16.666666666666668
200.0   90.0   16.666666666666668
200.0   120.0   16.666666666666668
250.0   120.0   16.666666666666668
200.0   120.0   0.0
200.0   90.0   16.666666666666668
250.0   120.0   16.666666666666668
250.0   90.0   16.666666666666668
250.0   90.0   0.0
200.0   90.0   16.666666666666668
250.0   120.0   16.666666666666668
250.0   90.0   0.0
200.0   120.0   0.0
200.0   90.0   16.666666666666668
250.0   90.0   16.666666666666668
200.0   120.0   16.666666666666668
200.0   90.0   33.333333333333336
250.0   90.0   16.666666666666668
250.0   120.0   16.666666666666668
200.0   120.0   16.666666666666668
250.0   120.0   33.333333333333336
200.0   90.0   33.333333333333336
200.0   120.0   33.333333333333336
250.0   120.0   33.333333333333336
200.0   120.0   16.666666666666668
200.0   90.0   33.333333333333336
250.0   120.0   33.333333333333336
250.0   90.0   33.333333333333336
250.0   90.0   16.666666666666668
200.0   90.0   33.333333333333336
250.0   120.0   33.333333333333336
250.0   90.0   16.666666666666668
200.0   120.0   16.666666666666668
200.0   90.0   33.333333333333336
250.0   90.0   33.333333333333336
200.0   120.0   33.333333333333336
200.0   90.0   50.0
250.0   90.0   33.333333333333336
250.0   120.0   33.333333333333336
200.0   120.0   33.333333333333336
250.0   120.0   50.0
200.0   90.0   50.0
200.0   120.0   50.0
250.0   120.0   50.0
200.0   120.0   33.333333333333336
200.0   90.0   50.0
250.0   120.0   50.0
250.0   90.0   50.0
250.0   90.0   33.333333333333336
200.0   90.0   50.0
250.0   120.0   50.0
250.0   90.0   33.333333333333336
200.0   120.0   33.333333333333336
200.0   120.0   0.0
250.0   120.0   0.0
200.0   150.0   0.0
200.0   120.0   16.666666666666668
250.0   120.0   0.0
250.0   150.0   0.0
200.0   150.0   0.0
250.0   150.0   16.666666666666668
200.0   120.0   16.666666666666668
200.0   150.0   16.666666666666668
250.0   150.0   16.666666666666668
200.0   150.0   0.0
200.0   120.0   16.666666666666668
250.0   150.0   16.666666666666668
250.0   120.0   16.666666666666668
250.0   120.0   0.0
200.0   120.0   16.666666666666668
250.0   150.0   16.666666666666668
250.0   120.0   0.0
200.0   150.0   0.0
200.0   120.0   16.666666666666668
250.0   120.0   16.666666666666668
200.0   150.0   16.666666666666668
200.0   120.0   33.333333333333336
250.0   120.0   16.666666666666668
250.0   150.0   16.666666666666668
200.0   150.0   16.666666666666668
250.0   150.0   33.333333333333336
200.0   120.0   33.333333333333336
200.0   150.0   33.333333333333336
250.0   150.0   33.333333333333336
200.0   150.0   16.666666666666668
200.0   120.0   33.333333333333336
250.0   150.0   33.333333333333336
250.0   120.0   33.333333333333336
250.0   120.0   16.666666666666668
200.0   120.0   33.333333333333336
250.0   150.0   33.333333333333336
250.0   120.0   16.666666666666668
200.0   150.0   16.666666666666668
200.0   120.0   33.333333333333336
250.0   120.0   33.333333333333336
200.0   150.0   33.333333333333336
200.0   120.0   50.0
250.0   120.0   33.333333333333336
250.0   150.0   33.333333333333336
200.0   150.0   33.333333333333336
250.0   150.0   50.0
200.0   120.0   50.0
200.0   150.0   50.0
250.0   150.0   50.0
200.0   150.0   33.333333333333336
200.0   120.0   50.0
250.0   150.0   50.0
250.0   120.0   50.0
250.0   120.0   33.333333333333336
200.0   120.0   50.0
250.0   150.0   50.0
250.0   120.0   33.333333333333336
200.0   150.0   33.333333333333336
250.0   0.0   0.0
300.0   0.0   0.0
250.0   30.0   0.0
250.0   0.0   16.666666666666668
300.0   0.0   0.0
300.0   30.0   0.0
250.0   30.0   0.0
300.0   30.0   16.666666666666668
250.0   0.0   16.666666666666668
250.0   30.0   16.666666666666668
300.0   30.0   16.666666666666668
250.0   30.0   0.0
250.0   0.0   16.666666666666668
300.0   30.0   16.666666666666668
300.0   0.0   16.666666666666668
300.0   0.0   0.0
250.0   0.0   16.666666666666668
300.0   30.0   16.666666666666668
300.0   0.0   0.0
250.0   30.0   0.0
250.0   0.0   16.666666666666668
300.0   0.0   16.666666666666668
250.0   30.0   16.666666666666668
250.0   0.0   33.333333333333336
300.0   0.0   16.666666666666668
300.0   30.0   16.666666666666668
250.0   30.0   16.666666666666668
300.0   30.0   33.333333333333336
250.0   0.0   33.333333333333336
250.0   30.0   33.333333333333336
300.0   30.0   33.333333333333336
250.0   30.0   16.666666666666668
250.0   0.0   33.333333333333336
300.0   30.0   33.333333333333336
300.0   0.0   33.333333333333336
300.0   0.0   16.666666666666668
250.0   0.0   33.333333333333336
300.0   30.0   33.333333333333336
300.0   0.0   16.666666666666668
250.0   30.0   16.666666666666668
250.0   0.0   33.333333333333336
300.0   0.0   33.333333333333336
250.0   30.0   33.333333333333336
250.0   0.0   50.0
300.0   0.0   33.333333333333336
300.0   30.0   33.333333333333336
250.0   30.0   33.333333333333336
300.0   30.0   50.0
250.0   0.0   50.0
250.0   30.0   50.0
300.0   30.0   50.0
250.0   30.0   33.333333333333336
250.0   0.0   50.0
300.0   30.0   50.0
300.0   0.0   50.0
300.0   0.0   33.333333333333336
250.0   0.0   50.0
300.0   30.0   50.0
300.0   0.0   33.333333333333336
250.0   30.0   33.333333333333336
250.0   30.0   0.0
300.0   30.0   0.0
250.0   60.0   0.0
250.0   30.0   16.666666666666668
300.0   30.0   0.0
300.0   60.0   0.0
250.0   60.0   0.0
300.0   60.0   16.666666666666668
250.0   30.0   16.666666666666668
250.0   60.0   16.666666666666668
300.0   60.0   16.666666666666668
250.0   60.0   0.0
250.0   30.0   16.666666666666668
300.0   60.0   16.666666666666668
300.0   30.0   16.666666666666668
300.0   30.0   0.0
250.0   30.0   16.666666666666668
300.0   60.0   16.666666666666668
300.0   30.0   0.0
250.0   60.0   0.0
250.0   30.0   16.666666666666668
300.0   30.0   16.666666666666668
250.0   60.0   16.666666666666668
250.0   30.0   33.333333333333336
300.0   30.0   16.666666666666668
300.0   60.0   16.666666666666668
250.0   60.0   16.666666666666668
300.0   60.0   33.333333333333336
250.0   30.0   33.333333333333336
250.0   60.0   33.333333333333336
300.0   60.0   33.333333333333336
250.0   60.0   16.666666666666668
250.0   30.0   33.333333333333336
300.0   60.0   33.333333333333336
300.0   30.0   33.333333333333336
300.0   30.0   16.666666666666668
250.0   30.0   33.333333333333336
300.0   60.0   33.333333333333336
300.0   30.0   16.666666666666668
250.0   60.0   16.666666666666668
250.0   30.0   33.333333333333336
300.0   30.0   33.333333333333336
250.0   60.0   33.333333333333336
250.0   30.0   50.0
300.0   30.0   33.333333333333336
300.0   60.0   33.333333333333336
250.0   60.0   33.333333333333336
300.0   60.0   50.0
250.0   30.0   50.0
250.0   60.0   50.0
300.0   60.0   50.0
250.0   60.0   33.333333333333336
250.0   30.0   50.0
300.0   60.0   50.0
300.0   30.0   50.0
300.0   30.0   33.333333333333336
250.0   30.0   50.0
300.0   60.0   50.0
300.0   30.0   33.333333333333336
250.0   60.0   33.333333333333336
250.0   60.0   0.0
300.0   60.0   0.0
250.0   90.0   0.0
250.0   60.0   16.666666666666668
300.0   60.0   0.0
300.0   90.0   0.0
250.0   90.0   0.0
300.0   90.0   16.666666666666668
250.0   60.0   16.666666666666668
250.0   90.0   16.666666666666668
300.0   90.0   16.666666666666668
250.0   90.0   0.0
250.0   60.0   16.666666666666668
300.0   90.0   16.666666666666668
300.0   60.0   16.666666666666668
300.0   60.0   0.0
250.0   60.0   16.666666666666668
300.0   90.0   16.666666666666668
300.0   60.0   0.0
250.0   90.0   0.0
250.0   60.0   16.666666666666668
300.0   60.0   16.666666666666668
250.0   90.0   16.666666666666668
250.0   60.0   33.333333333333336
300.0   60.0   16.666666666666668
300.0   90.0   16.666666666666668
250.0   90.0   16.666666666666668
300.0   90.0   33.333333333333336
250.0   60.0   33.333333333333336
250.0   90.0   33.333333333333336
300.0   90.0   33.333333333333336
250.0   90.0   16.666666666666668
250.0   60.0   33.333333333333336
300.0   90.0   33.333333333333336
300.0   60.0   33.333333333333336
300.0   60.0   16.666666666666668
250.0   60.0   33.333333333333336
300.0   90.0   33.333333333333336
300.0   60.0   16.666666666666668
250.0   90.0   16.666666666666668
250.0   60.0   33.333333333333336
300.0   60.0   33.333333333333336
250.0   90.0   33.333333333333336
250.0   60.0   50.0
300.0   60.0   33.333333333333336
300.0   90.0   33.333333333333336
250.0   90.0   33.333333333333336
300.0   90.0   50.0
250.0   60.0   50.0
250.0   90.0   50.0
300.0   90.0   50.0
250.0   90.0   33.333333333333336
250.0   60.0   50.0
300.0   90.0   50.0
300.0   60.0   50.0
300.0   60.0   33.333333333333336
250.0   60.0   50.0
300.0   90.0   50.0
300.0   60.0   33.333333333333336
250.0   90.0   33.333333333333336
250.0   90.0   0.0
300.0   90.0   0.0
250.0   120.0   0.0
250.0   90.0   16.666666666666668
300.0   90.0   0.0
300.0   120.0   0.0
250.0   120.0   0.0
300.0   120.0   16.666666666666668
250.0   90.0   16.666666666666668
250.0   120.0   16.666666666666668
300.0   120.0   16.666666666666668
250.0   120.0   0.0
250.0   90.0   16.666666666666668
300.0   120.0   16.666666666666668
300.0   90.0   16.666666666666668
300.0   90.0   0.0
250.0   90.0   16.666666666666668
300.0   120.0   16.666666666666668
300.0   90.0   0.0
250.0   120.0   0.0
250.0   90.0   16.666666666666668
300.0   90.0   16.666666666666668
250.0   120.0   16.666666666666668
250.0   90.0   33.333333333333336
300.0   90.0   16.666666666666668
300.0   120.0   16.666666666666668
250.0   120.0   16.666666666666668
300.0   120.0   33.333333333333336
250.0   90.0   33.333333333333336
250.0   120.0   33.333333333333336
300.0   120.0   33.333333333333336
250.0   120.0   16.666666666666668
250.0   90.0   33.333333333333336
300.0   120.0   33.333333333333336
300.0   90.0   33.333333333333336
300.0   90.0   16.666666666666668
250.0   90.0   33.333333333333336
300.0   120.0   33.333333333333336
300.0   90.0   16.666666666666668
250.0   120.0   16.666666666666668
250.0   90.0   33.333333333333336
300.0   90.0   33.333333333333336
250.0   120.0   33.333333333333336
250.0   90.0   50.0
300.0   90.0   33.333333333333336
300.0   120.0   33.333333333333336
250.0   120.0   33.333333333333336
300.0   120.0   50.0
250.0   90.0   50.0
250.0   120.0   50.0
300.0   120.0   50.0
250.0   120.0   33.333333333333336
250.0   90.0   50.0
300.0   120.0   50.0
300.0   90.0   50.0
300.0   90.0   33.333333333333336
250.0   90.0   50.0
300.0   120.0   50.0
300.0   90.0   33.333333333333336
250.0   120.0   33.333333333333336
250.0   120.0   0.0
300.0   120.0   0.0
250.0   150.0   0.0
250.0   120.0   16.666666666666668
300.0   120.0   0.0
300.0   150.0   0.0
250.0   150.0   0.0
300.0   150.0   16.666666666666668
250.0   120.0   16.666666666666668
250.0   150.0   16.666666666666668
300.0   150.0   16.666666666666668
250.0   150.0   0.0
250.0   120.0   16.666666666666668
300.0   150.0   16.666666666666668
300.0   120.0   16.666666666666668
300.0   120.0   0.0
250.0   120.0   16.666666666666668
300.0   150.0   16.666666666666668
300.0   120.0   0.0
250.0   150.0   0.0
250.0   120.0   16.666666666666668
300.0   120.0   16.666666666666668
250.0   150.0   16.666666666666668
250.0   120.0   33.333333333333336
300.0   120.0   16.666666666666668
300.0   150.0   16.666666666666668
250.0   150.0   16.666666666666668
300.0   150.0   33.333333333333336
250.0   120.0   33.333333333333336
250.0   150.0   33.333333333333336
300.0   150.0   33.333333333333336
250.0   150.0   16.666666666666668
250.0   120.0   33.333333333333336
300.0   150.0   33.333333333333336
300.0   120.0   33.333333333333336
300.0   120.0   16.666666666666668
250.0   120.0   33.333333333333336
300.0   150.0   33.333333333333336
300.0   120.0   16.666666666666668
250.0   150.0   16.666666666666668
250.0   120.0   33.333333333333336
300.0   120.0   33.333333333333336
250.0   150.0   33.333333333333336
250.0   120.0   50.0
300.0   120.0   33.333333333333336
300.0   150.0   33.333333333333336
250.0   150.0   33.333333333333336
300.0   150.0   50.0
250.0   120.0   50.0
250.0   150.0   50.0
300.0   150.0   50.0
250.0   150.0   33.333333333333336
250.0   120.0   50.0
300.0   150.0   50.0
300.0   120.0   50.0
300.0   120.0   33.333333333333336
250.0   120.0   50.0
300.0   150.0   50.0
300.0   120.0   33.333333333333336
250.0   150.0   33.333333333333336
300.0   0.0   0.0
350.0   0.0   0.0
300.0   30.0   0.0
300.0   0.0   16.666666666666668
350.0   0.0   0.0
350.0   30.0   0.0
300.0   30.0   0.0
350.0   30.0   16.666666666666668
300.0   0.0   16.666666666666668
300.0   30.0   16.666666666666668
350.0   30.0   16.666666666666668
300.0   30.0   0.0
300.0   0.0   16.666666666666668
350.0   30.0   16.666666666666668
350.0   0.0   16.666666666666668
350.0   0.0   0.0
300.0   0.0   16.666666666666668
350.0   30.0   16.666666666666668
350.0   0.0   0.0
300.0   30.0   0.0
300.0   0.0   16.666666666666668
350.0   0.0   16.666666666666668
300.0   30.0   16.666666666666668
300.0   0.0   33.333333333333336
350.0   0.0   16.666666666666668
350.0   30.0   16.666666666666668
300.0   30.0   16.666666666666668
350.0   30.0   33.333333333333336
300.0   0.0   33.333333333333336
300.0   30.0   33.333333333333336
350.0   30.0   33.333333333333336
300.0   30.0   16.666666666666668
300.0   0.0   33.333333333333336
350.0   30.0   33.333333333333336
350.0   0.0   33.333333333333336
350.0   0.0   16.666666666666668
300.0   0.0   33.333333333333336
350.0   30.0   33.333333333333336
350.0   0.0   16.666666666666668
300.0   30.0   16.666666666666668
300.0   0.0   33.333333333333336
350.0   0.0   33.333333333333336
300.0   30.0   33.333333333333336
300.0   0.0   50.0
350.0   0.0   33.333333333333336
350.0   30.0   33.333333333333336
300.0   30.0   33.333333333333336
350.0   30.0   50.0
300.0   0.0   50.0
300.0   30.0   50.0
350.0   30.0   50.0
300.0   30.0   33.333333333333336
300.0   0.0   50.0
350.0   30.0   50.0
350.0   0.0   50.0
350.0   0.0   33.333333333333336
300.0   0.0   50.0
350.0   30.0   50.0
350.0   0.0   33.333333333333336
300.0   30.0   33.333333333333336
300.0   30.0   0.0
350.0   30.0   0.0
300.0   60.0   0.0
300.0   30.0   16.666666666666668
350.0   30.0   0.0
350.0   60.0   0.0
300.0   60.0   0.0
350.0   60.0   16.666666666666668
300.0   30.0   16.666666666666668
300.0   60.0   16.666666666666668
350.0   60.0   16.666666666666668
300.0   60.0   0.0
300.0   30.0   16.666666666666668
350.0   60.0   16.666666666666668
350.0   30.0   16.666666666666668
350.0   30.0   0.0
300.0   30.0   16.666666666666668
350.0   60.0   16.666666666666668
350.0   30.0   0.0
300.0   60.0   0.0
300.0   30.0   16.666666666666668
350.0   30.0   16.666666666666668
300.0   60.0   16.666666666666668
300.0   30.0   33.333333333333336
350.0   30.0   16.666666666666668
350.0   60.0   16.666666666666668
300.0   60.0   16.666666666666668
350.0   60.0   33.333333333333336
300.0   30.0   33.333333333333336
300.0   60.0   33.333333333333336
350.0   60.0   33.333333333333336
300.0   60.0   16.666666666666668
300.0   30.0   33.333333333333336
350.0   60.0   33.333333333333336
350.0   30.0   33.333333333333336
350.0   30.0   16.666666666666668
300.0   30.0   33.333333333333336
350.0   60.0   33.333333333333336
350.0   30.0   16.666666666666668
300.0   60.0   16.666666666666668
300.0   30.0   33.333333333333336
350.0   30.0   33.333333333333336
300.0   60.0   33.333333333333336
300.0   30.0   50.0
350.0   30.0   33.333333333333336
350.0   60.0   33.333333333333336
300.0   60.0   33.333333333333336
350.0   60.0   50.0
300.0   30.0   50.0
300.0   60.0   50.0
350.0   60.0   50.0
300.0   60.0   33.333333333333336
300.0   30.0   50.0
350.0   60.0   50.0
350.0   30.0   50.0
350.0   30.0   33.333333333333336
300.0   30.0   50.0
350.0   60.0   50.0
350.0   30.0   33.333333333333336
300.0   60.0   33.333333333333336
300.0   60.0   0.0
350.0   60.0   0.0
300.0   90.0   0.0
300.0   60.0   16.666666666666668
350.0   60.0   0.0
350.0   90.0   0.0
300.0   90.0   0.0
350.0   90.0   16.666666666666668
300.0   60.0   16.666666666666668
300.0   90.0   16.666666666666668
350.0   90.0   16.666666666666668
300.0   90.0   0.0
300.0   60.0   16.666666666666668
350.0   90.0   16.666666666666668
350.0   60.0   16.666666666666668
350.0   60.0   0.0
300.0   60.0   16.666666666666668
350.0   90.0   16.666666666666668
350.0   60.0   0.0
300.0   90.0   0.0
300.0   60.0   16.666666666666668
350.0   60.0   16.666666666666668
300.0   90.0   16.666666666666668
300.0   60.0   33.333333333333336
350.0   60.0   16.666666666666668
350.0   90.0   16.666666666666668
300.0   90.0   16.666666666666668
350.0   90.0   33.333333333333336
300.0   60.0   33.333333333333336
300.0   90.0   33.333333333333336
350.0   90.0   33.333333333333336
300.0   90.0   16.666666666666668
300.0   60.0   33.333333333333336
350.0   90.0   33.333333333333336
350.0   60.0   33.333333333333336
350.0   60.0   16.666666666666668
300.0   60.0   33.333333333333336
350.0   90.0   33.333333333333336
350.0   60.0   16.666666666666668
300.0   90.0   16.666666666666668
300.0   60.0   33.333333333333336
350.0   60.0   33.333333333333336
300.0   90.0   33.333333333333336
300.0   60.0   50.0
350.0   60.0   33.333333333333336
350.0   90.0   33.333333333333336
300.0   90.0   33.333333333333336
350.0   90.0   50.0
300.0   60.0   50.0
300.0   90.0   50.0
350.0   90.0   50.0
300.0   90.0   33.333333333333336
300.0   60.0   50.0
350.0   90.0   50.0
350.0   60.0   50.0
350.0   60.0   33.333333333333336
300.0   60.0   50.0
350.0   90.0   50.0
350.0   60.0   33.333333333333336
300.0   90.0   33.333333333333336
300.0   90.0   0.0
350.0   90.0   0.0
300.0   120.0   0.0
300.0   90.0   16.666666666666668
350.0   90.0   0.0
350.0   120.0   0.0
300.0   120.0   0.0
350.0   120.0   16.666666666666668
300.0   90.0   16.666666666666668
300.0   120.0   16.666666666666668
350.0   120.0   16.666666666666668
300.0   120.0   0.0
300.0   90.0   16.666666666666668
350.0   120.0   16.666666666666668
350.0   90.0   16.666666666666668
350.0   90.0   0.0
300.0   90.0   16.666666666666668
350.0   120.0   16.666666666666668
350.0   90.0   0.0
300.0   120.0   0.0
300.0   90.0   16.666666666666668
350.0   90.0   16.666666666666668
300.0   120.0   16.666666666666668
300.0   90.0   33.333333333333336
350.0   90.0   16.666666666666668
350.0   120.0   16.666666666666668
300.0   120.0   16.666666666666668
350.0   120.0   33.333333333333336
300.0   90.0   33.333333333333336
300.0   120.0   33.333333333333336
350.0   120.0   33.333333333333336
300.0   120.0   16.666666666666668
300.0   90.0   33.333333333333336
350.0   120.0   33.333333333333336
350.0   90.0   33.333333333333336
350.0   90.0   16.666666666666668
300.0   90.0   33.333333333333336
350.0   120.0   33.333333333333336
350.0   90.0   16.666666666666668
300.0   120.0   16.666666666666668
300.0   90.0   33.333333333333336
350.0   90.0   33.333333333333336
300.0   120.0   33.333333333333336
300.0   90.0   50.0
350.0   90.0   33.333333333333336
350.0   120.0   33.333333333333336
300.0   120.0   33.333333333333336
350.0   120.0   50.0
300.0   90.0   50.0
300.0   120.0   50.0
350.0   120.0   50.0
300.0   120.0   33.333333333333336
300.0   90.0   50.0
350.0   120.0   50.0
350.0   90.0   50.0
350.0   90.0   33.333333333333336
300.0   90.0   50.0
350.0   120.0   50.0
350.0   90.0   33.333333333333336
300.0   120.0   33.333333333333336
300.0   120.0   0.0
350.0   120.0   0.0
300.0   150.0   0.0
300.0   120.0   16.666666666666668
350.0   120.0   0.0
350.0   150.0   0.0
300.0   150.0   0.0
350.0   150.0   16.666666666666668
300.0   120.0   16.666666666666668
300.0   150.0   16.666666666666668
350.0   150.0   16.666666666666668
300.0   150.0   0.0
300.0   120.0   16.666666666666668
350.0   150.0   16.666666666666668
350.0   120.0   16.666666666666668
350.0   120.0   0.0
300.0   120.0   16.666666666666668
350.0   150.0   16.666666666666668
350.0   120.0   0.0
300.0   150.0   0.0
300.0   120.0   16.666666666666668
350.0   120.0   16.666666666666668
300.0   150.0   16.666666666666668
300.0   120.0   33.333333333333336
350.0   120.0   16.666666666666668
350.0   150.0   16.666666666666668
300.0   150.0   16.666666666666668
350.0   150.0   33.333333333333336
300.0   120.0   33.333333333333336
300.0   150.0   33.333333333333336
350.0   150.0   33.333333333333336
300.0   150.0   16.666666666666668
300.0   120.0   33.333333333333336
350.0   150.0   33.333333333333336
350.0   120.0   33.333333333333336
350.0   120.0   16.666666666666668
300.0   120.0   33.333333333333336
350.0   150.0   33.333333333333336
350.0   120.0   16.666666666666668
300.0   150.0   16.666666666666668
300.0   120.0   33.333333333333336
350.0   120.0   33.333333333333336
300.0   150.0   33.333333333333336
300.0   120.0   50.0
350.0   120.0   33.333333333333336
350.0   150.0   33.333333333333336
300.0   150.0   33.333333333333336
350.0   150.0   50.0
300.0   120.0   50.0
300.0   150.0   50.0
350.0   150.0   50.0
300.0   150.0   33.333333333333336
300.0   120.0   50.0
350.0   150.0   50.0
350.0   120.0   50.0
350.0   120.0   33.333333333333336
300.0   120.0   50.0
350.0   150.0   50.0
350.0   120.0   33.333333333333336
300.0   150.0   33.333333333333336
350.0   0.0   0.0
400.0   0.0   0.0
350.0   30.0   0.0
350.0   0.0   16.666666666666668
400.0   0.0   0.0
400.0   30.0   0.0
350.0   30.0   0.0
400.0   30.0   16.666666666666668
350.0   0.0   16.666666666666668
350.0   30.0   16.666666666666668
400.0   30.0   16.666666666666668
350.0   30.0   0.0
350.0   0.0   16.666666666666668
400.0   30.0   16.666666666666668
400.0   0.0   16.666666666666668
400.0   0.0   0.0
350.0   0.0   16.666666666666668
400.0   30.0   16.666666666666668
400.0   0.0   0.0
350.0   30.0   0.0
350.0   0.0   16.666666666666668
400.0   0.0   16.666666666666668
350.0   30.0   16.666666666666668
350.0   0.0   33.333333333333336
400.0   0.0   16.666666666666668
400.0   30.0   16.666666666666668
350.0   30.0   16.666666666666668
400.0   30.0   33.333333333333336
350.0   0.0   33.333333333333336
350.0   30.0   33.333333333333336
400.0   30.0   33.333333333333336
350.0   30.0   16.666666666666668
350.0   0.0   33.333333333333336
400.0   30.0   33.333333333333336
400.0   0.0   33.333333333333336
400.0   0.0   16.666666666666668
350.0   0.0   33.333333333333336
400.0   30.0   33.333333333333336
400.0   0.0   16.666666666666668
350.0   30.0   16.666666666666668
350.0   0.0   33.333333333333336
400.0   0.0   33.333333333333336
350.0   30.0   33.333333333333336
350.0   0.0   50.0
400.0   0.0   33.333333333333336
400.0   30.0   33.333333333333336
350.0   30.0   33.333333333333336
400.0   30.0   50.0
350.0   0.0   50.0
350.0   30.0   50.0
400.0   30.0   50.0
350.0   30.0   33.333333333333336
350.0   0.0   50.0
400.0   30.0   50.0
400.0   0.0   50.0
400.0   0.0   33.333333333333336
350.0   0.0   50.0
400.0   30.0   50.0
400.0   0.0   33.333333333333336
350.0   30.0   33.333333333333336
350.0   30.0   0.0
400.0   30.0   0.0
350.0   60.0   0.0
350.0   30.0   16.666666666666668
400.0   30.0   0.0
400.0   60.0   0.0
350.0   60.0   0.0
400.0   60.0   16.666666666666668
350.0   30.0   16.666666666666668
350.0   60.0   16.666666666666668
400.0   60.0   16.666666666666668
350.0   60.0   0.0
350.0   30.0   16.666666666666668
400.0   60.0   16.666666666666668
400.0   30.0   16.666666666666668
400.0   30.0   0.0
350.0   30.0   16.666666666666668
400.0   60.0   16.666666666666668
400.0   30.0   0.0
350.0   60.0   0.0
350.0   30.0   16.666666666666668
400.0   30.0   16.666666666666668
350.0   60.0   16.666666666666668
350.0   30.0   33.333333333333336
400.0   30.0   16.666666666666668
400.0   60.0   16.666666666666668
350.0   60.0   16.666666666666668
400.0   60.0   33.333333333333336
350.0   30.0   33.333333333333336
350.0   60.0   33.333333333333336
400.0   60.0   33.333333333333336
350.0   60.0   16.666666666666668
350.0   30.0   33.333333333333336
400.0   60.0   33.333333333333336
400.0   30.0   33.333333333333336
400.0   30.0   16.666666666666668
350.0   30.0   33.333333333333336
400.0   60.0   33.333333333333336
400.0   30.0   16.666666666666668
350.0   60.0   16.666666666666668
350.0   30.0   33.333333333333336
400.0   30.0   33.333333333333336
350.0   60.0   33.333333333333336
350.0   30.0   50.0
400.0   30.0   33.333333333333336
400.0   60.0   33.333333333333336
350.0   60.0   33.333333333333336
400.0   60.0   50.0
350.0   30.0   50.0
350.0   60.0   50.0
400.0   60.0   50.0
350.0   60.0   33.333333333333336
350.0   30.0   50.0
400.0   60.0   50.0
400.0   30.0   50.0
400.0   30.0   33.333333333333336
350.0   30.0   50.0
400.0   60.0   50.0
400.0   30.0   33.333333333333336
350.0   60.0   33.333333333333336
350.0   60.0   0.0
400.0   60.0   0.0
350.0   90.0   0.0
350.0   60.0   16.666666666666668
400.0   60.0   0.0
400.0   90.0   0.0
350.0   90.0   0.0
400.0   90.0   16.666666666666668
350.0   60.0   16.666666666666668
350.0   90.0   16.666666666666668
400.0   90.0   16.666666666666668
350.0   90.0   0.0
350.0   60.0   16.666666666666668
400.0   90.0   16.666666666666668
400.0   60.0   16.666666666666668
400.0   60.0   0.0
350.0   60.0   16.666666666666668
400.0   90.0   16.666666666666668
400.0   60.0   0.0
350.0   90.0   0.0
350.0   60.0   16.666666666666668
400.0   60.0   16.666666666666668
350.0   90.0   16.666666666666668
350.0   60.0   33.333333333333336
400.0   60.0   16.666666666666668
400.0   90.0   16.666666666666668
350.0   90.0   16.666666666666668
400.0   90.0   33.333333333333336
350.0   60.0   33.333333333333336
350.0   90.0   33.333333333333336
400.0   90.0   33.333333333333336
350.0   90.0   16.666666666666668
350.0   60.0   33.333333333333336
400.0   90.0   33.333333333333336
400.0   60.0   33.333333333333336
400.0   60.0   16.666666666666668
350.0   60.0   33.333333333333336
400.0   90.0   33.333333333333336
400.0   60.0   16.666666666666668
350.0   90.0   16.666666666666668
350.0   60.0   33.333333333333336
400.0   60.0   33.333333333333336
350.0   90.0   33.333333333333336
350.0   60.0   50.0
400.0   60.0   33.333333333333336
400.0   90.0   33.333333333333336
350.0   90.0   33.333333333333336
400.0   90.0   50.0
350.0   60.0   50.0
350.0   90.0   50.0
400.0   90.0   50.0
350.0   90.0   33.333333333333336
350.0   60.0   50.0
400.0   90.0   50.0
400.0   60.0   50.0
400.0   60.0   33.333333333333336
350.0   60.0   50.0
400.0   90.0   50.0
400.0   60.0   33.333333333333336
350.0   90.0   33.333333333333336
350.0   90.0   0.0
400.0   90.0   0.0
350.0   120.0   0.0
350.0   90.0   16.666666666666668
400.0   90.0   0.0
400.0   120.0   0.0
350.0   120.0   0.0
400.0   120.0   16.666666666666668
350.0   90.0   16.666666666666668
350.0   120.0   16.666666666666668
400.0   120.0   16.666666666666668
350.0   120.0   0.0
350.0   90.0   16.666666666666668
400.0   120.0   16.666666666666668
400.0   90.0   16.666666666666668
400.0   90.0   0.0
350.0   90.0   16.666666666666668
400.0   120.0   16.666666666666668
400.0   90.0   0.0
350.0   120.0   0.0
350.0   90.0   16.666666666666668
400.0   90.0   16.666666666666668
350.0   120.0   16.666666666666668
350.0   90.0   33.333333333333336
400.0   90.0   16.666666666666668
400.0   120.0   16.666666666666668
350.0   120.0   16.666666666666668
400.0   120.0   33.333333333333336
350.0   90.0   33.333333333333336
350.0   120.0   33.333333333333336
400.0   120.0   33.333333333333336
350.0   120.0   16.666666666666668
350.0   90.0   33.333333333333336
400.0   120.0   33.333333333333336
400.0   90.0   33.333333333333336
400.0   90.0   16.666666666666668
350.0   90.0   33.333333333333336
400.0   120.0   33.333333333333336
400.0   90.0   16.666666666666668
350.0   120.0   16.666666666666668
350.0   90.0   33.333333333333336
400.0   90.0   33.333333333333336
350.0   120.0   33.333333333333336
350.0   90.0   50.0
400.0   90.0   33.333333333333336
400.0   120.0   33.333333333333336
350.0   120.0   33.333333333333336
400.0   120.0   50.0
350.0   90.0   50.0
350.0   120.0   50.0
400.0   120.0   50.0
350.0   120.0   33.333333333333336
350.0   90.0   50.0
400.0   120.0   50.0
400.0   90.0   50.0
400.0   90.0   33.333333333333336
350.0   90.0   50.0
400.0   120.0   50.0
400.0   90.0   33.333333333333336
350.0   120.0   33.333333333333336
350.0   120.0   0.0
400.0   120.0   0.0
350.0   150.0   0.0
350.0   120.0   16.666666666666668
400.0   120.0   0.0
400.0   150.0   0.0
350.0   150.0   0.0
400.0   150.0   16.666666666666668
350.0   120.0   16.666666666666668
350.0   150.0   16.666666666666668
400.0   150.0   16.666666666666668
350.0   150.0   0.0
350.0   120.0   16.666666666666668
400.0   150.0   16.666666666666668
400.0   120.0   16.666666666666668
400.0   120.0   0.0
350.0   120.0   16.666666666666668
400.0   150.0   16.666666666666668
400.0   120.0   0.0
350.0   150.0   0.0
350.0   120.0   16.666666666666668
400.0   120.0   16.666666666666668
350.0   150.0   16.666666666666668
350.0   120.0   33.333333333333336
400.0   120.0   16.666666666666668
400.0   150.0   16.666666666666668
350.0   150.0   16.666666666666668
400.0   150.0   33.333333333333336
350.0   120.0   33.333333333333336
350.0   150.0   33.333333333333336
400.0   150.0   33.333333333333336
350.0   150.0   16.666666666666668
350.0   120.0   33.333333333333336
400.0   150.0   33.333333333333336
400.0   120.0   33.333333333333336
400.0   120.0   16.666666666666668
350.0   120.0   33.333333333333336
400.0   150.0   33.333333333333336
400.0   120.0   16.666666666666668
350.0   150.0   16.666666666666668
350.0   120.0   33.333333333333336
400.0   120.0   33.333333333333336
350.0   150.0   33.333333333333336
350.0   120.0   50.0
400.0   120.0   33.333333333333336
400.0   150.0   33.333333333333336
350.0   150.0   33.333333333333336
400.0   150.0   50.0
350.0   120.0   50.0
350.0   150.0   50.0
400.0   150.0   50.0
350.0   150.0   33.333333333333336
350.0   120.0   50.0
400.0   150.0   50.0
400.0   120.0   50.0
400.0   120.0   33.333333333333336
350.0   120.0   50.0
400.0   150.0   50.0
400.0   120.0   33.333333333333336
350.0   150.0   33.333333333333336
400.0   0.0   0.0
450.0   0.0   0.0
400.0   30.0   0.0
400.0   0.0   16.666666666666668
450.0   0.0   0.0
450.0   30.0   0.0
400.0   30.0   0.0
450.0   30.0   16.666666666666668
400.0   0.0   16.666666666666668
400.0   30.0   16.666666666666668
450.0   30.0   16.666666666666668
400.0   30.0   0.0
400.0   0.0   16.666666666666668
450.0   30.0   16.666666666666668
450.0   0.0   16.666666666666668
450.0   0.0   0.0
400.0   0.0   16.666666666666668
450.0   30.0   16.666666666666668
450.0   0.0   0.0
400.0   30.0   0.0
400.0   0.0   16.666666666666668
450.0   0.0   16.666666666666668
400.0   30.0   16.666666666666668
400.0   0.0   33.333333333333336
450.0   0.0   16.666666666666668
450.0   30.0   16.666666666666668
400.0   30.0   16.666666666666668
450.0   30.0   33.333333333333336
400.0   0.0   33.333333333333336
400.0   30.0   33.333333333333336
450.0   30.0   33.333333333333336
400.0   30.0   16.666666666666668
400.0   0.0   33.333333333333336
450.0   30.0   33.333333333333336
450.0   0.0   33.333333333333336
450.0   0.0   16.666666666666668
400.0   0.0   33.333333333333336
450.0   30.0   33.333333333333336
450.0   0.0   16.666666666666668
400.0   30.0   16.666666666666668
400.0   0.0   33.333333333333336
450.0   0.0   33.333333333333336
400.0   30.0   33.333333333333336
400.0   0.0   50.0
450.0   0.0   33.333333333333336
450.0   30.0   33.333333333333336
400.0   30.0   33.333333333333336
450.0   30.0   50.0
400.0   0.0   50.0
400.0   30.0   50.0
450.0   30.0   50.0
400.0   30.0   33.333333333333336
400.0   0.0   50.0
450.0   30.0   50.0
450.0   0.0   50.0
450.0   0.0   33.333333333333336
400.0   0.0   50.0
450.0   30.0   50.0
450.0   0.0   33.333333333333336
400.0   30.0   33.333333333333336
400.0   30.0   0.0
450.0   30.0   0.0
400.0   60.0   0.0
400.0   30.0   16.666666666666668
450.0   30.0   0.0
450.0   60.0   0.0
400.0   60.0   0.0
450.0   60.0   16.666666666666668
400.0   30.0   16.666666666666668
400.0   60.0   16.666666666666668
450.0   60.0   16.666666666666668
400.0   60.0   0.0
400.0   30.0   16.666666666666668
450.0   60.0   16.666666666666668
450.0   30.0   16.666666666666668
450.0   30.0   0.0
400.0   30.0   16.666666666666668
450.0   60.0   16.666666666666668
450.0   30.0   0.0
400.0   60.0   0.0
400.0   30.0   16.666666666666668
450.0   30.0   16.666666666666668
400.0   60.0   16.666666666666668
400.0   30.0   33.333333333333336
450.0   30.0   16.666666666666668
450.0   60.0   16.666666666666668
400.0   60.0   16.666666666666668
450.0   60.0   33.333333333333336
400.0   30.0   33.333333333333336
400.0   60.0   33.333333333333336
450.0   60.0   33.333333333333336
400.0   60.0   16.666666666666668
400.0   30.0   33.333333333333336
450.0   60.0   33.333333333333336
450.0   30.0   33.333333333333336
450.0   30.0   16.666666666666668
400.0   30.0   33.333333333333336
450.0   60.0   33.333333333333336
450.0   30.0   16.666666666666668
400.0   60.0   16.666666666666668
400.0   30.0   33.333333333333336
450.0   30.0   33.333333333333336
400.0   60.0   33.333333333333336
400.0   30.0   50.0
450.0   30.0   33.333333333333336
450.0   60.0   33.333333333333336
400.0   60.0   33.333333333333336
450.0   60.0   50.0
400.0   30.0   50.0
400.0   60.0   50.0
450.0   60.0   50.0
400.0   60.0   33.333333333333336
400.0   30.0   50.0
450.0   60.0   50.0
450.0   30.0   50.0
450.0   30.0   33.333333333333336
400.0   30.0   50.0
450.0   60.0   50.0
450.0   30.0   33.333333333333336
400.0   60.0   33.333333333333336
400.0   60.0   0.0
450.0   60.0   0.0
400.0   90.0   0.0
400.0   60.0   16.666666666666668
450.0   60.0   0.0
450.0   90.0   0.0
400.0   90.0   0.0
450.0   90.0   16.666666666666668
400.0   60.0   16.666666666666668
400.0   90.0   16.666666666666668
450.0   90.0   16.666666666666668
400.0   90.0   0.0
400.0   60.0   16.666666666666668
450.0   90.0   16.666666666666668
450.0   60.0   16.666666666666668
450.0   60.0   0.0
400.0   60.0   16.666666666666668
450.0   90.0   16.666666666666668
450.0   60.0   0.0
400.0   90.0   0.0
400.0   60.0   16.666666666666668
450.0   60.0   16.666666666666668
400.0   90.0   16.666666666666668
400.0   60.0   33.333333333333336
450.0   60.0   16.666666666666668
450.0   90.0   16.666666666666668
400.0   90.0   16.666666666666668
450.0   90.0   33.333333333333336
400.0   60.0   33.333333333333336
400.0   90.0   33.333333333333336
450.0   90.0   33.333333333333336
400.0   90.0   16.666666666666668
400.0   60.0   33.333333333333336
450.0   90.0   33.333333333333336
450.0   60.0   33.333333333333336
450.0   60.0   16.666666666666668
400.0   60.0   33.333333333333336
450.0   90.0   33.333333333333336
450.0   60.0   16.666666666666668
400.0   90.0   16.666666666666668
400.0   60.0   33.333333333333336
450.0   60.0   33.333333333333336
400.0   90.0   33.333333333333336
400.0   60.0   50.0
450.0   60.0   33.333333333333336
450.0   90.0   33.333333333333336
400.0   90.0   33.333333333333336
450.0   90.0   50.0
400.0   60.0   50.0
400.0   90.0   50.0
450.0   90.0   50.0
400.0   90.0   33.333333333333336
400.0   60.0   50.0
450.0   90.0   50.0
450.0   60.0   50.0
450.0   60.0   33.333333333333336
400.0   60.0   50.0
450.0   90.0   50.0
450.0   60.0   33.333333333333336
400.0   90.0   33.333333333333336
400.0   90.0   0.0
450.0   90.0   0.0
400.0   120.0   0.0
400.0   90.0   16.666666666666668
450.0   90.0   0.0
450.0   120.0   0.0
400.0   120.0   0.0
450.0   120.0   16.666666666666668
400.0   90.0   16.666666666666668
400.0   120.0   16.666666666666668
450.0   120.0   16.666666666666668
400.0   120.0   0.0
400.0   90.0   16.666666666666668
450.0   120.0   16.666666666666668
450.0   90.0   16.666666666666668
450.0   90.0   0.0
400.0   90.0   16.666666666666668
450.0   120.0   16.666666666666668
450.0   90.0   0.0
400.0   120.0   0.0
400.0   90.0   16.666666666666668
450.0   90.0   16.666666666666668
400.0   120.0   16.666666666666668
400.0   90.0   33.333333333333336
450.0   90.0   16.666666666666668
450.0   120.0   16.666666666666668
400.0   120.0   16.666666666666668
450.0   120.0   33.333333333333336
400.0   90.0   33.333333333333336
400.0   120.0   33.333333333333336
450.0   120.0   33.333333333333336
400.0   120.0   16.666666666666668
400.0   90.0   33.333333333333336
450.0   120.0   33.333333333333336
450.0   90.0   33.333333333333336
450.0   90.0   16.666666666666668
400.0   90.0   33.333333333333336
450.0   120.0   33.333333333333336
450.0   90.0   16.666666666666668
400.0   120.0   16.666666666666668
400.0   90.0   33.333333333333336
450.0   90.0   33.333333333333336
400.0   120.0   33.333333333333336
400.0   90.0   50.0
450.0   90.0   33.333333333333336
450.0   120.0   33.333333333333336
400.0   120.0   33.333333333333336
450.0   120.0   50.0
400.0   90.0   50.0
400.0   120.0   50.0
450.0   120.0   50.0
400.0   120.0   33.333333333333336
400.0   90.0   50.0
450.0   120.0   50.0
450.0   90.0   50.0
450.0   90.0   33.333333333333336
400.0   90.0   50.0
450.0   120.0   50.0
450.0   90.0   33.333333333333336
400.0   120.0   33.333333333333336
400.0   120.0   0.0
450.0   120.0   0.0
400.0   150.0   0.0
400.0   120.0   16.666666666666668
450.0   120.0   0.0
450.0   150.0   0.0
400.0   150.0   0.0
450.0   150.0   16.666666666666668
400.0   120.0   16.666666666666668
400.0   150.0   16.666666666666668
450.0   150.0   16.666666666666668
400.0   150.0   0.0
400.0   120.0   16.666666666666668
450.0   150.0   16.666666666666668
450.0   120.0   16.666666666666668
450.0   120.0   0.0
400.0   120.0   16.666666666666668
450.0   150.0   16.666666666666668
450.0   120.0   0.0
400.0   150.0   0.0
400.0   120.0   16.666666666666668
450.0   120.0   16.666666666666668
400.0   150.0   16.666666666666668
400.0   120.0   33.333333333333336
450.0   120.0   16.666666666666668
450.0   150.0   16.666666666666668
400.0   150.0   16.666666666666668
450.0   150.0   33.333333333333336
400.0   120.0   33.333333333333336
400.0   150.0   33.333333333333336
450.0   150.0   33.333333333333336
400.0   150.0   16.666666666666668
400.0   120.0   33.333333333333336
450.0   150.0   33.333333333333336
450.0   120.0   33.333333333333336
450.0   120.0   16.666666666666668
400.0   120.0   33.333333333333336
450.0   150.0   33.333333333333336
450.0   120.0   16.666666666666668
400.0   150.0   16.666666666666668
400.0   120.0   33.333333333333336
450.0   120.0   33.333333333333336
400.0   150.0   33.333333333333336
400.0   120.0   50.0
450.0   120.0   33.333333333333336
450.0   150.0   33.333333333333336
400.0   150.0   33.333333333333336
450.0   150.0   50.0
400.0   120.0   50.0
400.0   150.0   50.0
450.0   150.0   50.0
400.0   150.0   33.333333333333336
400.0   120.0   50.0
450.0   150.0   50.0
450.0   120.0   50.0
450.0   120.0   33.333333333333336
400.0   120.0   50.0
450.0   150.0   50.0
450.0   120.0   33.333333333333336
400.0   150.0   33.333333333333336
450.0   0.0   0.0
500.0   0.0   0.0
450.0   30.0   0.0
450.0   0.0   16.666666666666668
500.0   0.0   0.0
500.0   30.0   0.0
450.0   30.0   0.0
500.0   30.0   16.666666666666668
450.0   0.0   16.666666666666668
450.0   30.0   16.666666666666668
500.0   30.0   16.666666666666668
450.0   30.0   0.0
450.0   0.0   16.666666666666668
500.0   30.0   16.666666666666668
500.0   0.0   16.666666666666668
500.0   0.0   0.0
450.0   0.0   16.666666666666668
500.0   30.0   16.666666666666668
500.0   0.0   0.0
450.0   30.0   0.0
450.0   0.0   16.666666666666668
500.0   0.0   16.666666666666668
450.0   30.0   16.666666666666668
450.0   0.0   33.333333333333336
500.0   0.0   16.666666666666668
500.0   30.0   16.666666666666668
450.0   30.0   16.666666666666668
500.0   30.0   33.333333333333336
450.0   0.0   33.333333333333336
450.0   30.0   33.333333333333336
500.0   30.0   33.333333333333336
450.0   30.0   16.666666666666668
450.0   0.0   33.333333333333336
500.0   30.0   33.333333333333336
500.0   0.0   33.333333333333336
500.0   0.0   16.666666666666668
450.0   0.0   33.333333333333336
500.0   30.0   33.333333333333336
500.0   0.0   16.666666666666668
450.0   30.0   16.666666666666668
450.0   0.0   33.333333333333336
500.0   0.0   33.333333333333336
450.0   30.0   33.333333333333336
450.0   0.0   50.0
500.0   0.0   33.333333333333336
500.0   30.0   33.333333333333336
450.0   30.0   33.333333333333336
500.0   30.0   50.0
450.0   0.0   50.0
450.0   30.0   50.0
500.0   30.0   50.0
450.0   30.0   33.333333333333336
450.0   0.0   50.0
500.0   30.0   50.0
500.0   0.0   50.0
500.0   0.0   33.333333333333336
450.0   0.0   50.0
500.0   30.0   50.0
500.0   0.0   33.333333333333336
450.0   30.0   33.333333333333336
450.0   30.0   0.0
500.0   30.0   0.0
450.0   60.0   0.0
450.0   30.0   16.666666666666668
500.0   30.0   0.0
500.0   60.0   0.0
450.0   60.0   0.0
500.0   60.0   16.666666666666668
450.0   30.0   16.666666666666668
450.0   60.0   16.666666666666668
500.0   60.0   16.666666666666668
450.0   60.0   0.0
450.0   30.0   16.666666666666668
500.0   60.0   16.666666666666668
500.0   30.0   16.666666666666668
500.0   30.0   0.0
450.0   30.0   16.666666666666668
500.0   60.0   16.666666666666668
500.0   30.0   0.0
450.0   60.0   0.0
450.0   30.0   16.666666666666668
500.0   30.0   16.666666666666668
450.0   60.0   16.666666666666668
450.0   30.0   33.333333333333336
500.0   30.0   16.666666666666668
500.0   60.0   16.666666666666668
450.0   60.0   16.666666666666668
500.0   60.0   33.333333333333336
450.0   30.0   33.333333333333336
450.0   60.0   33.333333333333336
500.0   60.0   33.333333333333336
450.0   60.0   16.666666666666668
450.0   30.0   33.333333333333336
500.0   60.0   33.333333333333336
500.0   30.0   33.333333333333336
500.0   30.0   16.666666666666668
450.0   30.0   33.333333333333336
500.0   60.0   33.333333333333336
500.0   30.0   16.666666666666668
450.0   60.0   16.666666666666668
450.0   30.0   33.333333333333336
500.0   30.0   33.333333333333336
450.0   60.0   33.333333333333336
450.0   30.0   50.0
500.0   30.0   33.333333333333336
500.0   60.0   33.333333333333336
450.0   60.0   33.333333333333336
500.0   60.0   50.0
450.0   30.0   50.0
450.0   60.0   50.0
500.0   60.0   50.0
450.0   60.0   33.333333333333336
450.0   30.0   50.0
500.0   60.0   50.0
500.0   30.0   50.0
500.0   30.0   33.333333333333336
450.0   30.0   50.0
500.0   60.0   50.0
500.0   30.0   33.333333333333336
450.0   60.0   33.333333333333336
450.0   60.0   0.0
500.0   60.0   0.0
450.0   90.0   0.0
450.0   60.0   16.666666666666668
500.0   60.0   0.0
500.0   90.0   0.0
450.0   90.0   0.0
500.0   90.0   16.666666666666668
450.0   60.0   16.666666666666668
450.0   90.0   16.666666666666668
500.0   90.0   16.666666666666668
450.0   90.0   0.0
450.0   60.0   16.666666666666668
500.0   90.0   16.666666666666668
500.0   60.0   16.666666666666668
500.0   60.0   0.0
450.0   60.0   16.666666666666668
500.0   90.0   16.666666666666668
500.0   60.0   0.0
450.0   90.0   0.0
450.0   60.0   16.666666666666668
500.0   60.0   16.666666666666668
450.0   90.0   16.666666666666668
450.0   60.0   33.333333333333336
500.0   60.0   16.666666666666668
500.0   90.0   16.666666666666668
450.0   90.0   16.666666666666668
500.0   90.0   33.333333333333336
450.0   60.0   33.333333333333336
450.0   90.0   33.333333333333336
500.0   90.0   33.333333333333336
450.0   90.0   16.666666666666668
450.0   60.0   33.333333333333336
500.0   90.0   33.333333333333336
500.0   60.0   33.333333333333336
500.0   60.0   16.666666666666668
450.0   60.0   33.333333333333336
500.0   90.0   33.333333333333336
500.0   60.0   16.666666666666668
450.0   90.0   16.666666666666668
450.0   60.0   33.333333333333336
500.0   60.0   33.333333333333336
450.0   90.0   33.333333333333336
450.0   60.0   50.0
500.0   60.0   33.333333333333336
500.0   90.0   33.333333333333336
450.0   90.0   33.333333333333336
500.0   90.0   50.0
450.0   60.0   50.0
450.0   90.0   50.0
500.0   90.0   50.0
450.0   90.0   33.333333333333336
450.0   60.0   50.0
500.0   90.0   50.0
500.0   60.0   50.0
500.0   60.0   33.333333333333336
450.0   60.0   50.0
500.0   90.0   50.0
500.0   60.0   33.333333333333336
450.0   90.0   33.333333333333336
450.0   90.0   0.0
500.0   90.0   0.0
450.0   120.0   0.0
450.0   90.0   16.666666666666668
500.0   90.0   0.0
500.0   120.0   0.0
450.0   120.0   0.0
500.0   120.0   16.666666666666668
450.0   90.0   16.666666666666668
450.0   120.0   16.666666666666668
500.0   120.0   16.666666666666668
450.0   120.0   0.0
450.0   90.0   16.666666666666668
500.0   120.0   16.666666666666668
500.0   90.0   16.666666666666668
500.0   90.0   0.0
450.0   90.0   16.666666666666668
500.0   120.0   16.666666666666668
500.0   90.0   0.0
450.0   120.0   0.0
450.0   90.0   16.666666666666668
500.0   90.0   16.666666666666668
450.0   120.0   16.666666666666668
450.0   90.0   33.333333333333336
500.0   90.0   16.666666666666668
500.0   120.0   16.666666666666668
450.0   120.0   16.666666666666668
500.0   120.0   33.333333333333336
450.0   90.0   33.333333333333336
450.0   120.0   33.333333333333336
500.0   120.0   33.333333333333336
450.0   120.0   16.666666666666668
450.0   90.0   33.333333333333336
500.0   120.0   33.333333333333336
500.0   90.0   33.333333333333336
500.0   90.0   16.666666666666668
450.0   90.0   33.333333333333336
500.0   120.0   33.333333333333336
500.0   90.0   16.666666666666668
450.0   120.0   16.666666666666668
450.0   90.0   33.333333333333336
500.0   90.0   33.333333333333336
450.0   120.0   33.333333333333336
450.0   90.0   50.0
500.0   90.0   33.333333333333336
500.0   120.0   33.333333333333336
450.0   120.0   33.333333333333336
500.0   120.0   50.0
450.0   90.0   50.0
450.0   120.0   50.0
500.0   120.0   50.0
450.0   120.0   33.333333333333336
450.0   90.0   50.0
500.0   120.0   50.0
500.0   90.0   50.0
500.0   90.0   33.333333333333336
450.0   90.0   50.0
500.0   120.0   50.0
500.0   90.0   33.333333333333336
450.0   120.0   33.333333333333336
450.0   120.0   0.0
500.0   120.0   0.0
450.0   150.0   0.0
450.0   120.0   16.666666666666668
500.0   120.0   0.0
500.0   150.0   0.0
450.0   150.0   0.0
500.0   150.0   16.666666666666668
450.0   120.0   16.666666666666668
450.0   150.0   16.666666666666668
500.0   150.0   16.666666666666668
450.0   150.0   0.0
450.0   120.0   16.666666666666668
500.0   150.0   16.666666666666668
500.0   120.0   16.666666666666668
500.0   120.0   0.0
450.0   120.0   16.666666666666668
500.0   150.0   16.666666666666668
500.0   120.0   0.0
450.0   150.0   0.0
450.0   120.0   16.666666666666668
500.0   120.0   16.666666666666668
450.0   150.0   16.666666666666668
450.0   120.0   33.333333333333336
500.0   120.0   16.666666666666668
500.0   150.0   16.666666666666668
450.0   150.0   16.666666666666668
500.0   150.0   33.333333333333336
450.0   120.0   33.333333333333336
450.0   150.0   33.333333333333336
500.0   150.0   33.333333333333336
450.0   150.0   16.666666666666668
450.0   120.0   33.333333333333336
500.0   150.0   33.333333333333336
500.0   120.0   33.333333333333336
500.0   120.0   16.666666666666668
450.0   120.0   33.333333333333336
500.0   150.0   33.333333333333336
500.0   120.0   16.666666666666668
450.0   150.0   16.666666666666668
450.0   120.0   33.333333333333336
500.0   120.0   33.333333333333336
450.0   150.0   33.333333333333336
450.0   120.0   50.0
500.0   120.0   33.333333333333336
500.0   150.0   33.333333333333336
450.0   150.0   33.333333333333336
500.0   150.0   50.0
450.0   120.0   50.0
450.0   150.0   50.0
500.0   150.0   50.0
450.0   150.0   33.333333333333336
450.0   120.0   50.0
500.0   150.0   50.0
500.0   120.0   50.0
500.0   120.0   33.333333333333336
450.0   120.0   50.0
500.0   150.0   50.0
500.0   120.0   33.333333333333336
450.0   150.0   33.333333333333336
             </DataArray>   
          </Points>  
          <Cells>  
             <DataArray type="Int32" Name="connectivity" format="ascii">   
0   1   2   3
4   5   6   7
8   9   10   11
12   13   14   15
16   17   18   19
20   21   22   23
24   25   26   27
28   29   30   31
32   33   34   35
36   37   38   39
40   41   42   43
44   45   46   47
48   49   50   51
52   53   54   55
56   57   58   59
60   61   62   63
64   65   66   67
68   69   70   71
72   73   74   75
76   77   78   79
80   81   82   83
84   85   86   87
88   89   90   91
92   93   94   95
96   97   98   99
100   101   102   103
104   105   106   107
108   109   110   111
112   113   114   115
116   117   118   119
120   121   122   123
124   125   126   127
128   129   130   131
132   133   134   135
136   137   138   139
140   141   142   143
144   145   146   147
148   149   150   151
152   153   154   155
156   157   158   159
160   161   162   163
164   165   166   167
168   169   170   171
172   173   174   175
176   177   178   179
180   181   182   183
184   185   186   187
188   189   190   191
192   193   194   195
196   197   198   199
200   201   202   203
204   205   206   207
208   209   210   211
212   213   214   215
216   217   218   219
220   221   222   223
224   225   226   227
228   229   230   231
232   233   234   235
236   237   238   239
240   241   242   243
244   245   246   247
248   249   250   251
252   253   254   255
256   257   258   259
260   261   262   263
264   265   266   267
268   269   270   271
272   273   274   275
276   277   278   279
280   281   282   283
284   285   286   287
288   289   290   291
292   293   294   295
296   297   298   299
300   301   302   303
304   305   306   307
308   309   310   311
312   313   314   315
316   317   318   319
320   321   322   323
324   325   326   327
328   329   330   331
332   333   334   335
336   337   338   339
340   341   342   343
344   345   346   347
348   349   350   351
352   353   354   355
356   357   358   359
360   361   362   363
364   365   366   367
368   369   370   371
372   373   374   375
376   377   378   379
380   381   382   383
384   385   386   387
388   389   390   391
392   393   394   395
396   397   398   399
400   401   402   403
404   405   406   407
408   409   410   411
412   413   414   415
416   417   418   419
420   421   422   423
424   425   426   427
428   429   430   431
432   433   434   435
436   437   438   439
440   441   442   443
444   445   446   447
448   449   450   451
452   453   454   455
456   457   458   459
460   461   462   463
464   465   466   467
468   469   470   471
472   473   474   475
476   477   478   479
480   481   482   483
484   485   486   487
488   489   490   491
492   493   494   495
496   497   498   499
500   501   502   503
504   505   506   507
508   509   510   511
512   513   514   515
516   517   518   519
520   521   522   523
524   525   526   527
528   529   530   531
532   533   534   535
536   537   538   539
540   541   542   543
544   545   546   547
548   549   550   551
552   553   554   555
556   557   558   559
560   561   562   563
564   565   566   567
568   569   570   571
572   573   574   575
576   577   578   579
580   581   582   583
584   585   586   587
588   589   590   591
592   593   594   595
596   597   598   599
600   601   602   603
604   605   606   607
608   609   610   611
612   613   614   615
616   617   618   619
620   621   622   623
624   625   626   627
628   629   630   631
632   633   634   635
636   637   638   639
640   641   642   643
644   645   646   647
648   649   650   651
652   653   654   655
656   657   658   659
660   661   662   663
664   665   666   667
668   669   670   671
672   673   674   675
676   677   678   679
680   681   682   683
684   685   686   687
688   689   690   691
692   693   694   695
696   697   698   699
700   701   702   703
704   705   706   707
708   709   710   711
712   713   714   715
716   717   718   719
720   721   722   723
724   725   726   727
728   729   730   731
732   733   734   735
736   737   738   739
740   741   742   743
744   745   746   747
748   749   750   751
752   753   754   755
756   757   758   759
760   761   762   763
764   765   766   767
768   769   770   771
772   773   774   775
776   777   778   779
780   781   782   783
784   785   786   787
788   789   790   791
792   793   794   795
796   797   798   799
800   801   802   803
804   805   806   807
808   809   810   811
812   813   814   815
816   817   818   819
820   821   822   823
824   825   826   827
828   829   830   831
832   833   834   835
836   837   838   839
840   841   842   843
844   845   846   847
848   849   850   851
852   853   854   855
856   857   858   859
860   861   862   863
864   865   866   867
868   869   870   871
872   873   874   875
876   877   878   879
880   881   882   883
884   885   886   887
888   889   890   891
892   893   894   895
896   897   898   899
900   901   902   903
904   905   906   907
908   909   910   911
912   913   914   915
916   917   918   919
920   921   922   923
924   925   926   927
928   929   930   931
932   933   934   935
936   937   938   939
940   941   942   943
944   945   946   947
948   949   950   951
952   953   954   955
956   957   958   959
960   961   962   963
964   965   966   967
968   969   970   971
972   973   974   975
976   977   978   979
980   981   982   983
984   985   986   987
988   989   990   991
992   993   994   995
996   997   998   999
1000   1001   1002   1003
1004   1005   1006   1007
1008   1009   1010   1011
1012   1013   1014   1015
1016   1017   1018   1019
1020   1021   1022   1023
1024   1025   1026   1027
1028   1029   1030   1031
1032   1033   1034   1035
1036   1037   1038   1039
1040   1041   1042   1043
1044   1045   1046   1047
1048   1049   1050   1051
1052   1053   1054   1055
1056   1057   1058   1059
1060   1061   1062   1063
1064   1065   1066   1067
1068   1069   1070   1071
1072   1073   1074   1075
1076   1077   1078   1079
1080   1081   1082   1083
1084   1085   1086   1087
1088   1089   1090   1091
1092   1093   1094   1095
1096   1097   1098   1099
1100   1101   1102   1103
1104   1105   1106   1107
1108   1109   1110   1111
1112   1113   1114   1115
1116   1117   1118   1119
1120   1121   1122   1123
1124   1125   1126   1127
1128   1129   1130   1131
1132   1133   1134   1135
1136   1137   1138   1139
1140   1141   1142   1143
1144   1145   1146   1147
1148   1149   1150   1151
1152   1153   1154   1155
1156   1157   1158   1159
1160   1161   1162   1163
1164   1165   1166   1167
1168   1169   1170   1171
1172   1173   1174   1175
1176   1177   1178   1179
1180   1181   1182   1183
1184   1185   1186   1187
1188   1189   1190   1191
1192   1193   1194   1195
1196   1197   1198   1199
1200   1201   1202   1203
1204   1205   1206   1207
1208   1209   1210   1211
1212   1213   1214   1215
1216   1217   1218   1219
1220   1221   1222   1223
1224   1225   1226   1227
1228   1229   1230   1231
1232   1233   1234   1235
1236   1237   1238   1239
1240   1241   1242   1243
1244   1245   1246   1247
1248   1249   1250   1251
1252   1253   1254   1255
1256   1257   1258   1259
1260   1261   1262   1263
1264   1265   1266   1267
1268   1269   1270   1271
1272   1273   1274   1275
1276   1277   1278   1279
1280   1281   1282   1283
1284   1285   1286   1287
1288   1289   1290   1291
1292   1293   1294   1295
1296   1297   1298   1299
1300   1301   1302   1303
1304   1305   1306   1307
1308   1309   1310   1311
1312   1313   1314   1315
1316   1317   1318   1319
1320   1321   1322   1323
1324   1325   1326   1327
1328   1329   1330   1331
1332   1333   1334   1335
1336   1337   1338   1339
1340   1341   1342   1343
1344   1345   1346   1347
1348   1349   1350   1351
1352   1353   1354   1355
1356   1357   1358   1359
1360   1361   1362   1363
1364   1365   1366   1367
1368   1369   1370   1371
1372   1373   1374   1375
1376   1377   1378   1379
1380   1381   1382   1383
1384   1385   1386   1387
1388   1389   1390   1391
1392   1393   1394   1395
1396   1397   1398   1399
1400   1401   1402   1403
1404   1405   1406   1407
1408   1409   1410   1411
1412   1413   1414   1415
1416   1417   1418   1419
1420   1421   1422   1423
1424   1425   1426   1427
1428   1429   1430   1431
1432   1433   1434   1435
1436   1437   1438   1439
1440   1441   1442   1443
1444   1445   1446   1447
1448   1449   1450   1451
1452   1453   1454   1455
1456   1457   1458   1459
1460   1461   1462   1463
1464   1465   1466   1467
1468   1469   1470   1471
1472   1473   1474   1475
1476   1477   1478   1479
1480   1481   1482   1483
1484   1485   1486   1487
1488   1489   1490   1491
1492   1493   1494   1495
1496   1497   1498   1499
1500   1501   1502   1503
1504   1505   1506   1507
1508   1509   1510   1511
1512   1513   1514   1515
1516   1517   1518   1519
1520   1521   1522   1523
1524   1525   1526   1527
1528   1529   1530   1531
1532   1533   1534   1535
1536   1537   1538   1539
1540   1541   1542   1543
1544   1545   1546   1547
1548   1549   1550   1551
1552   1553   1554   1555
1556   1557   1558   1559
1560   1561   1562   1563
1564   1565   1566   1567
1568   1569   1570   1571
1572   1573   1574   1575
1576   1577   1578   1579
1580   1581   1582   1583
1584   1585   1586   1587
1588   1589   1590   1591
1592   1593   1594   1595
1596   1597   1598   1599
1600   1601   1602   1603
1604   1605   1606   1607
1608   1609   1610   1611
1612   1613   1614   1615
1616   1617   1618   1619
1620   1621   1622   1623
1624   1625   1626   1627
1628   1629   1630   1631
1632   1633   1634   1635
1636   1637   1638   1639
1640   1641   1642   1643
1644   1645   1646   1647
1648   1649   1650   1651
1652   1653   1654   1655
1656   1657   1658   1659
1660   1661   1662   1663
1664   1665   1666   1667
1668   1669   1670   1671
1672   1673   1674   1675
1676   1677   1678   1679
1680   1681   1682   1683
1684   1685   1686   1687
1688   1689   1690   1691
1692   1693   1694   1695
1696   1697   1698   1699
1700   1701   1702   1703
1704   1705   1706   1707
1708   1709   1710   1711
1712   1713   1714   1715
1716   1717   1718   1719
1720   1721   1722   1723
1724   1725   1726   1727
1728   1729   1730   1731
1732   1733   1734   1735
1736   1737   1738   1739
1740   1741   1742   1743
1744   1745   1746   1747
1748   1749   1750   1751
1752   1753   1754   1755
1756   1757   1758   1759
1760   1761   1762   1763
1764   1765   1766   1767
1768   1769   1770   1771
1772   1773   1774   1775
1776   1777   1778   1779
1780   1781   1782   1783
1784   1785   1786   1787
1788   1789   1790   1791
1792   1793   1794   1795
1796   1797   1798   1799
1800   1801   1802   1803
1804   1805   1806   1807
1808   1809   1810   1811
1812   1813   1814   1815
1816   1817   1818   1819
1820   1821   1822   1823
1824   1825   1826   1827
1828   1829   1830   1831
1832   1833   1834   1835
1836   1837   1838   1839
1840   1841   1842   1843
1844   1845   1846   1847
1848   1849   1850   1851
1852   1853   1854   1855
1856   1857   1858   1859
1860   1861   1862   1863
1864   1865   1866   1867
1868   1869   1870   1871
1872   1873   1874   1875
1876   1877   1878   1879
1880   1881   1882   1883
1884   1885   1886   1887
1888   1889   1890   1891
1892   1893   1894   1895
1896   1897   1898   1899
1900   1901   1902   1903
1904   1905   1906   1907
1908   1909   1910   1911
1912   1913   1914   1915
1916   1917   1918   1919
1920   1921   1922   1923
1924   1925   1926   1927
1928   1929   1930   1931
1932   1933   1934   1935
1936   1937   1938   1939
1940   1941   1942   1943
1944   1945   1946   1947
1948   1949   1950   1951
1952   1953   1954   1955
1956   1957   1958   1959
1960   1961   1962   1963
1964   1965   1966   1967
1968   1969   1970   1971
1972   1973   1974   1975
1976   1977   1978   1979
1980   1981   1982   1983
1984   1985   1986   1987
1988   1989   1990   1991
1992   1993   1994   1995
1996   1997   1998   1999
2000   2001   2002   2003
2004   2005   2006   2007
2008   2009   2010   2011
2012   2013   2014   2015
2016   2017   2018   2019
2020   2021   2022   2023
2024   2025   2026   2027
2028   2029   2030   2031
2032   2033   2034   2035
2036   2037   2038   2039
2040   2041   2042   2043
2044   2045   2046   2047
2048   2049   2050   2051
2052   2053   2054   2055
2056   2057   2058   2059
2060   2061   2062   2063
2064   2065   2066   2067
2068   2069   2070   2071
2072   2073   2074   2075
2076   2077   2078   2079
2080   2081   2082   2083
2084   2085   2086   2087
2088   2089   2090   2091
2092   2093   2094   2095
2096   2097   2098   2099
2100   2101   2102   2103
2104   2105   2106   2107
2108   2109   2110   2111
2112   2113   2114   2115
2116   2117   2118   2119
2120   2121   2122   2123
2124   2125   2126   2127
2128   2129   2130   2131
2132   2133   2134   2135
2136   2137   2138   2139
2140   2141   2142   2143
2144   2145   2146   2147
2148   2149   2150   2151
2152   2153   2154   2155
2156   2157   2158   2159
2160   2161   2162   2163
2164   2165   2166   2167
2168   2169   2170   2171
2172   2173   2174   2175
2176   2177   2178   2179
2180   2181   2182   2183
2184   2185   2186   2187
2188   2189   2190   2191
2192   2193   2194   2195
2196   2197   2198   2199
2200   2201   2202   2203
2204   2205   2206   2207
2208   2209   2210   2211
2212   2213   2214   2215
2216   2217   2218   2219
2220   2221   2222   2223
2224   2225   2226   2227
2228   2229   2230   2231
2232   2233   2234   2235
2236   2237   2238   2239
2240   2241   2242   2243
2244   2245   2246   2247
2248   2249   2250   2251
2252   2253   2254   2255
2256   2257   2258   2259
2260   2261   2262   2263
2264   2265   2266   2267
2268   2269   2270   2271
2272   2273   2274   2275
2276   2277   2278   2279
2280   2281   2282   2283
2284   2285   2286   2287
2288   2289   2290   2291
2292   2293   2294   2295
2296   2297   2298   2299
2300   2301   2302   2303
2304   2305   2306   2307
2308   2309   2310   2311
2312   2313   2314   2315
2316   2317   2318   2319
2320   2321   2322   2323
2324   2325   2326   2327
2328   2329   2330   2331
2332   2333   2334   2335
2336   2337   2338   2339
2340   2341   2342   2343
2344   2345   2346   2347
2348   2349   2350   2351
2352   2353   2354   2355
2356   2357   2358   2359
2360   2361   2362   2363
2364   2365   2366   2367
2368   2369   2370   2371
2372   2373   2374   2375
2376   2377   2378   2379
2380   2381   2382   2383
2384   2385   2386   2387
2388   2389   2390   2391
2392   2393   2394   2395
2396   2397   2398   2399
2400   2401   2402   2403
2404   2405   2406   2407
2408   2409   2410   2411
2412   2413   2414   2415
2416   2417   2418   2419
2420   2421   2422   2423
2424   2425   2426   2427
2428   2429   2430   2431
2432   2433   2434   2435
2436   2437   2438   2439
2440   2441   2442   2443
2444   2445   2446   2447
2448   2449   2450   2451
2452   2453   2454   2455
2456   2457   2458   2459
2460   2461   2462   2463
2464   2465   2466   2467
2468   2469   2470   2471
2472   2473   2474   2475
2476   2477   2478   2479
2480   2481   2482   2483
2484   2485   2486   2487
2488   2489   2490   2491
2492   2493   2494   2495
2496   2497   2498   2499
2500   2501   2502   2503
2504   2505   2506   2507
2508   2509   2510   2511
2512   2513   2514   2515
2516   2517   2518   2519
2520   2521   2522   2523
2524   2525   2526   2527
2528   2529   2530   2531
2532   2533   2534   2535
2536   2537   2538   2539
2540   2541   2542   2543
2544   2545   2546   2547
2548   2549   2550   2551
2552   2553   2554   2555
2556   2557   2558   2559
2560   2561   2562   2563
2564   2565   2566   2567
2568   2569   2570   2571
2572   2573   2574   2575
2576   2577   2578   2579
2580   2581   2582   2583
2584   2585   2586   2587
2588   2589   2590   2591
2592   2593   2594   2595
2596   2597   2598   2599
2600   2601   2602   2603
2604   2605   2606   2607
2608   2609   2610   2611
2612   2613   2614   2615
2616   2617   2618   2619
2620   2621   2622   2623
2624   2625   2626   2627
2628   2629   2630   2631
2632   2633   2634   2635
2636   2637   2638   2639
2640   2641   2642   2643
2644   2645   2646   2647
2648   2649   2650   2651
2652   2653   2654   2655
2656   2657   2658   2659
2660   2661   2662   2663
2664   2665   2666   2667
2668   2669   2670   2671
2672   2673   2674   2675
2676   2677   2678   2679
2680   2681   2682   2683
2684   2685   2686   2687
2688   2689   2690   2691
2692   2693   2694   2695
2696   2697   2698   2699
2700   2701   2702   2703
2704   2705   2706   2707
2708   2709   2710   2711
2712   2713   2714   2715
2716   2717   2718   2719
2720   2721   2722   2723
2724   2725   2726   2727
2728   2729   2730   2731
2732   2733   2734   2735
2736   2737   2738   2739
2740   2741   2742   2743
2744   2745   2746   2747
2748   2749   2750   2751
2752   2753   2754   2755
2756   2757   2758   2759
2760   2761   2762   2763
2764   2765   2766   2767
2768   2769   2770   2771
2772   2773   2774   2775
2776   2777   2778   2779
2780   2781   2782   2783
2784   2785   2786   2787
2788   2789   2790   2791
2792   2793   2794   2795
2796   2797   2798   2799
2800   2801   2802   2803
2804   2805   2806   2807
2808   2809   2810   2811
2812   2813   2814   2815
2816   2817   2818   2819
2820   2821   2822   2823
2824   2825   2826   2827
2828   2829   2830   2831
2832   2833   2834   2835
2836   2837   2838   2839
2840   2841   2842   2843
2844   2845   2846   2847
2848   2849   2850   2851
2852   2853   2854   2855
2856   2857   2858   2859
2860   2861   2862   2863
2864   2865   2866   2867
2868   2869   2870   2871
2872   2873   2874   2875
2876   2877   2878   2879
2880   2881   2882   2883
2884   2885   2886   2887
2888   2889   2890   2891
2892   2893   2894   2895
2896   2897   2898   2899
2900   2901   2902   2903
2904   2905   2906   2907
2908   2909   2910   2911
2912   2913   2914   2915
2916   2917   2918   2919
2920   2921   2922   2923
2924   2925   2926   2927
2928   2929   2930   2931
2932   2933   2934   2935
2936   2937   2938   2939
2940   2941   2942   2943
2944   2945   2946   2947
2948   2949   2950   2951
2952   2953   2954   2955
2956   2957   2958   2959
2960   2961   2962   2963
2964   2965   2966   2967
2968   2969   2970   2971
2972   2973   2974   2975
2976   2977   2978   2979
2980   2981   2982   2983
2984   2985   2986   2987
2988   2989   2990   2991
2992   2993   2994   2995
2996   2997   2998   2999
3000   3001   3002   3003
3004   3005   3006   3007
3008   3009   3010   3011
3012   3013   3014   3015
3016   3017   3018   3019
3020   3021   3022   3023
3024   3025   3026   3027
3028   3029   3030   3031
3032   3033   3034   3035
3036   3037   3038   3039
3040   3041   3042   3043
3044   3045   3046   3047
3048   3049   3050   3051
3052   3053   3054   3055
3056   3057   3058   3059
3060   3061   3062   3063
3064   3065   3066   3067
3068   3069   3070   3071
3072   3073   3074   3075
3076   3077   3078   3079
3080   3081   3082   3083
3084   3085   3086   3087
3088   3089   3090   3091
3092   3093   3094   3095
3096   3097   3098   3099
3100   3101   3102   3103
3104   3105   3106   3107
3108   3109   3110   3111
3112   3113   3114   3115
3116   3117   3118   3119
3120   3121   3122   3123
3124   3125   3126   3127
3128   3129   3130   3131
3132   3133   3134   3135
3136   3137   3138   3139
3140   3141   3142   3143
3144   3145   3146   3147
3148   3149   3150   3151
3152   3153   3154   3155
3156   3157   3158   3159
3160   3161   3162   3163
3164   3165   3166   3167
3168   3169   3170   3171
3172   3173   3174   3175
3176   3177   3178   3179
3180   3181   3182   3183
3184   3185   3186   3187
3188   3189   3190   3191
3192   3193   3194   3195
3196   3197   3198   3199
3200   3201   3202   3203
3204   3205   3206   3207
3208   3209   3210   3211
3212   3213   3214   3215
3216   3217   3218   3219
3220   3221   3222   3223
3224   3225   3226   3227
3228   3229   3230   3231
3232   3233   3234   3235
3236   3237   3238   3239
3240   3241   3242   3243
3244   3245   3246   3247
3248   3249   3250   3251
3252   3253   3254   3255
3256   3257   3258   3259
3260   3261   3262   3263
3264   3265   3266   3267
3268   3269   3270   3271
3272   3273   3274   3275
3276   3277   3278   3279
3280   3281   3282   3283
3284   3285   3286   3287
3288   3289   3290   3291
3292   3293   3294   3295
3296   3297   3298   3299
3300   3301   3302   3303
3304   3305   3306   3307
3308   3309   3310   3311
3312   3313   3314   3315
3316   3317   3318   3319
3320   3321   3322   3323
3324   3325   3326   3327
3328   3329   3330   3331
3332   3333   3334   3335
3336   3337   3338   3339
3340   3341   3342   3343
3344   3345   3346   3347
3348   3349   3350   3351
3352   3353   3354   3355
3356   3357   3358   3359
3360   3361   3362   3363
3364   3365   3366   3367
3368   3369   3370   3371
3372   3373   3374   3375
3376   3377   3378   3379
3380   3381   3382   3383
3384   3385   3386   3387
3388   3389   3390   3391
3392   3393   3394   3395
3396   3397   3398   3399
3400   3401   3402   3403
3404   3405   3406   3407
3408   3409   3410   3411
3412   3413   3414   3415
3416   3417   3418   3419
3420   3421   3422   3423
3424   3425   3426   3427
3428   3429   3430   3431
3432   3433   3434   3435
3436   3437   3438   3439
3440   3441   3442   3443
3444   3445   3446   3447
3448   3449   3450   3451
3452   3453   3454   3455
3456   3457   3458   3459
3460   3461   3462   3463
3464   3465   3466   3467
3468   3469   3470   3471
3472   3473   3474   3475
3476   3477   3478   3479
3480   3481   3482   3483
3484   3485   3486   3487
3488   3489   3490   3491
3492   3493   3494   3495
3496   3497   3498   3499
3500   3501   3502   3503
3504   3505   3506   3507
3508   3509   3510   3511
3512   3513   3514   3515
3516   3517   3518   3519
3520   3521   3522   3523
3524   3525   3526   3527
3528   3529   3530   3531
3532   3533   3534   3535
3536   3537   3538   3539
3540   3541   3542   3543
3544   3545   3546   3547
3548   3549   3550   3551
3552   3553   3554   3555
3556   3557   3558   3559
3560   3561   3562   3563
3564   3565   3566   3567
3568   3569   3570   3571
3572   3573   3574   3575
3576   3577   3578   3579
3580   3581   3582   3583
3584   3585   3586   3587
3588   3589   3590   3591
3592   3593   3594   3595
3596   3597   3598   3599
3600   3601   3602   3603
3604   3605   3606   3607
3608   3609   3610   3611
3612   3613   3614   3615
3616   3617   3618   3619
3620   3621   3622   3623
3624   3625   3626   3627
3628   3629   3630   3631
3632   3633   3634   3635
3636   3637   3638   3639
3640   3641   3642   3643
3644   3645   3646   3647
3648   3649   3650   3651
3652   3653   3654   3655
3656   3657   3658   3659
3660   3661   3662   3663
3664   3665   3666   3667
3668   3669   3670   3671
3672   3673   3674   3675
3676   3677   3678   3679
3680   3681   3682   3683
3684   3685   3686   3687
3688   3689   3690   3691
3692   3693   3694   3695
3696   3697   3698   3699
3700   3701   3702   3703
3704   3705   3706   3707
3708   3709   3710   3711
3712   3713   3714   3715
3716   3717   3718   3719
3720   3721   3722   3723
3724   3725   3726   3727
3728   3729   3730   3731
3732   3733   3734   3735
3736   3737   3738   3739
3740   3741   3742   3743
3744   3745   3746   3747
3748   3749   3750   3751
3752   3753   3754   3755
3756   3757   3758   3759
3760   3761   3762   3763
3764   3765   3766   3767
3768   3769   3770   3771
3772   3773   3774   3775
3776   3777   3778   3779
3780   3781   3782   3783
3784   3785   3786   3787
3788   3789   3790   3791
3792   3793   3794   3795
3796   3797   3798   3799
3800   3801   3802   3803
3804   3805   3806   3807
3808   3809   3810   3811
3812   3813   3814   3815
3816   3817   3818   3819
3820   3821   3822   3823
3824   3825   3826   3827
3828   3829   3830   3831
3832   3833   3834   3835
3836   3837   3838   3839
3840   3841   3842   3843
3844   3845   3846   3847
3848   3849   3850   3851
3852   3853   3854   3855
3856   3857   3858   3859
3860   3861   3862   3863
3864   3865   3866   3867
3868   3869   3870   3871
3872   3873   3874   3875
3876   3877   3878   3879
3880   3881   3882   3883
3884   3885   3886   3887
3888   3889   3890   3891
3892   3893   3894   3895
3896   3897   3898   3899
3900   3901   3902   3903
3904   3905   3906   3907
3908   3909   3910   3911
3912   3913   3914   3915
3916   3917   3918   3919
3920   3921   3922   3923
3924   3925   3926   3927
3928   3929   3930   3931
3932   3933   3934   3935
3936   3937   3938   3939
3940   3941   3942   3943
3944   3945   3946   3947
3948   3949   3950   3951
3952   3953   3954   3955
3956   3957   3958   3959
3960   3961   3962   3963
3964   3965   3966   3967
3968   3969   3970   3971
3972   3973   3974   3975
3976   3977   3978   3979
3980   3981   3982   3983
3984   3985   3986   3987
3988   3989   3990   3991
3992   3993   3994   3995
3996   3997   3998   3999
4000   4001   4002   4003
4004   4005   4006   4007
4008   4009   4010   4011
4012   4013   4014   4015
4016   4017   4018   4019
4020   4021   4022   4023
4024   4025   4026   4027
4028   4029   4030   4031
4032   4033   4034   4035
4036   4037   4038   4039
4040   4041   4042   4043
4044   4045   4046   4047
4048   4049   4050   4051
4052   4053   4054   4055
4056   4057   4058   4059
4060   4061   4062   4063
4064   4065   4066   4067
4068   4069   4070   4071
4072   4073   4074   4075
4076   4077   4078   4079
4080   4081   4082   4083
4084   4085   4086   4087
4088   4089   4090   4091
4092   4093   4094   4095
4096   4097   4098   4099
4100   4101   4102   4103
4104   4105   4106   4107
4108   4109   4110   4111
4112   4113   4114   4115
4116   4117   4118   4119
4120   4121   4122   4123
4124   4125   4126   4127
4128   4129   4130   4131
4132   4133   4134   4135
4136   4137   4138   4139
4140   4141   4142   4143
4144   4145   4146   4147
4148   4149   4150   4151
4152   4153   4154   4155
4156   4157   4158   4159
4160   4161   4162   4163
4164   4165   4166   4167
4168   4169   4170   4171
4172   4173   4174   4175
4176   4177   4178   4179
4180   4181   4182   4183
4184   4185   4186   4187
4188   4189   4190   4191
4192   4193   4194   4195
4196   4197   4198   4199
4200   4201   4202   4203
4204   4205   4206   4207
4208   4209   4210   4211
4212   4213   4214   4215
4216   4217   4218   4219
4220   4221   4222   4223
4224   4225   4226   4227
4228   4229   4230   4231
4232   4233   4234   4235
4236   4237   4238   4239
4240   4241   4242   4243
4244   4245   4246   4247
4248   4249   4250   4251
4252   4253   4254   4255
4256   4257   4258   4259
4260   4261   4262   4263
4264   4265   4266   4267
4268   4269   4270   4271
4272   4273   4274   4275
4276   4277   4278   4279
4280   4281   4282   4283
4284   4285   4286   4287
4288   4289   4290   4291
4292   4293   4294   4295
4296   4297   4298   4299
4300   4301   4302   4303
4304   4305   4306   4307
4308   4309   4310   4311
4312   4313   4314   4315
4316   4317   4318   4319
4320   4321   4322   4323
4324   4325   4326   4327
4328   4329   4330   4331
4332   4333   4334   4335
4336   4337   4338   4339
4340   4341   4342   4343
4344   4345   4346   4347
4348   4349   4350   4351
4352   4353   4354   4355
4356   4357   4358   4359
4360   4361   4362   4363
4364   4365   4366   4367
4368   4369   4370   4371
4372   4373   4374   4375
4376   4377   4378   4379
4380   4381   4382   4383
4384   4385   4386   4387
4388   4389   4390   4391
4392   4393   4394   4395
4396   4397   4398   4399
4400   4401   4402   4403
4404   4405   4406   4407
4408   4409   4410   4411
4412   4413   4414   4415
4416   4417   4418   4419
4420   4421   4422   4423
4424   4425   4426   4427
4428   4429   4430   4431
4432   4433   4434   4435
4436   4437   4438   4439
4440   4441   4442   4443
4444   4445   4446   4447
4448   4449   4450   4451
4452   4453   4454   4455
4456   4457   4458   4459
4460   4461   4462   4463
4464   4465   4466   4467
4468   4469   4470   4471
4472   4473   4474   4475
4476   4477   4478   4479
4480   4481   4482   4483
4484   4485   4486   4487
4488   4489   4490   4491
4492   4493   4494   4495
4496   4497   4498   4499
4500   4501   4502   4503
4504   4505   4506   4507
4508   4509   4510   4511
4512   4513   4514   4515
4516   4517   4518   4519
4520   4521   4522   4523
4524   4525   4526   4527
4528   4529   4530   4531
4532   4533   4534   4535
4536   4537   4538   4539
4540   4541   4542   4543
4544   4545   4546   4547
4548   4549   4550   4551
4552   4553   4554   4555
4556   4557   4558   4559
4560   4561   4562   4563
4564   4565   4566   4567
4568   4569   4570   4571
4572   4573   4574   4575
4576   4577   4578   4579
4580   4581   4582   4583
4584   4585   4586   4587
4588   4589   4590   4591
4592   4593   4594   4595
4596   4597   4598   4599
4600   4601   4602   4603
4604   4605   4606   4607
4608   4609   4610   4611
4612   4613   4614   4615
4616   4617   4618   4619
4620   4621   4622   4623
4624   4625   4626   4627
4628   4629   4630   4631
4632   4633   4634   4635
4636   4637   4638   4639
4640   4641   4642   4643
4644   4645   4646   4647
4648   4649   4650   4651
4652   4653   4654   4655
4656   4657   4658   4659
4660   4661   4662   4663
4664   4665   4666   4667
4668   4669   4670   4671
4672   4673   4674   4675
4676   4677   4678   4679
4680   4681   4682   4683
4684   4685   4686   4687
4688   4689   4690   4691
4692   4693   4694   4695
4696   4697   4698   4699
4700   4701   4702   4703
4704   4705   4706   4707
4708   4709   4710   4711
4712   4713   4714   4715
4716   4717   4718   4719
4720   4721   4722   4723
4724   4725   4726   4727
4728   4729   4730   4731
4732   4733   4734   4735
4736   4737   4738   4739
4740   4741   4742   4743
4744   4745   4746   4747
4748   4749   4750   4751
4752   4753   4754   4755
4756   4757   4758   4759
4760   4761   4762   4763
4764   4765   4766   4767
4768   4769   4770   4771
4772   4773   4774   4775
4776   4777   4778   4779
4780   4781   4782   4783
4784   4785   4786   4787
4788   4789   4790   4791
4792   4793   4794   4795
4796   4797   4798   4799
4800   4801   4802   4803
4804   4805   4806   4807
4808   4809   4810   4811
4812   4813   4814   4815
4816   4817   4818   4819
4820   4821   4822   4823
4824   4825   4826   4827
4828   4829   4830   4831
4832   4833   4834   4835
4836   4837   4838   4839
4840   4841   4842   4843
4844   4845   4846   4847
4848   4849   4850   4851
4852   4853   4854   4855
4856   4857   4858   4859
4860   4861   4862   4863
4864   4865   4866   4867
4868   4869   4870   4871
4872   4873   4874   4875
4876   4877   4878   4879
4880   4881   4882   4883
4884   4885   4886   4887
4888   4889   4890   4891
4892   4893   4894   4895
4896   4897   4898   4899
4900   4901   4902   4903
4904   4905   4906   4907
4908   4909   4910   4911
4912   4913   4914   4915
4916   4917   4918   4919
4920   4921   4922   4923
4924   4925   4926   4927
4928   4929   4930   4931
4932   4933   4934   4935
4936   4937   4938   4939
4940   4941   4942   4943
4944   4945   4946   4947
4948   4949   4950   4951
4952   4953   4954   4955
4956   4957   4958   4959
4960   4961   4962   4963
4964   4965   4966   4967
4968   4969   4970   4971
4972   4973   4974   4975
4976   4977   4978   4979
4980   4981   4982   4983
4984   4985   4986   4987
4988   4989   4990   4991
4992   4993   4994   4995
4996   4997   4998   4999
5000   5001   5002   5003
5004   5005   5006   5007
5008   5009   5010   5011
5012   5013   5014   5015
5016   5017   5018   5019
5020   5021   5022   5023
5024   5025   5026   5027
5028   5029   5030   5031
5032   5033   5034   5035
5036   5037   5038   5039
5040   5041   5042   5043
5044   5045   5046   5047
5048   5049   5050   5051
5052   5053   5054   5055
5056   5057   5058   5059
5060   5061   5062   5063
5064   5065   5066   5067
5068   5069   5070   5071
5072   5073   5074   5075
5076   5077   5078   5079
5080   5081   5082   5083
5084   5085   5086   5087
5088   5089   5090   5091
5092   5093   5094   5095
5096   5097   5098   5099
5100   5101   5102   5103
5104   5105   5106   5107
5108   5109   5110   5111
5112   5113   5114   5115
5116   5117   5118   5119
5120   5121   5122   5123
5124   5125   5126   5127
5128   5129   5130   5131
5132   5133   5134   5135
5136   5137   5138   5139
5140   5141   5142   5143
5144   5145   5146   5147
5148   5149   5150   5151
5152   5153   5154   5155
5156   5157   5158   5159
5160   5161   5162   5163
5164   5165   5166   5167
5168   5169   5170   5171
5172   5173   5174   5175
5176   5177   5178   5179
5180   5181   5182   5183
5184   5185   5186   5187
5188   5189   5190   5191
5192   5193   5194   5195
5196   5197   5198   5199
5200   5201   5202   5203
5204   5205   5206   5207
5208   5209   5210   5211
5212   5213   5214   5215
5216   5217   5218   5219
5220   5221   5222   5223
5224   5225   5226   5227
5228   5229   5230   5231
5232   5233   5234   5235
5236   5237   5238   5239
5240   5241   5242   5243
5244   5245   5246   5247
5248   5249   5250   5251
5252   5253   5254   5255
5256   5257   5258   5259
5260   5261   5262   5263
5264   5265   5266   5267
5268   5269   5270   5271
5272   5273   5274   5275
5276   5277   5278   5279
5280   5281   5282   5283
5284   5285   5286   5287
5288   5289   5290   5291
5292   5293   5294   5295
5296   5297   5298   5299
5300   5301   5302   5303
5304   5305   5306   5307
5308   5309   5310   5311
5312   5313   5314   5315
5316   5317   5318   5319
5320   5321   5322   5323
5324   5325   5326   5327
5328   5329   5330   5331
5332   5333   5334   5335
5336   5337   5338   5339
5340   5341   5342   5343
5344   5345   5346   5347
5348   5349   5350   5351
5352   5353   5354   5355
5356   5357   5358   5359
5360   5361   5362   5363
5364   5365   5366   5367
5368   5369   5370   5371
5372   5373   5374   5375
5376   5377   5378   5379
5380   5381   5382   5383
5384   5385   5386   5387
5388   5389   5390   5391
5392   5393   5394   5395
5396   5397   5398   5399
5400   5401   5402   5403
5404   5405   5406   5407
5408   5409   5410   5411
5412   5413   5414   5415
5416   5417   5418   5419
5420   5421   5422   5423
5424   5425   5426   5427
5428   5429   5430   5431
5432   5433   5434   5435
5436   5437   5438   5439
5440   5441   5442   5443
5444   5445   5446   5447
5448   5449   5450   5451
5452   5453   5454   5455
5456   5457   5458   5459
5460   5461   5462   5463
5464   5465   5466   5467
5468   5469   5470   5471
5472   5473   5474   5475
5476   5477   5478   5479
5480   5481   5482   5483
5484   5485   5486   5487
5488   5489   5490   5491
5492   5493   5494   5495
5496   5497   5498   5499
5500   5501   5502   5503
5504   5505   5506   5507
5508   5509   5510   5511
5512   5513   5514   5515
5516   5517   5518   5519
5520   5521   5522   5523
5524   5525   5526   5527
5528   5529   5530   5531
5532   5533   5534   5535
5536   5537   5538   5539
5540   5541   5542   5543
5544   5545   5546   5547
5548   5549   5550   5551
5552   5553   5554   5555
5556   5557   5558   5559
5560   5561   5562   5563
5564   5565   5566   5567
5568   5569   5570   5571
5572   5573   5574   5575
5576   5577   5578   5579
5580   5581   5582   5583
5584   5585   5586   5587
5588   5589   5590   5591
5592   5593   5594   5595
5596   5597   5598   5599
5600   5601   5602   5603
5604   5605   5606   5607
5608   5609   5610   5611
5612   5613   5614   5615
5616   5617   5618   5619
5620   5621   5622   5623
5624   5625   5626   5627
5628   5629   5630   5631
5632   5633   5634   5635
5636   5637   5638   5639
5640   5641   5642   5643
5644   5645   5646   5647
5648   5649   5650   5651
5652   5653   5654   5655
5656   5657   5658   5659
5660   5661   5662   5663
5664   5665   5666   5667
5668   5669   5670   5671
5672   5673   5674   5675
5676   5677   5678   5679
5680   5681   5682   5683
5684   5685   5686   5687
5688   5689   5690   5691
5692   5693   5694   5695
5696   5697   5698   5699
5700   5701   5702   5703
5704   5705   5706   5707
5708   5709   5710   5711
5712   5713   5714   5715
5716   5717   5718   5719
5720   5721   5722   5723
5724   5725   5726   5727
5728   5729   5730   5731
5732   5733   5734   5735
5736   5737   5738   5739
5740   5741   5742   5743
5744   5745   5746   5747
5748   5749   5750   5751
5752   5753   5754   5755
5756   5757   5758   5759
5760   5761   5762   5763
5764   5765   5766   5767
5768   5769   5770   5771
5772   5773   5774   5775
5776   5777   5778   5779
5780   5781   5782   5783
5784   5785   5786   5787
5788   5789   5790   5791
5792   5793   5794   5795
5796   5797   5798   5799
5800   5801   5802   5803
5804   5805   5806   5807
5808   5809   5810   5811
5812   5813   5814   5815
5816   5817   5818   5819
5820   5821   5822   5823
5824   5825   5826   5827
5828   5829   5830   5831
5832   5833   5834   5835
5836   5837   5838   5839
5840   5841   5842   5843
5844   5845   5846   5847
5848   5849   5850   5851
5852   5853   5854   5855
5856   5857   5858   5859
5860   5861   5862   5863
5864   5865   5866   5867
5868   5869   5870   5871
5872   5873   5874   5875
5876   5877   5878   5879
5880   5881   5882   5883
5884   5885   5886   5887
5888   5889   5890   5891
5892   5893   5894   5895
5896   5897   5898   5899
5900   5901   5902   5903
5904   5905   5906   5907
5908   5909   5910   5911
5912   5913   5914   5915
5916   5917   5918   5919
5920   5921   5922   5923
5924   5925   5926   5927
5928   5929   5930   5931
5932   5933   5934   5935
5936   5937   5938   5939
5940   5941   5942   5943
5944   5945   5946   5947
5948   5949   5950   5951
5952   5953   5954   5955
5956   5957   5958   5959
5960   5961   5962   5963
5964   5965   5966   5967
5968   5969   5970   5971
5972   5973   5974   5975
5976   5977   5978   5979
5980   5981   5982   5983
5984   5985   5986   5987
5988   5989   5990   5991
5992   5993   5994   5995
5996   5997   5998   5999
              </DataArray>   
              <DataArray type="Int32" Name="offsets" format="ascii">   
4
8
12
16
20
24
28
32
36
40
44
48
52
56
60
64
68
72
76
80
84
88
92
96
100
104
108
112
116
120
124
128
132
136
140
144
148
152
156
160
164
168
172
176
180
184
188
192
196
200
204
208
212
216
220
224
228
232
236
240
244
248
252
256
260
264
268
272
276
280
284
288
292
296
300
304
308
312
316
320
324
328
332
336
340
344
348
352
356
360
364
368
372
376
380
384
388
392
396
400
404
408
412
416
420
424
428
432
436
440
444
448
452
456
460
464
468
472
476
480
484
488
492
496
500
504
508
512
516
520
524
528
532
536
540
544
548
552
556
560
564
568
572
576
580
584
588
592
596
600
604
608
612
616
620
624
628
632
636
640
644
648
652
656
660
664
668
672
676
680
684
688
692
696
700
704
708
712
716
720
724
728
732
736
740
744
748
752
756
760
764
768
772
776
780
784
788
792
796
800
804
808
812
816
820
824
828
832
836
840
844
848
852
856
860
864
868
872
876
880
884
888
892
896
900
904
908
912
916
920
924
928
932
936
940
944
948
952
956
960
964
968
972
976
980
984
988
992
996
1000
1004
1008
1012
1016
1020
1024
1028
1032
1036
1040
1044
1048
1052
1056
1060
1064
1068
1072
1076
1080
1084
1088
1092
1096
1100
1104
1108
1112
1116
1120
1124
1128
1132
1136
1140
1144
1148
1152
1156
1160
1164
1168
1172
1176
1180
1184
1188
1192
1196
1200
1204
1208
1212
1216
1220
1224
1228
1232
1236
1240
1244
1248
1252
1256
1260
1264
1268
1272
1276
1280
1284
1288
1292
1296
1300
1304
1308
1312
1316
1320
1324
1328
1332
1336
1340
1344
1348
1352
1356
1360
1364
1368
1372
1376
1380
1384
1388
1392
1396
1400
1404
1408
1412
1416
1420
1424
1428
1432
1436
1440
1444
1448
1452
1456
1460
1464
1468
1472
1476
1480
1484
1488
1492
1496
1500
1504
1508
1512
1516
1520
1524
1528
1532
1536
1540
1544
1548
1552
1556
1560
1564
1568
1572
1576
1580
1584
1588
1592
1596
1600
1604
1608
1612
1616
1620
1624
1628
1632
1636
1640
1644
1648
1652
1656
1660
1664
1668
1672
1676
1680
1684
1688
1692
1696
1700
1704
1708
1712
1716
1720
1724
1728
1732
1736
1740
1744
1748
1752
1756
1760
1764
1768
1772
1776
1780
1784
1788
1792
1796
1800
1804
1808
1812
1816
1820
1824
1828
1832
1836
1840
1844
1848
1852
1856
1860
1864
1868
1872
1876
1880
1884
1888
1892
1896
1900
1904
1908
1912
1916
1920
1924
1928
1932
1936
1940
1944
1948
1952
1956
1960
1964
1968
1972
1976
1980
1984
1988
1992
1996
2000
2004
2008
2012
2016
2020
2024
2028
2032
2036
2040
2044
2048
2052
2056
2060
2064
2068
2072
2076
2080
2084
2088
2092
2096
2100
2104
2108
2112
2116
2120
2124
2128
2132
2136
2140
2144
2148
2152
2156
2160
2164
2168
2172
2176
2180
2184
2188
2192
2196
2200
2204
2208
2212
2216
2220
2224
2228
2232
2236
2240
2244
2248
2252
2256
2260
2264
2268
2272
2276
2280
2284
2288
2292
2296
2300
2304
2308
2312
2316
2320
2324
2328
2332
2336
2340
2344
2348
2352
2356
2360
2364
2368
2372
2376
2380
2384
2388
2392
2396
2400
2404
2408
2412
2416
2420
2424
2428
2432
2436
2440
2444
2448
2452
2456
2460
2464
2468
2472
2476
2480
2484
2488
2492
2496
2500
2504
2508
2512
2516
2520
2524
2528
2532
2536
2540
2544
2548
2552
2556
2560
2564
2568
2572
2576
2580
2584
2588
2592
2596
2600
2604
2608
2612
2616
2620
2624
2628
2632
2636
2640
2644
2648
2652
2656
2660
2664
2668
2672
2676
2680
2684
2688
2692
2696
2700
2704
2708
2712
2716
2720
2724
2728
2732
2736
2740
2744
2748
2752
2756
2760
2764
2768
2772
2776
2780
2784
2788
2792
2796
2800
2804
2808
2812
2816
2820
2824
2828
2832
2836
2840
2844
2848
2852
2856
2860
2864
2868
2872
2876
2880
2884
2888
2892
2896
2900
2904
2908
2912
2916
2920
2924
2928
2932
2936
2940
2944
2948
2952
2956
2960
2964
2968
2972
2976
2980
2984
2988
2992
2996
3000
3004
3008
3012
3016
3020
3024
3028
3032
3036
3040
3044
3048
3052
3056
3060
3064
3068
3072
3076
3080
3084
3088
3092
3096
3100
3104
3108
3112
3116
3120
3124
3128
3132
3136
3140
3144
3148
3152
3156
3160
3164
3168
3172
3176
3180
3184
3188
3192
3196
3200
3204
3208
3212
3216
3220
3224
3228
3232
3236
3240
3244
3248
3252
3256
3260
3264
3268
3272
3276
3280
3284
3288
3292
3296
3300
3304
3308
3312
3316
3320
3324
3328
3332
3336
3340
3344
3348
3352
3356
3360
3364
3368
3372
3376
3380
3384
3388
3392
3396
3400
3404
3408
3412
3416
3420
3424
3428
3432
3436
3440
3444
3448
3452
3456
3460
3464
3468
3472
3476
3480
3484
3488
3492
3496
3500
3504
3508
3512
3516
3520
3524
3528
3532
3536
3540
3544
3548
3552
3556
3560
3564
3568
3572
3576
3580
3584
3588
3592
3596
3600
3604
3608
3612
3616
3620
3624
3628
3632
3636
3640
3644
3648
3652
3656
3660
3664
3668
3672
3676
3680
3684
3688
3692
3696
3700
3704
3708
3712
3716
3720
3724
3728
3732
3736
3740
3744
3748
3752
3756
3760
3764
3768
3772
3776
3780
3784
3788
3792
3796
3800
3804
3808
3812
3816
3820
3824
3828
3832
3836
3840
3844
3848
3852
3856
3860
3864
3868
3872
3876
3880
3884
3888
3892
3896
3900
3904
3908
3912
3916
3920
3924
3928
3932
3936
3940
3944
3948
3952
3956
3960
3964
3968
3972
3976
3980
3984
3988
3992
3996
4000
4004
4008
4012
4016
4020
4024
4028
4032
4036
4040
4044
4048
4052
4056
4060
4064
4068
4072
4076
4080
4084
4088
4092
4096
4100
4104
4108
4112
4116
4120
4124
4128
4132
4136
4140
4144
4148
4152
4156
4160
4164
4168
4172
4176
4180
4184
4188
4192
4196
4200
4204
4208
4212
4216
4220
4224
4228
4232
4236
4240
4244
4248
4252
4256
4260
4264
4268
4272
4276
4280
4284
4288
4292
4296
4300
4304
4308
4312
4316
4320
4324
4328
4332
4336
4340
4344
4348
4352
4356
4360
4364
4368
4372
4376
4380
4384
4388
4392
4396
4400
4404
4408
4412
4416
4420
4424
4428
4432
4436
4440
4444
4448
4452
4456
4460
4464
4468
4472
4476
4480
4484
4488
4492
4496
4500
4504
4508
4512
4516
4520
4524
4528
4532
4536
4540
4544
4548
4552
4556
4560
4564
4568
4572
4576
4580
4584
4588
4592
4596
4600
4604
4608
4612
4616
4620
4624
4628
4632
4636
4640
4644
4648
4652
4656
4660
4664
4668
4672
4676
4680
4684
4688
4692
4696
4700
4704
4708
4712
4716
4720
4724
4728
4732
4736
4740
4744
4748
4752
4756
4760
4764
4768
4772
4776
4780
4784
4788
4792
4796
4800
4804
4808
4812
4816
4820
4824
4828
4832
4836
4840
4844
4848
4852
4856
4860
4864
4868
4872
4876
4880
4884
4888
4892
4896
4900
4904
4908
4912
4916
4920
4924
4928
4932
4936
4940
4944
4948
4952
4956
4960
4964
4968
4972
4976
4980
4984
4988
4992
4996
5000
5004
5008
5012
5016
5020
5024
5028
5032
5036
5040
5044
5048
5052
5056
5060
5064
5068
5072
5076
5080
5084
5088
5092
5096
5100
5104
5108
5112
5116
5120
5124
5128
5132
5136
5140
5144
5148
5152
5156
5160
5164
5168
5172
5176
5180
5184
5188
5192
5196
5200
5204
5208
5212
5216
5220
5224
5228
5232
5236
5240
5244
5248
5252
5256
5260
5264
5268
5272
5276
5280
5284
5288
5292
5296
5300
5304
5308
5312
5316
5320
5324
5328
5332
5336
5340
5344
5348
5352
5356
5360
5364
5368
5372
5376
5380
5384
5388
5392
5396
5400
5404
5408
5412
5416
5420
5424
5428
5432
5436
5440
5444
5448
5452
5456
5460
5464
5468
5472
5476
5480
5484
5488
5492
5496
5500
5504
5508
5512
5516
5520
5524
5528
5532
5536
5540
5544
5548
5552
5556
5560
5564
5568
5572
5576
5580
5584
5588
5592
5596
5600
5604
5608
5612
5616
5620
5624
5628
5632
5636
5640
5644
5648
5652
5656
5660
5664
5668
5672
5676
5680
5684
5688
5692
5696
5700
5704
5708
5712
5716
5720
5724
5728
5732
5736
5740
5744
5748
5752
5756
5760
5764
5768
5772
5776
5780
5784
5788
5792
5796
5800
5804
5808
5812
5816
5820
5824
5828
5832
5836
5840
5844
5848
5852
5856
5860
5864
5868
5872
5876
5880
5884
5888
5892
5896
5900
5904
5908
5912
5916
5920
5924
5928
5932
5936
5940
5944
5948
5952
5956
5960
5964
5968
5972
5976
5980
5984
5988
5992
5996
6000
              </DataArray>   
              <DataArray type="UInt8" Name="types" format="ascii">   
10
10
10
10
10
10
10
10
10
10
10
10
10
10
10
10
10
10
10
10
10
10
10
10
10
10
10
10
10
10
10
10
10
10
10
10
10
10
10
10
10
10
10
10
10
10
10
10
10
10
10
10
10
10
10
10
10
10
10
10
10
10
10
10
10
10
10
10
10
10
10
10
10
10
10
10
10
10
10
10
10
10
10
10
10
10
10
10
10
10
10
10
10
10
10
10
10
10
10
10
10
10
10
10
10
10
10
10
10
10
10
10
10
10
10
10
10
10
10
10
10
10
10
10
10
10
10
10
10
10
10
10
10
10
10
10
10
10
10
10
10
10
10
10
10
10
10
10
10
10
10
10
10
10
10
10
10
10
10
10
10
10
10
10
10
10
10
10
10
10
10
10
10
10
10
10
10
10
10
10
10
10
10
10
10
10
10
10
10
10
10
10
10
10
10
10
10
10
10
10
10
10
10
10
10
10
10
10
10
10
10
10
10
10
10
10
10
10
10
10
10
10
10
10
10
10
10
10
10
10
10
10
10
10
10
10
10
10
10
10
10
10
10
10
10
10
10
10
10
10
10
10
10
10
10
10
10
10
10
10
10
10
10
10
10
10
10
10
10
10
10
10
10
10
10
10
10
10
10
10
10
10
10
10
10
10
10
10
10
10
10
10
10
10
10
10
10
10
10
10
10
10
10
10
10
10
10
10
10
10
10
10
10
10
10
10
10
10
10
10
10
10
10
10
10
10
10
10
10
10
10
10
10
10
10
10
10
10
10
10
10
10
10
10
10
10
10
10
10
10
10
10
10
10
10
10
10
10
10
10
10
10
10
10
10
10
10
10
10
10
10
10
10
10
10
10
10
10
10
10
10
10
10
10
10
10
10
10
10
10
10
10
10
10
10
10
10
10
10
10
10
10
10
10
10
10
10
10
10
10
10
10
10
10
10
10
10
10
10
10
10
10
10
10
10
10
10
10
10
10
10
10
10
10
10
10
10
10
10
10
10
10
10
10
10
10
10
10
10
10
10
10
10
10
10
10
10
10
10
10
10
10
10
10
10
10
10
10
10
10
10
10
10
10
10
10
10
10
10
10
10
10
10
10
10
10
10
10
10
10
10
10
10
10
10
10
10
10
10
10
10
10
10
10
10
10
10
10
10
10
10
10
10
10
10
10
10
10
10
10
10
10
10
10
10
10
10
10
10
10
10
10
10
10
10
10
10
10
10
10
10
10
10
10
10
10
10
10
10
10
10
10
10
10
10
10
10
10
10
10
10
10
10
10
10
10
10
10
10
10
10
10
10
10
10
10
10
10
10
10
10
10
10
10
10
10
10
10
10
10
10
10
10
10
10
10
10
10
10
10
10
10
10
10
10
10
10
10
10
10
10
10
10
10
10
10
10
10
10
10
10
10
10
10
10
10
10
10
10
10
10
10
10
10
10
10
10
10
10
10
10
10
10
10
10
10
10
10
10
10
10
10
10
10
10
10
10
10
10
10
10
10
10
10
10
10
10
10
10
10
10
10
10
10
10
10
10
10
10
10
10
10
10
10
10
10
10
10
10
10
10
10
10
10
10
10
10
10
10
10
10
10
10
10
10
10
10
10
10
10
10
10
10
10
10
10
10
10
10
10
10
10
10
10
10
10
10
10
10
10
10
10
10
10
10
10
10
10
10
10
10
10
10
10
10
10
10
10
10
10
10
10
10
10
10
10
10
10
10
10
10
10
10
10
10
10
10
10
10
10
10
10
10
10
10
10
10
10
10
10
10
10
10
10
10
10
10
10
10
10
10
10
10
10
10
10
10
10
10
10
10
10
10
10
10
10
10
10
10
10
10
10
10
10
10
10
10
10
10
10
10
10
10
10
10
10
10
10
10
10
10
10
10
10
10
10
10
10
10
10
10
10
10
10
10
10
10
10
10
10
10
10
10
10
10
10
10
10
10
10
10
10
10
10
10
10
10
10
10
10
10
10
10
10
10
10
10
10
10
10
10
10
10
10
10
10
10
10
10
10
10
10
10
10
10
10
10
10
10
10
10
10
10
10
10
10
10
10
10
10
10
10
10
10
10
10
10
10
10
10
10
10
10
10
10
10
10
10
10
10
10
10
10
10
10
10
10
10
10
10
10
10
10
10
10
10
10
10
10
10
10
10
10
10
10
10
10
10
10
10
10
10
10
10
10
10
10
10
10
10
10
10
10
10
10
10
10
10
10
10
10
10
10
10
10
10
10
10
10
10
10
10
10
10
10
10
10
10
10
10
10
10
10
10
10
10
10
10
10
10
10
10
10
10
10
10
10
10
10
10
10
10
10
10
10
10
10
10
10
10
10
10
10
10
10
10
10
10
10
10
10
10
10
10
10
10
10
10
10
10
10
10
10
10
10
10
10
10
10
10
10
10
10
10
10
10
10
10
10
10
10
10
10
10
10
10
10
10
10
10
10
10
10
10
10
10
10
10
10
10
10
10
10
10
10
10
10
10
10
10
10
10
10
10
10
10
10
10
10
10
10
10
10
10
10
10
10
10
10
10
10
10
10
10
10
10
10
10
10
10
10
10
10
10
10
10
10
10
10
10
10
10
10
10
10
10
10
10
10
10
10
10
10
10
10
10
10
10
10
10
10
10
10
10
10
10
10
10
10
10
10
10
10
10
10
10
10
10
10
10
10
10
10
10
10
10
10
10
10
10
10
10
10
10
10
10
10
10
10
10
10
10
10
10
10
10
10
10
10
10
10
10
10
10
10
10
10
10
10
10
10
10
10
10
10
10
10
10
10
10
10
10
10
10
10
10
10
10
10
10
10
10
10
10
10
10
10
10
10
10
10
10
10
10
10
10
10
10
10
10
10
10
10
10
10
10
10
10
10
10
10
10
10
10
10
10
10
10
10
10
10
10
10
10
10
10
10
10
10
10
10
10
10
10
10
10
10
10
10
10
10
10
10
10
10
10
10
10
10
10
10
10
10
10
10
10
10
10
10
10
10
10
10
10
10
10
10
10
10
10
10
10
10
10
10
10
10
10
10
10
10
10
10
10
10
10
10
10
10
10
10
10
10
10
10
10
10
10
10
10
10
10
10
10
10
10
10
10
10
10
10
10
10
10
10
10
10
10
10
10
10
10
10
10
10
10
10
10
10
10
10
10
10
10
10
10
10
10
10
10
10
10
10
10
10
10
10
10
10
10
10
10
10
10
10
10
10
10
10
10
10
10
10
10
10
10
10
10
10
10
10
10
10
10
10
10
10
10
10
10
10
10
10
10
10
10
10
10
10
10
10
10
10
10
10
10
10
10
10
10
10
10
10
10
10
10
10
10
10
10
10
10
10
10
10
10
10
10
10
10
10
10
10
10
10
10
10
10
10
10
10
10
10
10
10
10
10
10
10
10
              </DataArray>   
          </Cells>  
          <PointData>  
             <DataArray type="Float64" NumberOfComponents="3" Name="Strains" format="ascii">   
-6.308032811912307e-05   0.0   -4.148688028664928e-05
-6.308032811912307e-05   0.0   -4.148688028664928e-05
-6.308032811912307e-05   0.0   -4.148688028664928e-05
-6.308032811912307e-05   0.0   -4.148688028664928e-05
-4.0130614229645834e-05   6.976526895806183e-06   9.48558999963077e-07
-4.0130614229645834e-05   6.976526895806183e-06   9.48558999963077e-07
-4.0130614229645834e-05   6.976526895806183e-06   9.48558999963077e-07
-4.0130614229645834e-05   6.976526895806183e-06   9.48558999963077e-07
-3.933111155235474e-05   0.0   -3.9166908326478e-05
-3.933111155235474e-05   0.0   -3.9166908326478e-05
-3.933111155235474e-05   0.0   -3.9166908326478e-05
-3.933111155235474e-05   0.0   -3.9166908326478e-05
-6.600931584814633e-05   8.377704899691478e-06   2.701425600265913e-07
-6.600931584814633e-05   8.377704899691478e-06   2.701425600265913e-07
-6.600931584814633e-05   8.377704899691478e-06   2.701425600265913e-07
-6.600931584814633e-05   8.377704899691478e-06   2.701425600265913e-07
-5.120571983573882e-05   1.9333099668093914e-06   -2.0535880500923318e-05
-5.120571983573882e-05   1.9333099668093914e-06   -2.0535880500923318e-05
-5.120571983573882e-05   1.9333099668093914e-06   -2.0535880500923318e-05
-5.120571983573882e-05   1.9333099668093914e-06   -2.0535880500923318e-05
-6.600931584814645e-05   0.0   -4.41935312662929e-05
-6.600931584814645e-05   0.0   -4.41935312662929e-05
-6.600931584814645e-05   0.0   -4.41935312662929e-05
-6.600931584814645e-05   0.0   -4.41935312662929e-05
-3.933111155235474e-05   8.377704899691492e-06   5.296765499841492e-06
-3.933111155235474e-05   8.377704899691492e-06   5.296765499841492e-06
-3.933111155235474e-05   8.377704899691492e-06   5.296765499841492e-06
-3.933111155235474e-05   8.377704899691492e-06   5.296765499841492e-06
-3.9435707561971136e-05   0.0   -4.012387426149853e-05
-3.9435707561971136e-05   0.0   -4.012387426149853e-05
-3.9435707561971136e-05   0.0   -4.012387426149853e-05
-3.9435707561971136e-05   0.0   -4.012387426149853e-05
-6.8063411694086e-05   8.976950608332709e-06   2.2027955936934683e-06
-6.8063411694086e-05   8.976950608332709e-06   2.2027955936934683e-06
-6.8063411694086e-05   8.976950608332709e-06   2.2027955936934683e-06
-6.8063411694086e-05   8.976950608332709e-06   2.2027955936934683e-06
-5.27225117050587e-05   3.391380837328648e-06   -2.0014029192082916e-05
-5.27225117050587e-05   3.391380837328648e-06   -2.0014029192082916e-05
-5.27225117050587e-05   3.391380837328648e-06   -2.0014029192082916e-05
-5.27225117050587e-05   3.391380837328648e-06   -2.0014029192082916e-05
-6.806341169408612e-05   0.0   -4.5510044626498165e-05
-6.806341169408612e-05   0.0   -4.5510044626498165e-05
-6.806341169408612e-05   0.0   -4.5510044626498165e-05
-6.806341169408612e-05   0.0   -4.5510044626498165e-05
-3.9435707561971136e-05   8.976950608332736e-06   7.588965958693088e-06
-3.9435707561971136e-05   8.976950608332736e-06   7.588965958693088e-06
-3.9435707561971136e-05   8.976950608332736e-06   7.588965958693088e-06
-3.9435707561971136e-05   8.976950608332736e-06   7.588965958693088e-06
-3.9407849596833455e-05   0.0   -4.037077367689399e-05
-3.9407849596833455e-05   0.0   -4.037077367689399e-05
-3.9407849596833455e-05   0.0   -4.037077367689399e-05
-3.9407849596833455e-05   0.0   -4.037077367689399e-05
-7.249477659330305e-05   1.0231278383703504e-05   8.635337620333411e-06
-7.249477659330305e-05   1.0231278383703504e-05   8.635337620333411e-06
-7.249477659330305e-05   1.0231278383703504e-05   8.635337620333411e-06
-7.249477659330305e-05   1.0231278383703504e-05   8.635337620333411e-06
-5.3735630645459695e-05   4.282725791336811e-06   -1.9060774070652137e-05
-5.3735630645459695e-05   4.282725791336811e-06   -1.9060774070652137e-05
-5.3735630645459695e-05   4.282725791336811e-06   -1.9060774070652137e-05
-5.3735630645459695e-05   4.282725791336811e-06   -1.9060774070652137e-05
-4.01306142296459e-05   0.0   -3.730096414916557e-05
-4.01306142296459e-05   0.0   -3.730096414916557e-05
-4.01306142296459e-05   0.0   -3.730096414916557e-05
-4.01306142296459e-05   0.0   -3.730096414916557e-05
-1.8283012766766537e-05   2.556484581315972e-06   6.455957044229285e-07
-1.8283012766766537e-05   2.556484581315972e-06   6.455957044229285e-07
-1.8283012766766537e-05   2.556484581315972e-06   6.455957044229285e-07
-1.8283012766766537e-05   2.556484581315972e-06   6.455957044229285e-07
-1.7578178744414567e-05   0.0   -3.698083739319367e-05
-1.7578178744414567e-05   0.0   -3.698083739319367e-05
-1.7578178744414567e-05   0.0   -3.698083739319367e-05
-1.7578178744414567e-05   0.0   -3.698083739319367e-05
-3.933111155235474e-05   3.6434515554738993e-06   -2.9120203132443746e-06
-3.933111155235474e-05   3.6434515554738993e-06   -2.9120203132443746e-06
-3.933111155235474e-05   3.6434515554738993e-06   -2.9120203132443746e-06
-3.933111155235474e-05   3.6434515554738993e-06   -2.9120203132443746e-06
-2.8854396487030184e-05   2.6677229664324277e-07   -1.8347204533486792e-05
-2.8854396487030184e-05   2.6677229664324277e-07   -1.8347204533486792e-05
-2.8854396487030184e-05   2.6677229664324277e-07   -1.8347204533486792e-05
-2.8854396487030184e-05   2.6677229664324277e-07   -1.8347204533486792e-05
-3.933111155235471e-05   0.0   -3.916690832647797e-05
-3.933111155235471e-05   0.0   -3.916690832647797e-05
-3.933111155235471e-05   0.0   -3.916690832647797e-05
-3.933111155235471e-05   0.0   -3.916690832647797e-05
-1.7578178744414567e-05   3.6434515554738993e-06   -7.259493799600439e-07
-1.7578178744414567e-05   3.6434515554738993e-06   -7.259493799600439e-07
-1.7578178744414567e-05   3.6434515554738993e-06   -7.259493799600439e-07
-1.7578178744414567e-05   3.6434515554738993e-06   -7.259493799600439e-07
-1.7179736883791496e-05   0.0   -3.7443738716743206e-05
-1.7179736883791496e-05   0.0   -3.7443738716743206e-05
-1.7179736883791496e-05   0.0   -3.7443738716743206e-05
-1.7179736883791496e-05   0.0   -3.7443738716743206e-05
-3.9435707561971136e-05   4.466892574592194e-06   -3.0305897978658095e-06
-3.9435707561971136e-05   4.466892574592194e-06   -3.0305897978658095e-06
-3.9435707561971136e-05   4.466892574592194e-06   -3.0305897978658095e-06
-3.9435707561971136e-05   4.466892574592194e-06   -3.0305897978658095e-06
-2.8255424218073063e-05   1.435974674778999e-06   -1.9845844631141165e-05
-2.8255424218073063e-05   1.435974674778999e-06   -1.9845844631141165e-05
-2.8255424218073063e-05   1.435974674778999e-06   -1.9845844631141165e-05
-2.8255424218073063e-05   1.435974674778999e-06   -1.9845844631141165e-05
-3.9435707561971136e-05   0.0   -4.012387426149853e-05
-3.9435707561971136e-05   0.0   -4.012387426149853e-05
-3.9435707561971136e-05   0.0   -4.012387426149853e-05
-3.9435707561971136e-05   0.0   -4.012387426149853e-05
-1.7179736883791496e-05   4.466892574592194e-06   -3.5045425311048045e-07
-1.7179736883791496e-05   4.466892574592194e-06   -3.5045425311048045e-07
-1.7179736883791496e-05   4.466892574592194e-06   -3.5045425311048045e-07
-1.7179736883791496e-05   4.466892574592194e-06   -3.5045425311048045e-07
-1.6815879558097915e-05   0.0   -3.725122304628883e-05
-1.6815879558097915e-05   0.0   -3.725122304628883e-05
-1.6815879558097915e-05   0.0   -3.725122304628883e-05
-1.6815879558097915e-05   0.0   -3.725122304628883e-05
-3.940784959683335e-05   5.199251051008543e-06   -2.717490279001406e-06
-3.940784959683335e-05   5.199251051008543e-06   -2.717490279001406e-06
-3.940784959683335e-05   5.199251051008543e-06   -2.717490279001406e-06
-3.940784959683335e-05   5.199251051008543e-06   -2.717490279001406e-06
-2.8125793560034517e-05   2.3938760126747285e-06   -1.9837691983999324e-05
-2.8125793560034517e-05   2.3938760126747285e-06   -1.9837691983999324e-05
-2.8125793560034517e-05   2.3938760126747285e-06   -1.9837691983999324e-05
-2.8125793560034517e-05   2.3938760126747285e-06   -1.9837691983999324e-05
-1.8283012766766567e-05   0.0   -3.576707340037598e-05
-1.8283012766766567e-05   0.0   -3.576707340037598e-05
-1.8283012766766567e-05   0.0   -3.576707340037598e-05
-1.8283012766766567e-05   0.0   -3.576707340037598e-05
2.353461134120212e-06   -3.2920251855930537e-07   -1.5704717433668942e-06
2.353461134120212e-06   -3.2920251855930537e-07   -1.5704717433668942e-06
2.353461134120212e-06   -3.2920251855930537e-07   -1.5704717433668942e-06
2.353461134120212e-06   -3.2920251855930537e-07   -1.5704717433668942e-06
2.8062873733700615e-06   0.0   -3.659283592382454e-05
2.8062873733700615e-06   0.0   -3.659283592382454e-05
2.8062873733700615e-06   0.0   -3.659283592382454e-05
2.8062873733700615e-06   0.0   -3.659283592382454e-05
-1.7578178744414567e-05   6.466691156149933e-07   -3.006727196885941e-06
-1.7578178744414567e-05   6.466691156149933e-07   -3.006727196885941e-06
-1.7578178744414567e-05   6.466691156149933e-07   -3.006727196885941e-06
-1.7578178744414567e-05   6.466691156149933e-07   -3.006727196885941e-06
-7.738362696698236e-06   -6.881354362072398e-07   -1.8605537878653078e-05
-7.738362696698236e-06   -6.881354362072398e-07   -1.8605537878653078e-05
-7.738362696698236e-06   -6.881354362072398e-07   -1.8605537878653078e-05
-7.738362696698236e-06   -6.881354362072398e-07   -1.8605537878653078e-05
-1.7578178744414567e-05   0.0   -3.698083739319367e-05
-1.7578178744414567e-05   0.0   -3.698083739319367e-05
-1.7578178744414567e-05   0.0   -3.698083739319367e-05
-1.7578178744414567e-05   0.0   -3.698083739319367e-05
2.806287373370066e-06   6.466691156150001e-07   -2.6187257275169356e-06
2.806287373370066e-06   6.466691156150001e-07   -2.6187257275169356e-06
2.806287373370066e-06   6.466691156150001e-07   -2.6187257275169356e-06
2.806287373370066e-06   6.466691156150001e-07   -2.6187257275169356e-06
3.1645225062728662e-06   0.0   -3.6539998659222934e-05
3.1645225062728662e-06   0.0   -3.6539998659222934e-05
3.1645225062728662e-06   0.0   -3.6539998659222934e-05
3.1645225062728662e-06   0.0   -3.6539998659222934e-05
-1.717973688379147e-05   1.506233429200342e-06   -3.536639733302585e-06
-1.717973688379147e-05   1.506233429200342e-06   -3.536639733302585e-06
-1.717973688379147e-05   1.506233429200342e-06   -3.536639733302585e-06
-1.717973688379147e-05   1.506233429200342e-06   -3.536639733302585e-06
-7.206828119070848e-06   3.673656116422271e-07   -1.9474833650635455e-05
-7.206828119070848e-06   3.673656116422271e-07   -1.9474833650635455e-05
-7.206828119070848e-06   3.673656116422271e-07   -1.9474833650635455e-05
-7.206828119070848e-06   3.673656116422271e-07   -1.9474833650635455e-05
-1.7179736883791496e-05   0.0   -3.7443738716743206e-05
-1.7179736883791496e-05   0.0   -3.7443738716743206e-05
-1.7179736883791496e-05   0.0   -3.7443738716743206e-05
-1.7179736883791496e-05   0.0   -3.7443738716743206e-05
3.1645225062728717e-06   1.5062334292003488e-06   -2.6328996757823853e-06
3.1645225062728717e-06   1.5062334292003488e-06   -2.6328996757823853e-06
3.1645225062728717e-06   1.5062334292003488e-06   -2.6328996757823853e-06
3.1645225062728717e-06   1.5062334292003488e-06   -2.6328996757823853e-06
3.644430071414706e-06   0.0   -3.575035188803933e-05
3.644430071414706e-06   0.0   -3.575035188803933e-05
3.644430071414706e-06   0.0   -3.575035188803933e-05
3.644430071414706e-06   0.0   -3.575035188803933e-05
-1.6815879558097902e-05   2.5014519304157606e-06   -3.1507069971011205e-06
-1.6815879558097902e-05   2.5014519304157606e-06   -3.1507069971011205e-06
-1.6815879558097902e-05   2.5014519304157606e-06   -3.1507069971011205e-06
-1.6815879558097902e-05   2.5014519304157606e-06   -3.1507069971011205e-06
-6.767653406188381e-06   1.4111556905865086e-06   -1.924357283971941e-05
-6.767653406188381e-06   1.4111556905865086e-06   -1.924357283971941e-05
-6.767653406188381e-06   1.4111556905865086e-06   -1.924357283971941e-05
-6.767653406188381e-06   1.4111556905865086e-06   -1.924357283971941e-05
2.3534611341202163e-06   0.0   -3.596459491151156e-05
2.3534611341202163e-06   0.0   -3.596459491151156e-05
2.3534611341202163e-06   0.0   -3.596459491151156e-05
2.3534611341202163e-06   0.0   -3.596459491151156e-05
2.4759422192733517e-05   -2.90406065317651e-06   -3.637628723952694e-07
2.4759422192733517e-05   -2.90406065317651e-06   -3.637628723952694e-07
2.4759422192733517e-05   -2.90406065317651e-06   -3.637628723952694e-07
2.4759422192733517e-05   -2.90406065317651e-06   -3.637628723952694e-07
2.4811015237053667e-05   0.0   -3.790533273574363e-05
2.4811015237053667e-05   0.0   -3.790533273574363e-05
2.4811015237053667e-05   0.0   -3.790533273574363e-05
2.4811015237053667e-05   0.0   -3.790533273574363e-05
2.806287373370071e-06   -2.1874946865315973e-06   8.171051564798245e-08
2.806287373370071e-06   -2.1874946865315973e-06   8.171051564798245e-08
2.806287373370071e-06   -2.1874946865315973e-06   8.171051564798245e-08
2.806287373370071e-06   -2.1874946865315973e-06   8.171051564798245e-08
1.3582238185586942e-05   -1.6172815201933925e-06   -1.8220335404516374e-05
1.3582238185586942e-05   -1.6172815201933925e-06   -1.8220335404516374e-05
1.3582238185586942e-05   -1.6172815201933925e-06   -1.8220335404516374e-05
1.3582238185586942e-05   -1.6172815201933925e-06   -1.8220335404516374e-05
2.806287373370071e-06   0.0   -3.659283592382467e-05
2.806287373370071e-06   0.0   -3.659283592382467e-05
2.806287373370071e-06   0.0   -3.659283592382467e-05
2.806287373370071e-06   0.0   -3.659283592382467e-05
2.4811015237053667e-05   -2.1874946865315973e-06   -1.2307862962709798e-06
2.4811015237053667e-05   -2.1874946865315973e-06   -1.2307862962709798e-06
2.4811015237053667e-05   -2.1874946865315973e-06   -1.2307862962709798e-06
2.4811015237053667e-05   -2.1874946865315973e-06   -1.2307862962709798e-06
2.4711274031639002e-05   0.0   -3.736411310441812e-05
2.4711274031639002e-05   0.0   -3.736411310441812e-05
2.4711274031639002e-05   0.0   -3.736411310441812e-05
2.4711274031639002e-05   0.0   -3.736411310441812e-05
3.1645225062728717e-06   -1.3735240753251987e-06   -6.287461169461168e-07
3.1645225062728717e-06   -1.3735240753251987e-06   -6.287461169461168e-07
3.1645225062728717e-06   -1.3735240753251987e-06   -6.287461169461168e-07
3.1645225062728717e-06   -1.3735240753251987e-06   -6.287461169461168e-07
1.3758780702504537e-05   -6.427309838278757e-07   -1.872431896556394e-05
1.3758780702504537e-05   -6.427309838278757e-07   -1.872431896556394e-05
1.3758780702504537e-05   -6.427309838278757e-07   -1.872431896556394e-05
1.3758780702504537e-05   -6.427309838278757e-07   -1.872431896556394e-05
3.1645225062728688e-06   0.0   -3.653999865922297e-05
3.1645225062728688e-06   0.0   -3.653999865922297e-05
3.1645225062728688e-06   0.0   -3.653999865922297e-05
3.1645225062728688e-06   0.0   -3.653999865922297e-05
2.4711274031639002e-05   -1.3735240753251987e-06   -1.4528605621412402e-06
2.4711274031639002e-05   -1.3735240753251987e-06   -1.4528605621412402e-06
2.4711274031639002e-05   -1.3735240753251987e-06   -1.4528605621412402e-06
2.4711274031639002e-05   -1.3735240753251987e-06   -1.4528605621412402e-06
2.51961226509114e-05   0.0   -3.591842789839566e-05
2.51961226509114e-05   0.0   -3.591842789839566e-05
2.51961226509114e-05   0.0   -3.591842789839566e-05
2.51961226509114e-05   0.0   -3.591842789839566e-05
3.6444300714147125e-06   -2.801266839271127e-07   1.6913574445508355e-07
3.6444300714147125e-06   -2.801266839271127e-07   1.6913574445508355e-07
3.6444300714147125e-06   -2.801266839271127e-07   1.6913574445508355e-07
3.6444300714147125e-06   -2.801266839271127e-07   1.6913574445508355e-07
1.4180322578592127e-05   5.179756340227779e-07   -1.7869546491610528e-05
1.4180322578592127e-05   5.179756340227779e-07   -1.7869546491610528e-05
1.4180322578592127e-05   5.179756340227779e-07   -1.7869546491610528e-05
1.4180322578592127e-05   5.179756340227779e-07   -1.7869546491610528e-05
2.4759422192733517e-05   0.0   -3.770703130341747e-05
2.4759422192733517e-05   0.0   -3.770703130341747e-05
2.4759422192733517e-05   0.0   -3.770703130341747e-05
2.4759422192733517e-05   0.0   -3.770703130341747e-05
5.5937938876334516e-05   -7.366870710387224e-06   9.83704074301883e-06
5.5937938876334516e-05   -7.366870710387224e-06   9.83704074301883e-06
5.5937938876334516e-05   -7.366870710387224e-06   9.83704074301883e-06
5.5937938876334516e-05   -7.366870710387224e-06   9.83704074301883e-06
5.25445802862586e-05   0.0   -4.166375566319777e-05
5.25445802862586e-05   0.0   -4.166375566319777e-05
5.25445802862586e-05   0.0   -4.166375566319777e-05
5.25445802862586e-05   0.0   -4.166375566319777e-05
2.4811015237053667e-05   -6.264038212423575e-06   8.31727567959792e-06
2.4811015237053667e-05   -6.264038212423575e-06   8.31727567959792e-06
2.4811015237053667e-05   -6.264038212423575e-06   8.31727567959792e-06
2.4811015237053667e-05   -6.264038212423575e-06   8.31727567959792e-06
3.865200123949606e-05   -3.297270299816925e-06   -1.6531095072036704e-05
3.865200123949606e-05   -3.297270299816925e-06   -1.6531095072036704e-05
3.865200123949606e-05   -3.297270299816925e-06   -1.6531095072036704e-05
3.865200123949606e-05   -3.297270299816925e-06   -1.6531095072036704e-05
2.4811015237053647e-05   0.0   -3.7905332735743604e-05
2.4811015237053647e-05   0.0   -3.7905332735743604e-05
2.4811015237053647e-05   0.0   -3.7905332735743604e-05
2.4811015237053647e-05   0.0   -3.7905332735743604e-05
5.254458028625842e-05   -6.264038212423548e-06   4.558852752143766e-06
5.254458028625842e-05   -6.264038212423548e-06   4.558852752143766e-06
5.254458028625842e-05   -6.264038212423548e-06   4.558852752143766e-06
5.254458028625842e-05   -6.264038212423548e-06   4.558852752143766e-06
5.0982712326477176e-05   0.0   -4.0797614862805957e-05
5.0982712326477176e-05   0.0   -4.0797614862805957e-05
5.0982712326477176e-05   0.0   -4.0797614862805957e-05
5.0982712326477176e-05   0.0   -4.0797614862805957e-05
2.4711274031639002e-05   -5.722502930646399e-06   6.421617386978833e-06
2.4711274031639002e-05   -5.722502930646399e-06   6.421617386978833e-06
2.4711274031639002e-05   -5.722502930646399e-06   6.421617386978833e-06
2.4711274031639002e-05   -5.722502930646399e-06   6.421617386978833e-06
3.78968637817654e-05   -2.410235105885273e-06   -1.754172622475517e-05
3.78968637817654e-05   -2.410235105885273e-06   -1.754172622475517e-05
3.78968637817654e-05   -2.410235105885273e-06   -1.754172622475517e-05
3.78968637817654e-05   -2.410235105885273e-06   -1.754172622475517e-05
2.4711274031639002e-05   0.0   -3.736411310441812e-05
2.4711274031639002e-05   0.0   -3.736411310441812e-05
2.4711274031639002e-05   0.0   -3.736411310441812e-05
2.4711274031639002e-05   0.0   -3.736411310441812e-05
5.0982712326477e-05   -5.722502930646372e-06   2.9881156285909907e-06
5.0982712326477e-05   -5.722502930646372e-06   2.9881156285909907e-06
5.0982712326477e-05   -5.722502930646372e-06   2.9881156285909907e-06
5.0982712326477e-05   -5.722502930646372e-06   2.9881156285909907e-06
4.865297260384484e-05   0.0   -3.858420972337114e-05
4.865297260384484e-05   0.0   -3.858420972337114e-05
4.865297260384484e-05   0.0   -3.858420972337114e-05
4.865297260384484e-05   0.0   -3.858420972337114e-05
2.51961226509114e-05   -4.442969708292569e-06   3.176322023160204e-06
2.51961226509114e-05   -4.442969708292569e-06   3.176322023160204e-06
2.51961226509114e-05   -4.442969708292569e-06   3.176322023160204e-06
2.51961226509114e-05   -4.442969708292569e-06   3.176322023160204e-06
3.668212331774196e-05   -1.0167471824609005e-06   -1.802274593705638e-05
3.668212331774196e-05   -1.0167471824609005e-06   -1.802274593705638e-05
3.668212331774196e-05   -1.0167471824609005e-06   -1.802274593705638e-05
3.668212331774196e-05   -1.0167471824609005e-06   -1.802274593705638e-05
-5.46666325966706e-05   6.976526895806183e-06   -3.5926330941484396e-05
-5.46666325966706e-05   6.976526895806183e-06   -3.5926330941484396e-05
-5.46666325966706e-05   6.976526895806183e-06   -3.5926330941484396e-05
-5.46666325966706e-05   6.976526895806183e-06   -3.5926330941484396e-05
-3.50193333732303e-05   6.2699648154187105e-06   -3.604769483983003e-06
-3.50193333732303e-05   6.2699648154187105e-06   -3.604769483983003e-06
-3.50193333732303e-05   6.2699648154187105e-06   -3.604769483983003e-06
-3.50193333732303e-05   6.2699648154187105e-06   -3.604769483983003e-06
-3.589714516537818e-05   8.377704899691478e-06   -3.017784830695259e-05
-3.589714516537818e-05   8.377704899691478e-06   -3.017784830695259e-05
-3.589714516537818e-05   8.377704899691478e-06   -3.017784830695259e-05
-3.589714516537818e-05   8.377704899691478e-06   -3.017784830695259e-05
-5.525151555971595e-05   7.528937406489508e-06   2.588696179531676e-06
-5.525151555971595e-05   7.528937406489508e-06   2.588696179531676e-06
-5.525151555971595e-05   7.528937406489508e-06   2.588696179531676e-06
-5.525151555971595e-05   7.528937406489508e-06   2.588696179531676e-06
-4.341764367786719e-05   7.289059195532947e-06   -1.6990496696975933e-05
-4.341764367786719e-05   7.289059195532947e-06   -1.6990496696975933e-05
-4.341764367786719e-05   7.289059195532947e-06   -1.6990496696975933e-05
-4.341764367786719e-05   7.289059195532947e-06   -1.6990496696975933e-05
-5.525151555971595e-05   8.377704899691478e-06   -2.9668587811031384e-05
-5.525151555971595e-05   8.377704899691478e-06   -2.9668587811031384e-05
-5.525151555971595e-05   8.377704899691478e-06   -2.9668587811031384e-05
-5.525151555971595e-05   8.377704899691478e-06   -2.9668587811031384e-05
-3.58971451653783e-05   7.5289374064895355e-06   2.0794356836105184e-06
-3.58971451653783e-05   7.5289374064895355e-06   2.0794356836105184e-06
-3.58971451653783e-05   7.5289374064895355e-06   2.0794356836105184e-06
-3.58971451653783e-05   7.5289374064895355e-06   2.0794356836105184e-06
-3.6077571019824686e-05   8.976950608332695e-06   -2.7135616319599323e-05
-3.6077571019824686e-05   8.976950608332695e-06   -2.7135616319599323e-05
-3.6077571019824686e-05   8.976950608332695e-06   -2.7135616319599323e-05
-3.6077571019824686e-05   8.976950608332695e-06   -2.7135616319599323e-05
-5.5634409722607895e-05   8.097283780828982e-06   5.986914948208024e-06
-5.5634409722607895e-05   8.097283780828982e-06   5.986914948208024e-06
-5.5634409722607895e-05   8.097283780828982e-06   5.986914948208024e-06
-5.5634409722607895e-05   8.097283780828982e-06   5.986914948208024e-06
-4.468979337160876e-05   8.08049866864543e-06   -1.2244041236146889e-05
-4.468979337160876e-05   8.08049866864543e-06   -1.2244041236146889e-05
-4.468979337160876e-05   8.08049866864543e-06   -1.2244041236146889e-05
-4.468979337160876e-05   8.08049866864543e-06   -1.2244041236146889e-05
-5.563440972260779e-05   8.976950608332695e-06   -2.6607816223097098e-05
-5.563440972260779e-05   8.976950608332695e-06   -2.6607816223097098e-05
-5.563440972260779e-05   8.976950608332695e-06   -2.6607816223097098e-05
-5.563440972260779e-05   8.976950608332695e-06   -2.6607816223097098e-05
-3.6077571019824754e-05   8.097283780828982e-06   5.459114851705799e-06
-3.6077571019824754e-05   8.097283780828982e-06   5.459114851705799e-06
-3.6077571019824754e-05   8.097283780828982e-06   5.459114851705799e-06
-3.6077571019824754e-05   8.097283780828982e-06   5.459114851705799e-06
-3.586877664663356e-05   1.023127838370349e-05   -2.006227132594164e-05
-3.586877664663356e-05   1.023127838370349e-05   -2.006227132594164e-05
-3.586877664663356e-05   1.023127838370349e-05   -2.006227132594164e-05
-3.586877664663356e-05   1.023127838370349e-05   -2.006227132594164e-05
-5.408299002639076e-05   8.551123842485237e-06   1.1302843698384466e-05
-5.408299002639076e-05   8.551123842485237e-06   1.1302843698384466e-05
-5.408299002639076e-05   8.551123842485237e-06   1.1302843698384466e-05
-5.408299002639076e-05   8.551123842485237e-06   1.1302843698384466e-05
-4.352198175244339e-05   8.865370154266088e-06   -6.487384545262936e-06
-4.352198175244339e-05   8.865370154266088e-06   -6.487384545262936e-06
-4.352198175244339e-05   8.865370154266088e-06   -6.487384545262936e-06
-4.352198175244339e-05   8.865370154266088e-06   -6.487384545262936e-06
-3.50193333732303e-05   2.556484581315965e-06   -3.8187122234046593e-05
-3.50193333732303e-05   2.556484581315965e-06   -3.8187122234046593e-05
-3.50193333732303e-05   2.556484581315965e-06   -3.8187122234046593e-05
-3.50193333732303e-05   2.556484581315965e-06   -3.8187122234046593e-05
-1.660449844778637e-05   2.9176337840999757e-06   -7.2790411699696035e-06
-1.660449844778637e-05   2.9176337840999757e-06   -7.2790411699696035e-06
-1.660449844778637e-05   2.9176337840999757e-06   -7.2790411699696035e-06
-1.660449844778637e-05   2.9176337840999757e-06   -7.2790411699696035e-06
-1.6997707628681325e-05   3.6434515554738858e-06   -3.812755071447754e-05
-1.6997707628681325e-05   3.6434515554738858e-06   -3.812755071447754e-05
-1.6997707628681325e-05   3.6434515554738858e-06   -3.812755071447754e-05
-1.6997707628681325e-05   3.6434515554738858e-06   -3.812755071447754e-05
-3.589714516537818e-05   4.075257231408677e-06   -6.887571558876905e-06
-3.589714516537818e-05   4.075257231408677e-06   -6.887571558876905e-06
-3.589714516537818e-05   4.075257231408677e-06   -6.887571558876905e-06
-3.589714516537818e-05   4.075257231408677e-06   -6.887571558876905e-06
-2.6055854828425432e-05   3.2810952443401904e-06   -2.28132249282239e-05
-2.6055854828425432e-05   3.2810952443401904e-06   -2.28132249282239e-05
-2.6055854828425432e-05   3.2810952443401904e-06   -2.28132249282239e-05
-2.6055854828425432e-05   3.2810952443401904e-06   -2.28132249282239e-05
-3.5897145165378143e-05   3.6434515554738858e-06   -3.8386634120038334e-05
-3.5897145165378143e-05   3.6434515554738858e-06   -3.8386634120038334e-05
-3.5897145165378143e-05   3.6434515554738858e-06   -3.8386634120038334e-05
-3.5897145165378143e-05   3.6434515554738858e-06   -3.8386634120038334e-05
-1.6997707628681356e-05   4.075257231408704e-06   -6.6284881533160465e-06
-1.6997707628681356e-05   4.075257231408704e-06   -6.6284881533160465e-06
-1.6997707628681356e-05   4.075257231408704e-06   -6.6284881533160465e-06
-1.6997707628681356e-05   4.075257231408704e-06   -6.6284881533160465e-06
-1.7118801242894428e-05   4.466892574592194e-06   -3.741497461968733e-05
-1.7118801242894428e-05   4.466892574592194e-06   -3.741497461968733e-05
-1.7118801242894428e-05   4.466892574592194e-06   -3.741497461968733e-05
-1.7118801242894428e-05   4.466892574592194e-06   -3.741497461968733e-05
-3.6077571019824686e-05   5.033888335376956e-06   -6.157222447941132e-06
-3.6077571019824686e-05   5.033888335376956e-06   -6.157222447941132e-06
-3.6077571019824686e-05   5.033888335376956e-06   -6.157222447941132e-06
-3.6077571019824686e-05   5.033888335376956e-06   -6.157222447941132e-06
-2.6256454269016596e-05   4.166224606659742e-06   -2.200515212872418e-05
-2.6256454269016596e-05   4.166224606659742e-06   -2.200515212872418e-05
-2.6256454269016596e-05   4.166224606659742e-06   -2.200515212872418e-05
-2.6256454269016596e-05   4.166224606659742e-06   -2.200515212872418e-05
-3.6077571019824686e-05   4.466892574592194e-06   -3.77551720761582e-05
-3.6077571019824686e-05   4.466892574592194e-06   -3.77551720761582e-05
-3.6077571019824686e-05   4.466892574592194e-06   -3.77551720761582e-05
-3.6077571019824686e-05   4.466892574592194e-06   -3.77551720761582e-05
-1.7118801242894486e-05   5.033888335376983e-06   -5.817024991470294e-06
-1.7118801242894486e-05   5.033888335376983e-06   -5.817024991470294e-06
-1.7118801242894486e-05   5.033888335376983e-06   -5.817024991470294e-06
-1.7118801242894486e-05   5.033888335376983e-06   -5.817024991470294e-06
-1.7073735128928018e-05   5.1992510510085295e-06   -3.70339983385232e-05
-1.7073735128928018e-05   5.1992510510085295e-06   -3.70339983385232e-05
-1.7073735128928018e-05   5.1992510510085295e-06   -3.70339983385232e-05
-1.7073735128928018e-05   5.1992510510085295e-06   -3.70339983385232e-05
-3.5868776646633536e-05   6.065697579300724e-06   -6.228797059322673e-06
-3.5868776646633536e-05   6.065697579300724e-06   -6.228797059322673e-06
-3.5868776646633536e-05   6.065697579300724e-06   -6.228797059322673e-06
-3.5868776646633536e-05   6.065697579300724e-06   -6.228797059322673e-06
-2.640765339409844e-05   4.967384148946304e-06   -2.133834775533529e-05
-2.640765339409844e-05   4.967384148946304e-06   -2.133834775533529e-05
-2.640765339409844e-05   4.967384148946304e-06   -2.133834775533529e-05
-2.640765339409844e-05   4.967384148946304e-06   -2.133834775533529e-05
-1.660449844778634e-05   -3.2920251855930537e-07   -3.998897864903043e-05
-1.660449844778634e-05   -3.2920251855930537e-07   -3.998897864903043e-05
-1.660449844778634e-05   -3.2920251855930537e-07   -3.998897864903043e-05
-1.660449844778634e-05   -3.2920251855930537e-07   -3.998897864903043e-05
1.577445969423201e-06   -8.79327752773885e-08   -9.540976107712033e-06
1.577445969423201e-06   -8.79327752773885e-08   -9.540976107712033e-06
1.577445969423201e-06   -8.79327752773885e-08   -9.540976107712033e-06
1.577445969423201e-06   -8.79327752773885e-08   -9.540976107712033e-06
1.5058002393198483e-06   6.466691156150069e-07   -4.020902144001115e-05
1.5058002393198483e-06   6.466691156150069e-07   -4.020902144001115e-05
1.5058002393198483e-06   6.466691156150069e-07   -4.020902144001115e-05
1.5058002393198483e-06   6.466691156150069e-07   -4.020902144001115e-05
-1.6997707628681325e-05   9.78847601268906e-07   -9.56914875140139e-06
-1.6997707628681325e-05   9.78847601268906e-07   -9.56914875140139e-06
-1.6997707628681325e-05   9.78847601268906e-07   -9.56914875140139e-06
-1.6997707628681325e-05   9.78847601268906e-07   -9.56914875140139e-06
-7.675352995784321e-06   3.253751159080565e-07   -2.471432298167997e-05
-7.675352995784321e-06   3.253751159080565e-07   -2.471432298167997e-05
-7.675352995784321e-06   3.253751159080565e-07   -2.471432298167997e-05
-7.675352995784321e-06   3.253751159080565e-07   -2.471432298167997e-05
-1.6997707628681325e-05   6.466691156150001e-07   -4.040832853140343e-05
-1.6997707628681325e-05   6.466691156150001e-07   -4.040832853140343e-05
-1.6997707628681325e-05   6.466691156150001e-07   -4.040832853140343e-05
-1.6997707628681325e-05   6.466691156150001e-07   -4.040832853140343e-05
1.5058002393198483e-06   9.788476012688788e-07   -9.369841660009074e-06
1.5058002393198483e-06   9.788476012688788e-07   -9.369841660009074e-06
1.5058002393198483e-06   9.788476012688788e-07   -9.369841660009074e-06
1.5058002393198483e-06   9.788476012688788e-07   -9.369841660009074e-06
1.4074216188734508e-06   1.506233429200342e-06   -4.029212291460636e-05
1.4074216188734508e-06   1.506233429200342e-06   -4.029212291460636e-05
1.4074216188734508e-06   1.506233429200342e-06   -4.029212291460636e-05
1.4074216188734508e-06   1.506233429200342e-06   -4.029212291460636e-05
-1.7118801242894428e-05   2.0212954046555166e-06   -9.724121996933033e-06
-1.7118801242894428e-05   2.0212954046555166e-06   -9.724121996933033e-06
-1.7118801242894428e-05   2.0212954046555166e-06   -9.724121996933033e-06
-1.7118801242894428e-05   2.0212954046555166e-06   -9.724121996933033e-06
-7.815246368764071e-06   1.2291319637945447e-06   -2.4754748722633623e-05
-7.815246368764071e-06   1.2291319637945447e-06   -2.4754748722633623e-05
-7.815246368764071e-06   1.2291319637945447e-06   -2.4754748722633623e-05
-7.815246368764071e-06   1.2291319637945447e-06   -2.4754748722633623e-05
-1.7118801242894428e-05   1.506233429200342e-06   -4.060116009987945e-05
-1.7118801242894428e-05   1.506233429200342e-06   -4.060116009987945e-05
-1.7118801242894428e-05   1.506233429200342e-06   -4.060116009987945e-05
-1.7118801242894428e-05   1.506233429200342e-06   -4.060116009987945e-05
1.4074216188734537e-06   2.0212954046555166e-06   -9.415084811659944e-06
1.4074216188734537e-06   2.0212954046555166e-06   -9.415084811659944e-06
1.4074216188734537e-06   2.0212954046555166e-06   -9.415084811659944e-06
1.4074216188734537e-06   2.0212954046555166e-06   -9.415084811659944e-06
1.2055086085395575e-06   2.5014519304157674e-06   -4.022327023355661e-05
1.2055086085395575e-06   2.5014519304157674e-06   -4.022327023355661e-05
1.2055086085395575e-06   2.5014519304157674e-06   -4.022327023355661e-05
1.2055086085395575e-06   2.5014519304157674e-06   -4.022327023355661e-05
-1.707373512892803e-05   3.107277686534868e-06   -1.012135945811544e-05
-1.707373512892803e-05   3.107277686534868e-06   -1.012135945811544e-05
-1.707373512892803e-05   3.107277686534868e-06   -1.012135945811544e-05
-1.707373512892803e-05   3.107277686534868e-06   -1.012135945811544e-05
-7.8986211974533e-06   2.1575700136211562e-06   -2.484339140682509e-05
-7.8986211974533e-06   2.1575700136211562e-06   -2.484339140682509e-05
-7.8986211974533e-06   2.1575700136211562e-06   -2.484339140682509e-05
-7.8986211974533e-06   2.1575700136211562e-06   -2.484339140682509e-05
1.577445969423201e-06   -2.904060653176503e-06   -3.689507154018377e-05
1.577445969423201e-06   -2.904060653176503e-06   -3.689507154018377e-05
1.577445969423201e-06   -2.904060653176503e-06   -3.689507154018377e-05
1.577445969423201e-06   -2.904060653176503e-06   -3.689507154018377e-05
2.0314050468754642e-05   -2.985357345067734e-06   -5.716175389766076e-06
2.0314050468754642e-05   -2.985357345067734e-06   -5.716175389766076e-06
2.0314050468754642e-05   -2.985357345067734e-06   -5.716175389766076e-06
2.0314050468754642e-05   -2.985357345067734e-06   -5.716175389766076e-06
2.0484385814116965e-05   -2.1874946865315973e-06   -3.74052981789535e-05
2.0484385814116965e-05   -2.1874946865315973e-06   -3.74052981789535e-05
2.0484385814116965e-05   -2.1874946865315973e-06   -3.74052981789535e-05
2.0484385814116965e-05   -2.1874946865315973e-06   -3.74052981789535e-05
1.5058002393198483e-06   -2.0153496567105816e-06   -5.877609238850829e-06
1.5058002393198483e-06   -2.0153496567105816e-06   -5.877609238850829e-06
1.5058002393198483e-06   -2.0153496567105816e-06   -5.877609238850829e-06
1.5058002393198483e-06   -2.0153496567105816e-06   -5.877609238850829e-06
1.0830299294305247e-05   -2.413698209204312e-06   -2.1179431865663654e-05
1.0830299294305247e-05   -2.413698209204312e-06   -2.1179431865663654e-05
1.0830299294305247e-05   -2.413698209204312e-06   -2.1179431865663654e-05
1.0830299294305247e-05   -2.413698209204312e-06   -2.1179431865663654e-05
1.5058002393198453e-06   -2.187494686531604e-06   -3.7508585196846155e-05
1.5058002393198453e-06   -2.187494686531604e-06   -3.7508585196846155e-05
1.5058002393198453e-06   -2.187494686531604e-06   -3.7508585196846155e-05
1.5058002393198453e-06   -2.187494686531604e-06   -3.7508585196846155e-05
2.0484385814116995e-05   -2.0153496567106087e-06   -5.774322220958211e-06
2.0484385814116995e-05   -2.0153496567106087e-06   -5.774322220958211e-06
2.0484385814116995e-05   -2.0153496567106087e-06   -5.774322220958211e-06
2.0484385814116995e-05   -2.0153496567106087e-06   -5.774322220958211e-06
2.0387136817131727e-05   -1.3735240753251987e-06   -3.810323710445947e-05
2.0387136817131727e-05   -1.3735240753251987e-06   -3.810323710445947e-05
2.0387136817131727e-05   -1.3735240753251987e-06   -3.810323710445947e-05
2.0387136817131727e-05   -1.3735240753251987e-06   -3.810323710445947e-05
1.4074216188734508e-06   -1.0656369898076254e-06   -6.65511069200628e-06
1.4074216188734508e-06   -1.0656369898076254e-06   -6.65511069200628e-06
1.4074216188734508e-06   -1.0656369898076254e-06   -6.65511069200628e-06
1.4074216188734508e-06   -1.0656369898076254e-06   -6.65511069200628e-06
1.0717480359067072e-05   -1.6399743896096906e-06   -2.1827272819114352e-05
1.0717480359067072e-05   -1.6399743896096906e-06   -2.1827272819114352e-05
1.0717480359067072e-05   -1.6399743896096906e-06   -2.1827272819114352e-05
1.0717480359067072e-05   -1.6399743896096906e-06   -2.1827272819114352e-05
1.4074216188734503e-06   -1.3735240753252054e-06   -3.8287969355770025e-05
1.4074216188734503e-06   -1.3735240753252054e-06   -3.8287969355770025e-05
1.4074216188734503e-06   -1.3735240753252054e-06   -3.8287969355770025e-05
1.4074216188734503e-06   -1.3735240753252054e-06   -3.8287969355770025e-05
2.0387136817131795e-05   -1.0656369898075983e-06   -6.470378440695743e-06
2.0387136817131795e-05   -1.0656369898075983e-06   -6.470378440695743e-06
2.0387136817131795e-05   -1.0656369898075983e-06   -6.470378440695743e-06
2.0387136817131795e-05   -1.0656369898075983e-06   -6.470378440695743e-06
1.97938689260417e-05   -2.801266839271127e-07   -3.8171141221841524e-05
1.97938689260417e-05   -2.801266839271127e-07   -3.8171141221841524e-05
1.97938689260417e-05   -2.801266839271127e-07   -3.8171141221841524e-05
1.97938689260417e-05   -2.801266839271127e-07   -3.8171141221841524e-05
1.2055086085395575e-06   1.0846903008668069e-07   -7.4236981210796135e-06
1.2055086085395575e-06   1.0846903008668069e-07   -7.4236981210796135e-06
1.2055086085395575e-06   1.0846903008668069e-07   -7.4236981210796135e-06
1.2055086085395575e-06   1.0846903008668069e-07   -7.4236981210796135e-06
1.060311579952287e-05   -7.36331176533721e-07   -2.2579496648746182e-05
1.060311579952287e-05   -7.36331176533721e-07   -2.2579496648746182e-05
1.060311579952287e-05   -7.36331176533721e-07   -2.2579496648746182e-05
1.060311579952287e-05   -7.36331176533721e-07   -2.2579496648746182e-05
2.0314050468754642e-05   -7.366870710387224e-06   -2.2322923513672057e-05
2.0314050468754642e-05   -7.366870710387224e-06   -2.2322923513672057e-05
2.0314050468754642e-05   -7.366870710387224e-06   -2.2322923513672057e-05
2.0314050468754642e-05   -7.366870710387224e-06   -2.2322923513672057e-05
3.879887084289618e-05   -5.545402664324222e-06   9.577991270868212e-06
3.879887084289618e-05   -5.545402664324222e-06   9.577991270868212e-06
3.879887084289618e-05   -5.545402664324222e-06   9.577991270868212e-06
3.879887084289618e-05   -5.545402664324222e-06   9.577991270868212e-06
4.028321191091671e-05   -6.264038212423548e-06   -2.71152781036633e-05
4.028321191091671e-05   -6.264038212423548e-06   -2.71152781036633e-05
4.028321191091671e-05   -6.264038212423548e-06   -2.71152781036633e-05
4.028321191091671e-05   -6.264038212423548e-06   -2.71152781036633e-05
2.0484385814117036e-05   -5.027441380054526e-06   5.140807291581479e-06
2.0484385814117036e-05   -5.027441380054526e-06   5.140807291581479e-06
2.0484385814117036e-05   -5.027441380054526e-06   5.140807291581479e-06
2.0484385814117036e-05   -5.027441380054526e-06   5.140807291581479e-06
2.8576155372637566e-05   -6.024428238625505e-06   -7.747283190810177e-06
2.8576155372637566e-05   -6.024428238625505e-06   -7.747283190810177e-06
2.8576155372637566e-05   -6.024428238625505e-06   -7.747283190810177e-06
2.8576155372637566e-05   -6.024428238625505e-06   -7.747283190810177e-06
2.0484385814116978e-05   -6.264038212423548e-06   -2.7857236203084613e-05
2.0484385814116978e-05   -6.264038212423548e-06   -2.7857236203084613e-05
2.0484385814116978e-05   -6.264038212423548e-06   -2.7857236203084613e-05
2.0484385814116978e-05   -6.264038212423548e-06   -2.7857236203084613e-05
4.028321191091671e-05   -5.027441380054526e-06   5.8827653910029055e-06
4.028321191091671e-05   -5.027441380054526e-06   5.8827653910029055e-06
4.028321191091671e-05   -5.027441380054526e-06   5.8827653910029055e-06
4.028321191091671e-05   -5.027441380054526e-06   5.8827653910029055e-06
4.013745674785818e-05   -5.722502930646399e-06   -2.9483855960093822e-05
4.013745674785818e-05   -5.722502930646399e-06   -2.9483855960093822e-05
4.013745674785818e-05   -5.722502930646399e-06   -2.9483855960093822e-05
4.013745674785818e-05   -5.722502930646399e-06   -2.9483855960093822e-05
2.0387136817131795e-05   -4.480997605236874e-06   2.6884407292043783e-06
2.0387136817131795e-05   -4.480997605236874e-06   2.6884407292043783e-06
2.0387136817131795e-05   -4.480997605236874e-06   2.6884407292043783e-06
2.0387136817131795e-05   -4.480997605236874e-06   2.6884407292043783e-06
2.957985790380419e-05   -5.318055432422005e-06   -1.2130526385605156e-05
2.957985790380419e-05   -5.318055432422005e-06   -1.2130526385605156e-05
2.957985790380419e-05   -5.318055432422005e-06   -1.2130526385605156e-05
2.957985790380419e-05   -5.318055432422005e-06   -1.2130526385605156e-05
2.0387136817131764e-05   -5.722502930646372e-06   -3.0228759155339485e-05
2.0387136817131764e-05   -5.722502930646372e-06   -3.0228759155339485e-05
2.0387136817131764e-05   -5.722502930646372e-06   -3.0228759155339485e-05
2.0387136817131764e-05   -5.722502930646372e-06   -3.0228759155339485e-05
4.013745674785818e-05   -4.480997605236874e-06   3.4333439244500687e-06
4.013745674785818e-05   -4.480997605236874e-06   3.4333439244500687e-06
4.013745674785818e-05   -4.480997605236874e-06   3.4333439244500687e-06
4.013745674785818e-05   -4.480997605236874e-06   3.4333439244500687e-06
3.990056967010046e-05   -4.442969708292569e-06   -3.431332242116599e-05
3.990056967010046e-05   -4.442969708292569e-06   -3.431332242116599e-05
3.990056967010046e-05   -4.442969708292569e-06   -3.431332242116599e-05
3.990056967010046e-05   -4.442969708292569e-06   -3.431332242116599e-05
1.979386892604177e-05   -3.3053755222687674e-06   -1.484711026015817e-06
1.979386892604177e-05   -3.3053755222687674e-06   -1.484711026015817e-06
1.979386892604177e-05   -3.3053755222687674e-06   -1.484711026015817e-06
1.979386892604177e-05   -3.3053755222687674e-06   -1.484711026015817e-06
2.8736559072663805e-05   -4.577388566123959e-06   -1.562598677740607e-05
2.8736559072663805e-05   -4.577388566123959e-06   -1.562598677740607e-05
2.8736559072663805e-05   -4.577388566123959e-06   -1.562598677740607e-05
2.8736559072663805e-05   -4.577388566123959e-06   -1.562598677740607e-05
-4.349385453363432e-05   6.2699648154187105e-06   -3.006075570715082e-05
-4.349385453363432e-05   6.2699648154187105e-06   -3.006075570715082e-05
-4.349385453363432e-05   6.2699648154187105e-06   -3.006075570715082e-05
-4.349385453363432e-05   6.2699648154187105e-06   -3.006075570715082e-05
-2.8527012502680403e-05   4.78627508832761e-06   -6.006232825148941e-06
-2.8527012502680403e-05   4.78627508832761e-06   -6.006232825148941e-06
-2.8527012502680403e-05   4.78627508832761e-06   -6.006232825148941e-06
-2.8527012502680403e-05   4.78627508832761e-06   -6.006232825148941e-06
-2.866306971194358e-05   7.528937406489508e-06   -2.4961902610483636e-05
-2.866306971194358e-05   7.528937406489508e-06   -2.4961902610483636e-05
-2.866306971194358e-05   7.528937406489508e-06   -2.4961902610483636e-05
-2.866306971194358e-05   7.528937406489508e-06   -2.4961902610483636e-05
-4.2829383554508215e-05   5.792518312687002e-06   -3.095280832610798e-07
-4.2829383554508215e-05   5.792518312687002e-06   -3.095280832610798e-07
-4.2829383554508215e-05   5.792518312687002e-06   -3.095280832610798e-07
-4.2829383554508215e-05   5.792518312687002e-06   -3.095280832610798e-07
-3.436068133418301e-05   6.376882056493432e-06   -1.477465003008708e-05
-3.436068133418301e-05   6.376882056493432e-06   -1.477465003008708e-05
-3.436068133418301e-05   6.376882056493432e-06   -1.477465003008708e-05
-3.436068133418301e-05   6.376882056493432e-06   -1.477465003008708e-05
-4.2829383554508215e-05   7.528937406489508e-06   -2.3920051154202173e-05
-4.2829383554508215e-05   7.528937406489508e-06   -2.3920051154202173e-05
-4.2829383554508215e-05   7.528937406489508e-06   -2.3920051154202173e-05
-4.2829383554508215e-05   7.528937406489508e-06   -2.3920051154202173e-05
-2.866306971194358e-05   5.792518312687056e-06   -1.351379539542516e-06
-2.866306971194358e-05   5.792518312687056e-06   -1.351379539542516e-06
-2.866306971194358e-05   5.792518312687056e-06   -1.351379539542516e-06
-2.866306971194358e-05   5.792518312687056e-06   -1.351379539542516e-06
-2.863206075979557e-05   8.097283780828982e-06   -2.1356966106076856e-05
-2.863206075979557e-05   8.097283780828982e-06   -2.1356966106076856e-05
-2.863206075979557e-05   8.097283780828982e-06   -2.1356966106076856e-05
-2.863206075979557e-05   8.097283780828982e-06   -2.1356966106076856e-05
-4.218274700245196e-05   6.235056937897157e-06   2.344847070776088e-06
-4.218274700245196e-05   6.235056937897157e-06   2.344847070776088e-06
-4.218274700245196e-05   6.235056937897157e-06   2.344847070776088e-06
-4.218274700245196e-05   6.235056937897157e-06   2.344847070776088e-06
-3.465473808476759e-05   6.960170154918558e-06   -1.0636902388910324e-05
-3.465473808476759e-05   6.960170154918558e-06   -1.0636902388910324e-05
-3.465473808476759e-05   6.960170154918558e-06   -1.0636902388910324e-05
-3.465473808476759e-05   6.960170154918558e-06   -1.0636902388910324e-05
-4.218274700245196e-05   8.097283780828982e-06   -2.023963000031779e-05
-4.218274700245196e-05   8.097283780828982e-06   -2.023963000031779e-05
-4.218274700245196e-05   8.097283780828982e-06   -2.023963000031779e-05
-4.218274700245196e-05   8.097283780828982e-06   -2.023963000031779e-05
-2.863206075979561e-05   6.235056937897211e-06   1.2275109650172257e-06
-2.863206075979561e-05   6.235056937897211e-06   1.2275109650172257e-06
-2.863206075979561e-05   6.235056937897211e-06   1.2275109650172257e-06
-2.863206075979561e-05   6.235056937897211e-06   1.2275109650172257e-06
-2.8659786596565713e-05   8.551123842485237e-06   -1.6312444448576076e-05
-2.8659786596565713e-05   8.551123842485237e-06   -1.6312444448576076e-05
-2.8659786596565713e-05   8.551123842485237e-06   -1.6312444448576076e-05
-2.8659786596565713e-05   8.551123842485237e-06   -1.6312444448576076e-05
-4.133985084569814e-05   6.672088329737235e-06   5.948417274293221e-06
-4.133985084569814e-05   6.672088329737235e-06   5.948417274293221e-06
-4.133985084569814e-05   6.672088329737235e-06   5.948417274293221e-06
-4.133985084569814e-05   6.672088329737235e-06   5.948417274293221e-06
-3.386296802884447e-05   7.268250741818854e-06   -6.8707515343780444e-06
-3.386296802884447e-05   7.268250741818854e-06   -6.8707515343780444e-06
-3.386296802884447e-05   7.268250741818854e-06   -6.8707515343780444e-06
-3.386296802884447e-05   7.268250741818854e-06   -6.8707515343780444e-06
-2.8527012502680403e-05   2.9176337840999486e-06   -3.484193075106246e-05
-2.8527012502680403e-05   2.9176337840999486e-06   -3.484193075106246e-05
-2.8527012502680403e-05   2.9176337840999486e-06   -3.484193075106246e-05
-2.8527012502680403e-05   2.9176337840999486e-06   -3.484193075106246e-05
-1.4533156459639384e-05   2.388328766309185e-06   -1.183642035666854e-05
-1.4533156459639384e-05   2.388328766309185e-06   -1.183642035666854e-05
-1.4533156459639384e-05   2.388328766309185e-06   -1.183642035666854e-05
-1.4533156459639384e-05   2.388328766309185e-06   -1.183642035666854e-05
-1.4708179021200447e-05   4.075257231408677e-06   -3.434706453782306e-05
-1.4708179021200447e-05   4.075257231408677e-06   -3.434706453782306e-05
-1.4708179021200447e-05   4.075257231408677e-06   -3.434706453782306e-05
-1.4708179021200447e-05   4.075257231408677e-06   -3.434706453782306e-05
-2.8663069711943527e-05   3.3783327566552996e-06   -1.0670758701732493e-05
-2.8663069711943527e-05   3.3783327566552996e-06   -1.0670758701732493e-05
-2.8663069711943527e-05   3.3783327566552996e-06   -1.0670758701732493e-05
-2.8663069711943527e-05   3.3783327566552996e-06   -1.0670758701732493e-05
-2.1422628783783554e-05   3.36725907946247e-06   -2.2731516042350178e-05
-2.1422628783783554e-05   3.36725907946247e-06   -2.2731516042350178e-05
-2.1422628783783554e-05   3.36725907946247e-06   -2.2731516042350178e-05
-2.1422628783783554e-05   3.36725907946247e-06   -2.2731516042350178e-05
-2.866306971194354e-05   4.075257231408677e-06   -3.392890985297095e-05
-2.866306971194354e-05   4.075257231408677e-06   -3.392890985297095e-05
-2.866306971194354e-05   4.075257231408677e-06   -3.392890985297095e-05
-2.866306971194354e-05   4.075257231408677e-06   -3.392890985297095e-05
-1.4708179021200467e-05   3.3783327566553538e-06   -1.1088913386584479e-05
-1.4708179021200467e-05   3.3783327566553538e-06   -1.1088913386584479e-05
-1.4708179021200467e-05   3.3783327566553538e-06   -1.1088913386584479e-05
-1.4708179021200467e-05   3.3783327566553538e-06   -1.1088913386584479e-05
-1.4821162618151928e-05   5.033888335376956e-06   -3.343858144602506e-05
-1.4821162618151928e-05   5.033888335376956e-06   -3.343858144602506e-05
-1.4821162618151928e-05   5.033888335376956e-06   -3.343858144602506e-05
-1.4821162618151928e-05   5.033888335376956e-06   -3.343858144602506e-05
-2.863206075979557e-05   4.258424934874708e-06   -9.955139836317895e-06
-2.863206075979557e-05   4.258424934874708e-06   -9.955139836317895e-06
-2.863206075979557e-05   4.258424934874708e-06   -9.955139836317895e-06
-2.863206075979557e-05   4.258424934874708e-06   -9.955139836317895e-06
-2.1460931109811304e-05   4.182110191302299e-06   -2.186123374014776e-05
-2.1460931109811304e-05   4.182110191302299e-06   -2.186123374014776e-05
-2.1460931109811304e-05   4.182110191302299e-06   -2.186123374014776e-05
-2.1460931109811304e-05   4.182110191302299e-06   -2.186123374014776e-05
-2.863206075979557e-05   5.033888335376956e-06   -3.2973303405723814e-05
-2.863206075979557e-05   5.033888335376956e-06   -3.2973303405723814e-05
-2.863206075979557e-05   5.033888335376956e-06   -3.2973303405723814e-05
-2.863206075979557e-05   5.033888335376956e-06   -3.2973303405723814e-05
-1.4821162618151982e-05   4.258424934874708e-06   -1.0420417876619062e-05
-1.4821162618151982e-05   4.258424934874708e-06   -1.0420417876619062e-05
-1.4821162618151982e-05   4.258424934874708e-06   -1.0420417876619062e-05
-1.4821162618151982e-05   4.258424934874708e-06   -1.0420417876619062e-05
-1.4967916121518172e-05   6.065697579300778e-06   -3.3358283836141156e-05
-1.4967916121518172e-05   6.065697579300778e-06   -3.3358283836141156e-05
-1.4967916121518172e-05   6.065697579300778e-06   -3.3358283836141156e-05
-1.4967916121518172e-05   6.065697579300778e-06   -3.3358283836141156e-05
-2.86597865965657e-05   5.195211988319145e-06   -1.0016208356473005e-05
-2.86597865965657e-05   5.195211988319145e-06   -1.0016208356473005e-05
-2.86597865965657e-05   5.195211988319145e-06   -1.0016208356473005e-05
-2.86597865965657e-05   5.195211988319145e-06   -1.0016208356473005e-05
-2.1713852889991258e-05   4.989710513475694e-06   -2.146946364919073e-05
-2.1713852889991258e-05   4.989710513475694e-06   -2.146946364919073e-05
-2.1713852889991258e-05   4.989710513475694e-06   -2.146946364919073e-05
-2.1713852889991258e-05   4.989710513475694e-06   -2.146946364919073e-05
-1.4533156459639357e-05   -8.79327752773885e-08   -3.756621054544849e-05
-1.4533156459639357e-05   -8.79327752773885e-08   -3.756621054544849e-05
-1.4533156459639357e-05   -8.79327752773885e-08   -3.756621054544849e-05
-1.4533156459639357e-05   -8.79327752773885e-08   -3.756621054544849e-05
-6.942459957871453e-07   1.274970945404374e-07   -1.437210185047077e-05
-6.942459957871453e-07   1.274970945404374e-07   -1.437210185047077e-05
-6.942459957871453e-07   1.274970945404374e-07   -1.437210185047077e-05
-6.942459957871453e-07   1.274970945404374e-07   -1.437210185047077e-05
-8.344895708004549e-07   9.788476012688788e-07   -3.721351994932841e-05
-8.344895708004549e-07   9.788476012688788e-07   -3.721351994932841e-05
-8.344895708004549e-07   9.788476012688788e-07   -3.721351994932841e-05
-8.344895708004549e-07   9.788476012688788e-07   -3.721351994932841e-05
-1.4708179021200447e-05   1.1025229122354888e-06   -1.416490938524176e-05
-1.4708179021200447e-05   1.1025229122354888e-06   -1.416490938524176e-05
-1.4708179021200447e-05   1.1025229122354888e-06   -1.416490938524176e-05
-1.4708179021200447e-05   1.1025229122354888e-06   -1.416490938524176e-05
-7.649045181375166e-06   6.427611490826437e-07   -2.5654275393725513e-05
-7.649045181375166e-06   6.427611490826437e-07   -2.5654275393725513e-05
-7.649045181375166e-06   6.427611490826437e-07   -2.5654275393725513e-05
-7.649045181375166e-06   6.427611490826437e-07   -2.5654275393725513e-05
-1.4708179021200447e-05   9.78847601268906e-07   -3.7287725135908416e-05
-1.4708179021200447e-05   9.78847601268906e-07   -3.7287725135908416e-05
-1.4708179021200447e-05   9.78847601268906e-07   -3.7287725135908416e-05
-1.4708179021200447e-05   9.78847601268906e-07   -3.7287725135908416e-05
-8.344895708004566e-07   1.1025229122354888e-06   -1.4090704198661754e-05
-8.344895708004566e-07   1.1025229122354888e-06   -1.4090704198661754e-05
-8.344895708004566e-07   1.1025229122354888e-06   -1.4090704198661754e-05
-8.344895708004566e-07   1.1025229122354888e-06   -1.4090704198661754e-05
-9.353078385786853e-07   2.0212954046555166e-06   -3.731363849840332e-05
-9.353078385786853e-07   2.0212954046555166e-06   -3.731363849840332e-05
-9.353078385786853e-07   2.0212954046555166e-06   -3.731363849840332e-05
-9.353078385786853e-07   2.0212954046555166e-06   -3.731363849840332e-05
-1.4821162618151962e-05   2.074695326463095e-06   -1.42025871521992e-05
-1.4821162618151962e-05   2.074695326463095e-06   -1.42025871521992e-05
-1.4821162618151962e-05   2.074695326463095e-06   -1.42025871521992e-05
-1.4821162618151962e-05   2.074695326463095e-06   -1.42025871521992e-05
-7.83048929686635e-06   1.5027711091520767e-06   -2.551055482395506e-05
-7.83048929686635e-06   1.5027711091520767e-06   -2.551055482395506e-05
-7.83048929686635e-06   1.5027711091520767e-06   -2.551055482395506e-05
-7.83048929686635e-06   1.5027711091520767e-06   -2.551055482395506e-05
-1.4821162618151962e-05   2.0212954046555166e-06   -3.734567845148788e-05
-1.4821162618151962e-05   2.0212954046555166e-06   -3.734567845148788e-05
-1.4821162618151962e-05   2.0212954046555166e-06   -3.734567845148788e-05
-1.4821162618151962e-05   2.0212954046555166e-06   -3.734567845148788e-05
-9.353078385786874e-07   2.074695326463095e-06   -1.4170547199114506e-05
-9.353078385786874e-07   2.074695326463095e-06   -1.4170547199114506e-05
-9.353078385786874e-07   2.074695326463095e-06   -1.4170547199114506e-05
-9.353078385786874e-07   2.074695326463095e-06   -1.4170547199114506e-05
-1.0945647369834794e-06   3.107277686534868e-06   -3.7793434180142e-05
-1.0945647369834794e-06   3.107277686534868e-06   -3.7793434180142e-05
-1.0945647369834794e-06   3.107277686534868e-06   -3.7793434180142e-05
-1.0945647369834794e-06   3.107277686534868e-06   -3.7793434180142e-05
-1.4967916121518159e-05   3.069410972813527e-06   -1.4648461844351553e-05
-1.4967916121518159e-05   3.069410972813527e-06   -1.4648461844351553e-05
-1.4967916121518159e-05   3.069410972813527e-06   -1.4648461844351553e-05
-1.4967916121518159e-05   3.069410972813527e-06   -1.4648461844351553e-05
-8.023328119993728e-06   2.3730024451224592e-06   -2.5804930063610768e-05
-8.023328119993728e-06   2.3730024451224592e-06   -2.5804930063610768e-05
-8.023328119993728e-06   2.3730024451224592e-06   -2.5804930063610768e-05
-8.023328119993728e-06   2.3730024451224592e-06   -2.5804930063610768e-05
-6.942459957871466e-07   -2.985357345067734e-06   -3.356337389047708e-05
-6.942459957871466e-07   -2.985357345067734e-06   -3.356337389047708e-05
-6.942459957871466e-07   -2.985357345067734e-06   -3.356337389047708e-05
-6.942459957871466e-07   -2.985357345067734e-06   -3.356337389047708e-05
1.307162486478126e-05   -1.9987512051597802e-06   -1.0028292105585034e-05
1.307162486478126e-05   -1.9987512051597802e-06   -1.0028292105585034e-05
1.307162486478126e-05   -1.9987512051597802e-06   -1.0028292105585034e-05
1.307162486478126e-05   -1.9987512051597802e-06   -1.0028292105585034e-05
1.3063080063022584e-05   -2.0153496567105816e-06   -3.317464829898389e-05
1.3063080063022584e-05   -2.0153496567105816e-06   -3.317464829898389e-05
1.3063080063022584e-05   -2.0153496567105816e-06   -3.317464829898389e-05
1.3063080063022584e-05   -2.0153496567105816e-06   -3.317464829898389e-05
-8.344895708004566e-07   -1.1042842747332375e-06   -1.0558671471798558e-05
-8.344895708004566e-07   -1.1042842747332375e-06   -1.0558671471798558e-05
-8.344895708004566e-07   -1.1042842747332375e-06   -1.0558671471798558e-05
-8.344895708004566e-07   -1.1042842747332375e-06   -1.0558671471798558e-05
6.104790973885711e-06   -1.9552320087226085e-06   -2.161357040588189e-05
6.104790973885711e-06   -1.9552320087226085e-06   -2.161357040588189e-05
6.104790973885711e-06   -1.9552320087226085e-06   -2.161357040588189e-05
6.104790973885711e-06   -1.9552320087226085e-06   -2.161357040588189e-05
-8.344895708004566e-07   -2.0153496567106087e-06   -3.372128752817024e-05
-8.344895708004566e-07   -2.0153496567106087e-06   -3.372128752817024e-05
-8.344895708004566e-07   -2.0153496567106087e-06   -3.372128752817024e-05
-8.344895708004566e-07   -2.0153496567106087e-06   -3.372128752817024e-05
1.3063080063022584e-05   -1.1042842747332375e-06   -1.0012032242612116e-05
1.3063080063022584e-05   -1.1042842747332375e-06   -1.0012032242612116e-05
1.3063080063022584e-05   -1.1042842747332375e-06   -1.0012032242612116e-05
1.3063080063022584e-05   -1.1042842747332375e-06   -1.0012032242612116e-05
1.3127102020747568e-05   -1.0656369898076254e-06   -3.404987186980392e-05
1.3127102020747568e-05   -1.0656369898076254e-06   -3.404987186980392e-05
1.3127102020747568e-05   -1.0656369898076254e-06   -3.404987186980392e-05
1.3127102020747568e-05   -1.0656369898076254e-06   -3.404987186980392e-05
-9.353078385786887e-07   -2.2598280823119292e-07   -1.1116314613206082e-05
-9.353078385786887e-07   -2.2598280823119292e-07   -1.1116314613206082e-05
-9.353078385786887e-07   -2.2598280823119292e-07   -1.1116314613206082e-05
-9.353078385786887e-07   -2.2598280823119292e-07   -1.1116314613206082e-05
5.917882867545391e-06   -1.1798042817643133e-06   -2.1966006239292855e-05
5.917882867545391e-06   -1.1798042817643133e-06   -2.1966006239292855e-05
5.917882867545391e-06   -1.1798042817643133e-06   -2.1966006239292855e-05
5.917882867545391e-06   -1.1798042817643133e-06   -2.1966006239292855e-05
-9.353078385786862e-07   -1.0656369898075983e-06   -3.4553664378749626e-05
-9.353078385786862e-07   -1.0656369898075983e-06   -3.4553664378749626e-05
-9.353078385786862e-07   -1.0656369898075983e-06   -3.4553664378749626e-05
-9.353078385786862e-07   -1.0656369898075983e-06   -3.4553664378749626e-05
1.3127102020747568e-05   -2.2598280823119292e-07   -1.0612522104260093e-05
1.3127102020747568e-05   -2.2598280823119292e-07   -1.0612522104260093e-05
1.3127102020747568e-05   -2.2598280823119292e-07   -1.0612522104260093e-05
1.3127102020747568e-05   -2.2598280823119292e-07   -1.0612522104260093e-05
1.3028021600458928e-05   1.0846903008668069e-07   -3.504417340506147e-05
1.3028021600458928e-05   1.0846903008668069e-07   -3.504417340506147e-05
1.3028021600458928e-05   1.0846903008668069e-07   -3.504417340506147e-05
1.3028021600458928e-05   1.0846903008668069e-07   -3.504417340506147e-05
-1.0945647369834815e-06   8.002938496138234e-07   -1.1921624401040482e-05
-1.0945647369834815e-06   8.002938496138234e-07   -1.1921624401040482e-05
-1.0945647369834815e-06   8.002938496138234e-07   -1.1921624401040482e-05
-1.0945647369834815e-06   8.002938496138234e-07   -1.1921624401040482e-05
5.8531499676273046e-06   -3.5065563147340965e-07   -2.2810579220072608e-05
5.8531499676273046e-06   -3.5065563147340965e-07   -2.2810579220072608e-05
5.8531499676273046e-06   -3.5065563147340965e-07   -2.2810579220072608e-05
5.8531499676273046e-06   -3.5065563147340965e-07   -2.2810579220072608e-05
1.307162486478124e-05   -5.545402664324222e-06   -1.87701243735358e-05
1.307162486478124e-05   -5.545402664324222e-06   -1.87701243735358e-05
1.307162486478124e-05   -5.545402664324222e-06   -1.87701243735358e-05
1.307162486478124e-05   -5.545402664324222e-06   -1.87701243735358e-05
2.5948474883396498e-05   -3.620376705537826e-06   3.846307899428179e-06
2.5948474883396498e-05   -3.620376705537826e-06   3.846307899428179e-06
2.5948474883396498e-05   -3.620376705537826e-06   3.846307899428179e-06
2.5948474883396498e-05   -3.620376705537826e-06   3.846307899428179e-06
2.6829657824591264e-05   -5.027441380054499e-06   -2.1105317286613604e-05
2.6829657824591264e-05   -5.027441380054499e-06   -2.1105317286613604e-05
2.6829657824591264e-05   -5.027441380054499e-06   -2.1105317286613604e-05
2.6829657824591264e-05   -5.027441380054499e-06   -2.1105317286613604e-05
1.3063080063022557e-05   -3.103772213670355e-06   6.847774828371125e-07
1.3063080063022557e-05   -3.103772213670355e-06   6.847774828371125e-07
1.3063080063022557e-05   -3.103772213670355e-06   6.847774828371125e-07
1.3063080063022557e-05   -3.103772213670355e-06   6.847774828371125e-07
1.8885168388817202e-05   -4.272769016784648e-06   -8.317304978285392e-06
1.8885168388817202e-05   -4.272769016784648e-06   -8.317304978285392e-06
1.8885168388817202e-05   -4.272769016784648e-06   -8.317304978285392e-06
1.8885168388817202e-05   -4.272769016784648e-06   -8.317304978285392e-06
1.306308006302255e-05   -5.027441380054499e-06   -2.2259518786444025e-05
1.306308006302255e-05   -5.027441380054499e-06   -2.2259518786444025e-05
1.306308006302255e-05   -5.027441380054499e-06   -2.2259518786444025e-05
1.306308006302255e-05   -5.027441380054499e-06   -2.2259518786444025e-05
2.6829657824591264e-05   -3.103772213670355e-06   1.83897898266771e-06
2.6829657824591264e-05   -3.103772213670355e-06   1.83897898266771e-06
2.6829657824591264e-05   -3.103772213670355e-06   1.83897898266771e-06
2.6829657824591264e-05   -3.103772213670355e-06   1.83897898266771e-06
2.7508188754533618e-05   -4.480997605236874e-06   -2.3799684346300745e-05
2.7508188754533618e-05   -4.480997605236874e-06   -2.3799684346300745e-05
2.7508188754533618e-05   -4.480997605236874e-06   -2.3799684346300745e-05
2.7508188754533618e-05   -4.480997605236874e-06   -2.3799684346300745e-05
1.312710202074752e-05   -2.6620503492319003e-06   -9.225748102603866e-07
1.312710202074752e-05   -2.6620503492319003e-06   -9.225748102603866e-07
1.312710202074752e-05   -2.6620503492319003e-06   -9.225748102603866e-07
1.312710202074752e-05   -2.6620503492319003e-06   -9.225748102603866e-07
1.9530317948558016e-05   -3.939589514137054e-06   -1.0828077857667903e-05
1.9530317948558016e-05   -3.939589514137054e-06   -1.0828077857667903e-05
1.9530317948558016e-05   -3.939589514137054e-06   -1.0828077857667903e-05
1.9530317948558016e-05   -3.939589514137054e-06   -1.0828077857667903e-05
1.3127102020747547e-05   -4.480997605236874e-06   -2.489105269990373e-05
1.3127102020747547e-05   -4.480997605236874e-06   -2.489105269990373e-05
1.3127102020747547e-05   -4.480997605236874e-06   -2.489105269990373e-05
1.3127102020747547e-05   -4.480997605236874e-06   -2.489105269990373e-05
2.7508188754533577e-05   -2.6620503492319003e-06   1.687935433427874e-07
2.7508188754533577e-05   -2.6620503492319003e-06   1.687935433427874e-07
2.7508188754533577e-05   -2.6620503492319003e-06   1.687935433427874e-07
2.7508188754533577e-05   -2.6620503492319003e-06   1.687935433427874e-07
2.823231447863531e-05   -3.3053755222687674e-06   -2.8386848577394315e-05
2.823231447863531e-05   -3.3053755222687674e-06   -2.8386848577394315e-05
2.823231447863531e-05   -3.3053755222687674e-06   -2.8386848577394315e-05
2.823231447863531e-05   -3.3053755222687674e-06   -2.8386848577394315e-05
1.302802160045888e-05   -1.7195502539161232e-06   -3.997855608111998e-06
1.302802160045888e-05   -1.7195502539161232e-06   -3.997855608111998e-06
1.302802160045888e-05   -1.7195502539161232e-06   -3.997855608111998e-06
1.302802160045888e-05   -1.7195502539161232e-06   -3.997855608111998e-06
1.945060448540526e-05   -3.3921726719776386e-06   -1.3698586965518877e-05
1.945060448540526e-05   -3.3921726719776386e-06   -1.3698586965518877e-05
1.945060448540526e-05   -3.3921726719776386e-06   -1.3698586965518877e-05
1.945060448540526e-05   -3.3921726719776386e-06   -1.3698586965518877e-05
-3.120920690008103e-05   4.78627508832761e-06   -2.3773795216313037e-05
-3.120920690008103e-05   4.78627508832761e-06   -2.3773795216313037e-05
-3.120920690008103e-05   4.78627508832761e-06   -2.3773795216313037e-05
-3.120920690008103e-05   4.78627508832761e-06   -2.3773795216313037e-05
-2.1268370553639287e-05   3.0403102358069313e-06   -8.253313550422555e-06
-2.1268370553639287e-05   3.0403102358069313e-06   -8.253313550422555e-06
-2.1268370553639287e-05   3.0403102358069313e-06   -8.253313550422555e-06
-2.1268370553639287e-05   3.0403102358069313e-06   -8.253313550422555e-06
-2.1190595954625078e-05   5.792518312687002e-06   -2.019769167413627e-05
-2.1190595954625078e-05   5.792518312687002e-06   -2.019769167413627e-05
-2.1190595954625078e-05   5.792518312687002e-06   -2.019769167413627e-05
-2.1190595954625078e-05   5.792518312687002e-06   -2.019769167413627e-05
-3.027142150586402e-05   3.872210534106458e-06   -3.910797754923029e-06
-3.027142150586402e-05   3.872210534106458e-06   -3.910797754923029e-06
-3.027142150586402e-05   3.872210534106458e-06   -3.910797754923029e-06
-3.027142150586402e-05   3.872210534106458e-06   -3.910797754923029e-06
-2.4882384732941696e-05   4.609714390067538e-06   -1.3335028023370171e-05
-2.4882384732941696e-05   4.609714390067538e-06   -1.3335028023370171e-05
-2.4882384732941696e-05   4.609714390067538e-06   -1.3335028023370171e-05
-2.4882384732941696e-05   4.609714390067538e-06   -1.3335028023370171e-05
-3.027142150586402e-05   5.792518312687002e-06   -1.9045507006987885e-05
-3.027142150586402e-05   5.792518312687002e-06   -1.9045507006987885e-05
-3.027142150586402e-05   5.792518312687002e-06   -1.9045507006987885e-05
-3.027142150586402e-05   5.792518312687002e-06   -1.9045507006987885e-05
-2.119059595462512e-05   3.872210534106458e-06   -5.0629824220713875e-06
-2.119059595462512e-05   3.872210534106458e-06   -5.0629824220713875e-06
-2.119059595462512e-05   3.872210534106458e-06   -5.0629824220713875e-06
-2.119059595462512e-05   3.872210534106458e-06   -5.0629824220713875e-06
-2.1029650511761677e-05   6.235056937897211e-06   -1.7612631539587302e-05
-2.1029650511761677e-05   6.235056937897211e-06   -1.7612631539587302e-05
-2.1029650511761677e-05   6.235056937897211e-06   -1.7612631539587302e-05
-2.1029650511761677e-05   6.235056937897211e-06   -1.7612631539587302e-05
-2.9571168782833513e-05   4.260454961710629e-06   -2.1920065687556123e-06
-2.9571168782833513e-05   4.260454961710629e-06   -2.1920065687556123e-06
-2.9571168782833513e-05   4.260454961710629e-06   -2.1920065687556123e-06
-2.9571168782833513e-05   4.260454961710629e-06   -2.1920065687556123e-06
-2.4882365736382704e-05   5.0740442024866e-06   -1.0494831857306018e-05
-2.4882365736382704e-05   5.0740442024866e-06   -1.0494831857306018e-05
-2.4882365736382704e-05   5.0740442024866e-06   -1.0494831857306018e-05
-2.4882365736382704e-05   5.0740442024866e-06   -1.0494831857306018e-05
-2.9571168782833513e-05   6.235056937897211e-06   -1.6427870353875353e-05
-2.9571168782833513e-05   6.235056937897211e-06   -1.6427870353875353e-05
-2.9571168782833513e-05   6.235056937897211e-06   -1.6427870353875353e-05
-2.9571168782833513e-05   6.235056937897211e-06   -1.6427870353875353e-05
-2.1029650511761717e-05   4.260454961710629e-06   -3.3767677544675073e-06
-2.1029650511761717e-05   4.260454961710629e-06   -3.3767677544675073e-06
-2.1029650511761717e-05   4.260454961710629e-06   -3.3767677544675073e-06
-2.1029650511761717e-05   4.260454961710629e-06   -3.3767677544675073e-06
-2.0965724475610268e-05   6.672088329737181e-06   -1.4036627265556702e-05
-2.0965724475610268e-05   6.672088329737181e-06   -1.4036627265556702e-05
-2.0965724475610268e-05   6.672088329737181e-06   -1.4036627265556702e-05
-2.0965724475610268e-05   6.672088329737181e-06   -1.4036627265556702e-05
-2.8655837859209627e-05   4.749650152356395e-06   -6.630871979583031e-08
-2.8655837859209627e-05   4.749650152356395e-06   -6.630871979583031e-08
-2.8655837859209627e-05   4.749650152356395e-06   -6.630871979583031e-08
-2.8655837859209627e-05   4.749650152356395e-06   -6.630871979583031e-08
-2.4145458855319545e-05   5.326864724354075e-06   -7.92993580281127e-06
-2.4145458855319545e-05   5.326864724354075e-06   -7.92993580281127e-06
-2.4145458855319545e-05   5.326864724354075e-06   -7.92993580281127e-06
-2.4145458855319545e-05   5.326864724354075e-06   -7.92993580281127e-06
-2.1268370553639246e-05   2.388328766309185e-06   -3.0333978648670575e-05
-2.1268370553639246e-05   2.388328766309185e-06   -3.0333978648670575e-05
-2.1268370553639246e-05   2.388328766309185e-06   -3.0333978648670575e-05
-2.1268370553639246e-05   2.388328766309185e-06   -3.0333978648670575e-05
-1.2252283170807607e-05   1.574837504473496e-06   -1.5795261101052624e-05
-1.2252283170807607e-05   1.574837504473496e-06   -1.5795261101052624e-05
-1.2252283170807607e-05   1.574837504473496e-06   -1.5795261101052624e-05
-1.2252283170807607e-05   1.574837504473496e-06   -1.5795261101052624e-05
-1.2258409788808738e-05   3.3783327566553538e-06   -3.007194757466289e-05
-1.2258409788808738e-05   3.3783327566553538e-06   -3.007194757466289e-05
-1.2258409788808738e-05   3.3783327566553538e-06   -3.007194757466289e-05
-1.2258409788808738e-05   3.3783327566553538e-06   -3.007194757466289e-05
-2.1190595954625078e-05   2.4535381927608905e-06   -1.4630093893298885e-05
-2.1190595954625078e-05   2.4535381927608905e-06   -1.4630093893298885e-05
-2.1190595954625078e-05   2.4535381927608905e-06   -1.4630093893298885e-05
-2.1190595954625078e-05   2.4535381927608905e-06   -1.4630093893298885e-05
-1.6587905869216094e-05   2.6142335953556364e-06   -2.239766127720412e-05
-1.6587905869216094e-05   2.6142335953556364e-06   -2.239766127720412e-05
-1.6587905869216094e-05   2.6142335953556364e-06   -2.239766127720412e-05
-1.6587905869216094e-05   2.6142335953556364e-06   -2.239766127720412e-05
-2.1190595954625064e-05   3.3783327566553538e-06   -2.951707083632607e-05
-2.1190595954625064e-05   3.3783327566553538e-06   -2.951707083632607e-05
-2.1190595954625064e-05   3.3783327566553538e-06   -2.951707083632607e-05
-2.1190595954625064e-05   3.3783327566553538e-06   -2.951707083632607e-05
-1.2258409788808738e-05   2.453538192760999e-06   -1.5184970631635595e-05
-1.2258409788808738e-05   2.453538192760999e-06   -1.5184970631635595e-05
-1.2258409788808738e-05   2.453538192760999e-06   -1.5184970631635595e-05
-1.2258409788808738e-05   2.453538192760999e-06   -1.5184970631635595e-05
-1.2249593441222382e-05   4.258424934874708e-06   -2.9398095070920678e-05
-1.2249593441222382e-05   4.258424934874708e-06   -2.9398095070920678e-05
-1.2249593441222382e-05   4.258424934874708e-06   -2.9398095070920678e-05
-1.2249593441222382e-05   4.258424934874708e-06   -2.9398095070920678e-05
-2.1029650511761677e-05   3.2537370515439744e-06   -1.4161853890023388e-05
-2.1029650511761677e-05   3.2537370515439744e-06   -1.4161853890023388e-05
-2.1029650511761677e-05   3.2537370515439744e-06   -1.4161853890023388e-05
-2.1029650511761677e-05   3.2537370515439744e-06   -1.4161853890023388e-05
-1.6510905917237022e-05   3.3364453705843756e-06   -2.174271987232185e-05
-1.6510905917237022e-05   3.3364453705843756e-06   -2.174271987232185e-05
-1.6510905917237022e-05   3.3364453705843756e-06   -2.174271987232185e-05
-1.6510905917237022e-05   3.3364453705843756e-06   -2.174271987232185e-05
-2.1029650511761677e-05   4.258424934874708e-06   -2.879528234092218e-05
-2.1029650511761677e-05   4.258424934874708e-06   -2.879528234092218e-05
-2.1029650511761677e-05   4.258424934874708e-06   -2.879528234092218e-05
-2.1029650511761677e-05   4.258424934874708e-06   -2.879528234092218e-05
-1.224959344122241e-05   3.253737051544083e-06   -1.4764666620021793e-05
-1.224959344122241e-05   3.253737051544083e-06   -1.4764666620021793e-05
-1.224959344122241e-05   3.253737051544083e-06   -1.4764666620021793e-05
-1.224959344122241e-05   3.253737051544083e-06   -1.4764666620021793e-05
-1.2259759146514896e-05   5.195211988319199e-06   -2.951681198480171e-05
-1.2259759146514896e-05   5.195211988319199e-06   -2.951681198480171e-05
-1.2259759146514896e-05   5.195211988319199e-06   -2.951681198480171e-05
-1.2259759146514896e-05   5.195211988319199e-06   -2.951681198480171e-05
-2.096572447561028e-05   4.123577994773219e-06   -1.4363889373515004e-05
-2.096572447561028e-05   4.123577994773219e-06   -1.4363889373515004e-05
-2.096572447561028e-05   4.123577994773219e-06   -1.4363889373515004e-05
-2.096572447561028e-05   4.123577994773219e-06   -1.4363889373515004e-05
-1.6618083111770703e-05   4.051594543454107e-06   -2.156676824245624e-05
-1.6618083111770703e-05   4.051594543454107e-06   -2.156676824245624e-05
-1.6618083111770703e-05   4.051594543454107e-06   -2.156676824245624e-05
-1.6618083111770703e-05   4.051594543454107e-06   -2.156676824245624e-05
-1.2252283170807587e-05   1.274970945404916e-07   -3.348701282146501e-05
-1.2252283170807587e-05   1.274970945404916e-07   -3.348701282146501e-05
-1.2252283170807587e-05   1.274970945404916e-07   -3.348701282146501e-05
-1.2252283170807587e-05   1.274970945404916e-07   -3.348701282146501e-05
-3.358726232642809e-06   2.729936308850907e-07   -1.857712000271692e-05
-3.358726232642809e-06   2.729936308850907e-07   -1.857712000271692e-05
-3.358726232642809e-06   2.729936308850907e-07   -1.857712000271692e-05
-3.358726232642809e-06   2.729936308850907e-07   -1.857712000271692e-05
-3.365398231081153e-06   1.1025229122354888e-06   -3.311517840986041e-05
-3.365398231081153e-06   1.1025229122354888e-06   -3.311517840986041e-05
-3.365398231081153e-06   1.1025229122354888e-06   -3.311517840986041e-05
-3.365398231081153e-06   1.1025229122354888e-06   -3.311517840986041e-05
-1.2258409788808711e-05   1.15713151800157e-06   -1.8326257643774168e-05
-1.2258409788808711e-05   1.15713151800157e-06   -1.8326257643774168e-05
-1.2258409788808711e-05   1.15713151800157e-06   -1.8326257643774168e-05
-1.2258409788808711e-05   1.15713151800157e-06   -1.8326257643774168e-05
-7.756673373825739e-06   7.799627710622695e-07   -2.5602850420582184e-05
-7.756673373825739e-06   7.799627710622695e-07   -2.5602850420582184e-05
-7.756673373825739e-06   7.799627710622695e-07   -2.5602850420582184e-05
-7.756673373825739e-06   7.799627710622695e-07   -2.5602850420582184e-05
-1.2258409788808711e-05   1.1025229122354888e-06   -3.314794357332009e-05
-1.2258409788808711e-05   1.1025229122354888e-06   -3.314794357332009e-05
-1.2258409788808711e-05   1.1025229122354888e-06   -3.314794357332009e-05
-1.2258409788808711e-05   1.1025229122354888e-06   -3.314794357332009e-05
-3.365398231081153e-06   1.15713151800157e-06   -1.8293492480314486e-05
-3.365398231081153e-06   1.15713151800157e-06   -1.8293492480314486e-05
-3.365398231081153e-06   1.15713151800157e-06   -1.8293492480314486e-05
-3.365398231081153e-06   1.15713151800157e-06   -1.8293492480314486e-05
-3.353870097968507e-06   2.0746953264630407e-06   -3.319861769669383e-05
-3.353870097968507e-06   2.0746953264630407e-06   -3.319861769669383e-05
-3.353870097968507e-06   2.0746953264630407e-06   -3.319861769669383e-05
-3.353870097968507e-06   2.0746953264630407e-06   -3.319861769669383e-05
-1.2249593441222382e-05   2.0441064094743134e-06   -1.8354058774410842e-05
-1.2249593441222382e-05   2.0441064094743134e-06   -1.8354058774410842e-05
-1.2249593441222382e-05   2.0441064094743134e-06   -1.8354058774410842e-05
-1.2249593441222382e-05   2.0441064094743134e-06   -1.8354058774410842e-05
-7.808803145778753e-06   1.5537784676214776e-06   -2.5461179168371883e-05
-7.808803145778753e-06   1.5537784676214776e-06   -2.5461179168371883e-05
-7.808803145778753e-06   1.5537784676214776e-06   -2.5461179168371883e-05
-7.808803145778753e-06   1.5537784676214776e-06   -2.5461179168371883e-05
-1.2249593441222382e-05   2.0746953264630407e-06   -3.3180264346500585e-05
-1.2249593441222382e-05   2.0746953264630407e-06   -3.3180264346500585e-05
-1.2249593441222382e-05   2.0746953264630407e-06   -3.3180264346500585e-05
-1.2249593441222382e-05   2.0746953264630407e-06   -3.3180264346500585e-05
-3.3538700979685128e-06   2.0441064094743134e-06   -1.8372412124604035e-05
-3.3538700979685128e-06   2.0441064094743134e-06   -1.8372412124604035e-05
-3.3538700979685128e-06   2.0441064094743134e-06   -1.8372412124604035e-05
-3.3538700979685128e-06   2.0441064094743134e-06   -1.8372412124604035e-05
-3.359232906467427e-06   3.069410972813527e-06   -3.3700467425225756e-05
-3.359232906467427e-06   3.069410972813527e-06   -3.3700467425225756e-05
-3.359232906467427e-06   3.069410972813527e-06   -3.3700467425225756e-05
-3.359232906467427e-06   3.069410972813527e-06   -3.3700467425225756e-05
-1.2259759146514882e-05   2.9465887942561712e-06   -1.879256371801208e-05
-1.2259759146514882e-05   2.9465887942561712e-06   -1.879256371801208e-05
-1.2259759146514882e-05   2.9465887942561712e-06   -1.879256371801208e-05
-1.2259759146514882e-05   2.9465887942561712e-06   -1.879256371801208e-05
-7.876129313790206e-06   2.337762083882153e-06   -2.5733317412995518e-05
-7.876129313790206e-06   2.337762083882153e-06   -2.5733317412995518e-05
-7.876129313790206e-06   2.337762083882153e-06   -2.5733317412995518e-05
-7.876129313790206e-06   2.337762083882153e-06   -2.5733317412995518e-05
-3.3587262326428027e-06   -1.9987512051597802e-06   -2.9647868838717303e-05
-3.3587262326428027e-06   -1.9987512051597802e-06   -2.9647868838717303e-05
-3.3587262326428027e-06   -1.9987512051597802e-06   -2.9647868838717303e-05
-3.3587262326428027e-06   -1.9987512051597802e-06   -2.9647868838717303e-05
5.401118536400481e-06   -9.170787428280317e-07   -1.4399124079579411e-05
5.401118536400481e-06   -9.170787428280317e-07   -1.4399124079579411e-05
5.401118536400481e-06   -9.170787428280317e-07   -1.4399124079579411e-05
5.401118536400481e-06   -9.170787428280317e-07   -1.4399124079579411e-05
5.472488414334487e-06   -1.1042842747332375e-06   -2.8970755509421506e-05
5.472488414334487e-06   -1.1042842747332375e-06   -2.8970755509421506e-05
5.472488414334487e-06   -1.1042842747332375e-06   -2.8970755509421506e-05
5.472488414334487e-06   -1.1042842747332375e-06   -2.8970755509421506e-05
-3.365398231081153e-06   -8.363398544054042e-08   -1.4853334607304416e-05
-3.365398231081153e-06   -8.363398544054042e-08   -1.4853334607304416e-05
-3.365398231081153e-06   -8.363398544054042e-08   -1.4853334607304416e-05
-3.365398231081153e-06   -8.363398544054042e-08   -1.4853334607304416e-05
1.0431044177411649e-06   -9.489880957981806e-07   -2.1681626555793716e-05
1.0431044177411649e-06   -9.489880957981806e-07   -2.1681626555793716e-05
1.0431044177411649e-06   -9.489880957981806e-07   -2.1681626555793716e-05
1.0431044177411649e-06   -9.489880957981806e-07   -2.1681626555793716e-05
-3.365398231081153e-06   -1.1042842747332375e-06   -2.958314568299715e-05
-3.365398231081153e-06   -1.1042842747332375e-06   -2.958314568299715e-05
-3.365398231081153e-06   -1.1042842747332375e-06   -2.958314568299715e-05
-3.365398231081153e-06   -1.1042842747332375e-06   -2.958314568299715e-05
5.472488414334514e-06   -8.363398544054042e-08   -1.4240944433728813e-05
5.472488414334514e-06   -8.363398544054042e-08   -1.4240944433728813e-05
5.472488414334514e-06   -8.363398544054042e-08   -1.4240944433728813e-05
5.472488414334514e-06   -8.363398544054042e-08   -1.4240944433728813e-05
5.6417775767024375e-06   -2.2598280823119292e-07   -2.9578268804802222e-05
5.6417775767024375e-06   -2.2598280823119292e-07   -2.9578268804802222e-05
5.6417775767024375e-06   -2.2598280823119292e-07   -2.9578268804802222e-05
5.6417775767024375e-06   -2.2598280823119292e-07   -2.9578268804802222e-05
-3.3538700979685128e-06   7.17544368407136e-07   -1.5151638986333734e-05
-3.3538700979685128e-06   7.17544368407136e-07   -1.5151638986333734e-05
-3.3538700979685128e-06   7.17544368407136e-07   -1.5151638986333734e-05
-3.3538700979685128e-06   7.17544368407136e-07   -1.5151638986333734e-05
9.921864281341022e-07   -2.5550490777390567e-07   -2.1811236964129476e-05
9.921864281341022e-07   -2.5550490777390567e-07   -2.1811236964129476e-05
9.921864281341022e-07   -2.5550490777390567e-07   -2.1811236964129476e-05
9.921864281341022e-07   -2.5550490777390567e-07   -2.1811236964129476e-05
-3.35387009796851e-06   -2.2598280823119292e-07   -3.014438511078521e-05
-3.35387009796851e-06   -2.2598280823119292e-07   -3.014438511078521e-05
-3.35387009796851e-06   -2.2598280823119292e-07   -3.014438511078521e-05
-3.35387009796851e-06   -2.2598280823119292e-07   -3.014438511078521e-05
5.641777576702451e-06   7.175443684072445e-07   -1.4585522680350617e-05
5.641777576702451e-06   7.175443684072445e-07   -1.4585522680350617e-05
5.641777576702451e-06   7.175443684072445e-07   -1.4585522680350617e-05
5.641777576702451e-06   7.175443684072445e-07   -1.4585522680350617e-05
5.724906013488762e-06   8.002938496137692e-07   -3.0450021510675465e-05
5.724906013488762e-06   8.002938496137692e-07   -3.0450021510675465e-05
5.724906013488762e-06   8.002938496137692e-07   -3.0450021510675465e-05
5.724906013488762e-06   8.002938496137692e-07   -3.0450021510675465e-05
-3.359232906467421e-06   1.6351079212908754e-06   -1.5810678420421402e-05
-3.359232906467421e-06   1.6351079212908754e-06   -1.5810678420421402e-05
-3.359232906467421e-06   1.6351079212908754e-06   -1.5810678420421402e-05
-3.359232906467421e-06   1.6351079212908754e-06   -1.5810678420421402e-05
1.0223992835053907e-06   4.855659492681826e-07   -2.2423673553828948e-05
1.0223992835053907e-06   4.855659492681826e-07   -2.2423673553828948e-05
1.0223992835053907e-06   4.855659492681826e-07   -2.2423673553828948e-05
1.0223992835053907e-06   4.855659492681826e-07   -2.2423673553828948e-05
5.401118536400474e-06   -3.620376705537826e-06   -1.627928093157684e-05
5.401118536400474e-06   -3.620376705537826e-06   -1.627928093157684e-05
5.401118536400474e-06   -3.620376705537826e-06   -1.627928093157684e-05
5.401118536400474e-06   -3.620376705537826e-06   -1.627928093157684e-05
1.3164961548123863e-05   -1.681331153216407e-06   -2.1761152473116947e-06
1.3164961548123863e-05   -1.681331153216407e-06   -2.1761152473116947e-06
1.3164961548123863e-05   -1.681331153216407e-06   -2.1761152473116947e-06
1.3164961548123863e-05   -1.681331153216407e-06   -2.1761152473116947e-06
1.4092868929695544e-05   -3.103772213670355e-06   -1.708125129311736e-05
1.4092868929695544e-05   -3.103772213670355e-06   -1.708125129311736e-05
1.4092868929695544e-05   -3.103772213670355e-06   -1.708125129311736e-05
1.4092868929695544e-05   -3.103772213670355e-06   -1.708125129311736e-05
5.4724884143344935e-06   -1.1159480622453463e-06   -3.906644925037256e-06
5.4724884143344935e-06   -1.1159480622453463e-06   -3.906644925037256e-06
5.4724884143344935e-06   -1.1159480622453463e-06   -3.906644925037256e-06
5.4724884143344935e-06   -1.1159480622453463e-06   -3.906644925037256e-06
9.12638464865568e-06   -2.3064689709091863e-06   -9.282159437040959e-06
9.12638464865568e-06   -2.3064689709091863e-06   -9.282159437040959e-06
9.12638464865568e-06   -2.3064689709091863e-06   -9.282159437040959e-06
9.12638464865568e-06   -2.3064689709091863e-06   -9.282159437040959e-06
5.472488414334487e-06   -3.103772213670355e-06   -1.8273945783972155e-05
5.472488414334487e-06   -3.103772213670355e-06   -1.8273945783972155e-05
5.472488414334487e-06   -3.103772213670355e-06   -1.8273945783972155e-05
5.472488414334487e-06   -3.103772213670355e-06   -1.8273945783972155e-05
1.409286892969549e-05   -1.1159480622454547e-06   -2.7139504341823105e-06
1.409286892969549e-05   -1.1159480622454547e-06   -2.7139504341823105e-06
1.409286892969549e-05   -1.1159480622454547e-06   -2.7139504341823105e-06
1.409286892969549e-05   -1.1159480622454547e-06   -2.7139504341823105e-06
1.480780714615293e-05   -2.6620503492319003e-06   -1.8726933436343082e-05
1.480780714615293e-05   -2.6620503492319003e-06   -1.8726933436343082e-05
1.480780714615293e-05   -2.6620503492319003e-06   -1.8726933436343082e-05
1.480780714615293e-05   -2.6620503492319003e-06   -1.8726933436343082e-05
5.641777576702451e-06   -7.264035584663136e-07   -4.611605561718405e-06
5.641777576702451e-06   -7.264035584663136e-07   -4.611605561718405e-06
5.641777576702451e-06   -7.264035584663136e-07   -4.611605561718405e-06
5.641777576702451e-06   -7.264035584663136e-07   -4.611605561718405e-06
9.692085806132275e-06   -2.015784397006292e-06   -1.0588490774310691e-05
9.692085806132275e-06   -2.015784397006292e-06   -1.0588490774310691e-05
9.692085806132275e-06   -2.015784397006292e-06   -1.0588490774310691e-05
9.692085806132275e-06   -2.015784397006292e-06   -1.0588490774310691e-05
5.641777576702444e-06   -2.6620503492319003e-06   -1.9888321510802434e-05
5.641777576702444e-06   -2.6620503492319003e-06   -1.9888321510802434e-05
5.641777576702444e-06   -2.6620503492319003e-06   -1.9888321510802434e-05
5.641777576702444e-06   -2.6620503492319003e-06   -1.9888321510802434e-05
1.4807807146152875e-05   -7.264035584663136e-07   -3.4502174872588906e-06
1.4807807146152875e-05   -7.264035584663136e-07   -3.4502174872588906e-06
1.4807807146152875e-05   -7.264035584663136e-07   -3.4502174872588906e-06
1.4807807146152875e-05   -7.264035584663136e-07   -3.4502174872588906e-06
1.5758932187856915e-05   -1.7195502539161232e-06   -2.188687225104605e-05
1.5758932187856915e-05   -1.7195502539161232e-06   -2.188687225104605e-05
1.5758932187856915e-05   -1.7195502539161232e-06   -2.188687225104605e-05
1.5758932187856915e-05   -1.7195502539161232e-06   -2.188687225104605e-05
5.724906013488769e-06   3.790867677936922e-08   -6.21797065218295e-06
5.724906013488769e-06   3.790867677936922e-08   -6.21797065218295e-06
5.724906013488769e-06   3.790867677936922e-08   -6.21797065218295e-06
5.724906013488769e-06   3.790867677936922e-08   -6.21797065218295e-06
9.882854190188679e-06   -1.5854239959685627e-06   -1.2173884676367462e-05
9.882854190188679e-06   -1.5854239959685627e-06   -1.2173884676367462e-05
9.882854190188679e-06   -1.5854239959685627e-06   -1.2173884676367462e-05
9.882854190188679e-06   -1.5854239959685627e-06   -1.2173884676367462e-05
-1.88500287183714e-05   3.0403102358069313e-06   -1.7693503327570915e-05
-1.88500287183714e-05   3.0403102358069313e-06   -1.7693503327570915e-05
-1.88500287183714e-05   3.0403102358069313e-06   -1.7693503327570915e-05
-1.88500287183714e-05   3.0403102358069313e-06   -1.7693503327570915e-05
-1.3943821148819824e-05   1.2344863468296934e-06   -1.0599985045037967e-05
-1.3943821148819824e-05   1.2344863468296934e-06   -1.0599985045037967e-05
-1.3943821148819824e-05   1.2344863468296934e-06   -1.0599985045037967e-05
-1.3943821148819824e-05   1.2344863468296934e-06   -1.0599985045037967e-05
-1.3740143210646833e-05   3.872210534106458e-06   -1.560903147783822e-05
-1.3740143210646833e-05   3.872210534106458e-06   -1.560903147783822e-05
-1.3740143210646833e-05   3.872210534106458e-06   -1.560903147783822e-05
-1.3740143210646833e-05   3.872210534106458e-06   -1.560903147783822e-05
-1.782264432859267e-05   1.9258063771754883e-06   -7.637020453769654e-06
-1.782264432859267e-05   1.9258063771754883e-06   -7.637020453769654e-06
-1.782264432859267e-05   1.9258063771754883e-06   -7.637020453769654e-06
-1.782264432859267e-05   1.9258063771754883e-06   -7.637020453769654e-06
-1.5407574667699206e-05   2.7280111019280977e-06   -1.2143459390111179e-05
-1.5407574667699206e-05   2.7280111019280977e-06   -1.2143459390111179e-05
-1.5407574667699206e-05   2.7280111019280977e-06   -1.2143459390111179e-05
-1.5407574667699206e-05   2.7280111019280977e-06   -1.2143459390111179e-05
-1.782264432859267e-05   3.872210534106458e-06   -1.4441188983679637e-05
-1.782264432859267e-05   3.872210534106458e-06   -1.4441188983679637e-05
-1.782264432859267e-05   3.872210534106458e-06   -1.4441188983679637e-05
-1.782264432859267e-05   3.872210534106458e-06   -1.4441188983679637e-05
-1.374014321064686e-05   1.92580637717538e-06   -8.804862947928507e-06
-1.374014321064686e-05   1.92580637717538e-06   -8.804862947928507e-06
-1.374014321064686e-05   1.92580637717538e-06   -8.804862947928507e-06
-1.374014321064686e-05   1.92580637717538e-06   -8.804862947928507e-06
-1.3449014601229554e-05   4.2604549617105206e-06   -1.3937425226198436e-05
-1.3449014601229554e-05   4.2604549617105206e-06   -1.3937425226198436e-05
-1.3449014601229554e-05   4.2604549617105206e-06   -1.3937425226198436e-05
-1.3449014601229554e-05   4.2604549617105206e-06   -1.3937425226198436e-05
-1.70043996445497e-05   2.27589413395431e-06   -6.821046990677687e-06
-1.70043996445497e-05   2.27589413395431e-06   -6.821046990677687e-06
-1.70043996445497e-05   2.27589413395431e-06   -6.821046990677687e-06
-1.70043996445497e-05   2.27589413395431e-06   -6.821046990677687e-06
-1.5137312832564514e-05   3.101367455957734e-06   -1.042814233718852e-05
-1.5137312832564514e-05   3.101367455957734e-06   -1.042814233718852e-05
-1.5137312832564514e-05   3.101367455957734e-06   -1.042814233718852e-05
-1.5137312832564514e-05   3.101367455957734e-06   -1.042814233718852e-05
-1.70043996445497e-05   4.2604549617105206e-06   -1.2746688729544644e-05
-1.70043996445497e-05   4.2604549617105206e-06   -1.2746688729544644e-05
-1.70043996445497e-05   4.2604549617105206e-06   -1.2746688729544644e-05
-1.70043996445497e-05   4.2604549617105206e-06   -1.2746688729544644e-05
-1.3449014601229581e-05   2.27589413395431e-06   -8.011783487331479e-06
-1.3449014601229581e-05   2.27589413395431e-06   -8.011783487331479e-06
-1.3449014601229581e-05   2.27589413395431e-06   -8.011783487331479e-06
-1.3449014601229581e-05   2.27589413395431e-06   -8.011783487331479e-06
-1.3251807472563245e-05   4.749650152356395e-06   -1.179470313505764e-05
-1.3251807472563245e-05   4.749650152356395e-06   -1.179470313505764e-05
-1.3251807472563245e-05   4.749650152356395e-06   -1.179470313505764e-05
-1.3251807472563245e-05   4.749650152356395e-06   -1.179470313505764e-05
-1.5962790692569586e-05   2.830841597205227e-06   -6.125112635289387e-06
-1.5962790692569586e-05   2.830841597205227e-06   -6.125112635289387e-06
-1.5962790692569586e-05   2.830841597205227e-06   -6.125112635289387e-06
-1.5962790692569586e-05   2.830841597205227e-06   -6.125112635289387e-06
-1.443081822839038e-05   3.3614701908666125e-06   -8.996777231785381e-06
-1.443081822839038e-05   3.3614701908666125e-06   -8.996777231785381e-06
-1.443081822839038e-05   3.3614701908666125e-06   -8.996777231785381e-06
-1.443081822839038e-05   3.3614701908666125e-06   -8.996777231785381e-06
-1.3943821148819824e-05   1.5748375044733875e-06   -2.583085045448582e-05
-1.3943821148819824e-05   1.5748375044733875e-06   -2.583085045448582e-05
-1.3943821148819824e-05   1.5748375044733875e-06   -2.583085045448582e-05
-1.3943821148819824e-05   1.5748375044733875e-06   -2.583085045448582e-05
-9.954338311755095e-06   7.130459468210597e-07   -1.9698787327302787e-05
-9.954338311755095e-06   7.130459468210597e-07   -1.9698787327302787e-05
-9.954338311755095e-06   7.130459468210597e-07   -1.9698787327302787e-05
-9.954338311755095e-06   7.130459468210597e-07   -1.9698787327302787e-05
-9.821949825441361e-06   2.4535381927608905e-06   -2.574455309575785e-05
-9.821949825441361e-06   2.4535381927608905e-06   -2.574455309575785e-05
-9.821949825441361e-06   2.4535381927608905e-06   -2.574455309575785e-05
-9.821949825441361e-06   2.4535381927608905e-06   -2.574455309575785e-05
-1.3740143210646887e-05   1.5061879482744251e-06   -1.864582064038984e-05
-1.3740143210646887e-05   1.5061879482744251e-06   -1.864582064038984e-05
-1.3740143210646887e-05   1.5061879482744251e-06   -1.864582064038984e-05
-1.3740143210646887e-05   1.5061879482744251e-06   -1.864582064038984e-05
-1.1749351793630338e-05   1.71517538783382e-06   -2.208919879915361e-05
-1.1749351793630338e-05   1.71517538783382e-06   -2.208919879915361e-05
-1.1749351793630338e-05   1.71517538783382e-06   -2.208919879915361e-05
-1.1749351793630338e-05   1.71517538783382e-06   -2.208919879915361e-05
-1.3740143210646833e-05   2.4535381927608905e-06   -2.517614294906569e-05
-1.3740143210646833e-05   2.4535381927608905e-06   -2.517614294906569e-05
-1.3740143210646833e-05   2.4535381927608905e-06   -2.517614294906569e-05
-1.3740143210646833e-05   2.4535381927608905e-06   -2.517614294906569e-05
-9.821949825441361e-06   1.5061879482744251e-06   -1.921423078708181e-05
-9.821949825441361e-06   1.5061879482744251e-06   -1.921423078708181e-05
-9.821949825441361e-06   1.5061879482744251e-06   -1.921423078708181e-05
-9.821949825441361e-06   1.5061879482744251e-06   -1.921423078708181e-05
-9.675605885365796e-06   3.2537370515439744e-06   -2.532814018503548e-05
-9.675605885365796e-06   3.2537370515439744e-06   -2.532814018503548e-05
-9.675605885365796e-06   3.2537370515439744e-06   -2.532814018503548e-05
-9.675605885365796e-06   3.2537370515439744e-06   -2.532814018503548e-05
-1.3449014601229608e-05   2.244355679408656e-06   -1.843349683531447e-05
-1.3449014601229608e-05   2.244355679408656e-06   -1.843349683531447e-05
-1.3449014601229608e-05   2.244355679408656e-06   -1.843349683531447e-05
-1.3449014601229608e-05   2.244355679408656e-06   -1.843349683531447e-05
-1.1574750314958162e-05   2.3571837225996655e-06   -2.1624967471681254e-05
-1.1574750314958162e-05   2.3571837225996655e-06   -2.1624967471681254e-05
-1.1574750314958162e-05   2.3571837225996655e-06   -2.1624967471681254e-05
-1.1574750314958162e-05   2.3571837225996655e-06   -2.1624967471681254e-05
-1.3449014601229554e-05   3.2537370515439744e-06   -2.472251136175418e-05
-1.3449014601229554e-05   3.2537370515439744e-06   -2.472251136175418e-05
-1.3449014601229554e-05   3.2537370515439744e-06   -2.472251136175418e-05
-1.3449014601229554e-05   3.2537370515439744e-06   -2.472251136175418e-05
-9.675605885365782e-06   2.244355679408656e-06   -1.9039125658595608e-05
-9.675605885365782e-06   2.244355679408656e-06   -1.9039125658595608e-05
-9.675605885365782e-06   2.244355679408656e-06   -1.9039125658595608e-05
-9.675605885365782e-06   2.244355679408656e-06   -1.9039125658595608e-05
-9.545838609303112e-06   4.123577994773219e-06   -2.557382189072473e-05
-9.545838609303112e-06   4.123577994773219e-06   -2.557382189072473e-05
-9.545838609303112e-06   4.123577994773219e-06   -2.557382189072473e-05
-9.545838609303112e-06   4.123577994773219e-06   -2.557382189072473e-05
-1.3251807472563273e-05   3.0652429808126743e-06   -1.8762206110247922e-05
-1.3251807472563273e-05   3.0652429808126743e-06   -1.8762206110247922e-05
-1.3251807472563273e-05   3.0652429808126743e-06   -1.8762206110247922e-05
-1.3251807472563273e-05   3.0652429808126743e-06   -1.8762206110247922e-05
-1.1507850758620728e-05   3.0081880638896386e-06   -2.1634567683331905e-05
-1.1507850758620728e-05   3.0081880638896386e-06   -2.1634567683331905e-05
-1.1507850758620728e-05   3.0081880638896386e-06   -2.1634567683331905e-05
-1.1507850758620728e-05   3.0081880638896386e-06   -2.1634567683331905e-05
-9.954338311755068e-06   2.729936308850907e-07   -2.9217082212548294e-05
-9.954338311755068e-06   2.729936308850907e-07   -2.9217082212548294e-05
-9.954338311755068e-06   2.729936308850907e-07   -2.9217082212548294e-05
-9.954338311755068e-06   2.729936308850907e-07   -2.9217082212548294e-05
-6.064117574880359e-06   4.1151657130815596e-07   -2.2650267220170072e-05
-6.064117574880359e-06   4.1151657130815596e-07   -2.2650267220170072e-05
-6.064117574880359e-06   4.1151657130815596e-07   -2.2650267220170072e-05
-6.064117574880359e-06   4.1151657130815596e-07   -2.2650267220170072e-05
-5.935328439093451e-06   1.15713151800157e-06   -2.884805992781135e-05
-5.935328439093451e-06   1.15713151800157e-06   -2.884805992781135e-05
-5.935328439093451e-06   1.15713151800157e-06   -2.884805992781135e-05
-5.935328439093451e-06   1.15713151800157e-06   -2.884805992781135e-05
-9.821949825441361e-06   1.2200984848099528e-06   -2.2408137797316248e-05
-9.821949825441361e-06   1.2200984848099528e-06   -2.2408137797316248e-05
-9.821949825441361e-06   1.2200984848099528e-06   -2.2408137797316248e-05
-9.821949825441361e-06   1.2200984848099528e-06   -2.2408137797316248e-05
-7.892938738524253e-06   8.78429375890475e-07   -2.541815481016025e-05
-7.892938738524253e-06   8.78429375890475e-07   -2.541815481016025e-05
-7.892938738524253e-06   8.78429375890475e-07   -2.541815481016025e-05
-7.892938738524253e-06   8.78429375890475e-07   -2.541815481016025e-05
-9.821949825441348e-06   1.15713151800157e-06   -2.888584010789626e-05
-9.821949825441348e-06   1.15713151800157e-06   -2.888584010789626e-05
-9.821949825441348e-06   1.15713151800157e-06   -2.888584010789626e-05
-9.821949825441348e-06   1.15713151800157e-06   -2.888584010789626e-05
-5.935328439093451e-06   1.2200984848099528e-06   -2.2370357617231365e-05
-5.935328439093451e-06   1.2200984848099528e-06   -2.2370357617231365e-05
-5.935328439093451e-06   1.2200984848099528e-06   -2.2370357617231365e-05
-5.935328439093451e-06   1.2200984848099528e-06   -2.2370357617231365e-05
-5.790004530044443e-06   2.0441064094743134e-06   -2.892255847370182e-05
-5.790004530044443e-06   2.0441064094743134e-06   -2.892255847370182e-05
-5.790004530044443e-06   2.0441064094743134e-06   -2.892255847370182e-05
-5.790004530044443e-06   2.0441064094743134e-06   -2.892255847370182e-05
-9.675605885365782e-06   2.035729519012097e-06   -2.2441530080555443e-05
-9.675605885365782e-06   2.035729519012097e-06   -2.2441530080555443e-05
-9.675605885365782e-06   2.035729519012097e-06   -2.2441530080555443e-05
-9.675605885365782e-06   2.035729519012097e-06   -2.2441530080555443e-05
-7.807284487369887e-06   1.573651741197191e-06   -2.527815241052643e-05
-7.807284487369887e-06   1.573651741197191e-06   -2.527815241052643e-05
-7.807284487369887e-06   1.573651741197191e-06   -2.527815241052643e-05
-7.807284487369887e-06   1.573651741197191e-06   -2.527815241052643e-05
-9.675605885365769e-06   2.0441064094743134e-06   -2.8917532339424435e-05
-9.675605885365769e-06   2.0441064094743134e-06   -2.8917532339424435e-05
-9.675605885365769e-06   2.0441064094743134e-06   -2.8917532339424435e-05
-9.675605885365769e-06   2.0441064094743134e-06   -2.8917532339424435e-05
-5.790004530044453e-06   2.035729519012097e-06   -2.2446556214832786e-05
-5.790004530044453e-06   2.035729519012097e-06   -2.2446556214832786e-05
-5.790004530044453e-06   2.035729519012097e-06   -2.2446556214832786e-05
-5.790004530044453e-06   2.035729519012097e-06   -2.2446556214832786e-05
-5.659565000891805e-06   2.9465887942561712e-06   -2.9409243321101592e-05
-5.659565000891805e-06   2.9465887942561712e-06   -2.9409243321101592e-05
-5.659565000891805e-06   2.9465887942561712e-06   -2.9409243321101592e-05
-5.659565000891805e-06   2.9465887942561712e-06   -2.9409243321101592e-05
-9.545838609303139e-06   2.8637096575771445e-06   -2.2882393158408392e-05
-9.545838609303139e-06   2.8637096575771445e-06   -2.2882393158408392e-05
-9.545838609303139e-06   2.8637096575771445e-06   -2.2882393158408392e-05
-9.545838609303139e-06   2.8637096575771445e-06   -2.2882393158408392e-05
-7.736900134677297e-06   2.27812926032443e-06   -2.5545942377766737e-05
-7.736900134677297e-06   2.27812926032443e-06   -2.5545942377766737e-05
-7.736900134677297e-06   2.27812926032443e-06   -2.5545942377766737e-05
-7.736900134677297e-06   2.27812926032443e-06   -2.5545942377766737e-05
-6.064117574880337e-06   -9.170787428280317e-07   -2.56049760025561e-05
-6.064117574880337e-06   -9.170787428280317e-07   -2.56049760025561e-05
-6.064117574880337e-06   -9.170787428280317e-07   -2.56049760025561e-05
-6.064117574880337e-06   -9.170787428280317e-07   -2.56049760025561e-05
-2.2965752149213146e-06   1.8103900321724507e-07   -1.866686808833063e-05
-2.2965752149213146e-06   1.8103900321724507e-07   -1.866686808833063e-05
-2.2965752149213146e-06   1.8103900321724507e-07   -1.866686808833063e-05
-2.2965752149213146e-06   1.8103900321724507e-07   -1.866686808833063e-05
-2.103122722166715e-06   -8.363398544064884e-08   -2.477880300878895e-05
-2.103122722166715e-06   -8.363398544064884e-08   -2.477880300878895e-05
-2.103122722166715e-06   -8.363398544064884e-08   -2.477880300878895e-05
-2.103122722166715e-06   -8.363398544064884e-08   -2.477880300878895e-05
-5.93532843909344e-06   9.648644245798758e-07   -1.9020892526589857e-05
-5.93532843909344e-06   9.648644245798758e-07   -1.9020892526589857e-05
-5.93532843909344e-06   9.648644245798758e-07   -1.9020892526589857e-05
-5.93532843909344e-06   9.648644245798758e-07   -1.9020892526589857e-05
-4.0583758834420265e-06   1.179981721113714e-07   -2.1641027034528192e-05
-4.0583758834420265e-06   1.179981721113714e-07   -2.1641027034528192e-05
-4.0583758834420265e-06   1.179981721113714e-07   -2.1641027034528192e-05
-4.0583758834420265e-06   1.179981721113714e-07   -2.1641027034528192e-05
-5.9353284390934295e-06   -8.363398544054042e-08   -2.5407902054801212e-05
-5.9353284390934295e-06   -8.363398544054042e-08   -2.5407902054801212e-05
-5.9353284390934295e-06   -8.363398544054042e-08   -2.5407902054801212e-05
-5.9353284390934295e-06   -8.363398544054042e-08   -2.5407902054801212e-05
-2.1031227221667286e-06   9.648644245798758e-07   -1.8391793480577773e-05
-2.1031227221667286e-06   9.648644245798758e-07   -1.8391793480577773e-05
-2.1031227221667286e-06   9.648644245798758e-07   -1.8391793480577773e-05
-2.1031227221667286e-06   9.648644245798758e-07   -1.8391793480577773e-05
-1.8142383160009055e-06   7.17544368407136e-07   -2.511055587324539e-05
-1.8142383160009055e-06   7.17544368407136e-07   -2.511055587324539e-05
-1.8142383160009055e-06   7.17544368407136e-07   -2.511055587324539e-05
-1.8142383160009055e-06   7.17544368407136e-07   -2.511055587324539e-05
-5.790004530044443e-06   1.7029268053837593e-06   -1.907550831202536e-05
-5.790004530044443e-06   1.7029268053837593e-06   -1.907550831202536e-05
-5.790004530044443e-06   1.7029268053837593e-06   -1.907550831202536e-05
-5.790004530044443e-06   1.7029268053837593e-06   -1.907550831202536e-05
-3.941906107596061e-06   7.511957040267758e-07   -2.1584633688625135e-05
-3.941906107596061e-06   7.511957040267758e-07   -2.1584633688625135e-05
-3.941906107596061e-06   7.511957040267758e-07   -2.1584633688625135e-05
-3.941906107596061e-06   7.511957040267758e-07   -2.1584633688625135e-05
-5.7900045300444275e-06   7.17544368407136e-07   -2.570178533543117e-05
-5.7900045300444275e-06   7.17544368407136e-07   -2.570178533543117e-05
-5.7900045300444275e-06   7.17544368407136e-07   -2.570178533543117e-05
-5.7900045300444275e-06   7.17544368407136e-07   -2.570178533543117e-05
-1.8142383160009055e-06   1.7029268053838677e-06   -1.8484278849839413e-05
-1.8142383160009055e-06   1.7029268053838677e-06   -1.8484278849839413e-05
-1.8142383160009055e-06   1.7029268053838677e-06   -1.8484278849839413e-05
-1.8142383160009055e-06   1.7029268053838677e-06   -1.8484278849839413e-05
-1.6128218848128088e-06   1.6351079212908754e-06   -2.581268188517566e-05
-1.6128218848128088e-06   1.6351079212908754e-06   -2.581268188517566e-05
-1.6128218848128088e-06   1.6351079212908754e-06   -2.581268188517566e-05
-1.6128218848128088e-06   1.6351079212908754e-06   -2.581268188517566e-05
-5.659565000891805e-06   2.5367459732920667e-06   -1.960909285624462e-05
-5.659565000891805e-06   2.5367459732920667e-06   -1.960909285624462e-05
-5.659565000891805e-06   2.5367459732920667e-06   -1.960909285624462e-05
-5.659565000891805e-06   2.5367459732920667e-06   -1.960909285624462e-05
-3.820286259040747e-06   1.4141152745398428e-06   -2.2000979006745063e-05
-3.820286259040747e-06   1.4141152745398428e-06   -2.2000979006745063e-05
-3.820286259040747e-06   1.4141152745398428e-06   -2.2000979006745063e-05
-3.820286259040747e-06   1.4141152745398428e-06   -2.2000979006745063e-05
-2.2965752149213146e-06   -1.681331153216407e-06   -1.3886523854054003e-05
-2.2965752149213146e-06   -1.681331153216407e-06   -1.3886523854054003e-05
-2.2965752149213146e-06   -1.681331153216407e-06   -1.3886523854054003e-05
-2.2965752149213146e-06   -1.681331153216407e-06   -1.3886523854054003e-05
4.688888392815238e-07   2.5678570081465006e-07   -8.114546984630696e-06
4.688888392815238e-07   2.5678570081465006e-07   -8.114546984630696e-06
4.688888392815238e-07   2.5678570081465006e-07   -8.114546984630696e-06
4.688888392815238e-07   2.5678570081465006e-07   -8.114546984630696e-06
1.500425309373856e-06   -1.1159480622453463e-06   -1.3248713202660523e-05
1.500425309373856e-06   -1.1159480622453463e-06   -1.3248713202660523e-05
1.500425309373856e-06   -1.1159480622453463e-06   -1.3248713202660523e-05
1.500425309373856e-06   -1.1159480622453463e-06   -1.3248713202660523e-05
-2.103122722166715e-06   8.770357668160889e-07   -8.43859011419624e-06
-2.103122722166715e-06   8.770357668160889e-07   -8.43859011419624e-06
-2.103122722166715e-06   8.770357668160889e-07   -8.43859011419624e-06
-2.103122722166715e-06   8.770357668160889e-07   -8.43859011419624e-06
-5.904152853472274e-07   -3.328520299769773e-07   -1.0233836497486467e-05
-5.904152853472274e-07   -3.328520299769773e-07   -1.0233836497486467e-05
-5.904152853472274e-07   -3.328520299769773e-07   -1.0233836497486467e-05
-5.904152853472274e-07   -3.328520299769773e-07   -1.0233836497486467e-05
-2.103122722166715e-06   -1.1159480622453463e-06   -1.444450350009726e-05
-2.103122722166715e-06   -1.1159480622453463e-06   -1.444450350009726e-05
-2.103122722166715e-06   -1.1159480622453463e-06   -1.444450350009726e-05
-2.103122722166715e-06   -1.1159480622453463e-06   -1.444450350009726e-05
1.500425309373856e-06   8.770357668160889e-07   -7.242799816759449e-06
1.500425309373856e-06   8.770357668160889e-07   -7.242799816759449e-06
1.500425309373856e-06   8.770357668160889e-07   -7.242799816759449e-06
1.500425309373856e-06   8.770357668160889e-07   -7.242799816759449e-06
2.3151724899523284e-06   -7.264035584662052e-07   -1.3965501400560942e-05
2.3151724899523284e-06   -7.264035584662052e-07   -1.3965501400560942e-05
2.3151724899523284e-06   -7.264035584662052e-07   -1.3965501400560942e-05
2.3151724899523284e-06   -7.264035584662052e-07   -1.3965501400560942e-05
-1.8142383160009055e-06   1.2254920316205143e-06   -8.25428741135755e-06
-1.8142383160009055e-06   1.2254920316205143e-06   -8.25428741135755e-06
-1.8142383160009055e-06   1.2254920316205143e-06   -8.25428741135755e-06
-1.8142383160009055e-06   1.2254920316205143e-06   -8.25428741135755e-06
-6.921256317390608e-08   -3.523670777914618e-08   -1.040622642242933e-05
-6.921256317390608e-08   -3.523670777914618e-08   -1.040622642242933e-05
-6.921256317390608e-08   -3.523670777914618e-08   -1.040622642242933e-05
-6.921256317390608e-08   -3.523670777914618e-08   -1.040622642242933e-05
-1.8142383160009055e-06   -7.264035584662052e-07   -1.5136638754613017e-05
-1.8142383160009055e-06   -7.264035584662052e-07   -1.5136638754613017e-05
-1.8142383160009055e-06   -7.264035584662052e-07   -1.5136638754613017e-05
-1.8142383160009055e-06   -7.264035584662052e-07   -1.5136638754613017e-05
2.3151724899523284e-06   1.2254920316205143e-06   -7.083150057305408e-06
2.3151724899523284e-06   1.2254920316205143e-06   -7.083150057305408e-06
2.3151724899523284e-06   1.2254920316205143e-06   -7.083150057305408e-06
2.3151724899523284e-06   1.2254920316205143e-06   -7.083150057305408e-06
3.34474049934629e-06   3.790867677936922e-08   -1.5638586402301583e-05
3.34474049934629e-06   3.790867677936922e-08   -1.5638586402301583e-05
3.34474049934629e-06   3.790867677936922e-08   -1.5638586402301583e-05
3.34474049934629e-06   3.790867677936922e-08   -1.5638586402301583e-05
-1.6128218848128088e-06   1.841702272849504e-06   -8.458258586344834e-06
-1.6128218848128088e-06   1.841702272849504e-06   -8.458258586344834e-06
-1.6128218848128088e-06   1.841702272849504e-06   -8.458258586344834e-06
-1.6128218848128088e-06   1.841702272849504e-06   -8.458258586344834e-06
3.8174870204053216e-07   3.0274726839406643e-07   -1.085916989509414e-05
3.8174870204053216e-07   3.0274726839406643e-07   -1.085916989509414e-05
3.8174870204053216e-07   3.0274726839406643e-07   -1.085916989509414e-05
3.8174870204053216e-07   3.0274726839406643e-07   -1.085916989509414e-05
-6.521445603751679e-06   1.2344863468296934e-06   -1.1758874828575255e-05
-6.521445603751679e-06   1.2344863468296934e-06   -1.1758874828575255e-05
-6.521445603751679e-06   1.2344863468296934e-06   -1.1758874828575255e-05
-6.521445603751679e-06   1.2344863468296934e-06   -1.1758874828575255e-05
-6.652958623568143e-06   -5.808263037812827e-07   -1.3067250785302588e-05
-6.652958623568143e-06   -5.808263037812827e-07   -1.3067250785302588e-05
-6.652958623568143e-06   -5.808263037812827e-07   -1.3067250785302588e-05
-6.652958623568143e-06   -5.808263037812827e-07   -1.3067250785302588e-05
-6.322275801936964e-06   1.9258063771754883e-06   -1.1049397474253769e-05
-6.322275801936964e-06   1.9258063771754883e-06   -1.1049397474253769e-05
-6.322275801936964e-06   1.9258063771754883e-06   -1.1049397474253769e-05
-6.322275801936964e-06   1.9258063771754883e-06   -1.1049397474253769e-05
-5.374451026957718e-06   -2.2437807332834417e-08   -1.14601589218475e-05
-5.374451026957718e-06   -2.2437807332834417e-08   -1.14601589218475e-05
-5.374451026957718e-06   -2.2437807332834417e-08   -1.14601589218475e-05
-5.374451026957718e-06   -2.2437807332834417e-08   -1.14601589218475e-05
-5.94620263183724e-06   8.501050711392285e-07   -1.103076530746533e-05
-5.94620263183724e-06   8.501050711392285e-07   -1.103076530746533e-05
-5.94620263183724e-06   8.501050711392285e-07   -1.103076530746533e-05
-5.94620263183724e-06   8.501050711392285e-07   -1.103076530746533e-05
-5.374451026957718e-06   1.9258063771754883e-06   -9.880450963548819e-06
-5.374451026957718e-06   1.9258063771754883e-06   -9.880450963548819e-06
-5.374451026957718e-06   1.9258063771754883e-06   -9.880450963548819e-06
-5.374451026957718e-06   1.9258063771754883e-06   -9.880450963548819e-06
-6.322275801936964e-06   -2.2437807332834417e-08   -1.262910543255253e-05
-6.322275801936964e-06   -2.2437807332834417e-08   -1.262910543255253e-05
-6.322275801936964e-06   -2.2437807332834417e-08   -1.262910543255253e-05
-6.322275801936964e-06   -2.2437807332834417e-08   -1.262910543255253e-05
-5.904608489475403e-06   2.27589413395431e-06   -1.0253520377808117e-05
-5.904608489475403e-06   2.27589413395431e-06   -1.0253520377808117e-05
-5.904608489475403e-06   2.27589413395431e-06   -1.0253520377808117e-05
-5.904608489475403e-06   2.27589413395431e-06   -1.0253520377808117e-05
-4.427431527126766e-06   2.9435498071959075e-07   -1.152655848978164e-05
-4.427431527126766e-06   2.9435498071959075e-07   -1.152655848978164e-05
-4.427431527126766e-06   2.9435498071959075e-07   -1.152655848978164e-05
-4.427431527126766e-06   2.9435498071959075e-07   -1.152655848978164e-05
-5.404571163182794e-06   1.137296313032392e-06   -1.0403757229076292e-05
-5.404571163182794e-06   1.137296313032392e-06   -1.0403757229076292e-05
-5.404571163182794e-06   1.137296313032392e-06   -1.0403757229076292e-05
-5.404571163182794e-06   1.137296313032392e-06   -1.0403757229076292e-05
-4.427431527126739e-06   2.27589413395431e-06   -9.064596885867264e-06
-4.427431527126739e-06   2.27589413395431e-06   -9.064596885867264e-06
-4.427431527126739e-06   2.27589413395431e-06   -9.064596885867264e-06
-4.427431527126739e-06   2.27589413395431e-06   -9.064596885867264e-06
-5.904608489475403e-06   2.943549807198076e-07   -1.2715481981722331e-05
-5.904608489475403e-06   2.943549807198076e-07   -1.2715481981722331e-05
-5.904608489475403e-06   2.943549807198076e-07   -1.2715481981722331e-05
-5.904608489475403e-06   2.943549807198076e-07   -1.2715481981722331e-05
-5.580073903023767e-06   2.8308415972051184e-06   -9.515274669517361e-06
-5.580073903023767e-06   2.8308415972051184e-06   -9.515274669517361e-06
-5.580073903023767e-06   2.8308415972051184e-06   -9.515274669517361e-06
-5.580073903023767e-06   2.8308415972051184e-06   -9.515274669517361e-06
-3.2581646024756807e-06   9.258584090596905e-07   -1.224213359087695e-05
-3.2581646024756807e-06   9.258584090596905e-07   -1.224213359087695e-05
-3.2581646024756807e-06   9.258584090596905e-07   -1.224213359087695e-05
-3.2581646024756807e-06   9.258584090596905e-07   -1.224213359087695e-05
-4.728668296566062e-06   1.413679661123519e-06   -1.0083986851964599e-05
-4.728668296566062e-06   1.413679661123519e-06   -1.0083986851964599e-05
-4.728668296566062e-06   1.413679661123519e-06   -1.0083986851964599e-05
-4.728668296566062e-06   1.413679661123519e-06   -1.0083986851964599e-05
-6.652958623568143e-06   7.130459468210597e-07   -2.1429789766614954e-05
-6.652958623568143e-06   7.130459468210597e-07   -2.1429789766614954e-05
-6.652958623568143e-06   7.130459468210597e-07   -2.1429789766614954e-05
-6.652958623568143e-06   7.130459468210597e-07   -2.1429789766614954e-05
-7.699532924762746e-06   -1.2281757894613658e-07   -2.3675598384066438e-05
-7.699532924762746e-06   -1.2281757894613658e-07   -2.3675598384066438e-05
-7.699532924762746e-06   -1.2281757894613658e-07   -2.3675598384066438e-05
-7.699532924762746e-06   -1.2281757894613658e-07   -2.3675598384066438e-05
-7.433333912391682e-06   1.5061879482743167e-06   -2.1444672428550036e-05
-7.433333912391682e-06   1.5061879482743167e-06   -2.1444672428550036e-05
-7.433333912391682e-06   1.5061879482743167e-06   -2.1444672428550036e-05
-7.433333912391682e-06   1.5061879482743167e-06   -2.1444672428550036e-05
-6.322275801936964e-06   5.823258452165338e-07   -2.2742118684139604e-05
-6.322275801936964e-06   5.823258452165338e-07   -2.2742118684139604e-05
-6.322275801936964e-06   5.823258452165338e-07   -2.2742118684139604e-05
-6.322275801936964e-06   5.823258452165338e-07   -2.2742118684139604e-05
-6.9452573004092795e-06   8.253009304609767e-07   -2.1849601237832904e-05
-6.9452573004092795e-06   8.253009304609767e-07   -2.1849601237832904e-05
-6.9452573004092795e-06   8.253009304609767e-07   -2.1849601237832904e-05
-6.9452573004092795e-06   8.253009304609767e-07   -2.1849601237832904e-05
-6.322275801936937e-06   1.5061879482743167e-06   -2.089035516671502e-05
-6.322275801936937e-06   1.5061879482743167e-06   -2.089035516671502e-05
-6.322275801936937e-06   1.5061879482743167e-06   -2.089035516671502e-05
-6.322275801936937e-06   1.5061879482743167e-06   -2.089035516671502e-05
-7.433333912391669e-06   5.823258452163169e-07   -2.329643594597454e-05
-7.433333912391669e-06   5.823258452163169e-07   -2.329643594597454e-05
-7.433333912391669e-06   5.823258452163169e-07   -2.329643594597454e-05
-7.433333912391669e-06   5.823258452163169e-07   -2.329643594597454e-05
-7.1563878785336105e-06   2.2443556794087645e-06   -2.126475025787146e-05
-7.1563878785336105e-06   2.2443556794087645e-06   -2.126475025787146e-05
-7.1563878785336105e-06   2.2443556794087645e-06   -2.126475025787146e-05
-7.1563878785336105e-06   2.2443556794087645e-06   -2.126475025787146e-05
-5.90460848947543e-06   1.2618281259415328e-06   -2.2761532707554684e-05
-5.90460848947543e-06   1.2618281259415328e-06   -2.2761532707554684e-05
-5.90460848947543e-06   1.2618281259415328e-06   -2.2761532707554684e-05
-5.90460848947543e-06   1.2618281259415328e-06   -2.2761532707554684e-05
-6.678599941857958e-06   1.3945761868295247e-06   -2.1551195790116756e-05
-6.678599941857958e-06   1.3945761868295247e-06   -2.1551195790116756e-05
-6.678599941857958e-06   1.3945761868295247e-06   -2.1551195790116756e-05
-6.678599941857958e-06   1.3945761868295247e-06   -2.1551195790116756e-05
-5.904608489475403e-06   2.2443556794087645e-06   -2.067523372579111e-05
-5.904608489475403e-06   2.2443556794087645e-06   -2.067523372579111e-05
-5.904608489475403e-06   2.2443556794087645e-06   -2.067523372579111e-05
-5.904608489475403e-06   2.2443556794087645e-06   -2.067523372579111e-05
-7.156387878533583e-06   1.261828125941316e-06   -2.3351049239635007e-05
-7.156387878533583e-06   1.261828125941316e-06   -2.3351049239635007e-05
-7.156387878533583e-06   1.261828125941316e-06   -2.3351049239635007e-05
-7.156387878533583e-06   1.261828125941316e-06   -2.3351049239635007e-05
-6.895899383873821e-06   3.0652429808126743e-06   -2.1617206905252297e-05
-6.895899383873821e-06   3.0652429808126743e-06   -2.1617206905252297e-05
-6.895899383873821e-06   3.0652429808126743e-06   -2.1617206905252297e-05
-6.895899383873821e-06   3.0652429808126743e-06   -2.1617206905252297e-05
-5.580073903023794e-06   2.038369824367524e-06   -2.319412547946846e-05
-5.580073903023794e-06   2.038369824367524e-06   -2.319412547946846e-05
-5.580073903023794e-06   2.038369824367524e-06   -2.319412547946846e-05
-5.580073903023794e-06   2.038369824367524e-06   -2.319412547946846e-05
-6.444398016330819e-06   1.9924441240492e-06   -2.172602987043245e-05
-6.444398016330819e-06   1.9924441240492e-06   -2.172602987043245e-05
-6.444398016330819e-06   1.9924441240492e-06   -2.172602987043245e-05
-6.444398016330819e-06   1.9924441240492e-06   -2.172602987043245e-05
-7.699532924762705e-06   4.1151657130815596e-07   -2.4965901539196597e-05
-7.699532924762705e-06   4.1151657130815596e-07   -2.4965901539196597e-05
-7.699532924762705e-06   4.1151657130815596e-07   -2.4965901539196597e-05
-7.699532924762705e-06   4.1151657130815596e-07   -2.4965901539196597e-05
-8.796951713105708e-06   5.889352011436734e-07   -2.6688481675200132e-05
-8.796951713105708e-06   5.889352011436734e-07   -2.6688481675200132e-05
-8.796951713105708e-06   5.889352011436734e-07   -2.6688481675200132e-05
-8.796951713105708e-06   5.889352011436734e-07   -2.6688481675200132e-05
-8.535574678223769e-06   1.2200984848099528e-06   -2.4579513360229593e-05
-8.535574678223769e-06   1.2200984848099528e-06   -2.4579513360229593e-05
-8.535574678223769e-06   1.2200984848099528e-06   -2.4579513360229593e-05
-8.535574678223769e-06   1.2200984848099528e-06   -2.4579513360229593e-05
-7.433333912391682e-06   1.3185419490680233e-06   -2.6475647381837922e-05
-7.433333912391682e-06   1.3185419490680233e-06   -2.6475647381837922e-05
-7.433333912391682e-06   1.3185419490680233e-06   -2.6475647381837922e-05
-7.433333912391682e-06   1.3185419490680233e-06   -2.6475647381837922e-05
-8.067458839856632e-06   9.986450059851389e-07   -2.522683433688004e-05
-8.067458839856632e-06   9.986450059851389e-07   -2.522683433688004e-05
-8.067458839856632e-06   9.986450059851389e-07   -2.522683433688004e-05
-8.067458839856632e-06   9.986450059851389e-07   -2.522683433688004e-05
-7.433333912391655e-06   1.2200984848099528e-06   -2.4638579438784447e-05
-7.433333912391655e-06   1.2200984848099528e-06   -2.4638579438784447e-05
-7.433333912391655e-06   1.2200984848099528e-06   -2.4638579438784447e-05
-7.433333912391655e-06   1.2200984848099528e-06   -2.4638579438784447e-05
-8.535574678223784e-06   1.3185419490680233e-06   -2.6416581303283205e-05
-8.535574678223784e-06   1.3185419490680233e-06   -2.6416581303283205e-05
-8.535574678223784e-06   1.3185419490680233e-06   -2.6416581303283205e-05
-8.535574678223784e-06   1.3185419490680233e-06   -2.6416581303283205e-05
-8.260311913967076e-06   2.035729519012097e-06   -2.4650154195922608e-05
-8.260311913967076e-06   2.035729519012097e-06   -2.4650154195922608e-05
-8.260311913967076e-06   2.035729519012097e-06   -2.4650154195922608e-05
-8.260311913967076e-06   2.035729519012097e-06   -2.4650154195922608e-05
-7.1563878785336105e-06   2.0640636588598396e-06   -2.6507028072220298e-05
-7.1563878785336105e-06   2.0640636588598396e-06   -2.6507028072220298e-05
-7.1563878785336105e-06   2.0640636588598396e-06   -2.6507028072220298e-05
-7.1563878785336105e-06   2.0640636588598396e-06   -2.6507028072220298e-05
-7.848640238319656e-06   1.6233164963519887e-06   -2.508882584173918e-05
-7.848640238319656e-06   1.6233164963519887e-06   -2.508882584173918e-05
-7.848640238319656e-06   1.6233164963519887e-06   -2.508882584173918e-05
-7.848640238319656e-06   1.6233164963519887e-06   -2.508882584173918e-05
-7.156387878533583e-06   2.035729519012097e-06   -2.4667154679831307e-05
-7.156387878533583e-06   2.035729519012097e-06   -2.4667154679831307e-05
-7.156387878533583e-06   2.035729519012097e-06   -2.4667154679831307e-05
-7.156387878533583e-06   2.035729519012097e-06   -2.4667154679831307e-05
-8.260311913967076e-06   2.0640636588598396e-06   -2.6490027588311625e-05
-8.260311913967076e-06   2.0640636588598396e-06   -2.6490027588311625e-05
-8.260311913967076e-06   2.0640636588598396e-06   -2.6490027588311625e-05
-8.260311913967076e-06   2.0640636588598396e-06   -2.6490027588311625e-05
-8.000793965213285e-06   2.8637096575771445e-06   -2.512864080109786e-05
-8.000793965213285e-06   2.8637096575771445e-06   -2.512864080109786e-05
-8.000793965213285e-06   2.8637096575771445e-06   -2.512864080109786e-05
-8.000793965213285e-06   2.8637096575771445e-06   -2.512864080109786e-05
-6.895899383873821e-06   2.8199632308083082e-06   -2.6943883913935538e-05
-6.895899383873821e-06   2.8199632308083082e-06   -2.6943883913935538e-05
-6.895899383873821e-06   2.8199632308083082e-06   -2.6943883913935538e-05
-6.895899383873821e-06   2.8199632308083082e-06   -2.6943883913935538e-05
-7.647569486876967e-06   2.2567549455823534e-06   -2.535317543779473e-05
-7.647569486876967e-06   2.2567549455823534e-06   -2.535317543779473e-05
-7.647569486876967e-06   2.2567549455823534e-06   -2.535317543779473e-05
-7.647569486876967e-06   2.2567549455823534e-06   -2.535317543779473e-05
-8.796951713105678e-06   1.8103900321724507e-07   -2.1534921877082837e-05
-8.796951713105678e-06   1.8103900321724507e-07   -2.1534921877082837e-05
-8.796951713105678e-06   1.8103900321724507e-07   -2.1534921877082837e-05
-8.796951713105678e-06   1.8103900321724507e-07   -2.1534921877082837e-05
-9.959039571123556e-06   1.3073071357741495e-06   -2.2795974094245194e-05
-9.959039571123556e-06   1.3073071357741495e-06   -2.2795974094245194e-05
-9.959039571123556e-06   1.3073071357741495e-06   -2.2795974094245194e-05
-9.959039571123556e-06   1.3073071357741495e-06   -2.2795974094245194e-05
-9.642085942617213e-06   9.648644245798758e-07   -2.0585092360142585e-05
-9.642085942617213e-06   9.648644245798758e-07   -2.0585092360142585e-05
-9.642085942617213e-06   9.648644245798758e-07   -2.0585092360142585e-05
-9.642085942617213e-06   9.648644245798758e-07   -2.0585092360142585e-05
-8.535574678223769e-06   2.039790940322689e-06   -2.3074233710243706e-05
-8.535574678223769e-06   2.039790940322689e-06   -2.3074233710243706e-05
-8.535574678223769e-06   2.039790940322689e-06   -2.3074233710243706e-05
-8.535574678223769e-06   2.039790940322689e-06   -2.3074233710243706e-05
-9.161942884296111e-06   1.2045431347781303e-06   -2.1529138016796793e-05
-9.161942884296111e-06   1.2045431347781303e-06   -2.1529138016796793e-05
-9.161942884296111e-06   1.2045431347781303e-06   -2.1529138016796793e-05
-9.161942884296111e-06   1.2045431347781303e-06   -2.1529138016796793e-05
-8.535574678223754e-06   9.648644245798758e-07   -2.1230048269588154e-05
-8.535574678223754e-06   9.648644245798758e-07   -2.1230048269588154e-05
-8.535574678223754e-06   9.648644245798758e-07   -2.1230048269588154e-05
-8.535574678223754e-06   9.648644245798758e-07   -2.1230048269588154e-05
-9.642085942617213e-06   2.039790940322689e-06   -2.2429277800798232e-05
-9.642085942617213e-06   2.039790940322689e-06   -2.2429277800798232e-05
-9.642085942617213e-06   2.039790940322689e-06   -2.2429277800798232e-05
-9.642085942617213e-06   2.039790940322689e-06   -2.2429277800798232e-05
-9.230891633753855e-06   1.7029268053837593e-06   -2.0671851531693403e-05
-9.230891633753855e-06   1.7029268053837593e-06   -2.0671851531693403e-05
-9.230891633753855e-06   1.7029268053837593e-06   -2.0671851531693403e-05
-9.230891633753855e-06   1.7029268053837593e-06   -2.0671851531693403e-05
-8.260311913967062e-06   2.7150180744199212e-06   -2.2896739159426414e-05
-8.260311913967062e-06   2.7150180744199212e-06   -2.2896739159426414e-05
-8.260311913967062e-06   2.7150180744199212e-06   -2.2896739159426414e-05
-8.260311913967062e-06   2.7150180744199212e-06   -2.2896739159426414e-05
-8.878575637479295e-06   1.78612201181161e-06   -2.1308961982674664e-05
-8.878575637479295e-06   1.78612201181161e-06   -2.1308961982674664e-05
-8.878575637479295e-06   1.78612201181161e-06   -2.1308961982674664e-05
-8.878575637479295e-06   1.78612201181161e-06   -2.1308961982674664e-05
-8.260311913967042e-06   1.7029268053837593e-06   -2.1279106293115013e-05
-8.260311913967042e-06   1.7029268053837593e-06   -2.1279106293115013e-05
-8.260311913967042e-06   1.7029268053837593e-06   -2.1279106293115013e-05
-8.260311913967042e-06   1.7029268053837593e-06   -2.1279106293115013e-05
-9.230891633753875e-06   2.715018074420138e-06   -2.228948439800466e-05
-9.230891633753875e-06   2.715018074420138e-06   -2.228948439800466e-05
-9.230891633753875e-06   2.715018074420138e-06   -2.228948439800466e-05
-9.230891633753875e-06   2.715018074420138e-06   -2.228948439800466e-05
-8.908263856782225e-06   2.536745973292175e-06   -2.1245088778836364e-05
-8.908263856782225e-06   2.536745973292175e-06   -2.1245088778836364e-05
-8.908263856782225e-06   2.536745973292175e-06   -2.1245088778836364e-05
-8.908263856782225e-06   2.536745973292175e-06   -2.1245088778836364e-05
-8.000793965213285e-06   3.4709530367757913e-06   -2.3318062836208048e-05
-8.000793965213285e-06   3.4709530367757913e-06   -2.3318062836208048e-05
-8.000793965213285e-06   3.4709530367757913e-06   -2.3318062836208048e-05
-8.000793965213285e-06   3.4709530367757913e-06   -2.3318062836208048e-05
-8.667672485969031e-06   2.3798082084435825e-06   -2.1551911737948964e-05
-8.667672485969031e-06   2.3798082084435825e-06   -2.1551911737948964e-05
-8.667672485969031e-06   2.3798082084435825e-06   -2.1551911737948964e-05
-8.667672485969031e-06   2.3798082084435825e-06   -2.1551911737948964e-05
-9.959039571123522e-06   2.5678570081465006e-07   -1.1469710006267438e-05
-9.959039571123522e-06   2.5678570081465006e-07   -1.1469710006267438e-05
-9.959039571123522e-06   2.5678570081465006e-07   -1.1469710006267438e-05
-9.959039571123522e-06   2.5678570081465006e-07   -1.1469710006267438e-05
-1.209114356894695e-05   2.1999296314554034e-06   -1.38573303109221e-05
-1.209114356894695e-05   2.1999296314554034e-06   -1.38573303109221e-05
-1.209114356894695e-05   2.1999296314554034e-06   -1.38573303109221e-05
-1.209114356894695e-05   2.1999296314554034e-06   -1.38573303109221e-05
-1.0955169946854731e-05   8.770357668160889e-07   -9.439297081363337e-06
-1.0955169946854731e-05   8.770357668160889e-07   -9.439297081363337e-06
-1.0955169946854731e-05   8.770357668160889e-07   -9.439297081363337e-06
-1.0955169946854731e-05   8.770357668160889e-07   -9.439297081363337e-06
-9.642085942617193e-06   2.864688954145895e-06   -1.282036233415697e-05
-9.642085942617193e-06   2.864688954145895e-06   -1.282036233415697e-05
-9.642085942617193e-06   2.864688954145895e-06   -1.282036233415697e-05
-9.642085942617193e-06   2.864688954145895e-06   -1.282036233415697e-05
-1.0230403102893782e-05   1.6291946820813901e-06   -1.1098537170457578e-05
-1.0230403102893782e-05   1.6291946820813901e-06   -1.1098537170457578e-05
-1.0230403102893782e-05   1.6291946820813901e-06   -1.1098537170457578e-05
-1.0230403102893782e-05   1.6291946820813901e-06   -1.1098537170457578e-05
-9.642085942617166e-06   8.770357668160889e-07   -1.063188899376108e-05
-9.642085942617166e-06   8.770357668160889e-07   -1.063188899376108e-05
-9.642085942617166e-06   8.770357668160889e-07   -1.063188899376108e-05
-9.642085942617166e-06   8.770357668160889e-07   -1.063188899376108e-05
-1.0955169946854704e-05   2.864688954145678e-06   -1.1627770421759106e-05
-1.0955169946854704e-05   2.864688954145678e-06   -1.1627770421759106e-05
-1.0955169946854704e-05   2.864688954145678e-06   -1.1627770421759106e-05
-1.0955169946854704e-05   2.864688954145678e-06   -1.1627770421759106e-05
-1.0031215441440213e-05   1.2254920316204058e-06   -9.27575545061173e-06
-1.0031215441440213e-05   1.2254920316204058e-06   -9.27575545061173e-06
-1.0031215441440213e-05   1.2254920316204058e-06   -9.27575545061173e-06
-1.0031215441440213e-05   1.2254920316204058e-06   -9.27575545061173e-06
-9.230891633753855e-06   3.168999769286897e-06   -1.1775733106022084e-05
-9.230891633753855e-06   3.168999769286897e-06   -1.1775733106022084e-05
-9.230891633753855e-06   3.168999769286897e-06   -1.1775733106022084e-05
-9.230891633753855e-06   3.168999769286897e-06   -1.1775733106022084e-05
-9.748956751889084e-06   1.9377809070098787e-06   -1.0173559925097321e-05
-9.748956751889084e-06   1.9377809070098787e-06   -1.0173559925097321e-05
-9.748956751889084e-06   1.9377809070098787e-06   -1.0173559925097321e-05
-9.748956751889084e-06   1.9377809070098787e-06   -1.0173559925097321e-05
-9.230891633753841e-06   1.2254920316204058e-06   -1.0441860093211527e-05
-9.230891633753841e-06   1.2254920316204058e-06   -1.0441860093211527e-05
-9.230891633753841e-06   1.2254920316204058e-06   -1.0441860093211527e-05
-9.230891633753841e-06   1.2254920316204058e-06   -1.0441860093211527e-05
-1.0031215441440213e-05   3.168999769286897e-06   -1.0609628463422328e-05
-1.0031215441440213e-05   3.168999769286897e-06   -1.0609628463422328e-05
-1.0031215441440213e-05   3.168999769286897e-06   -1.0609628463422328e-05
-1.0031215441440213e-05   3.168999769286897e-06   -1.0609628463422328e-05
-8.899440713089704e-06   1.8417022728493956e-06   -9.55709127755896e-06
-8.899440713089704e-06   1.8417022728493956e-06   -9.55709127755896e-06
-8.899440713089704e-06   1.8417022728493956e-06   -9.55709127755896e-06
-8.899440713089704e-06   1.8417022728493956e-06   -9.55709127755896e-06
-8.908263856782211e-06   3.6386123771470734e-06   -1.062053210064976e-05
-8.908263856782211e-06   3.6386123771470734e-06   -1.062053210064976e-05
-8.908263856782211e-06   3.6386123771470734e-06   -1.062053210064976e-05
-8.908263856782211e-06   3.6386123771470734e-06   -1.062053210064976e-05
-9.034592773950993e-06   2.185978388971003e-06   -9.538403512462988e-06
-9.034592773950993e-06   2.185978388971003e-06   -9.538403512462988e-06
-9.034592773950993e-06   2.185978388971003e-06   -9.538403512462988e-06
-9.034592773950993e-06   2.185978388971003e-06   -9.538403512462988e-06
5.880432800127217e-06   -5.808263037810658e-07   -5.912941900791148e-06
5.880432800127217e-06   -5.808263037810658e-07   -5.912941900791148e-06
5.880432800127217e-06   -5.808263037810658e-07   -5.912941900791148e-06
5.880432800127217e-06   -5.808263037810658e-07   -5.912941900791148e-06
6.114421031951968e-07   -2.4244414113736013e-06   -1.5800762126899897e-05
6.114421031951968e-07   -2.4244414113736013e-06   -1.5800762126899897e-05
6.114421031951968e-07   -2.4244414113736013e-06   -1.5800762126899897e-05
6.114421031951968e-07   -2.4244414113736013e-06   -1.5800762126899897e-05
1.0641910898528191e-06   -2.2437807332834417e-08   -6.542172303682504e-06
1.0641910898528191e-06   -2.2437807332834417e-08   -6.542172303682504e-06
1.0641910898528191e-06   -2.2437807332834417e-08   -6.542172303682504e-06
1.0641910898528191e-06   -2.2437807332834417e-08   -6.542172303682504e-06
7.153580740505033e-06   -1.993449837575439e-06   -1.5508547836623845e-05
7.153580740505033e-06   -1.993449837575439e-06   -1.5508547836623845e-05
7.153580740505033e-06   -1.993449837575439e-06   -1.5508547836623845e-05
7.153580740505033e-06   -1.993449837575439e-06   -1.5508547836623845e-05
3.5398141384156948e-06   -1.0134968174823483e-06   -1.0073575311864266e-05
3.5398141384156948e-06   -1.0134968174823483e-06   -1.0073575311864266e-05
3.5398141384156948e-06   -1.0134968174823483e-06   -1.0073575311864266e-05
3.5398141384156948e-06   -1.0134968174823483e-06   -1.0073575311864266e-05
7.15358074050506e-06   -2.2437807332834417e-08   -5.359565085536985e-06
7.15358074050506e-06   -2.2437807332834417e-08   -5.359565085536985e-06
7.15358074050506e-06   -2.2437807332834417e-08   -5.359565085536985e-06
7.15358074050506e-06   -2.2437807332834417e-08   -5.359565085536985e-06
1.0641910898528191e-06   -1.993449837575439e-06   -1.6691155054769635e-05
1.0641910898528191e-06   -1.993449837575439e-06   -1.6691155054769635e-05
1.0641910898528191e-06   -1.993449837575439e-06   -1.6691155054769635e-05
1.0641910898528191e-06   -1.993449837575439e-06   -1.6691155054769635e-05
1.5983778856756663e-06   2.9435498071959075e-07   -6.595509917397776e-06
1.5983778856756663e-06   2.9435498071959075e-07   -6.595509917397776e-06
1.5983778856756663e-06   2.9435498071959075e-07   -6.595509917397776e-06
1.5983778856756663e-06   2.9435498071959075e-07   -6.595509917397776e-06
8.2281500831043e-06   -1.7050524426342854e-06   -1.6445485792433105e-05
8.2281500831043e-06   -1.7050524426342854e-06   -1.6445485792433105e-05
8.2281500831043e-06   -1.7050524426342854e-06   -1.6445485792433105e-05
8.2281500831043e-06   -1.7050524426342854e-06   -1.6445485792433105e-05
4.346261814439407e-06   -8.114468324940498e-07   -1.0511835377409603e-05
4.346261814439407e-06   -8.114468324940498e-07   -1.0511835377409603e-05
4.346261814439407e-06   -8.114468324940498e-07   -1.0511835377409603e-05
4.346261814439407e-06   -8.114468324940498e-07   -1.0511835377409603e-05
8.228150083104327e-06   2.9435498071959075e-07   -5.395865463385472e-06
8.228150083104327e-06   2.9435498071959075e-07   -5.395865463385472e-06
8.228150083104327e-06   2.9435498071959075e-07   -5.395865463385472e-06
8.228150083104327e-06   2.9435498071959075e-07   -5.395865463385472e-06
1.5983778856756392e-06   -1.7050524426342854e-06   -1.764513024644557e-05
1.5983778856756392e-06   -1.7050524426342854e-06   -1.764513024644557e-05
1.5983778856756392e-06   -1.7050524426342854e-06   -1.764513024644557e-05
1.5983778856756392e-06   -1.7050524426342854e-06   -1.764513024644557e-05
2.036906359512608e-06   9.258584090596905e-07   -7.235503645616607e-06
2.036906359512608e-06   9.258584090596905e-07   -7.235503645616607e-06
2.036906359512608e-06   9.258584090596905e-07   -7.235503645616607e-06
2.036906359512608e-06   9.258584090596905e-07   -7.235503645616607e-06
9.519113830917499e-06   -9.794005059952492e-07   -1.8562694082258427e-05
9.519113830917499e-06   -9.794005059952492e-07   -1.8562694082258427e-05
9.519113830917499e-06   -9.794005059952492e-07   -1.8562694082258427e-05
9.519113830917499e-06   -9.794005059952492e-07   -1.8562694082258427e-05
4.98524647071792e-06   -5.13809149774256e-07   -1.1285603295658911e-05
4.98524647071792e-06   -5.13809149774256e-07   -1.1285603295658911e-05
4.98524647071792e-06   -5.13809149774256e-07   -1.1285603295658911e-05
4.98524647071792e-06   -5.13809149774256e-07   -1.1285603295658911e-05
6.114421031951968e-07   -1.2281757894635342e-07   -1.712594044865005e-05
6.114421031951968e-07   -1.2281757894635342e-07   -1.712594044865005e-05
6.114421031951968e-07   -1.2281757894635342e-07   -1.712594044865005e-05
6.114421031951968e-07   -1.2281757894635342e-07   -1.712594044865005e-05
-5.517788407990513e-06   -9.546163312400095e-07   -2.784040388533588e-05
-5.517788407990513e-06   -9.546163312400095e-07   -2.784040388533588e-05
-5.517788407990513e-06   -9.546163312400095e-07   -2.784040388533588e-05
-5.517788407990513e-06   -9.546163312400095e-07   -2.784040388533588e-05
-5.121561655225279e-06   5.823258452163169e-07   -1.7222114906210312e-05
-5.121561655225279e-06   5.823258452163169e-07   -1.7222114906210312e-05
-5.121561655225279e-06   5.823258452163169e-07   -1.7222114906210312e-05
-5.121561655225279e-06   5.823258452163169e-07   -1.7222114906210312e-05
1.0641910898528191e-06   -3.625564063513935e-07   -2.69647734637332e-05
1.0641910898528191e-06   -3.625564063513935e-07   -2.69647734637332e-05
1.0641910898528191e-06   -3.625564063513935e-07   -2.69647734637332e-05
1.0641910898528191e-06   -3.625564063513935e-07   -2.69647734637332e-05
-2.1894127130744724e-06   -3.2744200777678686e-08   -2.1739987782198433e-05
-2.1894127130744724e-06   -3.2744200777678686e-08   -2.1739987782198433e-05
-2.1894127130744724e-06   -3.2744200777678686e-08   -2.1739987782198433e-05
-2.1894127130744724e-06   -3.2744200777678686e-08   -2.1739987782198433e-05
1.0641910898528462e-06   5.823258452165338e-07   -1.6655185555269686e-05
1.0641910898528462e-06   5.823258452165338e-07   -1.6655185555269686e-05
1.0641910898528462e-06   5.823258452165338e-07   -1.6655185555269686e-05
1.0641910898528462e-06   5.823258452165338e-07   -1.6655185555269686e-05
-5.121561655225279e-06   -3.625564063513935e-07   -2.753170281467388e-05
-5.121561655225279e-06   -3.625564063513935e-07   -2.753170281467388e-05
-5.121561655225279e-06   -3.625564063513935e-07   -2.753170281467388e-05
-5.121561655225279e-06   -3.625564063513935e-07   -2.753170281467388e-05
-4.723036626748579e-06   1.261828125941316e-06   -1.724864537864157e-05
-4.723036626748579e-06   1.261828125941316e-06   -1.724864537864157e-05
-4.723036626748579e-06   1.261828125941316e-06   -1.724864537864157e-05
-4.723036626748579e-06   1.261828125941316e-06   -1.724864537864157e-05
1.5983778856756663e-06   2.5002023358870924e-07   -2.7177251497270384e-05
1.5983778856756663e-06   2.5002023358870924e-07   -2.7177251497270384e-05
1.5983778856756663e-06   2.5002023358870924e-07   -2.7177251497270384e-05
1.5983778856756663e-06   2.5002023358870924e-07   -2.7177251497270384e-05
-1.8390515093722956e-06   4.542736353363875e-07   -2.157075454657241e-05
-1.8390515093722956e-06   4.542736353363875e-07   -2.157075454657241e-05
-1.8390515093722956e-06   4.542736353363875e-07   -2.157075454657241e-05
-1.8390515093722956e-06   4.542736353363875e-07   -2.157075454657241e-05
1.5983778856756663e-06   1.2618281259415328e-06   -1.664156064322994e-05
1.5983778856756663e-06   1.2618281259415328e-06   -1.664156064322994e-05
1.5983778856756663e-06   1.2618281259415328e-06   -1.664156064322994e-05
1.5983778856756663e-06   1.2618281259415328e-06   -1.664156064322994e-05
-4.723036626748579e-06   2.500202335889261e-07   -2.7784336232682095e-05
-4.723036626748579e-06   2.500202335889261e-07   -2.7784336232682095e-05
-4.723036626748579e-06   2.500202335889261e-07   -2.7784336232682095e-05
-4.723036626748579e-06   2.500202335889261e-07   -2.7784336232682095e-05
-4.34257723003247e-06   2.038369824367524e-06   -1.7681902895146963e-05
-4.34257723003247e-06   2.038369824367524e-06   -1.7681902895146963e-05
-4.34257723003247e-06   2.038369824367524e-06   -1.7681902895146963e-05
-4.34257723003247e-06   2.038369824367524e-06   -1.7681902895146963e-05
2.036906359512608e-06   9.760410346574145e-07   -2.7676978270562618e-05
2.036906359512608e-06   9.760410346574145e-07   -2.7676978270562618e-05
2.036906359512608e-06   9.760410346574145e-07   -2.7676978270562618e-05
2.036906359512608e-06   9.760410346574145e-07   -2.7676978270562618e-05
-1.4482667977305455e-06   9.947224473122983e-07   -2.1879565189417442e-05
-1.4482667977305455e-06   9.947224473122983e-07   -2.1879565189417442e-05
-1.4482667977305455e-06   9.947224473122983e-07   -2.1879565189417442e-05
-1.4482667977305455e-06   9.947224473122983e-07   -2.1879565189417442e-05
-5.517788407990513e-06   5.889352011438902e-07   -2.0744354169061432e-05
-5.517788407990513e-06   5.889352011438902e-07   -2.0744354169061432e-05
-5.517788407990513e-06   5.889352011438902e-07   -2.0744354169061432e-05
-5.517788407990513e-06   5.889352011438902e-07   -2.0744354169061432e-05
-1.1592112140929774e-05   7.421288554646834e-07   -3.0776310864701105e-05
-1.1592112140929774e-05   7.421288554646834e-07   -3.0776310864701105e-05
-1.1592112140929774e-05   7.421288554646834e-07   -3.0776310864701105e-05
-1.1592112140929774e-05   7.421288554646834e-07   -3.0776310864701105e-05
-1.1193275889753635e-05   1.3185419490682401e-06   -2.037087874761441e-05
-1.1193275889753635e-05   1.3185419490682401e-06   -2.037087874761441e-05
-1.1193275889753635e-05   1.3185419490682401e-06   -2.037087874761441e-05
-1.1193275889753635e-05   1.3185419490682401e-06   -2.037087874761441e-05
-5.121561655225279e-06   1.369287939834065e-06   -3.052085006628795e-05
-5.121561655225279e-06   1.369287939834065e-06   -3.052085006628795e-05
-5.121561655225279e-06   1.369287939834065e-06   -3.052085006628795e-05
-5.121561655225279e-06   1.369287939834065e-06   -3.052085006628795e-05
-8.30784817598004e-06   1.1325126127231452e-06   -2.5068307335429863e-05
-8.30784817598004e-06   1.1325126127231452e-06   -2.5068307335429863e-05
-8.30784817598004e-06   1.1325126127231452e-06   -2.5068307335429863e-05
-8.30784817598004e-06   1.1325126127231452e-06   -2.5068307335429863e-05
-5.121561655225279e-06   1.3185419490680233e-06   -2.0401326342073993e-05
-5.121561655225279e-06   1.3185419490680233e-06   -2.0401326342073993e-05
-5.121561655225279e-06   1.3185419490680233e-06   -2.0401326342073993e-05
-5.121561655225279e-06   1.3185419490680233e-06   -2.0401326342073993e-05
-1.1193275889753635e-05   1.369287939834065e-06   -3.049040247182842e-05
-1.1193275889753635e-05   1.369287939834065e-06   -3.049040247182842e-05
-1.1193275889753635e-05   1.369287939834065e-06   -3.049040247182842e-05
-1.1193275889753635e-05   1.369287939834065e-06   -3.049040247182842e-05
-1.0787738303744576e-05   2.0640636588598396e-06   -2.0423300957891086e-05
-1.0787738303744576e-05   2.0640636588598396e-06   -2.0423300957891086e-05
-1.0787738303744576e-05   2.0640636588598396e-06   -2.0423300957891086e-05
-1.0787738303744576e-05   2.0640636588598396e-06   -2.0423300957891086e-05
-4.7230366267485925e-06   2.03293574775284e-06   -3.0512460339553432e-05
-4.7230366267485925e-06   2.03293574775284e-06   -3.0512460339553432e-05
-4.7230366267485925e-06   2.03293574775284e-06   -3.0512460339553432e-05
-4.7230366267485925e-06   2.03293574775284e-06   -3.0512460339553432e-05
-7.957308939425886e-06   1.6803766239520748e-06   -2.4910471010811155e-05
-7.957308939425886e-06   1.6803766239520748e-06   -2.4910471010811155e-05
-7.957308939425886e-06   1.6803766239520748e-06   -2.4910471010811155e-05
-7.957308939425886e-06   1.6803766239520748e-06   -2.4910471010811155e-05
-4.7230366267485925e-06   2.0640636588598396e-06   -2.0404624211226778e-05
-4.7230366267485925e-06   2.0640636588598396e-06   -2.0404624211226778e-05
-4.7230366267485925e-06   2.0640636588598396e-06   -2.0404624211226778e-05
-4.7230366267485925e-06   2.0640636588598396e-06   -2.0404624211226778e-05
-1.0787738303744555e-05   2.03293574775284e-06   -3.0531137086217686e-05
-1.0787738303744555e-05   2.03293574775284e-06   -3.0531137086217686e-05
-1.0787738303744555e-05   2.03293574775284e-06   -3.0531137086217686e-05
-1.0787738303744555e-05   2.03293574775284e-06   -3.0531137086217686e-05
-1.0401089922461495e-05   2.8199632308083082e-06   -2.0882659809837796e-05
-1.0401089922461495e-05   2.8199632308083082e-06   -2.0882659809837796e-05
-1.0401089922461495e-05   2.8199632308083082e-06   -2.0882659809837796e-05
-1.0401089922461495e-05   2.8199632308083082e-06   -2.0882659809837796e-05
-4.342577230032483e-06   2.708092607323206e-06   -3.091305858979524e-05
-4.342577230032483e-06   2.708092607323206e-06   -3.091305858979524e-05
-4.342577230032483e-06   2.708092607323206e-06   -3.091305858979524e-05
-4.342577230032483e-06   2.708092607323206e-06   -3.091305858979524e-05
-7.631527112561561e-06   2.2366055514257046e-06   -2.5148583218708608e-05
-7.631527112561561e-06   2.2366055514257046e-06   -2.5148583218708608e-05
-7.631527112561561e-06   2.2366055514257046e-06   -2.5148583218708608e-05
-7.631527112561561e-06   2.2366055514257046e-06   -2.5148583218708608e-05
-1.1592112140929792e-05   1.3073071357741495e-06   -1.743569127504827e-05
-1.1592112140929792e-05   1.3073071357741495e-06   -1.743569127504827e-05
-1.1592112140929792e-05   1.3073071357741495e-06   -1.743569127504827e-05
-1.1592112140929792e-05   1.3073071357741495e-06   -1.743569127504827e-05
-1.7600695676869858e-05   2.390870499092198e-06   -2.6799859150290826e-05
-1.7600695676869858e-05   2.390870499092198e-06   -2.6799859150290826e-05
-1.7600695676869858e-05   2.390870499092198e-06   -2.6799859150290826e-05
-1.7600695676869858e-05   2.390870499092198e-06   -2.6799859150290826e-05
-1.7144469841800452e-05   2.039790940322689e-06   -1.641618874319902e-05
-1.7144469841800452e-05   2.039790940322689e-06   -1.641618874319902e-05
-1.7144469841800452e-05   2.039790940322689e-06   -1.641618874319902e-05
-1.7144469841800452e-05   2.039790940322689e-06   -1.641618874319902e-05
-1.1193275889753635e-05   3.0603616259494964e-06   -2.6947187741319877e-05
-1.1193275889753635e-05   3.0603616259494964e-06   -2.6947187741319877e-05
-1.1193275889753635e-05   3.0603616259494964e-06   -2.6947187741319877e-05
-1.1193275889753635e-05   3.0603616259494964e-06   -2.6947187741319877e-05
-1.428292675098755e-05   2.286011591318181e-06   -2.1333159618484622e-05
-1.428292675098755e-05   2.286011591318181e-06   -2.1333159618484622e-05
-1.428292675098755e-05   2.286011591318181e-06   -2.1333159618484622e-05
-1.428292675098755e-05   2.286011591318181e-06   -2.1333159618484622e-05
-1.1193275889753654e-05   2.039790940322906e-06   -1.7028531154575062e-05
-1.1193275889753654e-05   2.039790940322906e-06   -1.7028531154575062e-05
-1.1193275889753654e-05   2.039790940322906e-06   -1.7028531154575062e-05
-1.1193275889753654e-05   2.039790940322906e-06   -1.7028531154575062e-05
-1.7144469841800486e-05   3.0603616259494964e-06   -2.6334845329943884e-05
-1.7144469841800486e-05   3.0603616259494964e-06   -2.6334845329943884e-05
-1.7144469841800486e-05   3.0603616259494964e-06   -2.6334845329943884e-05
-1.7144469841800486e-05   3.0603616259494964e-06   -2.6334845329943884e-05
-1.659678208476368e-05   2.715018074420138e-06   -1.6261219155462928e-05
-1.659678208476368e-05   2.715018074420138e-06   -1.6261219155462928e-05
-1.659678208476368e-05   2.715018074420138e-06   -1.6261219155462928e-05
-1.659678208476368e-05   2.715018074420138e-06   -1.6261219155462928e-05
-1.0787738303744576e-05   3.6630070303249936e-06   -2.6511752164037676e-05
-1.0787738303744576e-05   3.6630070303249936e-06   -2.6511752164037676e-05
-1.0787738303744576e-05   3.6630070303249936e-06   -2.6511752164037676e-05
-1.0787738303744576e-05   3.6630070303249936e-06   -2.6511752164037676e-05
-1.3822405696445833e-05   2.815099809928747e-06   -2.0945228843964744e-05
-1.3822405696445833e-05   2.815099809928747e-06   -2.0945228843964744e-05
-1.3822405696445833e-05   2.815099809928747e-06   -2.0945228843964744e-05
-1.3822405696445833e-05   2.815099809928747e-06   -2.0945228843964744e-05
-1.0787738303744564e-05   2.715018074420138e-06   -1.683001252900584e-05
-1.0787738303744564e-05   2.715018074420138e-06   -1.683001252900584e-05
-1.0787738303744564e-05   2.715018074420138e-06   -1.683001252900584e-05
-1.0787738303744564e-05   2.715018074420138e-06   -1.683001252900584e-05
-1.659678208476368e-05   3.6630070303249936e-06   -2.594295879049485e-05
-1.659678208476368e-05   3.6630070303249936e-06   -2.594295879049485e-05
-1.659678208476368e-05   3.6630070303249936e-06   -2.594295879049485e-05
-1.659678208476368e-05   3.6630070303249936e-06   -2.594295879049485e-05
-1.614086091643747e-05   3.4709530367757913e-06   -1.671132414952589e-05
-1.614086091643747e-05   3.4709530367757913e-06   -1.671132414952589e-05
-1.614086091643747e-05   3.4709530367757913e-06   -1.671132414952589e-05
-1.614086091643747e-05   3.4709530367757913e-06   -1.671132414952589e-05
-1.0401089922461495e-05   4.336397580981125e-06   -2.679687586600899e-05
-1.0401089922461495e-05   4.336397580981125e-06   -2.679687586600899e-05
-1.0401089922461495e-05   4.336397580981125e-06   -2.679687586600899e-05
-1.0401089922461495e-05   4.336397580981125e-06   -2.679687586600899e-05
-1.351612929657646e-05   3.3358638898456534e-06   -2.100482336113624e-05
-1.351612929657646e-05   3.3358638898456534e-06   -2.100482336113624e-05
-1.351612929657646e-05   3.3358638898456534e-06   -2.100482336113624e-05
-1.351612929657646e-05   3.3358638898456534e-06   -2.100482336113624e-05
-1.7600695676869858e-05   2.1999296314554034e-06   -9.012795832118712e-06
-1.7600695676869858e-05   2.1999296314554034e-06   -9.012795832118712e-06
-1.7600695676869858e-05   2.1999296314554034e-06   -9.012795832118712e-06
-1.7600695676869858e-05   2.1999296314554034e-06   -9.012795832118712e-06
-2.4455808457720944e-05   4.111740674523235e-06   -1.9290897174363162e-05
-2.4455808457720944e-05   4.111740674523235e-06   -1.9290897174363162e-05
-2.4455808457720944e-05   4.111740674523235e-06   -1.9290897174363162e-05
-2.4455808457720944e-05   4.111740674523235e-06   -1.9290897174363162e-05
-2.3193002479949927e-05   2.864688954145678e-06   -5.64156819516336e-06
-2.3193002479949927e-05   2.864688954145678e-06   -5.64156819516336e-06
-2.3193002479949927e-05   2.864688954145678e-06   -5.64156819516336e-06
-2.3193002479949927e-05   2.864688954145678e-06   -5.64156819516336e-06
-1.7144469841800452e-05   4.8075307564701426e-06   -1.6888161006806918e-05
-1.7144469841800452e-05   4.8075307564701426e-06   -1.6888161006806918e-05
-1.7144469841800452e-05   4.8075307564701426e-06   -1.6888161006806918e-05
-1.7144469841800452e-05   4.8075307564701426e-06   -1.6888161006806918e-05
-1.9760637425521587e-05   3.574411065573619e-06   -1.1788009886067269e-05
-1.9760637425521587e-05   3.574411065573619e-06   -1.1788009886067269e-05
-1.9760637425521587e-05   3.574411065573619e-06   -1.1788009886067269e-05
-1.9760637425521587e-05   3.574411065573619e-06   -1.1788009886067269e-05
-1.7144469841800472e-05   2.864688954145678e-06   -6.8072732765578e-06
-1.7144469841800472e-05   2.864688954145678e-06   -6.8072732765578e-06
-1.7144469841800472e-05   2.864688954145678e-06   -6.8072732765578e-06
-1.7144469841800472e-05   2.864688954145678e-06   -6.8072732765578e-06
-2.3193002479949846e-05   4.8075307564701426e-06   -1.5722455925412573e-05
-2.3193002479949846e-05   4.8075307564701426e-06   -1.5722455925412573e-05
-2.3193002479949846e-05   4.8075307564701426e-06   -1.5722455925412573e-05
-2.3193002479949846e-05   4.8075307564701426e-06   -1.5722455925412573e-05
-2.2149342203095187e-05   3.168999769286897e-06   -4.61462233686987e-06
-2.2149342203095187e-05   3.168999769286897e-06   -4.61462233686987e-06
-2.2149342203095187e-05   3.168999769286897e-06   -4.61462233686987e-06
-2.2149342203095187e-05   3.168999769286897e-06   -4.61462233686987e-06
-1.6596782084763652e-05   5.057075646970827e-06   -1.5001734727366201e-05
-1.6596782084763652e-05   5.057075646970827e-06   -1.5001734727366201e-05
-1.6596782084763652e-05   5.057075646970827e-06   -1.5001734727366201e-05
-1.6596782084763652e-05   5.057075646970827e-06   -1.5001734727366201e-05
-1.9302831984032597e-05   3.888292260302399e-06   -9.79038152991679e-06
-1.9302831984032597e-05   3.888292260302399e-06   -9.79038152991679e-06
-1.9302831984032597e-05   3.888292260302399e-06   -9.79038152991679e-06
-1.9302831984032597e-05   3.888292260302399e-06   -9.79038152991679e-06
-1.659678208476368e-05   3.16899976928668e-06   -5.747467863480228e-06
-1.659678208476368e-05   3.16899976928668e-06   -5.747467863480228e-06
-1.659678208476368e-05   3.16899976928668e-06   -5.747467863480228e-06
-1.659678208476368e-05   3.16899976928668e-06   -5.747467863480228e-06
-2.2149342203095146e-05   5.057075646970827e-06   -1.3868889200755884e-05
-2.2149342203095146e-05   5.057075646970827e-06   -1.3868889200755884e-05
-2.2149342203095146e-05   5.057075646970827e-06   -1.3868889200755884e-05
-2.2149342203095146e-05   5.057075646970827e-06   -1.3868889200755884e-05
-2.091323338309335e-05   3.6386123771468565e-06   -3.5346055177710393e-06
-2.091323338309335e-05   3.6386123771468565e-06   -3.5346055177710393e-06
-2.091323338309335e-05   3.6386123771468565e-06   -3.5346055177710393e-06
-2.091323338309335e-05   3.6386123771468565e-06   -3.5346055177710393e-06
-1.614086091643747e-05   5.371465934291475e-06   -1.252827176315095e-05
-1.614086091643747e-05   5.371465934291475e-06   -1.252827176315095e-05
-1.614086091643747e-05   5.371465934291475e-06   -1.252827176315095e-05
-1.614086091643747e-05   5.371465934291475e-06   -1.252827176315095e-05
-1.8319860858768268e-05   4.039116708084555e-06   -8.09719565687567e-06
-1.8319860858768268e-05   4.039116708084555e-06   -8.09719565687567e-06
-1.8319860858768268e-05   4.039116708084555e-06   -8.09719565687567e-06
-1.8319860858768268e-05   4.039116708084555e-06   -8.09719565687567e-06
1.850449981494892e-05   -2.4244414113736013e-06   -7.03859024687439e-08
1.850449981494892e-05   -2.4244414113736013e-06   -7.03859024687439e-08
1.850449981494892e-05   -2.4244414113736013e-06   -7.03859024687439e-08
1.850449981494892e-05   -2.4244414113736013e-06   -7.03859024687439e-08
7.874205314277921e-06   -4.3641767405540235e-06   -1.8951384601095344e-05
7.874205314277921e-06   -4.3641767405540235e-06   -1.8951384601095344e-05
7.874205314277921e-06   -4.3641767405540235e-06   -1.8951384601095344e-05
7.874205314277921e-06   -4.3641767405540235e-06   -1.8951384601095344e-05
8.425972171581438e-06   -1.993449837575439e-06   -2.0169863064656204e-06
8.425972171581438e-06   -1.993449837575439e-06   -2.0169863064656204e-06
8.425972171581438e-06   -1.993449837575439e-06   -2.0169863064656204e-06
8.425972171581438e-06   -1.993449837575439e-06   -2.0169863064656204e-06
1.9893652753365704e-05   -4.059759102602008e-06   -1.989000171708985e-05
1.9893652753365704e-05   -4.059759102602008e-06   -1.989000171708985e-05
1.9893652753365704e-05   -4.059759102602008e-06   -1.989000171708985e-05
1.9893652753365704e-05   -4.059759102602008e-06   -1.989000171708985e-05
1.3122538709830746e-05   -2.8791757293762654e-06   -9.313161668467185e-06
1.3122538709830746e-05   -2.8791757293762654e-06   -9.313161668467185e-06
1.3122538709830746e-05   -2.8791757293762654e-06   -9.313161668467185e-06
1.3122538709830746e-05   -2.8791757293762654e-06   -9.313161668467185e-06
1.9893652753365704e-05   -1.993449837575439e-06   -7.772007474494622e-07
1.9893652753365704e-05   -1.993449837575439e-06   -7.772007474494622e-07
1.9893652753365704e-05   -1.993449837575439e-06   -7.772007474494622e-07
1.9893652753365704e-05   -1.993449837575439e-06   -7.772007474494622e-07
8.425972171581384e-06   -4.059759102602008e-06   -2.112978727610601e-05
8.425972171581384e-06   -4.059759102602008e-06   -2.112978727610601e-05
8.425972171581384e-06   -4.059759102602008e-06   -2.112978727610601e-05
8.425972171581384e-06   -4.059759102602008e-06   -2.112978727610601e-05
9.037544570285907e-06   -1.7050524426340686e-06   -2.872265853330787e-06
9.037544570285907e-06   -1.7050524426340686e-06   -2.872265853330787e-06
9.037544570285907e-06   -1.7050524426340686e-06   -2.872265853330787e-06
9.037544570285907e-06   -1.7050524426340686e-06   -2.872265853330787e-06
2.1059272387639492e-05   -3.7968380480434254e-06   -2.1653407519007964e-05
2.1059272387639492e-05   -3.7968380480434254e-06   -2.1653407519007964e-05
2.1059272387639492e-05   -3.7968380480434254e-06   -2.1653407519007964e-05
2.1059272387639492e-05   -3.7968380480434254e-06   -2.1653407519007964e-05
1.416568988978664e-05   -2.7620588060083603e-06   -1.0784970901140908e-05
1.416568988978664e-05   -2.7620588060083603e-06   -1.0784970901140908e-05
1.416568988978664e-05   -2.7620588060083603e-06   -1.0784970901140908e-05
1.416568988978664e-05   -2.7620588060083603e-06   -1.0784970901140908e-05
2.105927238763952e-05   -1.7050524426340686e-06   -1.617194490085151e-06
2.105927238763952e-05   -1.7050524426340686e-06   -1.617194490085151e-06
2.105927238763952e-05   -1.7050524426340686e-06   -1.617194490085151e-06
2.105927238763952e-05   -1.7050524426340686e-06   -1.617194490085151e-06
9.03754457028588e-06   -3.7968380480434254e-06   -2.290847888225349e-05
9.03754457028588e-06   -3.7968380480434254e-06   -2.290847888225349e-05
9.03754457028588e-06   -3.7968380480434254e-06   -2.290847888225349e-05
9.03754457028588e-06   -3.7968380480434254e-06   -2.290847888225349e-05
9.542014150190674e-06   -9.794005059952492e-07   -4.841966538296884e-06
9.542014150190674e-06   -9.794005059952492e-07   -4.841966538296884e-06
9.542014150190674e-06   -9.794005059952492e-07   -4.841966538296884e-06
9.542014150190674e-06   -9.794005059952492e-07   -4.841966538296884e-06
2.241287859648143e-05   -2.9668362190363694e-06   -2.510094585428998e-05
2.241287859648143e-05   -2.9668362190363694e-06   -2.510094585428998e-05
2.241287859648143e-05   -2.9668362190363694e-06   -2.510094585428998e-05
2.241287859648143e-05   -2.9668362190363694e-06   -2.510094585428998e-05
1.4727143881336448e-05   -2.4364826601065183e-06   -1.2609600131073594e-05
1.4727143881336448e-05   -2.4364826601065183e-06   -1.2609600131073594e-05
1.4727143881336448e-05   -2.4364826601065183e-06   -1.2609600131073594e-05
1.4727143881336448e-05   -2.4364826601065183e-06   -1.2609600131073594e-05
7.874205314277921e-06   -9.546163312400095e-07   -1.2774789607036667e-05
7.874205314277921e-06   -9.546163312400095e-07   -1.2774789607036667e-05
7.874205314277921e-06   -9.546163312400095e-07   -1.2774789607036667e-05
7.874205314277921e-06   -9.546163312400095e-07   -1.2774789607036667e-05
-3.3655871537401847e-06   -2.037015910604954e-06   -3.215721680135237e-05
-3.3655871537401847e-06   -2.037015910604954e-06   -3.215721680135237e-05
-3.3655871537401847e-06   -2.037015910604954e-06   -3.215721680135237e-05
-3.3655871537401847e-06   -2.037015910604954e-06   -3.215721680135237e-05
-2.8529664674403174e-06   -3.6255640635117665e-07   -1.3040326030568723e-05
-2.8529664674403174e-06   -3.6255640635117665e-07   -1.3040326030568723e-05
-2.8529664674403174e-06   -3.6255640635117665e-07   -1.3040326030568723e-05
-2.8529664674403174e-06   -3.6255640635117665e-07   -1.3040326030568723e-05
8.425972171581438e-06   -1.612091931584101e-06   -3.108883578046529e-05
8.425972171581438e-06   -1.612091931584101e-06   -3.108883578046529e-05
8.425972171581438e-06   -1.612091931584101e-06   -3.108883578046529e-05
8.425972171581438e-06   -1.612091931584101e-06   -3.108883578046529e-05
2.548005369413183e-06   -9.837165717238062e-07   -2.1669249659434577e-05
2.548005369413183e-06   -9.837165717238062e-07   -2.1669249659434577e-05
2.548005369413183e-06   -9.837165717238062e-07   -2.1669249659434577e-05
2.548005369413183e-06   -9.837165717238062e-07   -2.1669249659434577e-05
8.425972171581411e-06   -3.6255640635117665e-07   -1.2290604715429077e-05
8.425972171581411e-06   -3.6255640635117665e-07   -1.2290604715429077e-05
8.425972171581411e-06   -3.6255640635117665e-07   -1.2290604715429077e-05
8.425972171581411e-06   -3.6255640635117665e-07   -1.2290604715429077e-05
-2.852966467440304e-06   -1.612091931584101e-06   -3.183855709560496e-05
-2.852966467440304e-06   -1.612091931584101e-06   -3.183855709560496e-05
-2.852966467440304e-06   -1.612091931584101e-06   -3.183855709560496e-05
-2.852966467440304e-06   -1.612091931584101e-06   -3.183855709560496e-05
-2.3635468970876388e-06   2.500202335889261e-07   -1.3210125095141538e-05
-2.3635468970876388e-06   2.500202335889261e-07   -1.3210125095141538e-05
-2.3635468970876388e-06   2.500202335889261e-07   -1.3210125095141538e-05
-2.3635468970876388e-06   2.500202335889261e-07   -1.3210125095141538e-05
9.03754457028588e-06   -1.0928764180545125e-06   -3.1406206216444817e-05
9.03754457028588e-06   -1.0928764180545125e-06   -3.1406206216444817e-05
9.03754457028588e-06   -1.0928764180545125e-06   -3.1406206216444817e-05
9.03754457028588e-06   -1.0928764180545125e-06   -3.1406206216444817e-05
2.953753012649431e-06   -6.073694455931665e-07   -2.155785780386048e-05
2.953753012649431e-06   -6.073694455931665e-07   -2.155785780386048e-05
2.953753012649431e-06   -6.073694455931665e-07   -2.155785780386048e-05
2.953753012649431e-06   -6.073694455931665e-07   -2.155785780386048e-05
9.037544570285907e-06   2.5002023358870924e-07   -1.2404387104155627e-05
9.037544570285907e-06   2.5002023358870924e-07   -1.2404387104155627e-05
9.037544570285907e-06   2.5002023358870924e-07   -1.2404387104155627e-05
9.037544570285907e-06   2.5002023358870924e-07   -1.2404387104155627e-05
-2.3635468970876388e-06   -1.0928764180545125e-06   -3.221194420743097e-05
-2.3635468970876388e-06   -1.0928764180545125e-06   -3.221194420743097e-05
-2.3635468970876388e-06   -1.0928764180545125e-06   -3.221194420743097e-05
-2.3635468970876388e-06   -1.0928764180545125e-06   -3.221194420743097e-05
-1.904107833944967e-06   9.760410346574145e-07   -1.3662199528000681e-05
-1.904107833944967e-06   9.760410346574145e-07   -1.3662199528000681e-05
-1.904107833944967e-06   9.760410346574145e-07   -1.3662199528000681e-05
-1.904107833944967e-06   9.760410346574145e-07   -1.3662199528000681e-05
9.542014150190647e-06   -4.391325493968874e-07   -3.1889965351127465e-05
9.542014150190647e-06   -4.391325493968874e-07   -3.1889965351127465e-05
9.542014150190647e-06   -4.391325493968874e-07   -3.1889965351127465e-05
9.542014150190647e-06   -4.391325493968874e-07   -3.1889965351127465e-05
3.461516704057917e-06   -1.4291954099137846e-07   -2.193353074595006e-05
3.461516704057917e-06   -1.4291954099137846e-07   -2.193353074595006e-05
3.461516704057917e-06   -1.4291954099137846e-07   -2.193353074595006e-05
3.461516704057917e-06   -1.4291954099137846e-07   -2.193353074595006e-05
-3.3655871537401847e-06   7.421288554646834e-07   -1.6452052526613292e-05
-3.3655871537401847e-06   7.421288554646834e-07   -1.6452052526613292e-05
-3.3655871537401847e-06   7.421288554646834e-07   -1.6452052526613292e-05
-3.3655871537401847e-06   7.421288554646834e-07   -1.6452052526613292e-05
-1.4407352043438817e-05   3.8411727629867297e-07   -3.5069800956943876e-05
-1.4407352043438817e-05   3.8411727629867297e-07   -3.5069800956943876e-05
-1.4407352043438817e-05   3.8411727629867297e-07   -3.5069800956943876e-05
-1.4407352043438817e-05   3.8411727629867297e-07   -3.5069800956943876e-05
-1.3855691496178286e-05   1.369287939834065e-06   -1.6333913266185327e-05
-1.3855691496178286e-05   1.369287939834065e-06   -1.6333913266185327e-05
-1.3855691496178286e-05   1.369287939834065e-06   -1.6333913266185327e-05
-1.3855691496178286e-05   1.369287939834065e-06   -1.6333913266185327e-05
-2.852966467440304e-06   8.618879664963434e-07   -3.4367348330079344e-05
-2.852966467440304e-06   8.618879664963434e-07   -3.4367348330079344e-05
-2.852966467440304e-06   8.618879664963434e-07   -3.4367348330079344e-05
-2.852966467440304e-06   8.618879664963434e-07   -3.4367348330079344e-05
-8.561650602861732e-06   1.0180779977349893e-06   -2.494658878978696e-05
-8.561650602861732e-06   1.0180779977349893e-06   -2.494658878978696e-05
-8.561650602861732e-06   1.0180779977349893e-06   -2.494658878978696e-05
-8.561650602861732e-06   1.0180779977349893e-06   -2.494658878978696e-05
-2.8529664674403174e-06   1.369287939834065e-06   -1.602947328218263e-05
-2.8529664674403174e-06   1.369287939834065e-06   -1.602947328218263e-05
-2.8529664674403174e-06   1.369287939834065e-06   -1.602947328218263e-05
-2.8529664674403174e-06   1.369287939834065e-06   -1.602947328218263e-05
-1.3855691496178286e-05   8.618879664963434e-07   -3.4671788314082097e-05
-1.3855691496178286e-05   8.618879664963434e-07   -3.4671788314082097e-05
-1.3855691496178286e-05   8.618879664963434e-07   -3.4671788314082097e-05
-1.3855691496178286e-05   8.618879664963434e-07   -3.4671788314082097e-05
-1.3323426515496831e-05   2.03293574775284e-06   -1.6309370164601495e-05
-1.3323426515496831e-05   2.03293574775284e-06   -1.6309370164601495e-05
-1.3323426515496831e-05   2.03293574775284e-06   -1.6309370164601495e-05
-1.3323426515496831e-05   2.03293574775284e-06   -1.6309370164601495e-05
-2.3635468970876388e-06   1.4144008101055205e-06   -3.420471523269523e-05
-2.3635468970876388e-06   1.4144008101055205e-06   -3.420471523269523e-05
-2.3635468970876388e-06   1.4144008101055205e-06   -3.420471523269523e-05
-2.3635468970876388e-06   1.4144008101055205e-06   -3.420471523269523e-05
-8.087349172643336e-06   1.4655107783744306e-06   -2.4695710754396967e-05
-8.087349172643336e-06   1.4655107783744306e-06   -2.4695710754396967e-05
-8.087349172643336e-06   1.4655107783744306e-06   -2.4695710754396967e-05
-8.087349172643336e-06   1.4655107783744306e-06   -2.4695710754396967e-05
-2.3635468970876388e-06   2.03293574775284e-06   -1.5938249202013146e-05
-2.3635468970876388e-06   2.03293574775284e-06   -1.5938249202013146e-05
-2.3635468970876388e-06   2.03293574775284e-06   -1.5938249202013146e-05
-2.3635468970876388e-06   2.03293574775284e-06   -1.5938249202013146e-05
-1.3323426515496831e-05   1.4144008101055205e-06   -3.45758361952836e-05
-1.3323426515496831e-05   1.4144008101055205e-06   -3.45758361952836e-05
-1.3323426515496831e-05   1.4144008101055205e-06   -3.45758361952836e-05
-1.3323426515496831e-05   1.4144008101055205e-06   -3.45758361952836e-05
-1.2831615615829103e-05   2.708092607323423e-06   -1.6694581224367395e-05
-1.2831615615829103e-05   2.708092607323423e-06   -1.6694581224367395e-05
-1.2831615615829103e-05   2.708092607323423e-06   -1.6694581224367395e-05
-1.2831615615829103e-05   2.708092607323423e-06   -1.6694581224367395e-05
-1.904107833944967e-06   1.9852615223891687e-06   -3.4473395543213966e-05
-1.904107833944967e-06   1.9852615223891687e-06   -3.4473395543213966e-05
-1.904107833944967e-06   1.9852615223891687e-06   -3.4473395543213966e-05
-1.904107833944967e-06   1.9852615223891687e-06   -3.4473395543213966e-05
-7.663950602131405e-06   1.9245967857785e-06   -2.4837258754270458e-05
-7.663950602131405e-06   1.9245967857785e-06   -2.4837258754270458e-05
-7.663950602131405e-06   1.9245967857785e-06   -2.4837258754270458e-05
-7.663950602131405e-06   1.9245967857785e-06   -2.4837258754270458e-05
-1.4407352043438847e-05   2.390870499092198e-06   -1.3340545777693362e-05
-1.4407352043438847e-05   2.390870499092198e-06   -1.3340545777693362e-05
-1.4407352043438847e-05   2.390870499092198e-06   -1.3340545777693362e-05
-1.4407352043438847e-05   2.390870499092198e-06   -1.3340545777693362e-05
-2.5252320263250898e-05   2.8921501189934067e-06   -3.111472503877289e-05
-2.5252320263250898e-05   2.8921501189934067e-06   -3.111472503877289e-05
-2.5252320263250898e-05   2.8921501189934067e-06   -3.111472503877289e-05
-2.5252320263250898e-05   2.8921501189934067e-06   -3.111472503877289e-05
-2.458690700828878e-05   3.0603616259494964e-06   -1.2528163808900187e-05
-2.458690700828878e-05   3.0603616259494964e-06   -1.2528163808900187e-05
-2.458690700828878e-05   3.0603616259494964e-06   -1.2528163808900187e-05
-2.458690700828878e-05   3.0603616259494964e-06   -1.2528163808900187e-05
-1.385569149617831e-05   3.4979195039110383e-06   -3.067605772252789e-05
-1.385569149617831e-05   3.4979195039110383e-06   -3.067605772252789e-05
-1.385569149617831e-05   3.4979195039110383e-06   -3.067605772252789e-05
-1.385569149617831e-05   3.4979195039110383e-06   -3.067605772252789e-05
-1.9383070493539656e-05   3.0857703911702384e-06   -2.1216469925947884e-05
-1.9383070493539656e-05   3.0857703911702384e-06   -2.1216469925947884e-05
-1.9383070493539656e-05   3.0857703911702384e-06   -2.1216469925947884e-05
-1.9383070493539656e-05   3.0857703911702384e-06   -2.1216469925947884e-05
-1.385569149617831e-05   3.0603616259494964e-06   -1.2790698535677047e-05
-1.385569149617831e-05   3.0603616259494964e-06   -1.2790698535677047e-05
-1.385569149617831e-05   3.0603616259494964e-06   -1.2790698535677047e-05
-1.385569149617831e-05   3.0603616259494964e-06   -1.2790698535677047e-05
-2.458690700828882e-05   3.4979195039110383e-06   -3.041352299575095e-05
-2.458690700828882e-05   3.4979195039110383e-06   -3.041352299575095e-05
-2.458690700828882e-05   3.4979195039110383e-06   -3.041352299575095e-05
-2.458690700828882e-05   3.4979195039110383e-06   -3.041352299575095e-05
-2.3849515998094914e-05   3.6630070303249936e-06   -1.2076111170048723e-05
-2.3849515998094914e-05   3.6630070303249936e-06   -1.2076111170048723e-05
-2.3849515998094914e-05   3.6630070303249936e-06   -1.2076111170048723e-05
-2.3849515998094914e-05   3.6630070303249936e-06   -1.2076111170048723e-05
-1.3323426515496848e-05   4.019463817613077e-06   -2.9833467713418326e-05
-1.3323426515496848e-05   4.019463817613077e-06   -2.9833467713418326e-05
-1.3323426515496848e-05   4.019463817613077e-06   -2.9833467713418326e-05
-1.3323426515496848e-05   4.019463817613077e-06   -2.9833467713418326e-05
-1.8708905370809916e-05   3.558011643031234e-06   -2.0580798316480707e-05
-1.8708905370809916e-05   3.558011643031234e-06   -2.0580798316480707e-05
-1.8708905370809916e-05   3.558011643031234e-06   -2.0580798316480707e-05
-1.8708905370809916e-05   3.558011643031234e-06   -2.0580798316480707e-05
-1.3323426515496845e-05   3.6630070303249936e-06   -1.2289985242421465e-05
-1.3323426515496845e-05   3.6630070303249936e-06   -1.2289985242421465e-05
-1.3323426515496845e-05   3.6630070303249936e-06   -1.2289985242421465e-05
-1.3323426515496845e-05   3.6630070303249936e-06   -1.2289985242421465e-05
-2.3849515998094914e-05   4.019463817613077e-06   -2.9619593641045652e-05
-2.3849515998094914e-05   4.019463817613077e-06   -2.9619593641045652e-05
-2.3849515998094914e-05   4.019463817613077e-06   -2.9619593641045652e-05
-2.3849515998094914e-05   4.019463817613077e-06   -2.9619593641045652e-05
-2.3226705909548918e-05   4.336397580981125e-06   -1.2355700476928658e-05
-2.3226705909548918e-05   4.336397580981125e-06   -1.2355700476928658e-05
-2.3226705909548918e-05   4.336397580981125e-06   -1.2355700476928658e-05
-2.3226705909548918e-05   4.336397580981125e-06   -1.2355700476928658e-05
-1.283161561582913e-05   4.595690330250462e-06   -2.9836426616023416e-05
-1.283161561582913e-05   4.595690330250462e-06   -2.9836426616023416e-05
-1.283161561582913e-05   4.595690330250462e-06   -2.9836426616023416e-05
-1.283161561582913e-05   4.595690330250462e-06   -2.9836426616023416e-05
-1.8292259505486768e-05   3.992698757351648e-06   -2.0373558522854688e-05
-1.8292259505486768e-05   3.992698757351648e-06   -2.0373558522854688e-05
-1.8292259505486768e-05   3.992698757351648e-06   -2.0373558522854688e-05
-1.8292259505486768e-05   3.992698757351648e-06   -2.0373558522854688e-05
-2.5252320263250898e-05   4.111740674523235e-06   -6.677902655665997e-06
-2.5252320263250898e-05   4.111740674523235e-06   -6.677902655665997e-06
-2.5252320263250898e-05   4.111740674523235e-06   -6.677902655665997e-06
-2.5252320263250898e-05   4.111740674523235e-06   -6.677902655665997e-06
-3.668611209822931e-05   5.6733705711554516e-06   -2.4797244442650705e-05
-3.668611209822931e-05   5.6733705711554516e-06   -2.4797244442650705e-05
-3.668611209822931e-05   5.6733705711554516e-06   -2.4797244442650705e-05
-3.668611209822931e-05   5.6733705711554516e-06   -2.4797244442650705e-05
-3.5150182942484675e-05   4.8075307564701426e-06   -2.0789674167431523e-06
-3.5150182942484675e-05   4.8075307564701426e-06   -2.0789674167431523e-06
-3.5150182942484675e-05   4.8075307564701426e-06   -2.0789674167431523e-06
-3.5150182942484675e-05   4.8075307564701426e-06   -2.0789674167431523e-06
-2.458690700828878e-05   6.4783842048370816e-06   -2.068693937608981e-05
-2.458690700828878e-05   6.4783842048370816e-06   -2.068693937608981e-05
-2.458690700828878e-05   6.4783842048370816e-06   -2.068693937608981e-05
-2.458690700828878e-05   6.4783842048370816e-06   -2.068693937608981e-05
-2.9161749878628597e-05   5.404576958379162e-06   -1.24179169109819e-05
-2.9161749878628597e-05   5.404576958379162e-06   -1.24179169109819e-05
-2.9161749878628597e-05   5.404576958379162e-06   -1.24179169109819e-05
-2.9161749878628597e-05   5.404576958379162e-06   -1.24179169109819e-05
-2.45869070082888e-05   4.8075307564701426e-06   -3.0814794857633157e-06
-2.45869070082888e-05   4.8075307564701426e-06   -3.0814794857633157e-06
-2.45869070082888e-05   4.8075307564701426e-06   -3.0814794857633157e-06
-2.45869070082888e-05   4.8075307564701426e-06   -3.0814794857633157e-06
-3.515018294248462e-05   6.4783842048370816e-06   -1.968442730706946e-05
-3.515018294248462e-05   6.4783842048370816e-06   -1.968442730706946e-05
-3.515018294248462e-05   6.4783842048370816e-06   -1.968442730706946e-05
-3.515018294248462e-05   6.4783842048370816e-06   -1.968442730706946e-05
-3.3886431946834116e-05   5.057075646971044e-06   -1.547972788228623e-07
-3.3886431946834116e-05   5.057075646971044e-06   -1.547972788228623e-07
-3.3886431946834116e-05   5.057075646971044e-06   -1.547972788228623e-07
-3.3886431946834116e-05   5.057075646971044e-06   -1.547972788228623e-07
-2.3849515998094914e-05   6.690558693799942e-06   -1.7863080354818968e-05
-2.3849515998094914e-05   6.690558693799942e-06   -1.7863080354818968e-05
-2.3849515998094914e-05   6.690558693799942e-06   -1.7863080354818968e-05
-2.3849515998094914e-05   6.690558693799942e-06   -1.7863080354818968e-05
-2.8644609179237286e-05   5.7265931010480435e-06   -9.292879030596934e-06
-2.8644609179237286e-05   5.7265931010480435e-06   -9.292879030596934e-06
-2.8644609179237286e-05   5.7265931010480435e-06   -9.292879030596934e-06
-2.8644609179237286e-05   5.7265931010480435e-06   -9.292879030596934e-06
-2.3849515998094914e-05   5.057075646971044e-06   -1.1348871069203313e-06
-2.3849515998094914e-05   5.057075646971044e-06   -1.1348871069203313e-06
-2.3849515998094914e-05   5.057075646971044e-06   -1.1348871069203313e-06
-2.3849515998094914e-05   5.057075646971044e-06   -1.1348871069203313e-06
-3.3886431946833994e-05   6.690558693799942e-06   -1.6882990526721482e-05
-3.3886431946833994e-05   6.690558693799942e-06   -1.6882990526721482e-05
-3.3886431946833994e-05   6.690558693799942e-06   -1.6882990526721482e-05
-3.3886431946833994e-05   6.690558693799942e-06   -1.6882990526721482e-05
-3.252114041030354e-05   5.371465934291475e-06   2.2933690120507336e-06
-3.252114041030354e-05   5.371465934291475e-06   2.2933690120507336e-06
-3.252114041030354e-05   5.371465934291475e-06   2.2933690120507336e-06
-3.252114041030354e-05   5.371465934291475e-06   2.2933690120507336e-06
-2.3226705909548918e-05   6.8710194553657945e-06   -1.4097087268518106e-05
-2.3226705909548918e-05   6.8710194553657945e-06   -1.4097087268518106e-05
-2.3226705909548918e-05   6.8710194553657945e-06   -1.4097087268518106e-05
-2.3226705909548918e-05   6.8710194553657945e-06   -1.4097087268518106e-05
-2.7360087503201126e-05   5.7788156092228576e-06   -6.552795638078954e-06
-2.7360087503201126e-05   5.7788156092228576e-06   -6.552795638078954e-06
-2.7360087503201126e-05   5.7788156092228576e-06   -6.552795638078954e-06
-2.7360087503201126e-05   5.7788156092228576e-06   -6.552795638078954e-06
3.132579160973253e-05   -4.36417674055424e-06   6.278237783319046e-06
3.132579160973253e-05   -4.36417674055424e-06   6.278237783319046e-06
3.132579160973253e-05   -4.36417674055424e-06   6.278237783319046e-06
3.132579160973253e-05   -4.36417674055424e-06   6.278237783319046e-06
1.5081215818821012e-05   -6.45183150415978e-06   -2.2048648059696716e-05
1.5081215818821012e-05   -6.45183150415978e-06   -2.2048648059696716e-05
1.5081215818821012e-05   -6.45183150415978e-06   -2.2048648059696716e-05
1.5081215818821012e-05   -6.45183150415978e-06   -2.2048648059696716e-05
1.5692295626061132e-05   -4.059759102602225e-06   3.063255934368514e-06
1.5692295626061132e-05   -4.059759102602225e-06   3.063255934368514e-06
1.5692295626061132e-05   -4.059759102602225e-06   3.063255934368514e-06
1.5692295626061132e-05   -4.059759102602225e-06   3.063255934368514e-06
3.275043886714408e-05   -6.302363697261023e-06   -2.4021420043974584e-05
3.275043886714408e-05   -6.302363697261023e-06   -2.4021420043974584e-05
3.275043886714408e-05   -6.302363697261023e-06   -2.4021420043974584e-05
3.275043886714408e-05   -6.302363697261023e-06   -2.4021420043974584e-05
2.274765329390574e-05   -4.776146340173008e-06   -8.265841169496826e-06
2.274765329390574e-05   -4.776146340173008e-06   -8.265841169496826e-06
2.274765329390574e-05   -4.776146340173008e-06   -8.265841169496826e-06
2.274765329390574e-05   -4.776146340173008e-06   -8.265841169496826e-06
3.275043886714413e-05   -4.059759102602225e-06   4.408818691163815e-06
3.275043886714413e-05   -4.059759102602225e-06   4.408818691163815e-06
3.275043886714413e-05   -4.059759102602225e-06   4.408818691163815e-06
3.275043886714413e-05   -4.059759102602225e-06   4.408818691163815e-06
1.5692295626061132e-05   -6.302363697261023e-06   -2.5366982800769993e-05
1.5692295626061132e-05   -6.302363697261023e-06   -2.5366982800769993e-05
1.5692295626061132e-05   -6.302363697261023e-06   -2.5366982800769993e-05
1.5692295626061132e-05   -6.302363697261023e-06   -2.5366982800769993e-05
1.6300350324014796e-05   -3.7968380480432086e-06   1.4875366683619797e-06
1.6300350324014796e-05   -3.7968380480432086e-06   1.4875366683619797e-06
1.6300350324014796e-05   -3.7968380480432086e-06   1.4875366683619797e-06
1.6300350324014796e-05   -3.7968380480432086e-06   1.4875366683619797e-06
3.384304831727028e-05   -6.083157708155389e-06   -2.6378501524330173e-05
3.384304831727028e-05   -6.083157708155389e-06   -2.6378501524330173e-05
3.384304831727028e-05   -6.083157708155389e-06   -2.6378501524330173e-05
3.384304831727028e-05   -6.083157708155389e-06   -2.6378501524330173e-05
2.394846220575564e-05   -4.760110289258332e-06   -1.0681353123144103e-05
2.394846220575564e-05   -4.760110289258332e-06   -1.0681353123144103e-05
2.394846220575564e-05   -4.760110289258332e-06   -1.0681353123144103e-05
2.394846220575564e-05   -4.760110289258332e-06   -1.0681353123144103e-05
3.384304831727028e-05   -3.7968380480432086e-06   2.859328464429071e-06
3.384304831727028e-05   -3.7968380480432086e-06   2.859328464429071e-06
3.384304831727028e-05   -3.7968380480432086e-06   2.859328464429071e-06
3.384304831727028e-05   -3.7968380480432086e-06   2.859328464429071e-06
1.6300350324014796e-05   -6.083157708155389e-06   -2.7750293320397373e-05
1.6300350324014796e-05   -6.083157708155389e-06   -2.7750293320397373e-05
1.6300350324014796e-05   -6.083157708155389e-06   -2.7750293320397373e-05
1.6300350324014796e-05   -6.083157708155389e-06   -2.7750293320397373e-05
1.6712314384179238e-05   -2.9668362190365862e-06   -1.681533847040697e-06
1.6712314384179238e-05   -2.9668362190365862e-06   -1.681533847040697e-06
1.6712314384179238e-05   -2.9668362190365862e-06   -1.681533847040697e-06
1.6712314384179238e-05   -2.9668362190365862e-06   -1.681533847040697e-06
3.4998750200545083e-05   -5.22962340386221e-06   -3.080125456342151e-05
3.4998750200545083e-05   -5.22962340386221e-06   -3.080125456342151e-05
3.4998750200545083e-05   -5.22962340386221e-06   -3.080125456342151e-05
3.4998750200545083e-05   -5.22962340386221e-06   -3.080125456342151e-05
2.4279613648677583e-05   -4.3934787763008284e-06   -1.3437713753512986e-05
2.4279613648677583e-05   -4.3934787763008284e-06   -1.3437713753512986e-05
2.4279613648677583e-05   -4.3934787763008284e-06   -1.3437713753512986e-05
2.4279613648677583e-05   -4.3934787763008284e-06   -1.3437713753512986e-05
1.508121581882104e-05   -2.037015910604737e-06   -7.5307475274823555e-06
1.508121581882104e-05   -2.037015910604737e-06   -7.5307475274823555e-06
1.508121581882104e-05   -2.037015910604737e-06   -7.5307475274823555e-06
1.508121581882104e-05   -2.037015910604737e-06   -7.5307475274823555e-06
-9.396663337622952e-07   -4.16497793751967e-06   -3.5508994997936975e-05
-9.396663337622952e-07   -4.16497793751967e-06   -3.5508994997936975e-05
-9.396663337622952e-07   -4.16497793751967e-06   -3.5508994997936975e-05
-9.396663337622952e-07   -4.16497793751967e-06   -3.5508994997936975e-05
-3.129833405332745e-07   -1.6120919315838842e-06   -8.306544639613165e-06
-3.129833405332745e-07   -1.6120919315838842e-06   -8.306544639613165e-06
-3.129833405332745e-07   -1.6120919315838842e-06   -8.306544639613165e-06
-3.129833405332745e-07   -1.6120919315838842e-06   -8.306544639613165e-06
1.5692295626061132e-05   -3.963345380954145e-06   -3.357125751431511e-05
1.5692295626061132e-05   -3.963345380954145e-06   -3.357125751431511e-05
1.5692295626061132e-05   -3.963345380954145e-06   -3.357125751431511e-05
1.5692295626061132e-05   -3.963345380954145e-06   -3.357125751431511e-05
7.4019290996364385e-06   -2.5205316825714467e-06   -2.0619668189303408e-05
7.4019290996364385e-06   -2.5205316825714467e-06   -2.0619668189303408e-05
7.4019290996364385e-06   -2.5205316825714467e-06   -2.0619668189303408e-05
7.4019290996364385e-06   -2.5205316825714467e-06   -2.0619668189303408e-05
1.5692295626061132e-05   -1.6120919315838842e-06   -6.895792569991009e-06
1.5692295626061132e-05   -1.6120919315838842e-06   -6.895792569991009e-06
1.5692295626061132e-05   -1.6120919315838842e-06   -6.895792569991009e-06
1.5692295626061132e-05   -1.6120919315838842e-06   -6.895792569991009e-06
-3.129833405332745e-07   -3.963345380954145e-06   -3.4982009583937185e-05
-3.129833405332745e-07   -3.963345380954145e-06   -3.4982009583937185e-05
-3.129833405332745e-07   -3.963345380954145e-06   -3.4982009583937185e-05
-3.129833405332745e-07   -3.963345380954145e-06   -3.4982009583937185e-05
2.390207604233645e-07   -1.0928764180545125e-06   -8.508220058641618e-06
2.390207604233645e-07   -1.0928764180545125e-06   -8.508220058641618e-06
2.390207604233645e-07   -1.0928764180545125e-06   -8.508220058641618e-06
2.390207604233645e-07   -1.0928764180545125e-06   -8.508220058641618e-06
1.6300350324014796e-05   -3.5895920727413346e-06   -3.377907327181535e-05
1.6300350324014796e-05   -3.5895920727413346e-06   -3.377907327181535e-05
1.6300350324014796e-05   -3.5895920727413346e-06   -3.377907327181535e-05
1.6300350324014796e-05   -3.5895920727413346e-06   -3.377907327181535e-05
7.827122154468891e-06   -2.3113514187687173e-06   -2.042397071495532e-05
7.827122154468891e-06   -2.3113514187687173e-06   -2.042397071495532e-05
7.827122154468891e-06   -2.3113514187687173e-06   -2.042397071495532e-05
7.827122154468891e-06   -2.3113514187687173e-06   -2.042397071495532e-05
1.6300350324014796e-05   -1.0928764180545125e-06   -7.01019066582959e-06
1.6300350324014796e-05   -1.0928764180545125e-06   -7.01019066582959e-06
1.6300350324014796e-05   -1.0928764180545125e-06   -7.01019066582959e-06
1.6300350324014796e-05   -1.0928764180545125e-06   -7.01019066582959e-06
2.390207604233645e-07   -3.5895920727413346e-06   -3.527710266462757e-05
2.390207604233645e-07   -3.5895920727413346e-06   -3.527710266462757e-05
2.390207604233645e-07   -3.5895920727413346e-06   -3.527710266462757e-05
2.390207604233645e-07   -3.5895920727413346e-06   -3.527710266462757e-05
6.315367072946295e-07   -4.391325493968874e-07   -8.849231235424047e-06
6.315367072946295e-07   -4.391325493968874e-07   -8.849231235424047e-06
6.315367072946295e-07   -4.391325493968874e-07   -8.849231235424047e-06
6.315367072946295e-07   -4.391325493968874e-07   -8.849231235424047e-06
1.6712314384179292e-05   -3.057698081681756e-06   -3.4079388044194444e-05
1.6712314384179292e-05   -3.057698081681756e-06   -3.4079388044194444e-05
1.6712314384179292e-05   -3.057698081681756e-06   -3.4079388044194444e-05
1.6712314384179292e-05   -3.057698081681756e-06   -3.4079388044194444e-05
8.338226593161098e-06   -1.9437690625728667e-06   -2.0790932470629814e-05
8.338226593161098e-06   -1.9437690625728667e-06   -2.0790932470629814e-05
8.338226593161098e-06   -1.9437690625728667e-06   -2.0790932470629814e-05
8.338226593161098e-06   -1.9437690625728667e-06   -2.0790932470629814e-05
-9.396663337622952e-07   3.8411727629867297e-07   -1.150530195172337e-05
-9.396663337622952e-07   3.8411727629867297e-07   -1.150530195172337e-05
-9.396663337622952e-07   3.8411727629867297e-07   -1.150530195172337e-05
-9.396663337622952e-07   3.8411727629867297e-07   -1.150530195172337e-05
-1.6723961077705133e-05   -2.1621270288570485e-06   -3.93402064413883e-05
-1.6723961077705133e-05   -2.1621270288570485e-06   -3.93402064413883e-05
-1.6723961077705133e-05   -2.1621270288570485e-06   -3.93402064413883e-05
-1.6723961077705133e-05   -2.1621270288570485e-06   -3.93402064413883e-05
-1.5971841762963193e-05   8.618879664963434e-07   -1.2506780335744391e-05
-1.5971841762963193e-05   8.618879664963434e-07   -1.2506780335744391e-05
-1.5971841762963193e-05   8.618879664963434e-07   -1.2506780335744391e-05
-1.5971841762963193e-05   8.618879664963434e-07   -1.2506780335744391e-05
-3.129833405332745e-07   -1.923852802931383e-06   -3.6933433244804026e-05
-3.129833405332745e-07   -1.923852802931383e-06   -3.6933433244804026e-05
-3.129833405332745e-07   -1.923852802931383e-06   -3.6933433244804026e-05
-3.129833405332745e-07   -1.923852802931383e-06   -3.6933433244804026e-05
-8.387245395784903e-06   -4.018645113361332e-07   -2.438952279434193e-05
-8.387245395784903e-06   -4.018645113361332e-07   -2.438952279434193e-05
-8.387245395784903e-06   -4.018645113361332e-07   -2.438952279434193e-05
-8.387245395784903e-06   -4.018645113361332e-07   -2.438952279434193e-05
-3.129833405332745e-07   8.618879664963434e-07   -1.0835335874087603e-05
-3.129833405332745e-07   8.618879664963434e-07   -1.0835335874087603e-05
-3.129833405332745e-07   8.618879664963434e-07   -1.0835335874087603e-05
-3.129833405332745e-07   8.618879664963434e-07   -1.0835335874087603e-05
-1.5971841762963193e-05   -1.923852802931383e-06   -3.8604877706460814e-05
-1.5971841762963193e-05   -1.923852802931383e-06   -3.8604877706460814e-05
-1.5971841762963193e-05   -1.923852802931383e-06   -3.8604877706460814e-05
-1.5971841762963193e-05   -1.923852802931383e-06   -3.8604877706460814e-05
-1.5281837068604527e-05   1.4144008101055205e-06   -1.2282800011802859e-05
-1.5281837068604527e-05   1.4144008101055205e-06   -1.2282800011802859e-05
-1.5281837068604527e-05   1.4144008101055205e-06   -1.2282800011802859e-05
-1.5281837068604527e-05   1.4144008101055205e-06   -1.2282800011802859e-05
2.390207604233645e-07   -1.555280736389086e-06   -3.6369087465619156e-05
2.390207604233645e-07   -1.555280736389086e-06   -3.6369087465619156e-05
2.390207604233645e-07   -1.555280736389086e-06   -3.6369087465619156e-05
2.390207604233645e-07   -1.555280736389086e-06   -3.6369087465619156e-05
-7.775140180579275e-06   -1.2993690421065143e-07   -2.3867358863255078e-05
-7.775140180579275e-06   -1.2993690421065143e-07   -2.3867358863255078e-05
-7.775140180579275e-06   -1.2993690421065143e-07   -2.3867358863255078e-05
-7.775140180579275e-06   -1.2993690421065143e-07   -2.3867358863255078e-05
2.390207604233645e-07   1.4144008101055205e-06   -1.0500991083906008e-05
2.390207604233645e-07   1.4144008101055205e-06   -1.0500991083906008e-05
2.390207604233645e-07   1.4144008101055205e-06   -1.0500991083906008e-05
2.390207604233645e-07   1.4144008101055205e-06   -1.0500991083906008e-05
-1.5281837068604554e-05   -1.555280736389086e-06   -3.815089639351609e-05
-1.5281837068604554e-05   -1.555280736389086e-06   -3.815089639351609e-05
-1.5281837068604554e-05   -1.555280736389086e-06   -3.815089639351609e-05
-1.5281837068604554e-05   -1.555280736389086e-06   -3.815089639351609e-05
-1.481679820818129e-05   1.9852615223893855e-06   -1.2497974219857115e-05
-1.481679820818129e-05   1.9852615223893855e-06   -1.2497974219857115e-05
-1.481679820818129e-05   1.9852615223893855e-06   -1.2497974219857115e-05
-1.481679820818129e-05   1.9852615223893855e-06   -1.2497974219857115e-05
6.315367072946295e-07   -1.205433382242202e-06   -3.633078213620479e-05
6.315367072946295e-07   -1.205433382242202e-06   -3.633078213620479e-05
6.315367072946295e-07   -1.205433382242202e-06   -3.633078213620479e-05
6.315367072946295e-07   -1.205433382242202e-06   -3.633078213620479e-05
-7.339072151289462e-06   1.75076962428012e-07   -2.387474024536702e-05
-7.339072151289462e-06   1.75076962428012e-07   -2.387474024536702e-05
-7.339072151289462e-06   1.75076962428012e-07   -2.387474024536702e-05
-7.339072151289462e-06   1.75076962428012e-07   -2.387474024536702e-05
-1.6723961077705106e-05   2.89215011899319e-06   -9.37874038858626e-06
-1.6723961077705106e-05   2.89215011899319e-06   -9.37874038858626e-06
-1.6723961077705106e-05   2.89215011899319e-06   -9.37874038858626e-06
-1.6723961077705106e-05   2.89215011899319e-06   -9.37874038858626e-06
-3.2731630439977806e-05   6.021761277405849e-07   -3.743217372045903e-05
-3.2731630439977806e-05   6.021761277405849e-07   -3.743217372045903e-05
-3.2731630439977806e-05   6.021761277405849e-07   -3.743217372045903e-05
-3.2731630439977806e-05   6.021761277405849e-07   -3.743217372045903e-05
-3.166063943305985e-05   3.4979195039108214e-06   -9.98612185255075e-06
-3.166063943305985e-05   3.4979195039108214e-06   -9.98612185255075e-06
-3.166063943305985e-05   3.4979195039108214e-06   -9.98612185255075e-06
-3.166063943305985e-05   3.4979195039108214e-06   -9.98612185255075e-06
-1.5971841762963166e-05   1.0394659899759778e-06   -3.465904586101774e-05
-1.5971841762963166e-05   1.0394659899759778e-06   -3.465904586101774e-05
-1.5971841762963166e-05   1.0394659899759778e-06   -3.465904586101774e-05
-1.5971841762963166e-05   1.0394659899759778e-06   -3.465904586101774e-05
-2.402136486920753e-05   2.2140630743291284e-06   -2.1947932267888875e-05
-2.402136486920753e-05   2.2140630743291284e-06   -2.1947932267888875e-05
-2.402136486920753e-05   2.2140630743291284e-06   -2.1947932267888875e-05
-2.402136486920753e-05   2.2140630743291284e-06   -2.1947932267888875e-05
-1.5971841762963166e-05   3.4979195039108214e-06   -8.511049744189887e-06
-1.5971841762963166e-05   3.4979195039108214e-06   -8.511049744189887e-06
-1.5971841762963166e-05   3.4979195039108214e-06   -8.511049744189887e-06
-1.5971841762963166e-05   3.4979195039108214e-06   -8.511049744189887e-06
-3.1660639433059906e-05   1.0394659899759778e-06   -3.613411796937879e-05
-3.1660639433059906e-05   1.0394659899759778e-06   -3.613411796937879e-05
-3.1660639433059906e-05   1.0394659899759778e-06   -3.613411796937879e-05
-3.1660639433059906e-05   1.0394659899759778e-06   -3.613411796937879e-05
-3.06242043808019e-05   4.01946381761286e-06   -9.087105058891236e-06
-3.06242043808019e-05   4.01946381761286e-06   -9.087105058891236e-06
-3.06242043808019e-05   4.01946381761286e-06   -9.087105058891236e-06
-3.06242043808019e-05   4.01946381761286e-06   -9.087105058891236e-06
-1.5281837068604554e-05   1.4416746026903616e-06   -3.3111043716933274e-05
-1.5281837068604554e-05   1.4416746026903616e-06   -3.3111043716933274e-05
-1.5281837068604554e-05   1.4416746026903616e-06   -3.3111043716933274e-05
-1.5281837068604554e-05   1.4416746026903616e-06   -3.3111043716933274e-05
-2.305176168079961e-05   2.5945861455028713e-06   -2.085291628896227e-05
-2.305176168079961e-05   2.5945861455028713e-06   -2.085291628896227e-05
-2.305176168079961e-05   2.5945861455028713e-06   -2.085291628896227e-05
-2.305176168079961e-05   2.5945861455028713e-06   -2.085291628896227e-05
-1.5281837068604513e-05   4.01946381761286e-06   -7.540431529937542e-06
-1.5281837068604513e-05   4.01946381761286e-06   -7.540431529937542e-06
-1.5281837068604513e-05   4.01946381761286e-06   -7.540431529937542e-06
-1.5281837068604513e-05   4.01946381761286e-06   -7.540431529937542e-06
-3.0624204380801945e-05   1.4416746026903616e-06   -3.4657717245887036e-05
-3.0624204380801945e-05   1.4416746026903616e-06   -3.4657717245887036e-05
-3.0624204380801945e-05   1.4416746026903616e-06   -3.4657717245887036e-05
-3.0624204380801945e-05   1.4416746026903616e-06   -3.4657717245887036e-05
-2.9839615732744956e-05   4.595690330250462e-06   -9.116023047363916e-06
-2.9839615732744956e-05   4.595690330250462e-06   -9.116023047363916e-06
-2.9839615732744956e-05   4.595690330250462e-06   -9.116023047363916e-06
-2.9839615732744956e-05   4.595690330250462e-06   -9.116023047363916e-06
-1.481679820818131e-05   1.7811629874871834e-06   -3.246533584931218e-05
-1.481679820818131e-05   1.7811629874871834e-06   -3.246533584931218e-05
-1.481679820818131e-05   1.7811629874871834e-06   -3.246533584931218e-05
-1.481679820818131e-05   1.7811629874871834e-06   -3.246533584931218e-05
-2.2512420099199477e-05   2.8603999719777756e-06   -2.0286841554976206e-05
-2.2512420099199477e-05   2.8603999719777756e-06   -2.0286841554976206e-05
-2.2512420099199477e-05   2.8603999719777756e-06   -2.0286841554976206e-05
-2.2512420099199477e-05   2.8603999719777756e-06   -2.0286841554976206e-05
-3.2731630439977806e-05   5.6733705711554516e-06   -5.372222125195206e-06
-3.2731630439977806e-05   5.6733705711554516e-06   -5.372222125195206e-06
-3.2731630439977806e-05   5.6733705711554516e-06   -5.372222125195206e-06
-3.2731630439977806e-05   5.6733705711554516e-06   -5.372222125195206e-06
-4.946585124671099e-05   5.366472773764936e-06   -3.3446728814851695e-05
-4.946585124671099e-05   5.366472773764936e-06   -3.3446728814851695e-05
-4.946585124671099e-05   5.366472773764936e-06   -3.3446728814851695e-05
-4.946585124671099e-05   5.366472773764936e-06   -3.3446728814851695e-05
-4.7344141206865536e-05   6.478384204837298e-06   -7.89618844446345e-08
-4.7344141206865536e-05   6.478384204837298e-06   -7.89618844446345e-08
-4.7344141206865536e-05   6.478384204837298e-06   -7.89618844446345e-08
-4.7344141206865536e-05   6.478384204837298e-06   -7.89618844446345e-08
-3.16606394330598e-05   6.779344785578937e-06   -2.639870785589933e-05
-3.16606394330598e-05   6.779344785578937e-06   -2.639870785589933e-05
-3.16606394330598e-05   6.779344785578937e-06   -2.639870785589933e-05
-3.16606394330598e-05   6.779344785578937e-06   -2.639870785589933e-05
-3.856312614879121e-05   6.3903729368704025e-06   -1.466118022045532e-05
-3.856312614879121e-05   6.3903729368704025e-06   -1.466118022045532e-05
-3.856312614879121e-05   6.3903729368704025e-06   -1.466118022045532e-05
-3.856312614879121e-05   6.3903729368704025e-06   -1.466118022045532e-05
-3.166063943305988e-05   6.4783842048370816e-06   -2.5953823288963913e-07
-3.166063943305988e-05   6.4783842048370816e-06   -2.5953823288963913e-07
-3.166063943305988e-05   6.4783842048370816e-06   -2.5953823288963913e-07
-3.166063943305988e-05   6.4783842048370816e-06   -2.5953823288963913e-07
-4.7344141206865536e-05   6.779344785578937e-06   -2.6218131507454176e-05
-4.7344141206865536e-05   6.779344785578937e-06   -2.6218131507454176e-05
-4.7344141206865536e-05   6.779344785578937e-06   -2.6218131507454176e-05
-4.7344141206865536e-05   6.779344785578937e-06   -2.6218131507454176e-05
-4.558575609077174e-05   6.690558693799942e-06   2.9135838987274414e-06
-4.558575609077174e-05   6.690558693799942e-06   2.9135838987274414e-06
-4.558575609077174e-05   6.690558693799942e-06   2.9135838987274414e-06
-4.558575609077174e-05   6.690558693799942e-06   2.9135838987274414e-06
-3.06242043808019e-05   7.09751814611994e-06   -2.2266511289280994e-05
-3.06242043808019e-05   7.09751814611994e-06   -2.2266511289280994e-05
-3.06242043808019e-05   7.09751814611994e-06   -2.2266511289280994e-05
-3.06242043808019e-05   7.09751814611994e-06   -2.2266511289280994e-05
-3.7767957470863234e-05   6.853072417187071e-06   -1.0213588701818412e-05
-3.7767957470863234e-05   6.853072417187071e-06   -1.0213588701818412e-05
-3.7767957470863234e-05   6.853072417187071e-06   -1.0213588701818412e-05
-3.7767957470863234e-05   6.853072417187071e-06   -1.0213588701818412e-05
-3.0624204380801945e-05   6.690558693799942e-06   2.669408227335356e-06
-3.0624204380801945e-05   6.690558693799942e-06   2.669408227335356e-06
-3.0624204380801945e-05   6.690558693799942e-06   2.669408227335356e-06
-3.0624204380801945e-05   6.690558693799942e-06   2.669408227335356e-06
-4.558575609077166e-05   7.0975181461201565e-06   -2.2022335617888963e-05
-4.558575609077166e-05   7.0975181461201565e-06   -2.2022335617888963e-05
-4.558575609077166e-05   7.0975181461201565e-06   -2.2022335617888963e-05
-4.558575609077166e-05   7.0975181461201565e-06   -2.2022335617888963e-05
-4.374530723408466e-05   6.8710194553657945e-06   6.928947479091399e-06
-4.374530723408466e-05   6.8710194553657945e-06   6.928947479091399e-06
-4.374530723408466e-05   6.8710194553657945e-06   6.928947479091399e-06
-4.374530723408466e-05   6.8710194553657945e-06   6.928947479091399e-06
-2.9839615732744956e-05   7.639697502885567e-06   -1.670841185165335e-05
-2.9839615732744956e-05   7.639697502885567e-06   -1.670841185165335e-05
-2.9839615732744956e-05   7.639697502885567e-06   -1.670841185165335e-05
-2.9839615732744956e-05   7.639697502885567e-06   -1.670841185165335e-05
-3.598827438245298e-05   7.006845603850119e-06   -6.080936296052553e-06
-3.598827438245298e-05   7.006845603850119e-06   -6.080936296052553e-06
-3.598827438245298e-05   7.006845603850119e-06   -6.080936296052553e-06
-3.598827438245298e-05   7.006845603850119e-06   -6.080936296052553e-06
4.300553922089325e-05   -6.451831504159997e-06   1.4724737214612412e-05
4.300553922089325e-05   -6.451831504159997e-06   1.4724737214612412e-05
4.300553922089325e-05   -6.451831504159997e-06   1.4724737214612412e-05
4.300553922089325e-05   -6.451831504159997e-06   1.4724737214612412e-05
2.1600998723971386e-05   -8.151396586968205e-06   -2.196923599660913e-05
2.1600998723971386e-05   -8.151396586968205e-06   -2.196923599660913e-05
2.1600998723971386e-05   -8.151396586968205e-06   -2.196923599660913e-05
2.1600998723971386e-05   -8.151396586968205e-06   -2.196923599660913e-05
2.212340401510473e-05   -6.302363697261023e-06   1.0575208877415662e-05
2.212340401510473e-05   -6.302363697261023e-06   1.0575208877415662e-05
2.212340401510473e-05   -6.302363697261023e-06   1.0575208877415662e-05
2.212340401510473e-05   -6.302363697261023e-06   1.0575208877415662e-05
4.407022219097805e-05   -8.355367429721669e-06   -2.4771019176230466e-05
4.407022219097805e-05   -8.355367429721669e-06   -2.4771019176230466e-05
4.407022219097805e-05   -8.355367429721669e-06   -2.4771019176230466e-05
4.407022219097805e-05   -8.355367429721669e-06   -2.4771019176230466e-05
3.139629756892217e-05   -6.590109967605446e-06   -4.706965950073501e-06
3.139629756892217e-05   -6.590109967605446e-06   -4.706965950073501e-06
3.139629756892217e-05   -6.590109967605446e-06   -4.706965950073501e-06
3.139629756892217e-05   -6.590109967605446e-06   -4.706965950073501e-06
4.407022219097805e-05   -6.302363697261023e-06   1.1807011116891659e-05
4.407022219097805e-05   -6.302363697261023e-06   1.1807011116891659e-05
4.407022219097805e-05   -6.302363697261023e-06   1.1807011116891659e-05
4.407022219097805e-05   -6.302363697261023e-06   1.1807011116891659e-05
2.212340401510473e-05   -8.355367429721669e-06   -2.6002821415706734e-05
2.212340401510473e-05   -8.355367429721669e-06   -2.6002821415706734e-05
2.212340401510473e-05   -8.355367429721669e-06   -2.6002821415706734e-05
2.212340401510473e-05   -8.355367429721669e-06   -2.6002821415706734e-05
2.2564839231140862e-05   -6.083157708155389e-06   8.351254318471422e-06
2.2564839231140862e-05   -6.083157708155389e-06   8.351254318471422e-06
2.2564839231140862e-05   -6.083157708155389e-06   8.351254318471422e-06
2.2564839231140862e-05   -6.083157708155389e-06   8.351254318471422e-06
4.473319665518333e-05   -8.278624617262661e-06   -2.727872790946845e-05
4.473319665518333e-05   -8.278624617262661e-06   -2.727872790946845e-05
4.473319665518333e-05   -8.278624617262661e-06   -2.727872790946845e-05
4.473319665518333e-05   -8.278624617262661e-06   -2.727872790946845e-05
3.249832094514939e-05   -6.796975351641785e-06   -7.776257952117757e-06
3.249832094514939e-05   -6.796975351641785e-06   -7.776257952117757e-06
3.249832094514939e-05   -6.796975351641785e-06   -7.776257952117757e-06
3.249832094514939e-05   -6.796975351641785e-06   -7.776257952117757e-06
4.473319665518333e-05   -6.083157708155389e-06   9.668534463935677e-06
4.473319665518333e-05   -6.083157708155389e-06   9.668534463935677e-06
4.473319665518333e-05   -6.083157708155389e-06   9.668534463935677e-06
4.473319665518333e-05   -6.083157708155389e-06   9.668534463935677e-06
2.2564839231140862e-05   -8.278624617262661e-06   -2.859600805493268e-05
2.2564839231140862e-05   -8.278624617262661e-06   -2.859600805493268e-05
2.2564839231140862e-05   -8.278624617262661e-06   -2.859600805493268e-05
2.2564839231140862e-05   -8.278624617262661e-06   -2.859600805493268e-05
2.302524800702181e-05   -5.22962340386221e-06   4.042143166860636e-06
2.302524800702181e-05   -5.22962340386221e-06   4.042143166860636e-06
2.302524800702181e-05   -5.22962340386221e-06   4.042143166860636e-06
2.302524800702181e-05   -5.22962340386221e-06   4.042143166860636e-06
4.538606271530226e-05   -7.815031575066122e-06   -3.1674636444217974e-05
4.538606271530226e-05   -7.815031575066122e-06   -3.1674636444217974e-05
4.538606271530226e-05   -7.815031575066122e-06   -3.1674636444217974e-05
4.538606271530226e-05   -7.815031575066122e-06   -3.1674636444217974e-05
3.250928571750017e-05   -6.539670488009365e-06   -1.0978558100115251e-05
3.250928571750017e-05   -6.539670488009365e-06   -1.0978558100115251e-05
3.250928571750017e-05   -6.539670488009365e-06   -1.0978558100115251e-05
3.250928571750017e-05   -6.539670488009365e-06   -1.0978558100115251e-05
2.1600998723971386e-05   -4.16497793751967e-06   1.5214284428358843e-06
2.1600998723971386e-05   -4.16497793751967e-06   1.5214284428358843e-06
2.1600998723971386e-05   -4.16497793751967e-06   1.5214284428358843e-06
2.1600998723971386e-05   -4.16497793751967e-06   1.5214284428358843e-06
2.519827797059206e-06   -8.139480179841525e-06   -3.266522444741072e-05
2.519827797059206e-06   -8.139480179841525e-06   -3.266522444741072e-05
2.519827797059206e-06   -8.139480179841525e-06   -3.266522444741072e-05
2.519827797059206e-06   -8.139480179841525e-06   -3.266522444741072e-05
3.1281773935231983e-06   -3.963345380954145e-06   -1.0840102313588833e-07
3.1281773935231983e-06   -3.963345380954145e-06   -1.0840102313588833e-07
3.1281773935231983e-06   -3.963345380954145e-06   -1.0840102313588833e-07
3.1281773935231983e-06   -3.963345380954145e-06   -1.0840102313588833e-07
2.2123404015104756e-05   -8.095570692631237e-06   -2.928777687209887e-05
2.2123404015104756e-05   -8.095570692631237e-06   -2.928777687209887e-05
2.2123404015104756e-05   -8.095570692631237e-06   -2.928777687209887e-05
2.2123404015104756e-05   -8.095570692631237e-06   -2.928777687209887e-05
1.2390202512234306e-05   -5.493504140566393e-06   -1.4627014298553844e-05
1.2390202512234306e-05   -5.493504140566393e-06   -1.4627014298553844e-05
1.2390202512234306e-05   -5.493504140566393e-06   -1.4627014298553844e-05
1.2390202512234306e-05   -5.493504140566393e-06   -1.4627014298553844e-05
2.21234040151047e-05   -3.963345380954145e-06   2.3709341638705186e-06
2.21234040151047e-05   -3.963345380954145e-06   2.3709341638705186e-06
2.21234040151047e-05   -3.963345380954145e-06   2.3709341638705186e-06
2.21234040151047e-05   -3.963345380954145e-06   2.3709341638705186e-06
3.1281773935231847e-06   -8.095570692631237e-06   -3.176711205910509e-05
3.1281773935231847e-06   -8.095570692631237e-06   -3.176711205910509e-05
3.1281773935231847e-06   -8.095570692631237e-06   -3.176711205910509e-05
3.1281773935231847e-06   -8.095570692631237e-06   -3.176711205910509e-05
3.677248850702657e-06   -3.5895920727413346e-06   -3.141710569331147e-07
3.677248850702657e-06   -3.5895920727413346e-06   -3.141710569331147e-07
3.677248850702657e-06   -3.5895920727413346e-06   -3.141710569331147e-07
3.677248850702657e-06   -3.5895920727413346e-06   -3.141710569331147e-07
2.2564839231140862e-05   -7.984001112719017e-06   -2.9156842933676896e-05
2.2564839231140862e-05   -7.984001112719017e-06   -2.9156842933676896e-05
2.2564839231140862e-05   -7.984001112719017e-06   -2.9156842933676896e-05
2.2564839231140862e-05   -7.984001112719017e-06   -2.9156842933676896e-05
1.2733765095631837e-05   -5.551386029539838e-06   -1.423128842440222e-05
1.2733765095631837e-05   -5.551386029539838e-06   -1.423128842440222e-05
1.2733765095631837e-05   -5.551386029539838e-06   -1.423128842440222e-05
1.2733765095631837e-05   -5.551386029539838e-06   -1.423128842440222e-05
2.2564839231140862e-05   -3.5895920727413346e-06   2.322474367053365e-06
2.2564839231140862e-05   -3.5895920727413346e-06   2.322474367053365e-06
2.2564839231140862e-05   -3.5895920727413346e-06   2.322474367053365e-06
2.2564839231140862e-05   -3.5895920727413346e-06   2.322474367053365e-06
3.677248850702657e-06   -7.984001112719017e-06   -3.179348835766346e-05
3.677248850702657e-06   -7.984001112719017e-06   -3.179348835766346e-05
3.677248850702657e-06   -7.984001112719017e-06   -3.179348835766346e-05
3.677248850702657e-06   -7.984001112719017e-06   -3.179348835766346e-05
4.497156380934482e-06   -3.057698081681756e-06   -7.01489290180074e-07
4.497156380934482e-06   -3.057698081681756e-06   -7.01489290180074e-07
4.497156380934482e-06   -3.057698081681756e-06   -7.01489290180074e-07
4.497156380934482e-06   -3.057698081681756e-06   -7.01489290180074e-07
2.3025248007021797e-05   -7.762983560286735e-06   -2.8758470713162308e-05
2.3025248007021797e-05   -7.762983560286735e-06   -2.8758470713162308e-05
2.3025248007021797e-05   -7.762983560286735e-06   -2.8758470713162308e-05
2.3025248007021797e-05   -7.762983560286735e-06   -2.8758470713162308e-05
1.3393556826897463e-05   -5.461834293960747e-06   -1.4086341639417345e-05
1.3393556826897463e-05   -5.461834293960747e-06   -1.4086341639417345e-05
1.3393556826897463e-05   -5.461834293960747e-06   -1.4086341639417345e-05
1.3393556826897463e-05   -5.461834293960747e-06   -1.4086341639417345e-05
2.519827797059206e-06   -2.1621270288570485e-06   -3.1667377629148634e-06
2.519827797059206e-06   -2.1621270288570485e-06   -3.1667377629148634e-06
2.519827797059206e-06   -2.1621270288570485e-06   -3.1667377629148634e-06
2.519827797059206e-06   -2.1621270288570485e-06   -3.1667377629148634e-06
-1.6362247527367483e-05   -9.778651993720732e-06   -3.920677828254417e-05
-1.6362247527367483e-05   -9.778651993720732e-06   -3.920677828254417e-05
-1.6362247527367483e-05   -9.778651993720732e-06   -3.920677828254417e-05
-1.6362247527367483e-05   -9.778651993720732e-06   -3.920677828254417e-05
-1.5414156652074686e-05   -1.923852802931383e-06   -6.900504595099e-06
-1.5414156652074686e-05   -1.923852802931383e-06   -6.900504595099e-06
-1.5414156652074686e-05   -1.923852802931383e-06   -6.900504595099e-06
-1.5414156652074686e-05   -1.923852802931383e-06   -6.900504595099e-06
3.1281773935231847e-06   -9.991652654758355e-06   -3.296371475999924e-05
3.1281773935231847e-06   -9.991652654758355e-06   -3.296371475999924e-05
3.1281773935231847e-06   -9.991652654758355e-06   -3.296371475999924e-05
3.1281773935231847e-06   -9.991652654758355e-06   -3.296371475999924e-05
-6.315937614173452e-06   -5.518981201976152e-06   -1.9907125952174062e-05
-6.315937614173452e-06   -5.518981201976152e-06   -1.9907125952174062e-05
-6.315937614173452e-06   -5.518981201976152e-06   -1.9907125952174062e-05
-6.315937614173452e-06   -5.518981201976152e-06   -1.9907125952174062e-05
3.1281773935231847e-06   -1.923852802931383e-06   -2.0598246840027295e-06
3.1281773935231847e-06   -1.923852802931383e-06   -2.0598246840027295e-06
3.1281773935231847e-06   -1.923852802931383e-06   -2.0598246840027295e-06
3.1281773935231847e-06   -1.923852802931383e-06   -2.0598246840027295e-06
-1.5414156652074713e-05   -9.991652654758572e-06   -3.78043946710954e-05
-1.5414156652074713e-05   -9.991652654758572e-06   -3.78043946710954e-05
-1.5414156652074713e-05   -9.991652654758572e-06   -3.78043946710954e-05
-1.5414156652074713e-05   -9.991652654758572e-06   -3.78043946710954e-05
-1.4596626401412498e-05   -1.555280736389086e-06   -6.437575620073938e-06
-1.4596626401412498e-05   -1.555280736389086e-06   -6.437575620073938e-06
-1.4596626401412498e-05   -1.555280736389086e-06   -6.437575620073938e-06
-1.4596626401412498e-05   -1.555280736389086e-06   -6.437575620073938e-06
3.677248850702657e-06   -9.94098033997126e-06   -3.1862614611450154e-05
3.677248850702657e-06   -9.94098033997126e-06   -3.1862614611450154e-05
3.677248850702657e-06   -9.94098033997126e-06   -3.1862614611450154e-05
3.677248850702657e-06   -9.94098033997126e-06   -3.1862614611450154e-05
-5.642954183254037e-06   -5.641221218304765e-06   -1.890879836118878e-05
-5.642954183254037e-06   -5.641221218304765e-06   -1.890879836118878e-05
-5.642954183254037e-06   -5.641221218304765e-06   -1.890879836118878e-05
-5.642954183254037e-06   -5.641221218304765e-06   -1.890879836118878e-05
3.677248850702657e-06   -1.555280736389086e-06   -1.4061558579248935e-06
3.677248850702657e-06   -1.555280736389086e-06   -1.4061558579248935e-06
3.677248850702657e-06   -1.555280736389086e-06   -1.4061558579248935e-06
3.677248850702657e-06   -1.555280736389086e-06   -1.4061558579248935e-06
-1.4596626401412545e-05   -9.940980339971043e-06   -3.689403437359955e-05
-1.4596626401412545e-05   -9.940980339971043e-06   -3.689403437359955e-05
-1.4596626401412545e-05   -9.940980339971043e-06   -3.689403437359955e-05
-1.4596626401412545e-05   -9.940980339971043e-06   -3.689403437359955e-05
-1.3185749133695137e-05   -1.2054333822424188e-06   -6.41116060165264e-06
-1.3185749133695137e-05   -1.2054333822424188e-06   -6.41116060165264e-06
-1.3185749133695137e-05   -1.2054333822424188e-06   -6.41116060165264e-06
-1.3185749133695137e-05   -1.2054333822424188e-06   -6.41116060165264e-06
4.497156380934482e-06   -9.587794280298137e-06   -3.085325325386876e-05
4.497156380934482e-06   -9.587794280298137e-06   -3.085325325386876e-05
4.497156380934482e-06   -9.587794280298137e-06   -3.085325325386876e-05
4.497156380934482e-06   -9.587794280298137e-06   -3.085325325386876e-05
-4.76817211213077e-06   -5.51252220510408e-06   -1.7856202343876233e-05
-4.76817211213077e-06   -5.51252220510408e-06   -1.7856202343876233e-05
-4.76817211213077e-06   -5.51252220510408e-06   -1.7856202343876233e-05
-4.76817211213077e-06   -5.51252220510408e-06   -1.7856202343876233e-05
-1.6362247527367462e-05   6.021761277405849e-07   -4.454635626152171e-06
-1.6362247527367462e-05   6.021761277405849e-07   -4.454635626152171e-06
-1.6362247527367462e-05   6.021761277405849e-07   -4.454635626152171e-06
-1.6362247527367462e-05   6.021761277405849e-07   -4.454635626152171e-06
-3.741224323775902e-05   -1.215303834660648e-05   -4.719109049474649e-05
-3.741224323775902e-05   -1.215303834660648e-05   -4.719109049474649e-05
-3.741224323775902e-05   -1.215303834660648e-05   -4.719109049474649e-05
-3.741224323775902e-05   -1.215303834660648e-05   -4.719109049474649e-05
-3.627685949464395e-05   1.0394659899759778e-06   -1.1730069407672261e-05
-3.627685949464395e-05   1.0394659899759778e-06   -1.1730069407672261e-05
-3.627685949464395e-05   1.0394659899759778e-06   -1.1730069407672261e-05
-3.627685949464395e-05   1.0394659899759778e-06   -1.1730069407672261e-05
-1.5414156652074686e-05   -1.3586195106717568e-05   -3.772584415393791e-05
-1.5414156652074686e-05   -1.3586195106717568e-05   -3.772584415393791e-05
-1.5414156652074686e-05   -1.3586195106717568e-05   -3.772584415393791e-05
-1.5414156652074686e-05   -1.3586195106717568e-05   -3.772584415393791e-05
-2.5989182278742747e-05   -6.159738293138586e-06   -2.4556675530971927e-05
-2.5989182278742747e-05   -6.159738293138586e-06   -2.4556675530971927e-05
-2.5989182278742747e-05   -6.159738293138586e-06   -2.4556675530971927e-05
-2.5989182278742747e-05   -6.159738293138586e-06   -2.4556675530971927e-05
-1.5414156652074686e-05   1.0394659899759778e-06   -2.9546727496558957e-06
-1.5414156652074686e-05   1.0394659899759778e-06   -2.9546727496558957e-06
-1.5414156652074686e-05   1.0394659899759778e-06   -2.9546727496558957e-06
-1.5414156652074686e-05   1.0394659899759778e-06   -2.9546727496558957e-06
-3.627685949464395e-05   -1.358619510671735e-05   -4.650124081195426e-05
-3.627685949464395e-05   -1.358619510671735e-05   -4.650124081195426e-05
-3.627685949464395e-05   -1.358619510671735e-05   -4.650124081195426e-05
-3.627685949464395e-05   -1.358619510671735e-05   -4.650124081195426e-05
-3.518883871955301e-05   1.4416746026901447e-06   -1.0457541413356596e-05
-3.518883871955301e-05   1.4416746026901447e-06   -1.0457541413356596e-05
-3.518883871955301e-05   1.4416746026901447e-06   -1.0457541413356596e-05
-3.518883871955301e-05   1.4416746026901447e-06   -1.0457541413356596e-05
-1.4596626401412511e-05   -1.365802284708506e-05   -3.571807680705887e-05
-1.4596626401412511e-05   -1.365802284708506e-05   -3.571807680705887e-05
-1.4596626401412511e-05   -1.365802284708506e-05   -3.571807680705887e-05
-1.4596626401412511e-05   -1.365802284708506e-05   -3.571807680705887e-05
-2.488202111578127e-05   -6.177032951285586e-06   -2.3064346220590657e-05
-2.488202111578127e-05   -6.177032951285586e-06   -2.3064346220590657e-05
-2.488202111578127e-05   -6.177032951285586e-06   -2.3064346220590657e-05
-2.488202111578127e-05   -6.177032951285586e-06   -2.3064346220590657e-05
-1.4596626401412505e-05   1.4416746026901447e-06   -1.397722943491191e-06
-1.4596626401412505e-05   1.4416746026901447e-06   -1.397722943491191e-06
-1.4596626401412505e-05   1.4416746026901447e-06   -1.397722943491191e-06
-1.4596626401412505e-05   1.4416746026901447e-06   -1.397722943491191e-06
-3.5188838719553074e-05   -1.365802284708506e-05   -4.477789527692418e-05
-3.5188838719553074e-05   -1.365802284708506e-05   -4.477789527692418e-05
-3.5188838719553074e-05   -1.365802284708506e-05   -4.477789527692418e-05
-3.5188838719553074e-05   -1.365802284708506e-05   -4.477789527692418e-05
-3.340304978921731e-05   1.7811629874869665e-06   -9.164453363679588e-06
-3.340304978921731e-05   1.7811629874869665e-06   -9.164453363679588e-06
-3.340304978921731e-05   1.7811629874869665e-06   -9.164453363679588e-06
-3.340304978921731e-05   1.7811629874869665e-06   -9.164453363679588e-06
-1.3185749133695178e-05   -1.2440763665343049e-05   -3.432679846451823e-05
-1.3185749133695178e-05   -1.2440763665343049e-05   -3.432679846451823e-05
-1.3185749133695178e-05   -1.2440763665343049e-05   -3.432679846451823e-05
-1.3185749133695178e-05   -1.2440763665343049e-05   -3.432679846451823e-05
-2.3791756900022784e-05   -5.4388598753241264e-06   -2.0851261127983244e-05
-2.3791756900022784e-05   -5.4388598753241264e-06   -2.0851261127983244e-05
-2.3791756900022784e-05   -5.4388598753241264e-06   -2.0851261127983244e-05
-2.3791756900022784e-05   -5.4388598753241264e-06   -2.0851261127983244e-05
-3.741224323775902e-05   5.366472773765153e-06   -7.938180726719157e-06
-3.741224323775902e-05   5.366472773765153e-06   -7.938180726719157e-06
-3.741224323775902e-05   5.366472773765153e-06   -7.938180726719157e-06
-3.741224323775902e-05   5.366472773765153e-06   -7.938180726719157e-06
-6.432439433996735e-05   0.0   -5.6011649561325534e-05
-6.432439433996735e-05   0.0   -5.6011649561325534e-05
-6.432439433996735e-05   0.0   -5.6011649561325534e-05
-6.432439433996735e-05   0.0   -5.6011649561325534e-05
-6.266602531426272e-05   6.7793447855791535e-06   -6.062266165540384e-06
-6.266602531426272e-05   6.7793447855791535e-06   -6.062266165540384e-06
-6.266602531426272e-05   6.7793447855791535e-06   -6.062266165540384e-06
-6.266602531426272e-05   6.7793447855791535e-06   -6.062266165540384e-06
-3.627685949464389e-05   0.0   -4.597660232689106e-05
-3.627685949464389e-05   0.0   -4.597660232689106e-05
-3.627685949464389e-05   0.0   -4.597660232689106e-05
-3.627685949464389e-05   0.0   -4.597660232689106e-05
-4.8039015084916584e-05   2.0802842720590246e-06   -2.7621180239672036e-05
-4.8039015084916584e-05   2.0802842720590246e-06   -2.7621180239672036e-05
-4.8039015084916584e-05   2.0802842720590246e-06   -2.7621180239672036e-05
-4.8039015084916584e-05   2.0802842720590246e-06   -2.7621180239672036e-05
-3.627685949464392e-05   6.7793447855791535e-06   -1.9946592941927615e-06
-3.627685949464392e-05   6.7793447855791535e-06   -1.9946592941927615e-06
-3.627685949464392e-05   6.7793447855791535e-06   -1.9946592941927615e-06
-3.627685949464392e-05   6.7793447855791535e-06   -1.9946592941927615e-06
-6.266602531426261e-05   0.0   -5.004420919823833e-05
-6.266602531426261e-05   0.0   -5.004420919823833e-05
-6.266602531426261e-05   0.0   -5.004420919823833e-05
-6.266602531426261e-05   0.0   -5.004420919823833e-05
-6.126125292332368e-05   7.0975181461201565e-06   -2.3248463444229843e-06
-6.126125292332368e-05   7.0975181461201565e-06   -2.3248463444229843e-06
-6.126125292332368e-05   7.0975181461201565e-06   -2.3248463444229843e-06
-6.126125292332368e-05   7.0975181461201565e-06   -2.3248463444229843e-06
-3.5188838719553074e-05   0.0   -4.152035912970203e-05
-3.5188838719553074e-05   0.0   -4.152035912970203e-05
-3.5188838719553074e-05   0.0   -4.152035912970203e-05
-3.5188838719553074e-05   0.0   -4.152035912970203e-05
-4.7552840886013227e-05   3.2848996935177024e-06   -2.2884628668378348e-05
-4.7552840886013227e-05   3.2848996935177024e-06   -2.2884628668378348e-05
-4.7552840886013227e-05   3.2848996935177024e-06   -2.2884628668378348e-05
-4.7552840886013227e-05   3.2848996935177024e-06   -2.2884628668378348e-05
-3.5188838719553074e-05   7.09751814611994e-06   1.9336645432491747e-06
-3.5188838719553074e-05   7.09751814611994e-06   1.9336645432491747e-06
-3.5188838719553074e-05   7.09751814611994e-06   1.9336645432491747e-06
-3.5188838719553074e-05   7.09751814611994e-06   1.9336645432491747e-06
-6.126125292332357e-05   0.0   -4.5778870017374016e-05
-6.126125292332357e-05   0.0   -4.5778870017374016e-05
-6.126125292332357e-05   0.0   -4.5778870017374016e-05
-6.126125292332357e-05   0.0   -4.5778870017374016e-05
-5.845653214308472e-05   7.639697502885567e-06   3.697368537905802e-06
-5.845653214308472e-05   7.639697502885567e-06   3.697368537905802e-06
-5.845653214308472e-05   7.639697502885567e-06   3.697368537905802e-06
-5.845653214308472e-05   7.639697502885567e-06   3.697368537905802e-06
-3.340304978921737e-05   0.0   -3.347461688347526e-05
-3.340304978921737e-05   0.0   -3.347461688347526e-05
-3.340304978921737e-05   0.0   -3.347461688347526e-05
-3.340304978921737e-05   0.0   -3.347461688347526e-05
-4.5098273902013504e-05   4.048329127535324e-06   -1.6411574172002657e-05
-4.5098273902013504e-05   4.048329127535324e-06   -1.6411574172002657e-05
-4.5098273902013504e-05   4.048329127535324e-06   -1.6411574172002657e-05
-4.5098273902013504e-05   4.048329127535324e-06   -1.6411574172002657e-05
4.757734823478935e-05   -8.151396586968205e-06   2.8366334610967128e-05
4.757734823478935e-05   -8.151396586968205e-06   2.8366334610967128e-05
4.757734823478935e-05   -8.151396586968205e-06   2.8366334610967128e-05
4.757734823478935e-05   -8.151396586968205e-06   2.8366334610967128e-05
2.466326388452864e-05   -6.297932362664448e-06   -8.711727438218066e-06
2.466326388452864e-05   -6.297932362664448e-06   -8.711727438218066e-06
2.466326388452864e-05   -6.297932362664448e-06   -8.711727438218066e-06
2.466326388452864e-05   -6.297932362664448e-06   -8.711727438218066e-06
2.4047179980599267e-05   -8.355367429721669e-06   2.5033326980656787e-05
2.4047179980599267e-05   -8.355367429721669e-06   2.5033326980656787e-05
2.4047179980599267e-05   -8.355367429721669e-06   2.5033326980656787e-05
2.4047179980599267e-05   -8.355367429721669e-06   2.5033326980656787e-05
4.7074566785152723e-05   -6.92123449606407e-06   -1.4206130787126889e-05
4.7074566785152723e-05   -6.92123449606407e-06   -1.4206130787126889e-05
4.7074566785152723e-05   -6.92123449606407e-06   -1.4206130787126889e-05
4.7074566785152723e-05   -6.92123449606407e-06   -1.4206130787126889e-05
3.437295121914176e-05   -7.032797009846707e-06   7.030165997827699e-06
3.437295121914176e-05   -7.032797009846707e-06   7.030165997827699e-06
3.437295121914176e-05   -7.032797009846707e-06   7.030165997827699e-06
3.437295121914176e-05   -7.032797009846707e-06   7.030165997827699e-06
4.7074566785152723e-05   -8.355367429721669e-06   2.417284722046212e-05
4.7074566785152723e-05   -8.355367429721669e-06   2.417284722046212e-05
4.7074566785152723e-05   -8.355367429721669e-06   2.417284722046212e-05
4.7074566785152723e-05   -8.355367429721669e-06   2.417284722046212e-05
2.4047179980599267e-05   -6.92123449606407e-06   -1.3345651026932344e-05
2.4047179980599267e-05   -6.92123449606407e-06   -1.3345651026932344e-05
2.4047179980599267e-05   -6.92123449606407e-06   -1.3345651026932344e-05
2.4047179980599267e-05   -6.92123449606407e-06   -1.3345651026932344e-05
2.348944358723581e-05   -8.278624617262661e-06   2.246589182193265e-05
2.348944358723581e-05   -8.278624617262661e-06   2.246589182193265e-05
2.348944358723581e-05   -8.278624617262661e-06   2.246589182193265e-05
2.348944358723581e-05   -8.278624617262661e-06   2.246589182193265e-05
4.6491501906192686e-05   -6.977316765984778e-06   -1.665165675376231e-05
4.6491501906192686e-05   -6.977316765984778e-06   -1.665165675376231e-05
4.6491501906192686e-05   -6.977316765984778e-06   -1.665165675376231e-05
4.6491501906192686e-05   -6.977316765984778e-06   -1.665165675376231e-05
3.435202579619963e-05   -7.1561827722816e-06   3.6881230333376505e-06
3.435202579619963e-05   -7.1561827722816e-06   3.6881230333376505e-06
3.435202579619963e-05   -7.1561827722816e-06   3.6881230333376505e-06
3.435202579619963e-05   -7.1561827722816e-06   3.6881230333376505e-06
4.649150190619277e-05   -8.278624617262878e-06   2.168510711116577e-05
4.649150190619277e-05   -8.278624617262878e-06   2.168510711116577e-05
4.649150190619277e-05   -8.278624617262878e-06   2.168510711116577e-05
4.649150190619277e-05   -8.278624617262878e-06   2.168510711116577e-05
2.348944358723581e-05   -6.977316765984778e-06   -1.587087204299551e-05
2.348944358723581e-05   -6.977316765984778e-06   -1.587087204299551e-05
2.348944358723581e-05   -6.977316765984778e-06   -1.587087204299551e-05
2.348944358723581e-05   -6.977316765984778e-06   -1.587087204299551e-05
2.2808767611350245e-05   -7.815031575066122e-06   1.828885288936025e-05
2.2808767611350245e-05   -7.815031575066122e-06   1.828885288936025e-05
2.2808767611350245e-05   -7.815031575066122e-06   1.828885288936025e-05
2.2808767611350245e-05   -7.815031575066122e-06   1.828885288936025e-05
4.5577796701610385e-05   -6.827403341249771e-06   -2.025210586802959e-05
4.5577796701610385e-05   -6.827403341249771e-06   -2.025210586802959e-05
4.5577796701610385e-05   -6.827403341249771e-06   -2.025210586802959e-05
4.5577796701610385e-05   -6.827403341249771e-06   -2.025210586802959e-05
3.3183969503050084e-05   -6.804358681776349e-06   3.904460005532901e-07
3.3183969503050084e-05   -6.804358681776349e-06   3.904460005532901e-07
3.3183969503050084e-05   -6.804358681776349e-06   3.904460005532901e-07
3.3183969503050084e-05   -6.804358681776349e-06   3.904460005532901e-07
2.466326388452864e-05   -8.139480179841525e-06   2.116712604014132e-05
2.466326388452864e-05   -8.139480179841525e-06   2.116712604014132e-05
2.466326388452864e-05   -8.139480179841525e-06   2.116712604014132e-05
2.466326388452864e-05   -8.139480179841525e-06   2.116712604014132e-05
5.192563537513868e-06   -3.8750672803999735e-06   -8.725393465218532e-06
5.192563537513868e-06   -3.8750672803999735e-06   -8.725393465218532e-06
5.192563537513868e-06   -3.8750672803999735e-06   -8.725393465218532e-06
5.192563537513868e-06   -3.8750672803999735e-06   -8.725393465218532e-06
4.217624732418552e-06   -8.095570692631237e-06   2.414048123409616e-05
4.217624732418552e-06   -8.095570692631237e-06   2.414048123409616e-05
4.217624732418552e-06   -8.095570692631237e-06   2.414048123409616e-05
4.217624732418552e-06   -8.095570692631237e-06   2.414048123409616e-05
2.4047179980599267e-05   -4.108721176245087e-06   -1.1300887222703295e-05
2.4047179980599267e-05   -4.108721176245087e-06   -1.1300887222703295e-05
2.4047179980599267e-05   -4.108721176245087e-06   -1.1300887222703295e-05
2.4047179980599267e-05   -4.108721176245087e-06   -1.1300887222703295e-05
1.4509030914625934e-05   -5.830247791696955e-06   5.62894385652341e-06
1.4509030914625934e-05   -5.830247791696955e-06   5.62894385652341e-06
1.4509030914625934e-05   -5.830247791696955e-06   5.62894385652341e-06
1.4509030914625934e-05   -5.830247791696955e-06   5.62894385652341e-06
2.4047179980599294e-05   -8.095570692631237e-06   2.1748371524264623e-05
2.4047179980599294e-05   -8.095570692631237e-06   2.1748371524264623e-05
2.4047179980599294e-05   -8.095570692631237e-06   2.1748371524264623e-05
2.4047179980599294e-05   -8.095570692631237e-06   2.1748371524264623e-05
4.217624732418552e-06   -4.108721176245087e-06   -8.908777512871648e-06
4.217624732418552e-06   -4.108721176245087e-06   -8.908777512871648e-06
4.217624732418552e-06   -4.108721176245087e-06   -8.908777512871648e-06
4.217624732418552e-06   -4.108721176245087e-06   -8.908777512871648e-06
3.5217136949991452e-06   -7.984001112719017e-06   2.4168909983939522e-05
3.5217136949991452e-06   -7.984001112719017e-06   2.4168909983939522e-05
3.5217136949991452e-06   -7.984001112719017e-06   2.4168909983939522e-05
3.5217136949991452e-06   -7.984001112719017e-06   2.4168909983939522e-05
2.348944358723581e-05   -4.210912711467103e-06   -1.137449287720608e-05
2.348944358723581e-05   -4.210912711467103e-06   -1.137449287720608e-05
2.348944358723581e-05   -4.210912711467103e-06   -1.137449287720608e-05
2.348944358723581e-05   -4.210912711467103e-06   -1.137449287720608e-05
1.3671703621098999e-05   -5.709494917667405e-06   5.8875563900760404e-06
1.3671703621098999e-05   -5.709494917667405e-06   5.8875563900760404e-06
1.3671703621098999e-05   -5.709494917667405e-06   5.8875563900760404e-06
1.3671703621098999e-05   -5.709494917667405e-06   5.8875563900760404e-06
2.348944358723585e-05   -7.984001112719017e-06   2.190505694318846e-05
2.348944358723585e-05   -7.984001112719017e-06   2.190505694318846e-05
2.348944358723585e-05   -7.984001112719017e-06   2.190505694318846e-05
2.348944358723585e-05   -7.984001112719017e-06   2.190505694318846e-05
3.5217136949991452e-06   -4.210912711467103e-06   -9.110639836454977e-06
3.5217136949991452e-06   -4.210912711467103e-06   -9.110639836454977e-06
3.5217136949991452e-06   -4.210912711467103e-06   -9.110639836454977e-06
3.5217136949991452e-06   -4.210912711467103e-06   -9.110639836454977e-06
2.747856400108807e-06   -7.762983560286735e-06   2.4946299170602437e-05
2.747856400108807e-06   -7.762983560286735e-06   2.4946299170602437e-05
2.747856400108807e-06   -7.762983560286735e-06   2.4946299170602437e-05
2.747856400108807e-06   -7.762983560286735e-06   2.4946299170602437e-05
2.2808767611350218e-05   -4.112924147846048e-06   -1.067858849559772e-05
2.2808767611350218e-05   -4.112924147846048e-06   -1.067858849559772e-05
2.2808767611350218e-05   -4.112924147846048e-06   -1.067858849559772e-05
2.2808767611350218e-05   -4.112924147846048e-06   -1.067858849559772e-05
1.316095839170755e-05   -5.45664714153354e-06   6.207327333352633e-06
1.316095839170755e-05   -5.45664714153354e-06   6.207327333352633e-06
1.316095839170755e-05   -5.45664714153354e-06   6.207327333352633e-06
1.316095839170755e-05   -5.45664714153354e-06   6.207327333352633e-06
5.192563537513868e-06   -9.778651993720732e-06   2.1754134923590877e-05
5.192563537513868e-06   -9.778651993720732e-06   2.1754134923590877e-05
5.192563537513868e-06   -9.778651993720732e-06   2.1754134923590877e-05
5.192563537513868e-06   -9.778651993720732e-06   2.1754134923590877e-05
-1.3515857356029414e-05   -1.6000108786181407e-06   -4.519381896586432e-06
-1.3515857356029414e-05   -1.6000108786181407e-06   -4.519381896586432e-06
-1.3515857356029414e-05   -1.6000108786181407e-06   -4.519381896586432e-06
-1.3515857356029414e-05   -1.6000108786181407e-06   -4.519381896586432e-06
-1.5031983984745828e-05   -9.991652654758572e-06   2.7925717268372126e-05
-1.5031983984745828e-05   -9.991652654758572e-06   2.7925717268372126e-05
-1.5031983984745828e-05   -9.991652654758572e-06   2.7925717268372126e-05
-1.5031983984745828e-05   -9.991652654758572e-06   2.7925717268372126e-05
4.217624732418552e-06   -1.6885880961422205e-06   -9.138802662071797e-06
4.217624732418552e-06   -1.6885880961422205e-06   -9.138802662071797e-06
4.217624732418552e-06   -1.6885880961422205e-06   -9.138802662071797e-06
4.217624732418552e-06   -1.6885880961422205e-06   -9.138802662071797e-06
-4.61861277086728e-06   -5.578548850112717e-06   7.922236295787078e-06
-4.61861277086728e-06   -5.578548850112717e-06   7.922236295787078e-06
-4.61861277086728e-06   -5.578548850112717e-06   7.922236295787078e-06
-4.61861277086728e-06   -5.578548850112717e-06   7.922236295787078e-06
4.217624732418552e-06   -9.991652654758355e-06   2.294387853320212e-05
4.217624732418552e-06   -9.991652654758355e-06   2.294387853320212e-05
4.217624732418552e-06   -9.991652654758355e-06   2.294387853320212e-05
4.217624732418552e-06   -9.991652654758355e-06   2.294387853320212e-05
-1.5031983984745801e-05   -1.6885880961420036e-06   -4.1569639269018995e-06
-1.5031983984745801e-05   -1.6885880961420036e-06   -4.1569639269018995e-06
-1.5031983984745801e-05   -1.6885880961420036e-06   -4.1569639269018995e-06
-1.5031983984745801e-05   -1.6885880961420036e-06   -4.1569639269018995e-06
-1.5959767028886967e-05   -9.940980339971043e-06   2.898584827176016e-05
-1.5959767028886967e-05   -9.940980339971043e-06   2.898584827176016e-05
-1.5959767028886967e-05   -9.940980339971043e-06   2.898584827176016e-05
-1.5959767028886967e-05   -9.940980339971043e-06   2.898584827176016e-05
3.5217136949991452e-06   -1.7975394372923576e-06   -8.369350809657352e-06
3.5217136949991452e-06   -1.7975394372923576e-06   -8.369350809657352e-06
3.5217136949991452e-06   -1.7975394372923576e-06   -8.369350809657352e-06
3.5217136949991452e-06   -1.7975394372923576e-06   -8.369350809657352e-06
-5.645571430802224e-06   -5.557729819210926e-06   9.165571962495972e-06
-5.645571430802224e-06   -5.557729819210926e-06   9.165571962495972e-06
-5.645571430802224e-06   -5.557729819210926e-06   9.165571962495972e-06
-5.645571430802224e-06   -5.557729819210926e-06   9.165571962495972e-06
3.5217136949991452e-06   -9.940980339971043e-06   2.4099783730152798e-05
3.5217136949991452e-06   -9.940980339971043e-06   2.4099783730152798e-05
3.5217136949991452e-06   -9.940980339971043e-06   2.4099783730152798e-05
3.5217136949991452e-06   -9.940980339971043e-06   2.4099783730152798e-05
-1.5959767028886953e-05   -1.7975394372923576e-06   -3.4832862680500435e-06
-1.5959767028886953e-05   -1.7975394372923576e-06   -3.4832862680500435e-06
-1.5959767028886953e-05   -1.7975394372923576e-06   -3.4832862680500435e-06
-1.5959767028886953e-05   -1.7975394372923576e-06   -3.4832862680500435e-06
-1.7049642227089467e-05   -9.587794280298137e-06   3.035666842874426e-05
-1.7049642227089467e-05   -9.587794280298137e-06   3.035666842874426e-05
-1.7049642227089467e-05   -9.587794280298137e-06   3.035666842874426e-05
-1.7049642227089467e-05   -9.587794280298137e-06   3.035666842874426e-05
2.747856400108807e-06   -1.784493427489306e-06   -7.3211431282710826e-06
2.747856400108807e-06   -1.784493427489306e-06   -7.3211431282710826e-06
2.747856400108807e-06   -1.784493427489306e-06   -7.3211431282710826e-06
2.747856400108807e-06   -1.784493427489306e-06   -7.3211431282710826e-06
-6.482401367936889e-06   -5.332435889386904e-06   1.0191385295609976e-05
-6.482401367936889e-06   -5.332435889386904e-06   1.0191385295609976e-05
-6.482401367936889e-06   -5.332435889386904e-06   1.0191385295609976e-05
-6.482401367936889e-06   -5.332435889386904e-06   1.0191385295609976e-05
-1.3515857356029442e-05   -1.215303834660648e-05   2.6330136065058716e-05
-1.3515857356029442e-05   -1.215303834660648e-05   2.6330136065058716e-05
-1.3515857356029442e-05   -1.215303834660648e-05   2.6330136065058716e-05
-1.3515857356029442e-05   -1.215303834660648e-05   2.6330136065058716e-05
-3.4786621633039046e-05   1.8048004548421644e-06   -7.464344490880695e-07
-3.4786621633039046e-05   1.8048004548421644e-06   -7.464344490880695e-07
-3.4786621633039046e-05   1.8048004548421644e-06   -7.464344490880695e-07
-3.4786621633039046e-05   1.8048004548421644e-06   -7.464344490880695e-07
-3.661269367223427e-05   -1.358619510671735e-05   3.717880094631547e-05
-3.661269367223427e-05   -1.358619510671735e-05   3.717880094631547e-05
-3.661269367223427e-05   -1.358619510671735e-05   3.717880094631547e-05
-3.661269367223427e-05   -1.358619510671735e-05   3.717880094631547e-05
-1.5031983984745801e-05   1.7046934945928564e-06   -7.963581693617961e-06
-1.5031983984745801e-05   1.7046934945928564e-06   -7.963581693617961e-06
-1.5031983984745801e-05   1.7046934945928564e-06   -7.963581693617961e-06
-1.5031983984745801e-05   1.7046934945928564e-06   -7.963581693617961e-06
-2.4640257847957776e-05   -5.0068895094314975e-06   1.2077157880816507e-05
-2.4640257847957776e-05   -5.0068895094314975e-06   1.2077157880816507e-05
-2.4640257847957776e-05   -5.0068895094314975e-06   1.2077157880816507e-05
-2.4640257847957776e-05   -5.0068895094314975e-06   1.2077157880816507e-05
-1.5031983984745828e-05   -1.358619510671735e-05   2.800426778552952e-05
-1.5031983984745828e-05   -1.358619510671735e-05   2.800426778552952e-05
-1.5031983984745828e-05   -1.358619510671735e-05   2.800426778552952e-05
-1.5031983984745828e-05   -1.358619510671735e-05   2.800426778552952e-05
-3.661269367223427e-05   1.7046934945928564e-06   1.2109514671682607e-06
-3.661269367223427e-05   1.7046934945928564e-06   1.2109514671682607e-06
-3.661269367223427e-05   1.7046934945928564e-06   1.2109514671682607e-06
-3.661269367223427e-05   1.7046934945928564e-06   1.2109514671682607e-06
-3.772487558760948e-05   -1.365802284708506e-05   3.926553208826616e-05
-3.772487558760948e-05   -1.365802284708506e-05   3.926553208826616e-05
-3.772487558760948e-05   -1.365802284708506e-05   3.926553208826616e-05
-3.772487558760948e-05   -1.365802284708506e-05   3.926553208826616e-05
-1.5959767028886953e-05   1.5148542361906672e-06   -6.113375092903542e-06
-1.5959767028886953e-05   1.5148542361906672e-06   -6.113375092903542e-06
-1.5959767028886953e-05   1.5148542361906672e-06   -6.113375092903542e-06
-1.5959767028886953e-05   1.5148542361906672e-06   -6.113375092903542e-06
-2.5823707953930678e-05   -5.778616036417744e-06   1.4702608612401167e-05
-2.5823707953930678e-05   -5.778616036417744e-06   1.4702608612401167e-05
-2.5823707953930678e-05   -5.778616036417744e-06   1.4702608612401167e-05
-2.5823707953930678e-05   -5.778616036417744e-06   1.4702608612401167e-05
-1.5959767028886926e-05   -1.365802284708506e-05   3.0161805838300614e-05
-1.5959767028886926e-05   -1.365802284708506e-05   3.0161805838300614e-05
-1.5959767028886926e-05   -1.365802284708506e-05   3.0161805838300614e-05
-1.5959767028886926e-05   -1.365802284708506e-05   3.0161805838300614e-05
-3.772487558760941e-05   1.5148542361906672e-06   2.990351157062111e-06
-3.772487558760941e-05   1.5148542361906672e-06   2.990351157062111e-06
-3.772487558760941e-05   1.5148542361906672e-06   2.990351157062111e-06
-3.772487558760941e-05   1.5148542361906672e-06   2.990351157062111e-06
-3.892415814520857e-05   -1.2440763665343049e-05   4.0156532875837815e-05
-3.892415814520857e-05   -1.2440763665343049e-05   4.0156532875837815e-05
-3.892415814520857e-05   -1.2440763665343049e-05   4.0156532875837815e-05
-3.892415814520857e-05   -1.2440763665343049e-05   4.0156532875837815e-05
-1.70496422270894e-05   1.2992248661718685e-06   -4.544986773270208e-06
-1.70496422270894e-05   1.2992248661718685e-06   -4.544986773270208e-06
-1.70496422270894e-05   1.2992248661718685e-06   -4.544986773270208e-06
-1.70496422270894e-05   1.2992248661718685e-06   -4.544986773270208e-06
-2.7046425560446404e-05   -5.819168021048253e-06   1.6387354514657462e-05
-2.7046425560446404e-05   -5.819168021048253e-06   1.6387354514657462e-05
-2.7046425560446404e-05   -5.819168021048253e-06   1.6387354514657462e-05
-2.7046425560446404e-05   -5.819168021048253e-06   1.6387354514657462e-05
-3.478662163303894e-05   0.0   2.910416394360756e-05
-3.478662163303894e-05   0.0   2.910416394360756e-05
-3.478662163303894e-05   0.0   2.910416394360756e-05
-3.478662163303894e-05   0.0   2.910416394360756e-05
-6.116832304068468e-05   8.03171646845415e-06   -1.004630852139614e-05
-6.116832304068468e-05   8.03171646845415e-06   -1.004630852139614e-05
-6.116832304068468e-05   8.03171646845415e-06   -1.004630852139614e-05
-6.116832304068468e-05   8.03171646845415e-06   -1.004630852139614e-05
-6.367881278215664e-05   0.0   4.2360222030512e-05
-6.367881278215664e-05   0.0   4.2360222030512e-05
-6.367881278215664e-05   0.0   4.2360222030512e-05
-6.367881278215664e-05   0.0   4.2360222030512e-05
-3.661269367223421e-05   7.761304331888909e-06   -7.406759085158747e-06
-3.661269367223421e-05   7.761304331888909e-06   -7.406759085158747e-06
-3.661269367223421e-05   7.761304331888909e-06   -7.406759085158747e-06
-3.661269367223421e-05   7.761304331888909e-06   -7.406759085158747e-06
-4.6971105375208784e-05   4.764459982450767e-06   1.1655367029461954e-05
-4.6971105375208784e-05   4.764459982450767e-06   1.1655367029461954e-05
-4.6971105375208784e-05   4.764459982450767e-06   1.1655367029461954e-05
-4.6971105375208784e-05   4.764459982450767e-06   1.1655367029461954e-05
-3.661269367223418e-05   0.0   3.7703439431378805e-05
-3.661269367223418e-05   0.0   3.7703439431378805e-05
-3.661269367223418e-05   0.0   3.7703439431378805e-05
-3.661269367223418e-05   0.0   3.7703439431378805e-05
-6.367881278215676e-05   7.761304331888909e-06   -2.7499764860252013e-06
-6.367881278215676e-05   7.761304331888909e-06   -2.7499764860252013e-06
-6.367881278215676e-05   7.761304331888909e-06   -2.7499764860252013e-06
-6.367881278215676e-05   7.761304331888909e-06   -2.7499764860252013e-06
-6.494221021532703e-05   0.0   4.706252529073458e-05
-6.494221021532703e-05   0.0   4.706252529073458e-05
-6.494221021532703e-05   0.0   4.706252529073458e-05
-6.494221021532703e-05   0.0   4.706252529073458e-05
-3.772487558760941e-05   7.565761758743499e-06   -2.8391561440410337e-06
-3.772487558760941e-05   7.565761758743499e-06   -2.8391561440410337e-06
-3.772487558760941e-05   7.565761758743499e-06   -2.8391561440410337e-06
-3.772487558760941e-05   7.565761758743499e-06   -2.8391561440410337e-06
-4.9402860812886005e-05   3.9809295192003245e-06   1.877505190847972e-05
-4.9402860812886005e-05   3.9809295192003245e-06   1.877505190847972e-05
-4.9402860812886005e-05   3.9809295192003245e-06   1.877505190847972e-05
-4.9402860812886005e-05   3.9809295192003245e-06   1.877505190847972e-05
-3.772487558760941e-05   0.0   4.252306823548848e-05
-3.772487558760941e-05   0.0   4.252306823548848e-05
-3.772487558760941e-05   0.0   4.252306823548848e-05
-3.772487558760941e-05   0.0   4.252306823548848e-05
-6.494221021532726e-05   7.5657617587432825e-06   1.7003009112050117e-06
-6.494221021532726e-05   7.5657617587432825e-06   1.7003009112050117e-06
-6.494221021532726e-05   7.5657617587432825e-06   1.7003009112050117e-06
-6.494221021532726e-05   7.5657617587432825e-06   1.7003009112050117e-06
-6.634538422978058e-05   0.0   5.3331030031336353e-05
-6.634538422978058e-05   0.0   5.3331030031336353e-05
-6.634538422978058e-05   0.0   5.3331030031336353e-05
-6.634538422978058e-05   0.0   5.3331030031336353e-05
-3.892415814520857e-05   6.315265971262602e-06   3.839826974291917e-06
-3.892415814520857e-05   6.315265971262602e-06   3.839826974291917e-06
-3.892415814520857e-05   6.315265971262602e-06   3.839826974291917e-06
-3.892415814520857e-05   6.315265971262602e-06   3.839826974291917e-06
-4.9801252454438064e-05   2.8014196791594555e-06   2.4076625264936335e-05
-4.9801252454438064e-05   2.8014196791594555e-06   2.4076625264936335e-05
-4.9801252454438064e-05   2.8014196791594555e-06   2.4076625264936335e-05
-4.9801252454438064e-05   2.8014196791594555e-06   2.4076625264936335e-05
4.191934674783733e-05   -6.297932362664231e-06   2.969735643196887e-05
4.191934674783733e-05   -6.297932362664231e-06   2.969735643196887e-05
4.191934674783733e-05   -6.297932362664231e-06   2.969735643196887e-05
4.191934674783733e-05   -6.297932362664231e-06   2.969735643196887e-05
2.1185959148959795e-05   -4.7635768898582256e-06   -3.937676282476823e-06
2.1185959148959795e-05   -4.7635768898582256e-06   -3.937676282476823e-06
2.1185959148959795e-05   -4.7635768898582256e-06   -3.937676282476823e-06
2.1185959148959795e-05   -4.7635768898582256e-06   -3.937676282476823e-06
2.0631098671734445e-05   -6.92123449606407e-06   2.5907917143504298e-05
2.0631098671734445e-05   -6.92123449606407e-06   2.5907917143504298e-05
2.0631098671734445e-05   -6.92123449606407e-06   2.5907917143504298e-05
2.0631098671734445e-05   -6.92123449606407e-06   2.5907917143504298e-05
4.093057375840827e-05   -5.395307601690482e-06   -8.840097470909318e-06
4.093057375840827e-05   -5.395307601690482e-06   -8.840097470909318e-06
4.093057375840827e-05   -5.395307601690482e-06   -8.840097470909318e-06
4.093057375840827e-05   -5.395307601690482e-06   -8.840097470909318e-06
2.9779258594086978e-05   -5.611993626142937e-06   9.875439417630994e-06
2.9779258594086978e-05   -5.611993626142937e-06   9.875439417630994e-06
2.9779258594086978e-05   -5.611993626142937e-06   9.875439417630994e-06
2.9779258594086978e-05   -5.611993626142937e-06   9.875439417630994e-06
4.093057375840819e-05   -6.92123449606407e-06   2.4992361006880254e-05
4.093057375840819e-05   -6.92123449606407e-06   2.4992361006880254e-05
4.093057375840819e-05   -6.92123449606407e-06   2.4992361006880254e-05
4.093057375840819e-05   -6.92123449606407e-06   2.4992361006880254e-05
2.0631098671734472e-05   -5.395307601690482e-06   -7.924541334285314e-06
2.0631098671734472e-05   -5.395307601690482e-06   -7.924541334285314e-06
2.0631098671734472e-05   -5.395307601690482e-06   -7.924541334285314e-06
2.0631098671734472e-05   -5.395307601690482e-06   -7.924541334285314e-06
1.9916209902127462e-05   -6.977316765984778e-06   2.3246346242052377e-05
1.9916209902127462e-05   -6.977316765984778e-06   2.3246346242052377e-05
1.9916209902127462e-05   -6.977316765984778e-06   2.3246346242052377e-05
1.9916209902127462e-05   -6.977316765984778e-06   2.3246346242052377e-05
3.992969504092492e-05   -5.488332789885817e-06   -1.1002852708269189e-05
3.992969504092492e-05   -5.488332789885817e-06   -1.1002852708269189e-05
3.992969504092492e-05   -5.488332789885817e-06   -1.1002852708269189e-05
3.992969504092492e-05   -5.488332789885817e-06   -1.1002852708269189e-05
2.9506076683071468e-05   -5.856190303946693e-06   6.590559063256101e-06
2.9506076683071468e-05   -5.856190303946693e-06   6.590559063256101e-06
2.9506076683071468e-05   -5.856190303946693e-06   6.590559063256101e-06
2.9506076683071468e-05   -5.856190303946693e-06   6.590559063256101e-06
3.992969504092492e-05   -6.977316765984778e-06   2.2352955856393283e-05
3.992969504092492e-05   -6.977316765984778e-06   2.2352955856393283e-05
3.992969504092492e-05   -6.977316765984778e-06   2.2352955856393283e-05
3.992969504092492e-05   -6.977316765984778e-06   2.2352955856393283e-05
1.9916209902127462e-05   -5.488332789885817e-06   -1.0109462322610108e-05
1.9916209902127462e-05   -5.488332789885817e-06   -1.0109462322610108e-05
1.9916209902127462e-05   -5.488332789885817e-06   -1.0109462322610108e-05
1.9916209902127462e-05   -5.488332789885817e-06   -1.0109462322610108e-05
1.9165843967178455e-05   -6.827403341249771e-06   1.929504477269652e-05
1.9165843967178455e-05   -6.827403341249771e-06   1.929504477269652e-05
1.9165843967178455e-05   -6.827403341249771e-06   1.929504477269652e-05
1.9165843967178455e-05   -6.827403341249771e-06   1.929504477269652e-05
3.867654257491552e-05   -5.449728460632346e-06   -1.4049391168568803e-05
3.867654257491552e-05   -5.449728460632346e-06   -1.4049391168568803e-05
3.867654257491552e-05   -5.449728460632346e-06   -1.4049391168568803e-05
3.867654257491552e-05   -5.449728460632346e-06   -1.4049391168568803e-05
2.8198118862678736e-05   -5.701589730661106e-06   3.565765113843481e-06
2.8198118862678736e-05   -5.701589730661106e-06   3.565765113843481e-06
2.8198118862678736e-05   -5.701589730661106e-06   3.565765113843481e-06
2.8198118862678736e-05   -5.701589730661106e-06   3.565765113843481e-06
2.1185959148959835e-05   -3.8750672803999735e-06   2.8045655948987164e-05
2.1185959148959835e-05   -3.8750672803999735e-06   2.8045655948987164e-05
2.1185959148959835e-05   -3.8750672803999735e-06   2.8045655948987164e-05
2.1185959148959835e-05   -3.8750672803999735e-06   2.8045655948987164e-05
2.2861235062349953e-06   -1.6760267722872296e-06   -2.1346458173531445e-06
2.2861235062349953e-06   -1.6760267722872296e-06   -2.1346458173531445e-06
2.2861235062349953e-06   -1.6760267722872296e-06   -2.1346458173531445e-06
2.2861235062349953e-06   -1.6760267722872296e-06   -2.1346458173531445e-06
1.7345033594056238e-06   -4.108721176245087e-06   2.9209128676210405e-05
1.7345033594056238e-06   -4.108721176245087e-06   2.9209128676210405e-05
1.7345033594056238e-06   -4.108721176245087e-06   2.9209128676210405e-05
1.7345033594056238e-06   -4.108721176245087e-06   2.9209128676210405e-05
2.0631098671734472e-05   -2.0146416287835766e-06   -3.541644572814637e-06
2.0631098671734472e-05   -2.0146416287835766e-06   -3.541644572814637e-06
2.0631098671734472e-05   -2.0146416287835766e-06   -3.541644572814637e-06
2.0631098671734472e-05   -2.0146416287835766e-06   -3.541644572814637e-06
1.1349390409752062e-05   -2.714442387773564e-06   1.2347749652550087e-05
1.1349390409752062e-05   -2.714442387773564e-06   1.2347749652550087e-05
1.1349390409752062e-05   -2.714442387773564e-06   1.2347749652550087e-05
1.1349390409752062e-05   -2.714442387773564e-06   1.2347749652550087e-05
2.0631098671734452e-05   -4.108721176245087e-06   2.7952680947733455e-05
2.0631098671734452e-05   -4.108721176245087e-06   2.7952680947733455e-05
2.0631098671734452e-05   -4.108721176245087e-06   2.7952680947733455e-05
2.0631098671734452e-05   -4.108721176245087e-06   2.7952680947733455e-05
1.7345033594056238e-06   -2.0146416287835766e-06   -2.285196844337687e-06
1.7345033594056238e-06   -2.0146416287835766e-06   -2.285196844337687e-06
1.7345033594056238e-06   -2.0146416287835766e-06   -2.285196844337687e-06
1.7345033594056238e-06   -2.0146416287835766e-06   -2.285196844337687e-06
1.030805375548094e-06   -4.210912711467103e-06   2.8927972879086092e-05
1.030805375548094e-06   -4.210912711467103e-06   2.8927972879086092e-05
1.030805375548094e-06   -4.210912711467103e-06   2.8927972879086092e-05
1.030805375548094e-06   -4.210912711467103e-06   2.8927972879086092e-05
1.9916209902127462e-05   -2.2355002593937596e-06   -3.732948803123739e-06
1.9916209902127462e-05   -2.2355002593937596e-06   -3.732948803123739e-06
1.9916209902127462e-05   -2.2355002593937596e-06   -3.732948803123739e-06
1.9916209902127462e-05   -2.2355002593937596e-06   -3.732948803123739e-06
1.0649121484913101e-05   -2.841988837928161e-06   1.2076091706021599e-05
1.0649121484913101e-05   -2.841988837928161e-06   1.2076091706021599e-05
1.0649121484913101e-05   -2.841988837928161e-06   1.2076091706021599e-05
1.0649121484913101e-05   -2.841988837928161e-06   1.2076091706021599e-05
1.9916209902127428e-05   -4.21091271146732e-06   2.7742725407841847e-05
1.9916209902127428e-05   -4.21091271146732e-06   2.7742725407841847e-05
1.9916209902127428e-05   -4.21091271146732e-06   2.7742725407841847e-05
1.9916209902127428e-05   -4.21091271146732e-06   2.7742725407841847e-05
1.030805375548094e-06   -2.2355002593937596e-06   -2.5477013318794947e-06
1.030805375548094e-06   -2.2355002593937596e-06   -2.5477013318794947e-06
1.030805375548094e-06   -2.2355002593937596e-06   -2.5477013318794947e-06
1.030805375548094e-06   -2.2355002593937596e-06   -2.5477013318794947e-06
2.534919669131702e-07   -4.112924147846048e-06   2.9346704254542893e-05
2.534919669131702e-07   -4.112924147846048e-06   2.9346704254542893e-05
2.534919669131702e-07   -4.112924147846048e-06   2.9346704254542893e-05
2.534919669131702e-07   -4.112924147846048e-06   2.9346704254542893e-05
1.9165843967178448e-05   -2.328392398339525e-06   -3.24460146227011e-06
1.9165843967178448e-05   -2.328392398339525e-06   -3.24460146227011e-06
1.9165843967178448e-05   -2.328392398339525e-06   -3.24460146227011e-06
1.9165843967178448e-05   -2.328392398339525e-06   -3.24460146227011e-06
1.0080568673053158e-05   -2.813374219996518e-06   1.2188513120933573e-05
1.0080568673053158e-05   -2.813374219996518e-06   1.2188513120933573e-05
1.0080568673053158e-05   -2.813374219996518e-06   1.2188513120933573e-05
1.0080568673053158e-05   -2.813374219996518e-06   1.2188513120933573e-05
2.286123506235009e-06   -1.6000108786181407e-06   2.866390715342568e-05
2.286123506235009e-06   -1.6000108786181407e-06   2.866390715342568e-05
2.286123506235009e-06   -1.6000108786181407e-06   2.866390715342568e-05
2.286123506235009e-06   -1.6000108786181407e-06   2.866390715342568e-05
-1.6027218439338965e-05   1.4999386376628957e-06   1.6402872374168126e-09
-1.6027218439338965e-05   1.4999386376628957e-06   1.6402872374168126e-09
-1.6027218439338965e-05   1.4999386376628957e-06   1.6402872374168126e-09
-1.6027218439338965e-05   1.4999386376628957e-06   1.6402872374168126e-09
-1.6648914095553042e-05   -1.6885880961420036e-06   3.073767350541255e-05
-1.6648914095553042e-05   -1.6885880961420036e-06   3.073767350541255e-05
-1.6648914095553042e-05   -1.6885880961420036e-06   3.073767350541255e-05
-1.6648914095553042e-05   -1.6885880961420036e-06   3.073767350541255e-05
1.7345033594056238e-06   1.2423618678618874e-06   -1.6599255645875029e-06
1.7345033594056238e-06   1.2423618678618874e-06   -1.6599255645875029e-06
1.7345033594056238e-06   1.2423618678618874e-06   -1.6599255645875029e-06
1.7345033594056238e-06   1.2423618678618874e-06   -1.6599255645875029e-06
-7.1508917537208586e-06   -8.92918885532501e-10   1.3895019162671871e-05
-7.1508917537208586e-06   -8.92918885532501e-10   1.3895019162671871e-05
-7.1508917537208586e-06   -8.92918885532501e-10   1.3895019162671871e-05
-7.1508917537208586e-06   -8.92918885532501e-10   1.3895019162671871e-05
1.7345033594056238e-06   -1.6885880961420036e-06   2.8979103527010364e-05
1.7345033594056238e-06   -1.6885880961420036e-06   2.8979103527010364e-05
1.7345033594056238e-06   -1.6885880961420036e-06   2.8979103527010364e-05
1.7345033594056238e-06   -1.6885880961420036e-06   2.8979103527010364e-05
-1.6648914095553042e-05   1.2423618678616705e-06   9.864441381476127e-08
-1.6648914095553042e-05   1.2423618678616705e-06   9.864441381476127e-08
-1.6648914095553042e-05   1.2423618678616705e-06   9.864441381476127e-08
-1.6648914095553042e-05   1.2423618678616705e-06   9.864441381476127e-08
-1.748133726048121e-05   -1.7975394372923576e-06   3.134934578554035e-05
-1.748133726048121e-05   -1.7975394372923576e-06   3.134934578554035e-05
-1.748133726048121e-05   -1.7975394372923576e-06   3.134934578554035e-05
-1.748133726048121e-05   -1.7975394372923576e-06   3.134934578554035e-05
1.030805375548094e-06   1.0026003621351701e-06   -1.1843091541651255e-06
1.030805375548094e-06   1.0026003621351701e-06   -1.1843091541651255e-06
1.030805375548094e-06   1.0026003621351701e-06   -1.1843091541651255e-06
1.030805375548094e-06   1.0026003621351701e-06   -1.1843091541651255e-06
-7.763853236466669e-06   -7.220553480645486e-08   1.4118338737357746e-05
-7.763853236466669e-06   -7.220553480645486e-08   1.4118338737357746e-05
-7.763853236466669e-06   -7.220553480645486e-08   1.4118338737357746e-05
-7.763853236466669e-06   -7.220553480645486e-08   1.4118338737357746e-05
1.030805375548094e-06   -1.7975394372923576e-06   2.966926190588377e-05
1.030805375548094e-06   -1.7975394372923576e-06   2.966926190588377e-05
1.030805375548094e-06   -1.7975394372923576e-06   2.966926190588377e-05
1.030805375548094e-06   -1.7975394372923576e-06   2.966926190588377e-05
-1.748133726048117e-05   1.0026003621351701e-06   4.957747254914291e-07
-1.748133726048117e-05   1.0026003621351701e-06   4.957747254914291e-07
-1.748133726048117e-05   1.0026003621351701e-06   4.957747254914291e-07
-1.748133726048117e-05   1.0026003621351701e-06   4.957747254914291e-07
-1.836819737794313e-05   -1.7844934274895228e-06   3.208298841557498e-05
-1.836819737794313e-05   -1.7844934274895228e-06   3.208298841557498e-05
-1.836819737794313e-05   -1.7844934274895228e-06   3.208298841557498e-05
-1.836819737794313e-05   -1.7844934274895228e-06   3.208298841557498e-05
2.534919669131702e-07   8.302973077936766e-07   -5.220349336887604e-07
2.534919669131702e-07   8.302973077936766e-07   -5.220349336887604e-07
2.534919669131702e-07   8.302973077936766e-07   -5.220349336887604e-07
2.534919669131702e-07   8.302973077936766e-07   -5.220349336887604e-07
-8.54514205474532e-06   -1.2278308112595449e-07   1.4714203335760862e-05
-8.54514205474532e-06   -1.2278308112595449e-07   1.4714203335760862e-05
-8.54514205474532e-06   -1.2278308112595449e-07   1.4714203335760862e-05
-8.54514205474532e-06   -1.2278308112595449e-07   1.4714203335760862e-05
-1.602721843933891e-05   1.8048004548421644e-06   2.5922121029823045e-05
-1.602721843933891e-05   1.8048004548421644e-06   2.5922121029823045e-05
-1.602721843933891e-05   1.8048004548421644e-06   2.5922121029823045e-05
-1.602721843933891e-05   1.8048004548421644e-06   2.5922121029823045e-05
-3.398044713669373e-05   4.872769751228636e-06   -2.1591452212696384e-06
-3.398044713669373e-05   4.872769751228636e-06   -2.1591452212696384e-06
-3.398044713669373e-05   4.872769751228636e-06   -2.1591452212696384e-06
-3.398044713669373e-05   4.872769751228636e-06   -2.1591452212696384e-06
-3.488365727131837e-05   1.7046934945928564e-06   2.8677498384310557e-05
-3.488365727131837e-05   1.7046934945928564e-06   2.8677498384310557e-05
-3.488365727131837e-05   1.7046934945928564e-06   2.8677498384310557e-05
-3.488365727131837e-05   1.7046934945928564e-06   2.8677498384310557e-05
-1.6648914095552988e-05   4.61543123728321e-06   -3.460182887578858e-06
-1.6648914095552988e-05   4.61543123728321e-06   -3.460182887578858e-06
-1.6648914095552988e-05   4.61543123728321e-06   -3.460182887578858e-06
-1.6648914095552988e-05   4.61543123728321e-06   -3.460182887578858e-06
-2.5186392894393966e-05   3.3035476564166003e-06   1.1556078592342455e-05
-2.5186392894393966e-05   3.3035476564166003e-06   1.1556078592342455e-05
-2.5186392894393966e-05   3.3035476564166003e-06   1.1556078592342455e-05
-2.5186392894393966e-05   3.3035476564166003e-06   1.1556078592342455e-05
-1.6648914095553015e-05   1.7046934945928564e-06   2.693105573869643e-05
-1.6648914095553015e-05   1.7046934945928564e-06   2.693105573869643e-05
-1.6648914095553015e-05   1.7046934945928564e-06   2.693105573869643e-05
-1.6648914095553015e-05   1.7046934945928564e-06   2.693105573869643e-05
-3.4883657271318316e-05   4.615431237282993e-06   -1.7137402419647053e-06
-3.4883657271318316e-05   4.615431237282993e-06   -1.7137402419647053e-06
-3.4883657271318316e-05   4.615431237282993e-06   -1.7137402419647053e-06
-3.4883657271318316e-05   4.615431237282993e-06   -1.7137402419647053e-06
-3.599131721200704e-05   1.5148542361906672e-06   3.043631534412343e-05
-3.599131721200704e-05   1.5148542361906672e-06   3.043631534412343e-05
-3.599131721200704e-05   1.5148542361906672e-06   3.043631534412343e-05
-3.599131721200704e-05   1.5148542361906672e-06   3.043631534412343e-05
-1.748133726048117e-05   4.376618208584964e-06   -2.1307096251895103e-06
-1.748133726048117e-05   4.376618208584964e-06   -2.1307096251895103e-06
-1.748133726048117e-05   4.376618208584964e-06   -2.1307096251895103e-06
-1.748133726048117e-05   4.376618208584964e-06   -2.1307096251895103e-06
-2.5857593257150145e-05   3.246039101497799e-06   1.2508064500177764e-05
-2.5857593257150145e-05   3.246039101497799e-06   1.2508064500177764e-05
-2.5857593257150145e-05   3.246039101497799e-06   1.2508064500177764e-05
-2.5857593257150145e-05   3.246039101497799e-06   1.2508064500177764e-05
-1.748133726048117e-05   1.5148542361906672e-06   2.8719256960686853e-05
-1.748133726048117e-05   1.5148542361906672e-06   2.8719256960686853e-05
-1.748133726048117e-05   1.5148542361906672e-06   2.8719256960686853e-05
-1.748133726048117e-05   1.5148542361906672e-06   2.8719256960686853e-05
-3.599131721200704e-05   4.376618208584964e-06   -4.1365124175301356e-07
-3.599131721200704e-05   4.376618208584964e-06   -4.1365124175301356e-07
-3.599131721200704e-05   4.376618208584964e-06   -4.1365124175301356e-07
-3.599131721200704e-05   4.376618208584964e-06   -4.1365124175301356e-07
-3.716244614106922e-05   1.2992248661720853e-06   3.1830420084283384e-05
-3.716244614106922e-05   1.2992248661720853e-06   3.1830420084283384e-05
-3.716244614106922e-05   1.2992248661720853e-06   3.1830420084283384e-05
-3.716244614106922e-05   1.2992248661720853e-06   3.1830420084283384e-05
-1.8368197377943062e-05   4.054651241826605e-06   -1.146583679652671e-06
-1.8368197377943062e-05   4.054651241826605e-06   -1.146583679652671e-06
-1.8368197377943062e-05   4.054651241826605e-06   -1.146583679652671e-06
-1.8368197377943062e-05   4.054651241826605e-06   -1.146583679652671e-06
-2.6981058353872174e-05   3.0529161905599664e-06   1.3809225644323474e-05
-2.6981058353872174e-05   3.0529161905599664e-06   1.3809225644323474e-05
-2.6981058353872174e-05   3.0529161905599664e-06   1.3809225644323474e-05
-2.6981058353872174e-05   3.0529161905599664e-06   1.3809225644323474e-05
-3.398044713669373e-05   8.031716468453933e-06   1.3643998654274542e-05
-3.398044713669373e-05   8.031716468453933e-06   1.3643998654274542e-05
-3.398044713669373e-05   8.031716468453933e-06   1.3643998654274542e-05
-3.398044713669373e-05   8.031716468453933e-06   1.3643998654274542e-05
-5.118945319810128e-05   7.924741303710122e-06   -1.5101863213584491e-05
-5.118945319810128e-05   7.924741303710122e-06   -1.5101863213584491e-05
-5.118945319810128e-05   7.924741303710122e-06   -1.5101863213584491e-05
-5.118945319810128e-05   7.924741303710122e-06   -1.5101863213584491e-05
-5.2812110236014214e-05   7.761304331888909e-06   2.0251530611386636e-05
-5.2812110236014214e-05   7.761304331888909e-06   2.0251530611386636e-05
-5.2812110236014214e-05   7.761304331888909e-06   2.0251530611386636e-05
-5.2812110236014214e-05   7.761304331888909e-06   2.0251530611386636e-05
-3.4883657271318316e-05   8.080875630894118e-06   -9.820967109176282e-06
-3.4883657271318316e-05   8.080875630894118e-06   -9.820967109176282e-06
-3.4883657271318316e-05   8.080875630894118e-06   -9.820967109176282e-06
-3.4883657271318316e-05   8.080875630894118e-06   -9.820967109176282e-06
-4.147687570510333e-05   8.071112083179663e-06   1.1735884090938935e-06
-4.147687570510333e-05   8.071112083179663e-06   1.1735884090938935e-06
-4.147687570510333e-05   8.071112083179663e-06   1.1735884090938935e-06
-4.147687570510333e-05   8.071112083179663e-06   1.1735884090938935e-06
-3.488365727131829e-05   7.761304331888909e-06   2.0059787831983684e-05
-3.488365727131829e-05   7.761304331888909e-06   2.0059787831983684e-05
-3.488365727131829e-05   7.761304331888909e-06   2.0059787831983684e-05
-3.488365727131829e-05   7.761304331888909e-06   2.0059787831983684e-05
-5.2812110236014214e-05   8.080875630893901e-06   -9.62922432977333e-06
-5.2812110236014214e-05   8.080875630893901e-06   -9.62922432977333e-06
-5.2812110236014214e-05   8.080875630893901e-06   -9.62922432977333e-06
-5.2812110236014214e-05   8.080875630893901e-06   -9.62922432977333e-06
-5.440327731627864e-05   7.565761758743499e-06   2.488175608870275e-05
-5.440327731627864e-05   7.565761758743499e-06   2.488175608870275e-05
-5.440327731627864e-05   7.565761758743499e-06   2.488175608870275e-05
-5.440327731627864e-05   7.565761758743499e-06   2.488175608870275e-05
-3.599131721200696e-05   8.024008501547912e-06   -6.07979213076618e-06
-3.599131721200696e-05   8.024008501547912e-06   -6.07979213076618e-06
-3.599131721200696e-05   8.024008501547912e-06   -6.07979213076618e-06
-3.599131721200696e-05   8.024008501547912e-06   -6.07979213076618e-06
-4.3344483921801425e-05   8.073552781479162e-06   6.145759150932834e-06
-4.3344483921801425e-05   8.073552781479162e-06   6.145759150932834e-06
-4.3344483921801425e-05   8.073552781479162e-06   6.145759150932834e-06
-4.3344483921801425e-05   8.073552781479162e-06   6.145759150932834e-06
-3.599131721200696e-05   7.565761758743499e-06   2.4606808043020232e-05
-3.599131721200696e-05   7.565761758743499e-06   2.4606808043020232e-05
-3.599131721200696e-05   7.565761758743499e-06   2.4606808043020232e-05
-3.599131721200696e-05   7.565761758743499e-06   2.4606808043020232e-05
-5.440327731627864e-05   8.024008501547695e-06   -5.8048440850835e-06
-5.440327731627864e-05   8.024008501547695e-06   -5.8048440850835e-06
-5.440327731627864e-05   8.024008501547695e-06   -5.8048440850835e-06
-5.440327731627864e-05   8.024008501547695e-06   -5.8048440850835e-06
-5.628051594186643e-05   6.315265971262602e-06   3.261653425072684e-05
-5.628051594186643e-05   6.315265971262602e-06   3.261653425072684e-05
-5.628051594186643e-05   6.315265971262602e-06   3.261653425072684e-05
-5.628051594186643e-05   6.315265971262602e-06   3.261653425072684e-05
-3.716244614106908e-05   7.390755200914088e-06   1.0779104494068278e-07
-3.716244614106908e-05   7.390755200914088e-06   1.0779104494068278e-07
-3.716244614106908e-05   7.390755200914088e-06   1.0779104494068278e-07
-3.716244614106908e-05   7.390755200914088e-06   1.0779104494068278e-07
-4.400398485110698e-05   7.693253133010235e-06   1.1328856802413127e-05
-4.400398485110698e-05   7.693253133010235e-06   1.1328856802413127e-05
-4.400398485110698e-05   7.693253133010235e-06   1.1328856802413127e-05
-4.400398485110698e-05   7.693253133010235e-06   1.1328856802413127e-05
3.407721947406235e-05   -4.763576889858442e-06   2.6230385688730653e-05
3.407721947406235e-05   -4.763576889858442e-06   2.6230385688730653e-05
3.407721947406235e-05   -4.763576889858442e-06   2.6230385688730653e-05
3.407721947406235e-05   -4.763576889858442e-06   2.6230385688730653e-05
1.685911451476173e-05   -3.5030811019621383e-06   -1.7101584373661275e-06
1.685911451476173e-05   -3.5030811019621383e-06   -1.7101584373661275e-06
1.685911451476173e-05   -3.5030811019621383e-06   -1.7101584373661275e-06
1.685911451476173e-05   -3.5030811019621383e-06   -1.7101584373661275e-06
1.621973231045494e-05   -5.3953076016902655e-06   2.280007847554812e-05
1.621973231045494e-05   -5.3953076016902655e-06   2.280007847554812e-05
1.621973231045494e-05   -5.3953076016902655e-06   2.280007847554812e-05
1.621973231045494e-05   -5.3953076016902655e-06   2.280007847554812e-05
3.290191044542896e-05   -4.061277867085326e-06   -5.803969590171366e-06
3.290191044542896e-05   -4.061277867085326e-06   -5.803969590171366e-06
3.290191044542896e-05   -4.061277867085326e-06   -5.803969590171366e-06
3.290191044542896e-05   -4.061277867085326e-06   -5.803969590171366e-06
2.3869468032661575e-05   -4.38523198010134e-06   9.444473565583625e-06
2.3869468032661575e-05   -4.38523198010134e-06   9.444473565583625e-06
2.3869468032661575e-05   -4.38523198010134e-06   9.444473565583625e-06
2.3869468032661575e-05   -4.38523198010134e-06   9.444473565583625e-06
3.2901910445428896e-05   -5.395307601690482e-06   2.1999660634785243e-05
3.2901910445428896e-05   -5.395307601690482e-06   2.1999660634785243e-05
3.2901910445428896e-05   -5.395307601690482e-06   2.1999660634785243e-05
3.2901910445428896e-05   -5.395307601690482e-06   2.1999660634785243e-05
1.6219732310455e-05   -4.061277867085326e-06   -5.003551749408375e-06
1.6219732310455e-05   -4.061277867085326e-06   -5.003551749408375e-06
1.6219732310455e-05   -4.061277867085326e-06   -5.003551749408375e-06
1.6219732310455e-05   -4.061277867085326e-06   -5.003551749408375e-06
1.550890267719831e-05   -5.488332789885817e-06   2.0426582781479254e-05
1.550890267719831e-05   -5.488332789885817e-06   2.0426582781479254e-05
1.550890267719831e-05   -5.488332789885817e-06   2.0426582781479254e-05
1.550890267719831e-05   -5.488332789885817e-06   2.0426582781479254e-05
3.183689221952785e-05   -4.1728274529316805e-06   -7.576036324575685e-06
3.183689221952785e-05   -4.1728274529316805e-06   -7.576036324575685e-06
3.183689221952785e-05   -4.1728274529316805e-06   -7.576036324575685e-06
3.183689221952785e-05   -4.1728274529316805e-06   -7.576036324575685e-06
2.343108638805542e-05   -4.6018290367148395e-06   6.69104101148143e-06
2.343108638805542e-05   -4.6018290367148395e-06   6.69104101148143e-06
2.343108638805542e-05   -4.6018290367148395e-06   6.69104101148143e-06
2.343108638805542e-05   -4.6018290367148395e-06   6.69104101148143e-06
3.1836892219527736e-05   -5.488332789886034e-06   1.9637279579306837e-05
3.1836892219527736e-05   -5.488332789886034e-06   1.9637279579306837e-05
3.1836892219527736e-05   -5.488332789886034e-06   1.9637279579306837e-05
3.1836892219527736e-05   -5.488332789886034e-06   1.9637279579306837e-05
1.5508902677198337e-05   -4.1728274529316805e-06   -6.786733122403116e-06
1.5508902677198337e-05   -4.1728274529316805e-06   -6.786733122403116e-06
1.5508902677198337e-05   -4.1728274529316805e-06   -6.786733122403116e-06
1.5508902677198337e-05   -4.1728274529316805e-06   -6.786733122403116e-06
1.4824896086435067e-05   -5.449728460632346e-06   1.7111857806013388e-05
1.4824896086435067e-05   -5.449728460632346e-06   1.7111857806013388e-05
1.4824896086435067e-05   -5.449728460632346e-06   1.7111857806013388e-05
1.4824896086435067e-05   -5.449728460632346e-06   1.7111857806013388e-05
3.06299738544309e-05   -4.214912567492924e-06   -9.970828009863305e-06
3.06299738544309e-05   -4.214912567492924e-06   -9.970828009863305e-06
3.06299738544309e-05   -4.214912567492924e-06   -9.970828009863305e-06
3.06299738544309e-05   -4.214912567492924e-06   -9.970828009863305e-06
2.223263677713866e-05   -4.522833836772926e-06   4.209486547192299e-06
2.223263677713866e-05   -4.522833836772926e-06   4.209486547192299e-06
2.223263677713866e-05   -4.522833836772926e-06   4.209486547192299e-06
2.223263677713866e-05   -4.522833836772926e-06   4.209486547192299e-06
1.685911451476173e-05   -1.6760267722870127e-06   2.7470289321724164e-05
1.685911451476173e-05   -1.6760267722870127e-06   2.7470289321724164e-05
1.685911451476173e-05   -1.6760267722870127e-06   2.7470289321724164e-05
1.685911451476173e-05   -1.6760267722870127e-06   2.7470289321724164e-05
6.967102972970621e-07   -6.712170489190337e-07   1.1358347933038008e-06
6.967102972970621e-07   -6.712170489190337e-07   1.1358347933038008e-06
6.967102972970621e-07   -6.712170489190337e-07   1.1358347933038008e-06
6.967102972970621e-07   -6.712170489190337e-07   1.1358347933038008e-06
8.25479807566406e-08   -2.0146416287835766e-06   2.775199594440541e-05
8.25479807566406e-08   -2.0146416287835766e-06   2.775199594440541e-05
8.25479807566406e-08   -2.0146416287835766e-06   2.775199594440541e-05
8.25479807566406e-08   -2.0146416287835766e-06   2.775199594440541e-05
1.6219732310455e-05   -1.0662737831392596e-06   2.8766802085494704e-07
1.6219732310455e-05   -1.0662737831392596e-06   2.8766802085494704e-07
1.6219732310455e-05   -1.0662737831392596e-06   2.8766802085494704e-07
1.6219732310455e-05   -1.0662737831392596e-06   2.8766802085494704e-07
8.361610568526514e-06   -1.3071879059879492e-06   1.352908606444493e-05
8.361610568526514e-06   -1.3071879059879492e-06   1.352908606444493e-05
8.361610568526514e-06   -1.3071879059879492e-06   1.352908606444493e-05
8.361610568526514e-06   -1.3071879059879492e-06   1.352908606444493e-05
1.6219732310454988e-05   -2.0146416287835766e-06   2.7182975237018798e-05
1.6219732310454988e-05   -2.0146416287835766e-06   2.7182975237018798e-05
1.6219732310454988e-05   -2.0146416287835766e-06   2.7182975237018798e-05
1.6219732310454988e-05   -2.0146416287835766e-06   2.7182975237018798e-05
8.25479807566406e-08   -1.0662737831392596e-06   8.566887282415725e-07
8.25479807566406e-08   -1.0662737831392596e-06   8.566887282415725e-07
8.25479807566406e-08   -1.0662737831392596e-06   8.566887282415725e-07
8.25479807566406e-08   -1.0662737831392596e-06   8.566887282415725e-07
-5.558623810847125e-07   -2.2355002593937596e-06   2.7329124318429448e-05
-5.558623810847125e-07   -2.2355002593937596e-06   2.7329124318429448e-05
-5.558623810847125e-07   -2.2355002593937596e-06   2.7329124318429448e-05
-5.558623810847125e-07   -2.2355002593937596e-06   2.7329124318429448e-05
1.5508902677198337e-05   -1.358786896953762e-06   2.8487870493929543e-08
1.5508902677198337e-05   -1.358786896953762e-06   2.8487870493929543e-08
1.5508902677198337e-05   -1.358786896953762e-06   2.8487870493929543e-08
1.5508902677198337e-05   -1.358786896953762e-06   2.8487870493929543e-08
7.655699818831686e-06   -1.5137379710977207e-06   1.3210129945591807e-05
7.655699818831686e-06   -1.5137379710977207e-06   1.3210129945591807e-05
7.655699818831686e-06   -1.5137379710977207e-06   1.3210129945591807e-05
7.655699818831686e-06   -1.5137379710977207e-06   1.3210129945591807e-05
1.550890267719831e-05   -2.2355002593935427e-06   2.680309630096573e-05
1.550890267719831e-05   -2.2355002593935427e-06   2.680309630096573e-05
1.550890267719831e-05   -2.2355002593935427e-06   2.680309630096573e-05
1.550890267719831e-05   -2.2355002593935427e-06   2.680309630096573e-05
-5.558623810847125e-07   -1.358786896953762e-06   5.545158879577275e-07
-5.558623810847125e-07   -1.358786896953762e-06   5.545158879577275e-07
-5.558623810847125e-07   -1.358786896953762e-06   5.545158879577275e-07
-5.558623810847125e-07   -1.358786896953762e-06   5.545158879577275e-07
-1.2205028140843059e-06   -2.328392398339308e-06   2.7534044501308736e-05
-1.2205028140843059e-06   -2.328392398339308e-06   2.7534044501308736e-05
-1.2205028140843059e-06   -2.328392398339308e-06   2.7534044501308736e-05
-1.2205028140843059e-06   -2.328392398339308e-06   2.7534044501308736e-05
1.4824896086435101e-05   -1.5883892027278388e-06   3.4771108307623947e-07
1.4824896086435101e-05   -1.5883892027278388e-06   3.4771108307623947e-07
1.4824896086435101e-05   -1.5883892027278388e-06   3.4771108307623947e-07
1.4824896086435101e-05   -1.5883892027278388e-06   3.4771108307623947e-07
7.126443933246865e-06   -1.6235006110516034e-06   1.3199531516718029e-05
7.126443933246865e-06   -1.6235006110516034e-06   1.3199531516718029e-05
7.126443933246865e-06   -1.6235006110516034e-06   1.3199531516718029e-05
7.126443933246865e-06   -1.6235006110516034e-06   1.3199531516718029e-05
6.967102972970756e-07   1.4999386376628957e-06   2.8349491550566956e-05
6.967102972970756e-07   1.4999386376628957e-06   2.8349491550566956e-05
6.967102972970756e-07   1.4999386376628957e-06   2.8349491550566956e-05
6.967102972970756e-07   1.4999386376628957e-06   2.8349491550566956e-05
-1.499621380933134e-05   2.1695068683647706e-06   2.5963589779407978e-06
-1.499621380933134e-05   2.1695068683647706e-06   2.5963589779407978e-06
-1.499621380933134e-05   2.1695068683647706e-06   2.5963589779407978e-06
-1.499621380933134e-05   2.1695068683647706e-06   2.5963589779407978e-06
-1.5638137718678965e-05   1.2423618678618874e-06   2.8736973453684974e-05
-1.5638137718678965e-05   1.2423618678618874e-06   2.8736973453684974e-05
-1.5638137718678965e-05   1.2423618678618874e-06   2.8736973453684974e-05
-1.5638137718678965e-05   1.2423618678618874e-06   2.8736973453684974e-05
8.25479807566406e-08   1.8418722504106103e-06   2.17612439176295e-06
8.25479807566406e-08   1.8418722504106103e-06   2.17612439176295e-06
8.25479807566406e-08   1.8418722504106103e-06   2.17612439176295e-06
8.25479807566406e-08   1.8418722504106103e-06   2.17612439176295e-06
-7.475247924445146e-06   1.706646876900109e-06   1.4853586124538934e-05
-7.475247924445146e-06   1.706646876900109e-06   1.4853586124538934e-05
-7.475247924445146e-06   1.706646876900109e-06   1.4853586124538934e-05
-7.475247924445146e-06   1.706646876900109e-06   1.4853586124538934e-05
8.25479807566406e-08   1.2423618678618874e-06   2.8377267224155675e-05
8.25479807566406e-08   1.2423618678618874e-06   2.8377267224155675e-05
8.25479807566406e-08   1.2423618678618874e-06   2.8377267224155675e-05
8.25479807566406e-08   1.2423618678618874e-06   2.8377267224155675e-05
-1.5638137718678965e-05   1.8418722504106103e-06   2.5358306212922488e-06
-1.5638137718678965e-05   1.8418722504106103e-06   2.5358306212922488e-06
-1.5638137718678965e-05   1.8418722504106103e-06   2.5358306212922488e-06
-1.5638137718678965e-05   1.8418722504106103e-06   2.5358306212922488e-06
-1.6315699426018725e-05   1.0026003621351701e-06   2.9005229767344607e-05
-1.6315699426018725e-05   1.0026003621351701e-06   2.9005229767344607e-05
-1.6315699426018725e-05   1.0026003621351701e-06   2.9005229767344607e-05
-1.6315699426018725e-05   1.0026003621351701e-06   2.9005229767344607e-05
-5.55862381084726e-07   1.5237891474696123e-06   2.4261214212538634e-06
-5.55862381084726e-07   1.5237891474696123e-06   2.4261214212538634e-06
-5.55862381084726e-07   1.5237891474696123e-06   2.4261214212538634e-06
-5.55862381084726e-07   1.5237891474696123e-06   2.4261214212538634e-06
-8.07137459909525e-06   1.5202245578344303e-06   1.4954113871719257e-05
-8.07137459909525e-06   1.5202245578344303e-06   1.4954113871719257e-05
-8.07137459909525e-06   1.5202245578344303e-06   1.4954113871719257e-05
-8.07137459909525e-06   1.5202245578344303e-06   1.4954113871719257e-05
-5.558623810847125e-07   1.0026003621351701e-06   2.8692516496143898e-05
-5.558623810847125e-07   1.0026003621351701e-06   2.8692516496143898e-05
-5.558623810847125e-07   1.0026003621351701e-06   2.8692516496143898e-05
-5.558623810847125e-07   1.0026003621351701e-06   2.8692516496143898e-05
-1.6315699426018752e-05   1.5237891474696123e-06   2.7388346924544366e-06
-1.6315699426018752e-05   1.5237891474696123e-06   2.7388346924544366e-06
-1.6315699426018752e-05   1.5237891474696123e-06   2.7388346924544366e-06
-1.6315699426018752e-05   1.5237891474696123e-06   2.7388346924544366e-06
-1.7014718972058928e-05   8.302973077934598e-07   2.943214947567015e-05
-1.7014718972058928e-05   8.302973077934598e-07   2.943214947567015e-05
-1.7014718972058928e-05   8.302973077934598e-07   2.943214947567015e-05
-1.7014718972058928e-05   8.302973077934598e-07   2.943214947567015e-05
-1.2205028140843059e-06   1.2407264669339266e-06   2.862198383561627e-06
-1.2205028140843059e-06   1.2407264669339266e-06   2.862198383561627e-06
-1.2205028140843059e-06   1.2407264669339266e-06   2.862198383561627e-06
-1.2205028140843059e-06   1.2407264669339266e-06   2.862198383561627e-06
-8.716510084533154e-06   1.3417524511295884e-06   1.5294928243792736e-05
-8.716510084533154e-06   1.3417524511295884e-06   1.5294928243792736e-05
-8.716510084533154e-06   1.3417524511295884e-06   1.5294928243792736e-05
-8.716510084533154e-06   1.3417524511295884e-06   1.5294928243792736e-05
-1.4996213809331395e-05   4.872769751228636e-06   2.4749665402648904e-05
-1.4996213809331395e-05   4.872769751228636e-06   2.4749665402648904e-05
-1.4996213809331395e-05   4.872769751228636e-06   2.4749665402648904e-05
-1.4996213809331395e-05   4.872769751228636e-06   2.4749665402648904e-05
-3.020612813418698e-05   4.9347066350198705e-06   -5.630296751690887e-07
-3.020612813418698e-05   4.9347066350198705e-06   -5.630296751690887e-07
-3.020612813418698e-05   4.9347066350198705e-06   -5.630296751690887e-07
-3.020612813418698e-05   4.9347066350198705e-06   -5.630296751690887e-07
-3.0951214811279125e-05   4.61543123728321e-06   2.5182577575113716e-05
-3.0951214811279125e-05   4.61543123728321e-06   2.5182577575113716e-05
-3.0951214811279125e-05   4.61543123728321e-06   2.5182577575113716e-05
-3.0951214811279125e-05   4.61543123728321e-06   2.5182577575113716e-05
-1.5638137718678992e-05   4.622816941987065e-06   -3.4364900204232715e-07
-1.5638137718678992e-05   4.622816941987065e-06   -3.4364900204232715e-07
-1.5638137718678992e-05   4.622816941987065e-06   -3.4364900204232715e-07
-1.5638137718678992e-05   4.622816941987065e-06   -3.4364900204232715e-07
-2.2845426588575786e-05   4.74850585539463e-06   1.159308576640782e-05
-2.2845426588575786e-05   4.74850585539463e-06   1.159308576640782e-05
-2.2845426588575786e-05   4.74850585539463e-06   1.159308576640782e-05
-2.2845426588575786e-05   4.74850585539463e-06   1.159308576640782e-05
-1.5638137718678992e-05   4.61543123728321e-06   2.5178146152291165e-05
-1.5638137718678992e-05   4.61543123728321e-06   2.5178146152291165e-05
-1.5638137718678992e-05   4.61543123728321e-06   2.5178146152291165e-05
-1.5638137718678992e-05   4.61543123728321e-06   2.5178146152291165e-05
-3.095121481127907e-05   4.622816941987282e-06   -3.3921757921985714e-07
-3.095121481127907e-05   4.622816941987282e-06   -3.3921757921985714e-07
-3.095121481127907e-05   4.622816941987282e-06   -3.3921757921985714e-07
-3.095121481127907e-05   4.622816941987282e-06   -3.3921757921985714e-07
-3.177646136726331e-05   4.376618208584964e-06   2.6353444290651588e-05
-3.177646136726331e-05   4.376618208584964e-06   2.6353444290651588e-05
-3.177646136726331e-05   4.376618208584964e-06   2.6353444290651588e-05
-3.177646136726331e-05   4.376618208584964e-06   2.6353444290651588e-05
-1.6315699426018752e-05   4.334449665231201e-06   6.108088479227041e-07
-1.6315699426018752e-05   4.334449665231201e-06   6.108088479227041e-07
-1.6315699426018752e-05   4.334449665231201e-06   6.108088479227041e-07
-1.6315699426018752e-05   4.334449665231201e-06   6.108088479227041e-07
-2.3382395534221506e-05   4.57292870281842e-06   1.2245548272375012e-05
-2.3382395534221506e-05   4.57292870281842e-06   1.2245548272375012e-05
-2.3382395534221506e-05   4.57292870281842e-06   1.2245548272375012e-05
-2.3382395534221506e-05   4.57292870281842e-06   1.2245548272375012e-05
-1.631569942601874e-05   4.376618208584964e-06   2.6378745416663586e-05
-1.631569942601874e-05   4.376618208584964e-06   2.6378745416663586e-05
-1.631569942601874e-05   4.376618208584964e-06   2.6378745416663586e-05
-1.631569942601874e-05   4.376618208584964e-06   2.6378745416663586e-05
-3.1776461367263284e-05   4.334449665231201e-06   5.855077219106249e-07
-3.1776461367263284e-05   4.334449665231201e-06   5.855077219106249e-07
-3.1776461367263284e-05   4.334449665231201e-06   5.855077219106249e-07
-3.1776461367263284e-05   4.334449665231201e-06   5.855077219106249e-07
-3.256263167943541e-05   4.054651241826822e-06   2.7194849862476967e-05
-3.256263167943541e-05   4.054651241826822e-06   2.7194849862476967e-05
-3.256263167943541e-05   4.054651241826822e-06   2.7194849862476967e-05
-3.256263167943541e-05   4.054651241826822e-06   2.7194849862476967e-05
-1.7014718972058982e-05   3.981523865060612e-06   1.3255384429092286e-06
-1.7014718972058982e-05   3.981523865060612e-06   1.3255384429092286e-06
-1.7014718972058982e-05   3.981523865060612e-06   1.3255384429092286e-06
-1.7014718972058982e-05   3.981523865060612e-06   1.3255384429092286e-06
-2.4240466611624154e-05   4.343780260320732e-06   1.315109733836283e-05
-2.4240466611624154e-05   4.343780260320732e-06   1.315109733836283e-05
-2.4240466611624154e-05   4.343780260320732e-06   1.315109733836283e-05
-2.4240466611624154e-05   4.343780260320732e-06   1.315109733836283e-05
-3.0206128134186924e-05   7.924741303710339e-06   1.1908294639455014e-05
-3.0206128134186924e-05   7.924741303710339e-06   1.1908294639455014e-05
-3.0206128134186924e-05   7.924741303710339e-06   1.1908294639455014e-05
-3.0206128134186924e-05   7.924741303710339e-06   1.1908294639455014e-05
-4.467848013481291e-05   7.11430040618204e-06   -1.2698556566771734e-05
-4.467848013481291e-05   7.11430040618204e-06   -1.2698556566771734e-05
-4.467848013481291e-05   7.11430040618204e-06   -1.2698556566771734e-05
-4.467848013481291e-05   7.11430040618204e-06   -1.2698556566771734e-05
-4.585205701122824e-05   8.080875630893901e-06   1.654251129585768e-05
-4.585205701122824e-05   8.080875630893901e-06   1.654251129585768e-05
-4.585205701122824e-05   8.080875630893901e-06   1.654251129585768e-05
-4.585205701122824e-05   8.080875630893901e-06   1.654251129585768e-05
-3.0951214811279125e-05   7.192809944153462e-06   -7.759386292013274e-06
-3.0951214811279125e-05   7.192809944153462e-06   -7.759386292013274e-06
-3.0951214811279125e-05   7.192809944153462e-06   -7.759386292013274e-06
-3.0951214811279125e-05   7.192809944153462e-06   -7.759386292013274e-06
-3.646941304310111e-05   7.532212543175099e-06   1.2339692016104134e-06
-3.646941304310111e-05   7.532212543175099e-06   1.2339692016104134e-06
-3.646941304310111e-05   7.532212543175099e-06   1.2339692016104134e-06
-3.646941304310111e-05   7.532212543175099e-06   1.2339692016104134e-06
-3.095121481127902e-05   8.080875630894118e-06   1.707535070790214e-05
-3.095121481127902e-05   8.080875630894118e-06   1.707535070790214e-05
-3.095121481127902e-05   8.080875630894118e-06   1.707535070790214e-05
-3.095121481127902e-05   8.080875630894118e-06   1.707535070790214e-05
-4.5852057011228374e-05   7.192809944153462e-06   -8.292225704057679e-06
-4.5852057011228374e-05   7.192809944153462e-06   -8.292225704057679e-06
-4.5852057011228374e-05   7.192809944153462e-06   -8.292225704057679e-06
-4.5852057011228374e-05   7.192809944153462e-06   -8.292225704057679e-06
-4.6997183090245206e-05   8.024008501547695e-06   2.014159813697636e-05
-4.6997183090245206e-05   8.024008501547695e-06   2.014159813697636e-05
-4.6997183090245206e-05   8.024008501547695e-06   2.014159813697636e-05
-4.6997183090245206e-05   8.024008501547695e-06   2.014159813697636e-05
-3.177646136726331e-05   7.114499727111376e-06   -4.680566136665125e-06
-3.177646136726331e-05   7.114499727111376e-06   -4.680566136665125e-06
-3.177646136726331e-05   7.114499727111376e-06   -4.680566136665125e-06
-3.177646136726331e-05   7.114499727111376e-06   -4.680566136665125e-06
-3.791696914855295e-05   7.670898806535261e-06   5.219774051163869e-06
-3.791696914855295e-05   7.670898806535261e-06   5.219774051163869e-06
-3.791696914855295e-05   7.670898806535261e-06   5.219774051163869e-06
-3.791696914855295e-05   7.670898806535261e-06   5.219774051163869e-06
-3.177646136726331e-05   8.024008501547695e-06   2.0687303401638367e-05
-3.177646136726331e-05   8.024008501547695e-06   2.0687303401638367e-05
-3.177646136726331e-05   8.024008501547695e-06   2.0687303401638367e-05
-3.177646136726331e-05   8.024008501547695e-06   2.0687303401638367e-05
-4.699718309024537e-05   7.114499727111376e-06   -5.226271401327187e-06
-4.699718309024537e-05   7.114499727111376e-06   -5.226271401327187e-06
-4.699718309024537e-05   7.114499727111376e-06   -5.226271401327187e-06
-4.699718309024537e-05   7.114499727111376e-06   -5.226271401327187e-06
-4.833373597533966e-05   7.390755200914088e-06   2.630236878656527e-05
-4.833373597533966e-05   7.390755200914088e-06   2.630236878656527e-05
-4.833373597533966e-05   7.390755200914088e-06   2.630236878656527e-05
-4.833373597533966e-05   7.390755200914088e-06   2.630236878656527e-05
-3.256263167943541e-05   6.568088575727247e-06   5.107949351701056e-07
-3.256263167943541e-05   6.568088575727247e-06   5.107949351701056e-07
-3.256263167943541e-05   6.568088575727247e-06   5.107949351701056e-07
-3.256263167943541e-05   6.568088575727247e-06   5.107949351701056e-07
-3.827622179373454e-05   7.445278345429192e-06   9.50713126384806e-06
-3.827622179373454e-05   7.445278345429192e-06   9.50713126384806e-06
-3.827622179373454e-05   7.445278345429192e-06   9.50713126384806e-06
-3.827622179373454e-05   7.445278345429192e-06   9.50713126384806e-06
2.5943660489756345e-05   -3.5030811019621383e-06   2.195363704738393e-05
2.5943660489756345e-05   -3.5030811019621383e-06   2.195363704738393e-05
2.5943660489756345e-05   -3.5030811019621383e-06   2.195363704738393e-05
2.5943660489756345e-05   -3.5030811019621383e-06   2.195363704738393e-05
1.220700269540111e-05   -2.324249677532718e-06   -2.3349375521703342e-07
1.220700269540111e-05   -2.324249677532718e-06   -2.3349375521703342e-07
1.220700269540111e-05   -2.324249677532718e-06   -2.3349375521703342e-07
1.220700269540111e-05   -2.324249677532718e-06   -2.3349375521703342e-07
1.1635324704420747e-05   -4.061277867085326e-06   1.9281946523195658e-05
1.1635324704420747e-05   -4.061277867085326e-06   1.9281946523195658e-05
1.1635324704420747e-05   -4.061277867085326e-06   1.9281946523195658e-05
1.1635324704420747e-05   -4.061277867085326e-06   1.9281946523195658e-05
2.48370770027446e-05   -2.8176882880090633e-06   -3.4671277214566468e-06
2.48370770027446e-05   -2.8176882880090633e-06   -3.4671277214566468e-06
2.48370770027446e-05   -2.8176882880090633e-06   -3.4671277214566468e-06
2.48370770027446e-05   -2.8176882880090633e-06   -3.4671277214566468e-06
1.777844814965483e-05   -3.2001314562537294e-06   8.526719601306507e-06
1.777844814965483e-05   -3.2001314562537294e-06   8.526719601306507e-06
1.777844814965483e-05   -3.2001314562537294e-06   8.526719601306507e-06
1.777844814965483e-05   -3.2001314562537294e-06   8.526719601306507e-06
2.48370770027446e-05   -4.061277867085326e-06   1.8535792775749857e-05
2.48370770027446e-05   -4.061277867085326e-06   1.8535792775749857e-05
2.48370770027446e-05   -4.061277867085326e-06   1.8535792775749857e-05
2.48370770027446e-05   -4.061277867085326e-06   1.8535792775749857e-05
1.1635324704420764e-05   -2.8176882880090633e-06   -2.7209739740107104e-06
1.1635324704420764e-05   -2.8176882880090633e-06   -2.7209739740107104e-06
1.1635324704420764e-05   -2.8176882880090633e-06   -2.7209739740107104e-06
1.1635324704420764e-05   -2.8176882880090633e-06   -2.7209739740107104e-06
1.100384612268864e-05   -4.172827452931897e-06   1.74047743259e-05
1.100384612268864e-05   -4.172827452931897e-06   1.74047743259e-05
1.100384612268864e-05   -4.172827452931897e-06   1.74047743259e-05
1.100384612268864e-05   -4.172827452931897e-06   1.74047743259e-05
2.3866657332118192e-05   -2.949016084879876e-06   -4.7675311773139295e-06
2.3866657332118192e-05   -2.949016084879876e-06   -4.7675311773139295e-06
2.3866657332118192e-05   -2.949016084879876e-06   -4.7675311773139295e-06
2.3866657332118192e-05   -2.949016084879876e-06   -4.7675311773139295e-06
1.7323235685780635e-05   -3.400607265616239e-06   6.409126275024324e-06
1.7323235685780635e-05   -3.400607265616239e-06   6.409126275024324e-06
1.7323235685780635e-05   -3.400607265616239e-06   6.409126275024324e-06
1.7323235685780635e-05   -3.400607265616239e-06   6.409126275024324e-06
2.3866657332118155e-05   -4.172827452931897e-06   1.6670487505068637e-05
2.3866657332118155e-05   -4.172827452931897e-06   1.6670487505068637e-05
2.3866657332118155e-05   -4.172827452931897e-06   1.6670487505068637e-05
2.3866657332118155e-05   -4.172827452931897e-06   1.6670487505068637e-05
1.1003846122688657e-05   -2.949016084879876e-06   -4.033244356482714e-06
1.1003846122688657e-05   -2.949016084879876e-06   -4.033244356482714e-06
1.1003846122688657e-05   -2.949016084879876e-06   -4.033244356482714e-06
1.1003846122688657e-05   -2.949016084879876e-06   -4.033244356482714e-06
1.0420486904204003e-05   -4.214912567492924e-06   1.4857811782881323e-05
1.0420486904204003e-05   -4.214912567492924e-06   1.4857811782881323e-05
1.0420486904204003e-05   -4.214912567492924e-06   1.4857811782881323e-05
1.0420486904204003e-05   -4.214912567492924e-06   1.4857811782881323e-05
2.2781511568506385e-05   -3.0694586017389076e-06   -6.4311683704082595e-06
2.2781511568506385e-05   -3.0694586017389076e-06   -6.4311683704082595e-06
2.2781511568506385e-05   -3.0694586017389076e-06   -6.4311683704082595e-06
2.2781511568506385e-05   -3.0694586017389076e-06   -6.4311683704082595e-06
1.6306770629485158e-05   -3.3799845323792023e-06   4.54638208634488e-06
1.6306770629485158e-05   -3.3799845323792023e-06   4.54638208634488e-06
1.6306770629485158e-05   -3.3799845323792023e-06   4.54638208634488e-06
1.6306770629485158e-05   -3.3799845323792023e-06   4.54638208634488e-06
1.2207002695401062e-05   -6.712170489192506e-07   2.4904043298690877e-05
1.2207002695401062e-05   -6.712170489192506e-07   2.4904043298690877e-05
1.2207002695401062e-05   -6.712170489192506e-07   2.4904043298690877e-05
1.2207002695401062e-05   -6.712170489192506e-07   2.4904043298690877e-05
-7.912379610836446e-07   -1.6712183117852802e-08   3.633011790697173e-06
-7.912379610836446e-07   -1.6712183117852802e-08   3.633011790697173e-06
-7.912379610836446e-07   -1.6712183117852802e-08   3.633011790697173e-06
-7.912379610836446e-07   -1.6712183117852802e-08   3.633011790697173e-06
-1.3289663871280744e-06   -1.0662737831392596e-06   2.4945897697559367e-05
-1.3289663871280744e-06   -1.0662737831392596e-06   2.4945897697559367e-05
-1.3289663871280744e-06   -1.0662737831392596e-06   2.4945897697559367e-05
-1.3289663871280744e-06   -1.0662737831392596e-06   2.4945897697559367e-05
1.1635324704420764e-05   -4.4505477630519576e-07   2.9660144742109517e-06
1.1635324704420764e-05   -4.4505477630519576e-07   2.9660144742109517e-06
1.1635324704420764e-05   -4.4505477630519576e-07   2.9660144742109517e-06
1.1635324704420764e-05   -4.4505477630519576e-07   2.9660144742109517e-06
5.342407418786998e-06   -5.655035965569308e-07   1.3526479242418094e-05
5.342407418786998e-06   -5.655035965569308e-07   1.3526479242418094e-05
5.342407418786998e-06   -5.655035965569308e-07   1.3526479242418094e-05
5.342407418786998e-06   -5.655035965569308e-07   1.3526479242418094e-05
1.1635324704420733e-05   -1.0662737831392596e-06   2.4573166293458885e-05
1.1635324704420733e-05   -1.0662737831392596e-06   2.4573166293458885e-05
1.1635324704420733e-05   -1.0662737831392596e-06   2.4573166293458885e-05
1.1635324704420733e-05   -1.0662737831392596e-06   2.4573166293458885e-05
-1.3289663871280744e-06   -4.4505477630519576e-07   3.338745878311237e-06
-1.3289663871280744e-06   -4.4505477630519576e-07   3.338745878311237e-06
-1.3289663871280744e-06   -4.4505477630519576e-07   3.338745878311237e-06
-1.3289663871280744e-06   -4.4505477630519576e-07   3.338745878311237e-06
-1.8782465272846683e-06   -1.358786896953762e-06   2.4566140219440397e-05
-1.8782465272846683e-06   -1.358786896953762e-06   2.4566140219440397e-05
-1.8782465272846683e-06   -1.358786896953762e-06   2.4566140219440397e-05
-1.8782465272846683e-06   -1.358786896953762e-06   2.4566140219440397e-05
1.1003846122688657e-05   -7.818787292146554e-07   2.7498409021748003e-06
1.1003846122688657e-05   -7.818787292146554e-07   2.7498409021748003e-06
1.1003846122688657e-05   -7.818787292146554e-07   2.7498409021748003e-06
1.1003846122688657e-05   -7.818787292146554e-07   2.7498409021748003e-06
4.73851357842225e-06   -8.29425651322933e-07   1.3220589962551236e-05
4.73851357842225e-06   -8.29425651322933e-07   1.3220589962551236e-05
4.73851357842225e-06   -8.29425651322933e-07   1.3220589962551236e-05
4.73851357842225e-06   -8.29425651322933e-07   1.3220589962551236e-05
1.100384612268864e-05   -1.358786896953762e-06   2.4219995318797128e-05
1.100384612268864e-05   -1.358786896953762e-06   2.4219995318797128e-05
1.100384612268864e-05   -1.358786896953762e-06   2.4219995318797128e-05
1.100384612268864e-05   -1.358786896953762e-06   2.4219995318797128e-05
-1.8782465272846683e-06   -7.818787292146554e-07   3.095985802818225e-06
-1.8782465272846683e-06   -7.818787292146554e-07   3.095985802818225e-06
-1.8782465272846683e-06   -7.818787292146554e-07   3.095985802818225e-06
-1.8782465272846683e-06   -7.818787292146554e-07   3.095985802818225e-06
-2.430574518719764e-06   -1.5883892027278388e-06   2.473280594747344e-05
-2.430574518719764e-06   -1.5883892027278388e-06   2.473280594747344e-05
-2.430574518719764e-06   -1.5883892027278388e-06   2.473280594747344e-05
-2.430574518719764e-06   -1.5883892027278388e-06   2.473280594747344e-05
1.042048690420401e-05   -1.0928148568337646e-06   3.0170256350641145e-06
1.042048690420401e-05   -1.0928148568337646e-06   3.0170256350641145e-06
1.042048690420401e-05   -1.0928148568337646e-06   3.0170256350641145e-06
1.042048690420401e-05   -1.0928148568337646e-06   3.0170256350641145e-06
4.278562882556119e-06   -1.0238210830864573e-06   1.3212169406896072e-05
4.278562882556119e-06   -1.0238210830864573e-06   1.3212169406896072e-05
4.278562882556119e-06   -1.0238210830864573e-06   1.3212169406896072e-05
4.278562882556119e-06   -1.0238210830864573e-06   1.3212169406896072e-05
-7.912379610836311e-07   2.1695068683645537e-06   2.6355529464387522e-05
-7.912379610836311e-07   2.1695068683645537e-06   2.6355529464387522e-05
-7.912379610836311e-07   2.1695068683645537e-06   2.6355529464387522e-05
-7.912379610836311e-07   2.1695068683645537e-06   2.6355529464387522e-05
-1.351666069134187e-05   2.2349034937124007e-06   5.185729555832411e-06
-1.351666069134187e-05   2.2349034937124007e-06   5.185729555832411e-06
-1.351666069134187e-05   2.2349034937124007e-06   5.185729555832411e-06
-1.351666069134187e-05   2.2349034937124007e-06   5.185729555832411e-06
-1.4057558035690252e-05   1.8418722504106103e-06   2.627587365268999e-05
-1.4057558035690252e-05   1.8418722504106103e-06   2.627587365268999e-05
-1.4057558035690252e-05   1.8418722504106103e-06   2.627587365268999e-05
-1.4057558035690252e-05   1.8418722504106103e-06   2.627587365268999e-05
-1.3289663871280744e-06   1.8594394030930095e-06   5.051013946810506e-06
-1.3289663871280744e-06   1.8594394030930095e-06   5.051013946810506e-06
-1.3289663871280744e-06   1.8594394030930095e-06   5.051013946810506e-06
-1.3289663871280744e-06   1.8594394030930095e-06   5.051013946810506e-06
-7.442813008544731e-06   1.9904625223002986e-06   1.5162144444313757e-05
-7.442813008544731e-06   1.9904625223002986e-06   1.5162144444313757e-05
-7.442813008544731e-06   1.9904625223002986e-06   1.5162144444313757e-05
-7.442813008544731e-06   1.9904625223002986e-06   1.5162144444313757e-05
-1.3289663871280744e-06   1.8418722504106103e-06   2.6265333361080853e-05
-1.3289663871280744e-06   1.8418722504106103e-06   2.6265333361080853e-05
-1.3289663871280744e-06   1.8418722504106103e-06   2.6265333361080853e-05
-1.3289663871280744e-06   1.8418722504106103e-06   2.6265333361080853e-05
-1.4057558035690252e-05   1.8594394030930095e-06   5.061554238419805e-06
-1.4057558035690252e-05   1.8594394030930095e-06   5.061554238419805e-06
-1.4057558035690252e-05   1.8594394030930095e-06   5.061554238419805e-06
-1.4057558035690252e-05   1.8594394030930095e-06   5.061554238419805e-06
-1.4611813493269586e-05   1.5237891474696123e-06   2.6417458488968946e-05
-1.4611813493269586e-05   1.5237891474696123e-06   2.6417458488968946e-05
-1.4611813493269586e-05   1.5237891474696123e-06   2.6417458488968946e-05
-1.4611813493269586e-05   1.5237891474696123e-06   2.6417458488968946e-05
-1.8782465272846683e-06   1.4899770411900583e-06   5.215134142761579e-06
-1.8782465272846683e-06   1.4899770411900583e-06   5.215134142761579e-06
-1.8782465272846683e-06   1.4899770411900583e-06   5.215134142761579e-06
-1.8782465272846683e-06   1.4899770411900583e-06   5.215134142761579e-06
-7.944764489412242e-06   1.7384198311072054e-06   1.517693173902463e-05
-7.944764489412242e-06   1.7384198311072054e-06   1.517693173902463e-05
-7.944764489412242e-06   1.7384198311072054e-06   1.517693173902463e-05
-7.944764489412242e-06   1.7384198311072054e-06   1.517693173902463e-05
-1.8782465272846683e-06   1.5237891474696123e-06   2.6437745752736614e-05
-1.8782465272846683e-06   1.5237891474696123e-06   2.6437745752736614e-05
-1.8782465272846683e-06   1.5237891474696123e-06   2.6437745752736614e-05
-1.8782465272846683e-06   1.5237891474696123e-06   2.6437745752736614e-05
-1.4611813493269586e-05   1.4899770411900583e-06   5.194846878994047e-06
-1.4611813493269586e-05   1.4899770411900583e-06   5.194846878994047e-06
-1.4611813493269586e-05   1.4899770411900583e-06   5.194846878994047e-06
-1.4611813493269586e-05   1.4899770411900583e-06   5.194846878994047e-06
-1.5165712026550182e-05   1.2407264669339266e-06   2.6742530636546377e-05
-1.5165712026550182e-05   1.2407264669339266e-06   2.6742530636546377e-05
-1.5165712026550182e-05   1.2407264669339266e-06   2.6742530636546377e-05
-1.5165712026550182e-05   1.2407264669339266e-06   2.6742530636546377e-05
-2.430574518719764e-06   1.1394586435244623e-06   5.578062150874514e-06
-2.430574518719764e-06   1.1394586435244623e-06   5.578062150874514e-06
-2.430574518719764e-06   1.1394586435244623e-06   5.578062150874514e-06
-2.430574518719764e-06   1.1394586435244623e-06   5.578062150874514e-06
-8.47038824139907e-06   1.4929367783817187e-06   1.5432331474426206e-05
-8.47038824139907e-06   1.4929367783817187e-06   1.5432331474426206e-05
-8.47038824139907e-06   1.4929367783817187e-06   1.5432331474426206e-05
-8.47038824139907e-06   1.4929367783817187e-06   1.5432331474426206e-05
-1.351666069134183e-05   4.9347066350198705e-06   2.3198216656211625e-05
-1.351666069134183e-05   4.9347066350198705e-06   2.3198216656211625e-05
-1.351666069134183e-05   4.9347066350198705e-06   2.3198216656211625e-05
-1.351666069134183e-05   4.9347066350198705e-06   2.3198216656211625e-05
-2.5968771802483163e-05   4.40300130656341e-06   2.125674940568886e-06
-2.5968771802483163e-05   4.40300130656341e-06   2.125674940568886e-06
-2.5968771802483163e-05   4.40300130656341e-06   2.125674940568886e-06
-2.5968771802483163e-05   4.40300130656341e-06   2.125674940568886e-06
-2.6551020591054913e-05   4.622816941987065e-06   2.3049227535346713e-05
-2.6551020591054913e-05   4.622816941987065e-06   2.3049227535346713e-05
-2.6551020591054913e-05   4.622816941987065e-06   2.3049227535346713e-05
-2.6551020591054913e-05   4.622816941987065e-06   2.3049227535346713e-05
-1.4057558035690266e-05   4.0442061186390064e-06   2.5739564370812445e-06
-1.4057558035690266e-05   4.0442061186390064e-06   2.5739564370812445e-06
-1.4057558035690266e-05   4.0442061186390064e-06   2.5739564370812445e-06
-1.4057558035690266e-05   4.0442061186390064e-06   2.5739564370812445e-06
-1.9957134303341186e-05   4.441531027068232e-06   1.2168188604775145e-05
-1.9957134303341186e-05   4.441531027068232e-06   1.2168188604775145e-05
-1.9957134303341186e-05   4.441531027068232e-06   1.2168188604775145e-05
-1.9957134303341186e-05   4.441531027068232e-06   1.2168188604775145e-05
-1.4057558035690252e-05   4.622816941987282e-06   2.3396394029355657e-05
-1.4057558035690252e-05   4.622816941987282e-06   2.3396394029355657e-05
-1.4057558035690252e-05   4.622816941987282e-06   2.3396394029355657e-05
-1.4057558035690252e-05   4.622816941987282e-06   2.3396394029355657e-05
-2.6551020591054913e-05   4.0442061186390064e-06   2.226789943072247e-06
-2.6551020591054913e-05   4.0442061186390064e-06   2.226789943072247e-06
-2.6551020591054913e-05   4.0442061186390064e-06   2.226789943072247e-06
-2.6551020591054913e-05   4.0442061186390064e-06   2.226789943072247e-06
-2.7191617351867087e-05   4.334449665231201e-06   2.3914262543353474e-05
-2.7191617351867087e-05   4.334449665231201e-06   2.3914262543353474e-05
-2.7191617351867087e-05   4.334449665231201e-06   2.3914262543353474e-05
-2.7191617351867087e-05   4.334449665231201e-06   2.3914262543353474e-05
-1.46118134932696e-05   3.7091661634254276e-06   3.3230928801080187e-06
-1.46118134932696e-05   3.7091661634254276e-06   3.3230928801080187e-06
-1.46118134932696e-05   3.7091661634254276e-06   3.3230928801080187e-06
-1.46118134932696e-05   3.7091661634254276e-06   3.3230928801080187e-06
-2.037352610935121e-05   4.212797108531924e-06   1.2623768673180572e-05
-2.037352610935121e-05   4.212797108531924e-06   1.2623768673180572e-05
-2.037352610935121e-05   4.212797108531924e-06   1.2623768673180572e-05
-2.037352610935121e-05   4.212797108531924e-06   1.2623768673180572e-05
-1.46118134932696e-05   4.334449665231201e-06   2.4289432644437133e-05
-1.46118134932696e-05   4.334449665231201e-06   2.4289432644437133e-05
-1.46118134932696e-05   4.334449665231201e-06   2.4289432644437133e-05
-1.46118134932696e-05   4.334449665231201e-06   2.4289432644437133e-05
-2.7191617351867087e-05   3.7091661634254276e-06   2.947922779024414e-06
-2.7191617351867087e-05   3.7091661634254276e-06   2.947922779024414e-06
-2.7191617351867087e-05   3.7091661634254276e-06   2.947922779024414e-06
-2.7191617351867087e-05   3.7091661634254276e-06   2.947922779024414e-06
-2.777691428391301e-05   3.981523865060612e-06   2.4561701215604012e-05
-2.777691428391301e-05   3.981523865060612e-06   2.4561701215604012e-05
-2.777691428391301e-05   3.981523865060612e-06   2.4561701215604012e-05
-2.777691428391301e-05   3.981523865060612e-06   2.4561701215604012e-05
-1.5165712026550196e-05   3.3183372237176843e-06   3.9409427714716145e-06
-1.5165712026550196e-05   3.3183372237176843e-06   3.9409427714716145e-06
-1.5165712026550196e-05   3.3183372237176843e-06   3.9409427714716145e-06
-1.5165712026550196e-05   3.3183372237176843e-06   3.9409427714716145e-06
-2.1039240330554265e-05   3.953978468794169e-06   1.334877186443361e-05
-2.1039240330554265e-05   3.953978468794169e-06   1.334877186443361e-05
-2.1039240330554265e-05   3.953978468794169e-06   1.334877186443361e-05
-2.1039240330554265e-05   3.953978468794169e-06   1.334877186443361e-05
-2.5968771802483163e-05   7.11430040618204e-06   1.122993110605193e-05
-2.5968771802483163e-05   7.11430040618204e-06   1.122993110605193e-05
-2.5968771802483163e-05   7.11430040618204e-06   1.122993110605193e-05
-2.5968771802483163e-05   7.11430040618204e-06   1.122993110605193e-05
-3.781109467362401e-05   6.077602889655032e-06   -9.129292189099061e-06
-3.781109467362401e-05   6.077602889655032e-06   -9.129292189099061e-06
-3.781109467362401e-05   6.077602889655032e-06   -9.129292189099061e-06
-3.781109467362401e-05   6.077602889655032e-06   -9.129292189099061e-06
-3.885836948123623e-05   7.192809944153245e-06   1.4943383922673284e-05
-3.885836948123623e-05   7.192809944153245e-06   1.4943383922673284e-05
-3.885836948123623e-05   7.192809944153245e-06   1.4943383922673284e-05
-3.885836948123623e-05   7.192809944153245e-06   1.4943383922673284e-05
-2.6551020591054913e-05   6.050018444353315e-06   -4.883189327749185e-06
-2.6551020591054913e-05   6.050018444353315e-06   -4.883189327749185e-06
-2.6551020591054913e-05   6.050018444353315e-06   -4.883189327749185e-06
-2.6551020591054913e-05   6.050018444353315e-06   -4.883189327749185e-06
-3.106813621191486e-05   6.510781328060563e-06   2.368878976792923e-06
-3.106813621191486e-05   6.510781328060563e-06   2.368878976792923e-06
-3.106813621191486e-05   6.510781328060563e-06   2.368878976792923e-06
-3.106813621191486e-05   6.510781328060563e-06   2.368878976792923e-06
-2.6551020591054886e-05   7.192809944153462e-06   1.5629058822553242e-05
-2.6551020591054886e-05   7.192809944153462e-06   1.5629058822553242e-05
-2.6551020591054886e-05   7.192809944153462e-06   1.5629058822553242e-05
-2.6551020591054886e-05   7.192809944153462e-06   1.5629058822553242e-05
-3.885836948123631e-05   6.050018444353315e-06   -5.5688642276291965e-06
-3.885836948123631e-05   6.050018444353315e-06   -5.5688642276291965e-06
-3.885836948123631e-05   6.050018444353315e-06   -5.5688642276291965e-06
-3.885836948123631e-05   6.050018444353315e-06   -5.5688642276291965e-06
-3.979524293233478e-05   7.114499727111159e-06   1.7936086623991047e-05
-3.979524293233478e-05   7.114499727111159e-06   1.7936086623991047e-05
-3.979524293233478e-05   7.114499727111159e-06   1.7936086623991047e-05
-3.979524293233478e-05   7.114499727111159e-06   1.7936086623991047e-05
-2.7191617351867087e-05   5.927662959133093e-06   -2.357853949335213e-06
-2.7191617351867087e-05   5.927662959133093e-06   -2.357853949335213e-06
-2.7191617351867087e-05   5.927662959133093e-06   -2.357853949335213e-06
-2.7191617351867087e-05   5.927662959133093e-06   -2.357853949335213e-06
-3.227584172100199e-05   6.583705668240097e-06   5.722227707093358e-06
-3.227584172100199e-05   6.583705668240097e-06   5.722227707093358e-06
-3.227584172100199e-05   6.583705668240097e-06   5.722227707093358e-06
-3.227584172100199e-05   6.583705668240097e-06   5.722227707093358e-06
-2.7191617351867087e-05   7.114499727111376e-06   1.8648188684777995e-05
-2.7191617351867087e-05   7.114499727111376e-06   1.8648188684777995e-05
-2.7191617351867087e-05   7.114499727111376e-06   1.8648188684777995e-05
-2.7191617351867087e-05   7.114499727111376e-06   1.8648188684777995e-05
-3.979524293233486e-05   5.927662959133093e-06   -3.0699560101219987e-06
-3.979524293233486e-05   5.927662959133093e-06   -3.0699560101219987e-06
-3.979524293233486e-05   5.927662959133093e-06   -3.0699560101219987e-06
-3.979524293233486e-05   5.927662959133093e-06   -3.0699560101219987e-06
-4.087098468857819e-05   6.568088575727247e-06   2.308139571877664e-05
-4.087098468857819e-05   6.568088575727247e-06   2.308139571877664e-05
-4.087098468857819e-05   6.568088575727247e-06   2.308139571877664e-05
-4.087098468857819e-05   6.568088575727247e-06   2.308139571877664e-05
-2.777691428391301e-05   5.385691217147867e-06   1.9673834594821746e-06
-2.777691428391301e-05   5.385691217147867e-06   1.9673834594821746e-06
-2.777691428391301e-05   5.385691217147867e-06   1.9673834594821746e-06
-2.777691428391301e-05   5.385691217147867e-06   1.9673834594821746e-06
-3.252761542911687e-05   6.358728926680662e-06   9.301396075769538e-06
-3.252761542911687e-05   6.358728926680662e-06   9.301396075769538e-06
-3.252761542911687e-05   6.358728926680662e-06   9.301396075769538e-06
-3.252761542911687e-05   6.358728926680662e-06   9.301396075769538e-06
1.7944603241235118e-05   -2.324249677532501e-06   1.7919804948587957e-05
1.7944603241235118e-05   -2.324249677532501e-06   1.7919804948587957e-05
1.7944603241235118e-05   -2.324249677532501e-06   1.7919804948587957e-05
1.7944603241235118e-05   -2.324249677532501e-06   1.7919804948587957e-05
7.450321109245105e-06   -1.1525962473979499e-06   1.132326786685428e-06
7.450321109245105e-06   -1.1525962473979499e-06   1.132326786685428e-06
7.450321109245105e-06   -1.1525962473979499e-06   1.132326786685428e-06
7.450321109245105e-06   -1.1525962473979499e-06   1.132326786685428e-06
6.989644670310475e-06   -2.8176882880090633e-06   1.6103372657358265e-05
6.989644670310475e-06   -2.8176882880090633e-06   1.6103372657358265e-05
6.989644670310475e-06   -2.8176882880090633e-06   1.6103372657358265e-05
6.989644670310475e-06   -2.8176882880090633e-06   1.6103372657358265e-05
1.6962868712031432e-05   -1.595034648507656e-06   -1.2522595958775032e-06
1.6962868712031432e-05   -1.595034648507656e-06   -1.2522595958775032e-06
1.6962868712031432e-05   -1.595034648507656e-06   -1.2522595958775032e-06
1.6962868712031432e-05   -1.595034648507656e-06   -1.2522595958775032e-06
1.1723532256354787e-05   -2.019130060411465e-06   7.734425077393058e-06
1.1723532256354787e-05   -2.019130060411465e-06   7.734425077393058e-06
1.1723532256354787e-05   -2.019130060411465e-06   7.734425077393058e-06
1.1723532256354787e-05   -2.019130060411465e-06   7.734425077393058e-06
1.696286871203146e-05   -2.8176882880088464e-06   1.5369780473657485e-05
1.696286871203146e-05   -2.8176882880088464e-06   1.5369780473657485e-05
1.696286871203146e-05   -2.8176882880088464e-06   1.5369780473657485e-05
1.696286871203146e-05   -2.8176882880088464e-06   1.5369780473657485e-05
6.9896446703104516e-06   -1.595034648507656e-06   -5.186674121766561e-07
6.9896446703104516e-06   -1.595034648507656e-06   -5.186674121766561e-07
6.9896446703104516e-06   -1.595034648507656e-06   -5.186674121766561e-07
6.9896446703104516e-06   -1.595034648507656e-06   -5.186674121766561e-07
6.471687892448196e-06   -2.949016084879876e-06   1.475555369271611e-05
6.471687892448196e-06   -2.949016084879876e-06   1.475555369271611e-05
6.471687892448196e-06   -2.949016084879876e-06   1.475555369271611e-05
6.471687892448196e-06   -2.949016084879876e-06   1.475555369271611e-05
1.611955263522223e-05   -1.7467747987971217e-06   -2.0455656502233686e-06
1.611955263522223e-05   -1.7467747987971217e-06   -2.0455656502233686e-06
1.611955263522223e-05   -1.7467747987971217e-06   -2.0455656502233686e-06
1.611955263522223e-05   -1.7467747987971217e-06   -2.0455656502233686e-06
1.1289522969751014e-05   -2.206998580314614e-06   6.2806180611395544e-06
1.1289522969751014e-05   -2.206998580314614e-06   6.2806180611395544e-06
1.1289522969751014e-05   -2.206998580314614e-06   6.2806180611395544e-06
1.1289522969751014e-05   -2.206998580314614e-06   6.2806180611395544e-06
1.6119552635222258e-05   -2.949016084879876e-06   1.4034208921066761e-05
1.6119552635222258e-05   -2.949016084879876e-06   1.4034208921066761e-05
1.6119552635222258e-05   -2.949016084879876e-06   1.4034208921066761e-05
1.6119552635222258e-05   -2.949016084879876e-06   1.4034208921066761e-05
6.471687892448183e-06   -1.7467747987971217e-06   -1.3242208785738162e-06
6.471687892448183e-06   -1.7467747987971217e-06   -1.3242208785738162e-06
6.471687892448183e-06   -1.7467747987971217e-06   -1.3242208785738162e-06
6.471687892448183e-06   -1.7467747987971217e-06   -1.3242208785738162e-06
6.0071606470054015e-06   -3.0694586017389076e-06   1.3001190572153008e-05
6.0071606470054015e-06   -3.0694586017389076e-06   1.3001190572153008e-05
6.0071606470054015e-06   -3.0694586017389076e-06   1.3001190572153008e-05
6.0071606470054015e-06   -3.0694586017389076e-06   1.3001190572153008e-05
1.5162095275486354e-05   -1.945535459823341e-06   -2.93138769379798e-06
1.5162095275486354e-05   -1.945535459823341e-06   -2.93138769379798e-06
1.5162095275486354e-05   -1.945535459823341e-06   -2.93138769379798e-06
1.5162095275486354e-05   -1.945535459823341e-06   -2.93138769379798e-06
1.0477448425001489e-05   -2.2425631448698847e-06   5.054573668038009e-06
1.0477448425001489e-05   -2.2425631448698847e-06   5.054573668038009e-06
1.0477448425001489e-05   -2.2425631448698847e-06   5.054573668038009e-06
1.0477448425001489e-05   -2.2425631448698847e-06   5.054573668038009e-06
7.450321109245132e-06   -1.6712183117635962e-08   2.2096599633102273e-05
7.450321109245132e-06   -1.6712183117635962e-08   2.2096599633102273e-05
7.450321109245132e-06   -1.6712183117635962e-08   2.2096599633102273e-05
7.450321109245132e-06   -1.6712183117635962e-08   2.2096599633102273e-05
-2.3922827920110675e-06   5.79673889437209e-07   6.050091441208404e-06
-2.3922827920110675e-06   5.79673889437209e-07   6.050091441208404e-06
-2.3922827920110675e-06   5.79673889437209e-07   6.050091441208404e-06
-2.3922827920110675e-06   5.79673889437209e-07   6.050091441208404e-06
-2.8158205051566083e-06   -4.4505477630519576e-07   2.2137058358544324e-05
-2.8158205051566083e-06   -4.4505477630519576e-07   2.2137058358544324e-05
-2.8158205051566083e-06   -4.4505477630519576e-07   2.2137058358544324e-05
-2.8158205051566083e-06   -4.4505477630519576e-07   2.2137058358544324e-05
6.9896446703104516e-06   1.3277397863564917e-07   5.44791914646823e-06
6.9896446703104516e-06   1.3277397863564917e-07   5.44791914646823e-06
6.9896446703104516e-06   1.3277397863564917e-07   5.44791914646823e-06
6.9896446703104516e-06   1.3277397863564917e-07   5.44791914646823e-06
2.237614349162702e-06   2.4043105050722963e-08   1.3433208205865585e-05
2.237614349162702e-06   2.4043105050722963e-08   1.3433208205865585e-05
2.237614349162702e-06   2.4043105050722963e-08   1.3433208205865585e-05
2.237614349162702e-06   2.4043105050722963e-08   1.3433208205865585e-05
6.989644670310472e-06   -4.450547763054126e-07   2.179036110557984e-05
6.989644670310472e-06   -4.450547763054126e-07   2.179036110557984e-05
6.989644670310472e-06   -4.450547763054126e-07   2.179036110557984e-05
6.989644670310472e-06   -4.450547763054126e-07   2.179036110557984e-05
-2.8158205051566083e-06   1.3277397863564917e-07   5.794616399432844e-06
-2.8158205051566083e-06   1.3277397863564917e-07   5.794616399432844e-06
-2.8158205051566083e-06   1.3277397863564917e-07   5.794616399432844e-06
-2.8158205051566083e-06   1.3277397863564917e-07   5.794616399432844e-06
-3.2489801276370172e-06   -7.818787292146554e-07   2.1868477263998695e-05
-3.2489801276370172e-06   -7.818787292146554e-07   2.1868477263998695e-05
-3.2489801276370172e-06   -7.818787292146554e-07   2.1868477263998695e-05
-3.2489801276370172e-06   -7.818787292146554e-07   2.1868477263998695e-05
6.471687892448183e-06   -2.3214820817313124e-07   5.3375255845650936e-06
6.471687892448183e-06   -2.3214820817313124e-07   5.3375255845650936e-06
6.471687892448183e-06   -2.3214820817313124e-07   5.3375255845650936e-06
6.471687892448183e-06   -2.3214820817313124e-07   5.3375255845650936e-06
1.7714059819786908e-06   -2.735747058602283e-07   1.3196184667293962e-05
1.7714059819786908e-06   -2.735747058602283e-07   1.3196184667293962e-05
1.7714059819786908e-06   -2.735747058602283e-07   1.3196184667293962e-05
1.7714059819786908e-06   -2.735747058602283e-07   1.3196184667293962e-05
6.4716878924482066e-06   -7.818787292146554e-07   2.1538638951373672e-05
6.4716878924482066e-06   -7.818787292146554e-07   2.1538638951373672e-05
6.4716878924482066e-06   -7.818787292146554e-07   2.1538638951373672e-05
6.4716878924482066e-06   -7.818787292146554e-07   2.1538638951373672e-05
-3.2489801276370308e-06   -2.3214820817313124e-07   5.667363897190049e-06
-3.2489801276370308e-06   -2.3214820817313124e-07   5.667363897190049e-06
-3.2489801276370308e-06   -2.3214820817313124e-07   5.667363897190049e-06
-3.2489801276370308e-06   -2.3214820817313124e-07   5.667363897190049e-06
-3.6785941182316634e-06   -1.0928148568337646e-06   2.2063323244886812e-05
-3.6785941182316634e-06   -1.0928148568337646e-06   2.2063323244886812e-05
-3.6785941182316634e-06   -1.0928148568337646e-06   2.2063323244886812e-05
-3.6785941182316634e-06   -1.0928148568337646e-06   2.2063323244886812e-05
6.007160647005378e-06   -5.907964456439933e-07   5.61918758944459e-06
6.007160647005378e-06   -5.907964456439933e-07   5.61918758944459e-06
6.007160647005378e-06   -5.907964456439933e-07   5.61918758944459e-06
6.007160647005378e-06   -5.907964456439933e-07   5.61918758944459e-06
1.4039895812047116e-06   -5.20784032031086e-07   1.324913191761131e-05
1.4039895812047116e-06   -5.20784032031086e-07   1.324913191761131e-05
1.4039895812047116e-06   -5.20784032031086e-07   1.324913191761131e-05
1.4039895812047116e-06   -5.20784032031086e-07   1.324913191761131e-05
-2.392282792011054e-06   2.2349034937126176e-06   2.3967911066561666e-05
-2.392282792011054e-06   2.2349034937126176e-06   2.3967911066561666e-05
-2.392282792011054e-06   2.2349034937126176e-06   2.3967911066561666e-05
-2.392282792011054e-06   2.2349034937126176e-06   2.3967911066561666e-05
-1.2070826816009984e-05   2.2019323698931666e-06   7.817221685605226e-06
-1.2070826816009984e-05   2.2019323698931666e-06   7.817221685605226e-06
-1.2070826816009984e-05   2.2019323698931666e-06   7.817221685605226e-06
-1.2070826816009984e-05   2.2019323698931666e-06   7.817221685605226e-06
-1.2488949406464802e-05   1.8594394030930095e-06   2.3811673515463337e-05
-1.2488949406464802e-05   1.8594394030930095e-06   2.3811673515463337e-05
-1.2488949406464802e-05   1.8594394030930095e-06   2.3811673515463337e-05
-1.2488949406464802e-05   1.8594394030930095e-06   2.3811673515463337e-05
-2.8158205051565947e-06   1.7966845504595926e-06   7.727444924863353e-06
-2.8158205051565947e-06   1.7966845504595926e-06   7.727444924863353e-06
-2.8158205051565947e-06   1.7966845504595926e-06   7.727444924863353e-06
-2.8158205051565947e-06   1.7966845504595926e-06   7.727444924863353e-06
-7.460615568547693e-06   1.9725275705710383e-06   1.536326421844875e-05
-7.460615568547693e-06   1.9725275705710383e-06   1.536326421844875e-05
-7.460615568547693e-06   1.9725275705710383e-06   1.536326421844875e-05
-7.460615568547693e-06   1.9725275705710383e-06   1.536326421844875e-05
-2.8158205051566083e-06   1.8594394030930095e-06   2.384932642704354e-05
-2.8158205051566083e-06   1.8594394030930095e-06   2.384932642704354e-05
-2.8158205051566083e-06   1.8594394030930095e-06   2.384932642704354e-05
-2.8158205051566083e-06   1.8594394030930095e-06   2.384932642704354e-05
-1.2488949406464802e-05   1.7966845504593758e-06   7.68979201328315e-06
-1.2488949406464802e-05   1.7966845504593758e-06   7.68979201328315e-06
-1.2488949406464802e-05   1.7966845504593758e-06   7.68979201328315e-06
-1.2488949406464802e-05   1.7966845504593758e-06   7.68979201328315e-06
-1.2917020825046425e-05   1.4899770411900583e-06   2.393130665480532e-05
-1.2917020825046425e-05   1.4899770411900583e-06   2.393130665480532e-05
-1.2917020825046425e-05   1.4899770411900583e-06   2.393130665480532e-05
-1.2917020825046425e-05   1.4899770411900583e-06   2.393130665480532e-05
-3.2489801276370037e-06   1.3961121259622403e-06   7.874224441593213e-06
-3.2489801276370037e-06   1.3961121259622403e-06   7.874224441593213e-06
-3.2489801276370037e-06   1.3961121259622403e-06   7.874224441593213e-06
-3.2489801276370037e-06   1.3961121259622403e-06   7.874224441593213e-06
-7.843282873026285e-06   1.6787534339571166e-06   1.536181089911224e-05
-7.843282873026285e-06   1.6787534339571166e-06   1.536181089911224e-05
-7.843282873026285e-06   1.6787534339571166e-06   1.536181089911224e-05
-7.843282873026285e-06   1.6787534339571166e-06   1.536181089911224e-05
-3.2489801276370308e-06   1.4899770411900583e-06   2.3987625603942185e-05
-3.2489801276370308e-06   1.4899770411900583e-06   2.3987625603942185e-05
-3.2489801276370308e-06   1.4899770411900583e-06   2.3987625603942185e-05
-3.2489801276370308e-06   1.4899770411900583e-06   2.3987625603942185e-05
-1.2917020825046425e-05   1.3961121259622403e-06   7.81790549245643e-06
-1.2917020825046425e-05   1.3961121259622403e-06   7.81790549245643e-06
-1.2917020825046425e-05   1.3961121259622403e-06   7.81790549245643e-06
-1.2917020825046425e-05   1.3961121259622403e-06   7.81790549245643e-06
-1.3340001741312882e-05   1.1394586435244623e-06   2.4249694231738344e-05
-1.3340001741312882e-05   1.1394586435244623e-06   2.4249694231738344e-05
-1.3340001741312882e-05   1.1394586435244623e-06   2.4249694231738344e-05
-1.3340001741312882e-05   1.1394586435244623e-06   2.4249694231738344e-05
-3.67859411823165e-06   1.0105904411535083e-06   8.224669114692237e-06
-3.67859411823165e-06   1.0105904411535083e-06   8.224669114692237e-06
-3.67859411823165e-06   1.0105904411535083e-06   8.224669114692237e-06
-3.67859411823165e-06   1.0105904411535083e-06   8.224669114692237e-06
-8.243685169879325e-06   1.3919812416440368e-06   1.5604319720477315e-05
-8.243685169879325e-06   1.3919812416440368e-06   1.5604319720477315e-05
-8.243685169879325e-06   1.3919812416440368e-06   1.5604319720477315e-05
-8.243685169879325e-06   1.3919812416440368e-06   1.5604319720477315e-05
-1.2070826816009984e-05   4.403001306563193e-06   2.1207096974080325e-05
-1.2070826816009984e-05   4.403001306563193e-06   2.1207096974080325e-05
-1.2070826816009984e-05   4.403001306563193e-06   2.1207096974080325e-05
-1.2070826816009984e-05   4.403001306563193e-06   2.1207096974080325e-05
-2.1592274861443223e-05   3.7807753780609056e-06   4.964681341256948e-06
-2.1592274861443223e-05   3.7807753780609056e-06   4.964681341256948e-06
-2.1592274861443223e-05   3.7807753780609056e-06   4.964681341256948e-06
-2.1592274861443223e-05   3.7807753780609056e-06   4.964681341256948e-06
-2.2041100414009994e-05   4.0442061186390064e-06   2.0928838469355063e-05
-2.2041100414009994e-05   4.0442061186390064e-06   2.0928838469355063e-05
-2.2041100414009994e-05   4.0442061186390064e-06   2.0928838469355063e-05
-2.2041100414009994e-05   4.0442061186390064e-06   2.0928838469355063e-05
-1.2488949406464774e-05   3.3854773773562413e-06   5.40382403488288e-06
-1.2488949406464774e-05   3.3854773773562413e-06   5.40382403488288e-06
-1.2488949406464774e-05   3.3854773773562413e-06   5.40382403488288e-06
-1.2488949406464774e-05   3.3854773773562413e-06   5.40382403488288e-06
-1.699993299926444e-05   3.836081026037776e-06   1.2651767833674109e-05
-1.699993299926444e-05   3.836081026037776e-06   1.2651767833674109e-05
-1.699993299926444e-05   3.836081026037776e-06   1.2651767833674109e-05
-1.699993299926444e-05   3.836081026037776e-06   1.2651767833674109e-05
-1.2488949406464802e-05   4.0442061186390064e-06   2.1324075714124723e-05
-1.2488949406464802e-05   4.0442061186390064e-06   2.1324075714124723e-05
-1.2488949406464802e-05   4.0442061186390064e-06   2.1324075714124723e-05
-1.2488949406464802e-05   4.0442061186390064e-06   2.1324075714124723e-05
-2.204110041400994e-05   3.385477377356458e-06   5.008586790113275e-06
-2.204110041400994e-05   3.385477377356458e-06   5.008586790113275e-06
-2.204110041400994e-05   3.385477377356458e-06   5.008586790113275e-06
-2.204110041400994e-05   3.385477377356458e-06   5.008586790113275e-06
-2.2545932265601964e-05   3.7091661634254276e-06   2.164550802189846e-05
-2.2545932265601964e-05   3.7091661634254276e-06   2.164550802189846e-05
-2.2545932265601964e-05   3.7091661634254276e-06   2.164550802189846e-05
-2.2545932265601964e-05   3.7091661634254276e-06   2.164550802189846e-05
-1.2917020825046398e-05   3.0190917733906916e-06   6.011366921660204e-06
-1.2917020825046398e-05   3.0190917733906916e-06   6.011366921660204e-06
-1.2917020825046398e-05   3.0190917733906916e-06   6.011366921660204e-06
-1.2917020825046398e-05   3.0190917733906916e-06   6.011366921660204e-06
-1.730954990322233e-05   3.5670715841467065e-06   1.300346083216679e-05
-1.730954990322233e-05   3.5670715841467065e-06   1.300346083216679e-05
-1.730954990322233e-05   3.5670715841467065e-06   1.300346083216679e-05
-1.730954990322233e-05   3.5670715841467065e-06   1.300346083216679e-05
-1.2917020825046425e-05   3.7091661634254276e-06   2.2059552655919346e-05
-1.2917020825046425e-05   3.7091661634254276e-06   2.2059552655919346e-05
-1.2917020825046425e-05   3.7091661634254276e-06   2.2059552655919346e-05
-1.2917020825046425e-05   3.7091661634254276e-06   2.2059552655919346e-05
-2.254593226560191e-05   3.0190917733904747e-06   5.5973222876394275e-06
-2.254593226560191e-05   3.0190917733904747e-06   5.5973222876394275e-06
-2.254593226560191e-05   3.0190917733904747e-06   5.5973222876394275e-06
-2.254593226560191e-05   3.0190917733904747e-06   5.5973222876394275e-06
-2.2994312873189735e-05   3.3183372237176843e-06   2.224767987711769e-05
-2.2994312873189735e-05   3.3183372237176843e-06   2.224767987711769e-05
-2.2994312873189735e-05   3.3183372237176843e-06   2.224767987711769e-05
-2.2994312873189735e-05   3.3183372237176843e-06   2.224767987711769e-05
-1.3340001741312855e-05   2.6089111082787473e-06   6.5828169932530105e-06
-1.3340001741312855e-05   2.6089111082787473e-06   6.5828169932530105e-06
-1.3340001741312855e-05   2.6089111082787473e-06   6.5828169932530105e-06
-1.3340001741312855e-05   2.6089111082787473e-06   6.5828169932530105e-06
-1.7816242490463697e-05   3.2832344927528814e-06   1.3638624211153802e-05
-1.7816242490463697e-05   3.2832344927528814e-06   1.3638624211153802e-05
-1.7816242490463697e-05   3.2832344927528814e-06   1.3638624211153802e-05
-1.7816242490463697e-05   3.2832344927528814e-06   1.3638624211153802e-05
-2.1592274861443223e-05   6.077602889655032e-06   1.0200812797227449e-05
-2.1592274861443223e-05   6.077602889655032e-06   1.0200812797227449e-05
-2.1592274861443223e-05   6.077602889655032e-06   1.0200812797227449e-05
-2.1592274861443223e-05   6.077602889655032e-06   1.0200812797227449e-05
-3.0536388169405046e-05   4.968239349889244e-06   -5.371660839901789e-06
-3.0536388169405046e-05   4.968239349889244e-06   -5.371660839901789e-06
-3.0536388169405046e-05   4.968239349889244e-06   -5.371660839901789e-06
-3.0536388169405046e-05   4.968239349889244e-06   -5.371660839901789e-06
-3.147599545036384e-05   6.050018444353315e-06   1.3094640263004893e-05
-3.147599545036384e-05   6.050018444353315e-06   1.3094640263004893e-05
-3.147599545036384e-05   6.050018444353315e-06   1.3094640263004893e-05
-3.147599545036384e-05   6.050018444353315e-06   1.3094640263004893e-05
-2.2041100414009913e-05   4.842986885138841e-06   -1.9059658620560415e-06
-2.2041100414009913e-05   4.842986885138841e-06   -1.9059658620560415e-06
-2.2041100414009913e-05   4.842986885138841e-06   -1.9059658620560415e-06
-2.2041100414009913e-05   4.842986885138841e-06   -1.9059658620560415e-06
-2.542121373547898e-05   5.383885165084756e-06   3.4030173724253513e-06
-2.542121373547898e-05   5.383885165084756e-06   3.4030173724253513e-06
-2.542121373547898e-05   5.383885165084756e-06   3.4030173724253513e-06
-2.542121373547898e-05   5.383885165084756e-06   3.4030173724253513e-06
-2.2041100414009967e-05   6.050018444353315e-06   1.3818859198533686e-05
-2.2041100414009967e-05   6.050018444353315e-06   1.3818859198533686e-05
-2.2041100414009967e-05   6.050018444353315e-06   1.3818859198533686e-05
-2.2041100414009967e-05   6.050018444353315e-06   1.3818859198533686e-05
-3.1475995450363896e-05   4.842986885138841e-06   -2.6301847975846717e-06
-3.1475995450363896e-05   4.842986885138841e-06   -2.6301847975846717e-06
-3.1475995450363896e-05   4.842986885138841e-06   -2.6301847975846717e-06
-3.1475995450363896e-05   4.842986885138841e-06   -2.6301847975846717e-06
-3.2295004349143334e-05   5.927662959133093e-06   1.5595649608076507e-05
-3.2295004349143334e-05   5.927662959133093e-06   1.5595649608076507e-05
-3.2295004349143334e-05   5.927662959133093e-06   1.5595649608076507e-05
-3.2295004349143334e-05   5.927662959133093e-06   1.5595649608076507e-05
-2.2545932265601883e-05   4.687526816695917e-06   9.127782097002879e-08
-2.2545932265601883e-05   4.687526816695917e-06   9.127782097002879e-08
-2.2545932265601883e-05   4.687526816695917e-06   9.127782097002879e-08
-2.2545932265601883e-05   4.687526816695917e-06   9.127782097002879e-08
-2.6418900686026958e-05   5.388522444280813e-06   6.125627811795226e-06
-2.6418900686026958e-05   5.388522444280813e-06   6.125627811795226e-06
-2.6418900686026958e-05   5.388522444280813e-06   6.125627811795226e-06
-2.6418900686026958e-05   5.388522444280813e-06   6.125627811795226e-06
-2.2545932265601964e-05   5.927662959133093e-06   1.6339731293538943e-05
-2.2545932265601964e-05   5.927662959133093e-06   1.6339731293538943e-05
-2.2545932265601964e-05   5.927662959133093e-06   1.6339731293538943e-05
-2.2545932265601964e-05   5.927662959133093e-06   1.6339731293538943e-05
-3.2295004349143334e-05   4.687526816695917e-06   -6.528038644922985e-07
-3.2295004349143334e-05   4.687526816695917e-06   -6.528038644922985e-07
-3.2295004349143334e-05   4.687526816695917e-06   -6.528038644922985e-07
-3.2295004349143334e-05   4.687526816695917e-06   -6.528038644922985e-07
-3.324437088811222e-05   5.38569121714765e-06   1.9939018382132473e-05
-3.324437088811222e-05   5.38569121714765e-06   1.9939018382132473e-05
-3.324437088811222e-05   5.38569121714765e-06   1.9939018382132473e-05
-3.324437088811222e-05   5.38569121714765e-06   1.9939018382132473e-05
-2.2994312873189654e-05   4.164000937478688e-06   3.588602525063107e-06
-2.2994312873189654e-05   4.164000937478688e-06   3.588602525063107e-06
-2.2994312873189654e-05   4.164000937478688e-06   3.588602525063107e-06
-2.2994312873189654e-05   4.164000937478688e-06   3.588602525063107e-06
-2.663668839785007e-05   5.160351942504367e-06   9.061417796481534e-06
-2.663668839785007e-05   5.160351942504367e-06   9.061417796481534e-06
-2.663668839785007e-05   5.160351942504367e-06   9.061417796481534e-06
-2.663668839785007e-05   5.160351942504367e-06   9.061417796481534e-06
1.0039454104132311e-05   -1.1525962473979499e-06   1.4141633006484644e-05
1.0039454104132311e-05   -1.1525962473979499e-06   1.4141633006484644e-05
1.0039454104132311e-05   -1.1525962473979499e-06   1.4141633006484644e-05
1.0039454104132311e-05   -1.1525962473979499e-06   1.4141633006484644e-05
2.653861658327019e-06   1.0232772399169573e-08   2.530009675354096e-06
2.653861658327019e-06   1.0232772399169573e-08   2.530009675354096e-06
2.653861658327019e-06   1.0232772399169573e-08   2.530009675354096e-06
2.653861658327019e-06   1.0232772399169573e-08   2.530009675354096e-06
2.3081006114883913e-06   -1.595034648507656e-06   1.3175256833842857e-05
2.3081006114883913e-06   -1.595034648507656e-06   1.3175256833842857e-05
2.3081006114883913e-06   -1.595034648507656e-06   1.3175256833842857e-05
2.3081006114883913e-06   -1.595034648507656e-06   1.3175256833842857e-05
9.1839531476148e-06   -3.869371454967357e-07   9.906441051592935e-07
9.1839531476148e-06   -3.869371454967357e-07   9.906441051592935e-07
9.1839531476148e-06   -3.869371454967357e-07   9.906441051592935e-07
9.1839531476148e-06   -3.869371454967357e-07   9.906441051592935e-07
5.690714703526856e-06   -8.372882188102063e-07   7.0829188226276805e-06
5.690714703526856e-06   -8.372882188102063e-07   7.0829188226276805e-06
5.690714703526856e-06   -8.372882188102063e-07   7.0829188226276805e-06
5.690714703526856e-06   -8.372882188102063e-07   7.0829188226276805e-06
9.18395314761482e-06   -1.595034648507656e-06   1.2450398332036414e-05
9.18395314761482e-06   -1.595034648507656e-06   1.2450398332036414e-05
9.18395314761482e-06   -1.595034648507656e-06   1.2450398332036414e-05
9.18395314761482e-06   -1.595034648507656e-06   1.2450398332036414e-05
2.308100611488388e-06   -3.869371454967357e-07   1.7155026069656017e-06
2.308100611488388e-06   -3.869371454967357e-07   1.7155026069656017e-06
2.308100611488388e-06   -3.869371454967357e-07   1.7155026069656017e-06
2.308100611488388e-06   -3.869371454967357e-07   1.7155026069656017e-06
1.9046468880840818e-06   -1.7467747987973386e-06   1.2359018330260793e-05
1.9046468880840818e-06   -1.7467747987973386e-06   1.2359018330260793e-05
1.9046468880840818e-06   -1.7467747987973386e-06   1.2359018330260793e-05
1.9046468880840818e-06   -1.7467747987973386e-06   1.2359018330260793e-05
8.459038719427412e-06   -5.573792291802731e-07   7.213946029184379e-07
8.459038719427412e-06   -5.573792291802731e-07   7.213946029184379e-07
8.459038719427412e-06   -5.573792291802731e-07   7.213946029184379e-07
8.459038719427412e-06   -5.573792291802731e-07   7.213946029184379e-07
5.2792243348341e-06   -1.0107333834228575e-06   6.2930977364527495e-06
5.2792243348341e-06   -1.0107333834228575e-06   6.2930977364527495e-06
5.2792243348341e-06   -1.0107333834228575e-06   6.2930977364527495e-06
5.2792243348341e-06   -1.0107333834228575e-06   6.2930977364527495e-06
8.459038719427426e-06   -1.7467747987971217e-06   1.1645380988490445e-05
8.459038719427426e-06   -1.7467747987971217e-06   1.1645380988490445e-05
8.459038719427426e-06   -1.7467747987971217e-06   1.1645380988490445e-05
8.459038719427426e-06   -1.7467747987971217e-06   1.1645380988490445e-05
1.904646888084075e-06   -5.573792291802731e-07   1.4350319446885824e-06
1.904646888084075e-06   -5.573792291802731e-07   1.4350319446885824e-06
1.904646888084075e-06   -5.573792291802731e-07   1.4350319446885824e-06
1.904646888084075e-06   -5.573792291802731e-07   1.4350319446885824e-06
1.55482983696406e-06   -1.945535459823341e-06   1.1410795282012988e-05
1.55482983696406e-06   -1.945535459823341e-06   1.1410795282012988e-05
1.55482983696406e-06   -1.945535459823341e-06   1.1410795282012988e-05
1.55482983696406e-06   -1.945535459823341e-06   1.1410795282012988e-05
7.609344703165372e-06   -8.3977160268635e-07   6.564788573953749e-07
7.609344703165372e-06   -8.3977160268635e-07   6.564788573953749e-07
7.609344703165372e-06   -8.3977160268635e-07   6.564788573953749e-07
7.609344703165372e-06   -8.3977160268635e-07   6.564788573953749e-07
4.667491119229943e-06   -1.0987455542471863e-06   5.7149525348911594e-06
4.667491119229943e-06   -1.0987455542471863e-06   5.7149525348911594e-06
4.667491119229943e-06   -1.0987455542471863e-06   5.7149525348911594e-06
4.667491119229943e-06   -1.0987455542471863e-06   5.7149525348911594e-06
2.6538616583270222e-06   5.796738894369921e-07   1.939926342935279e-05
2.6538616583270222e-06   5.796738894369921e-07   1.939926342935279e-05
2.6538616583270222e-06   5.796738894369921e-07   1.939926342935279e-05
2.6538616583270222e-06   5.796738894369921e-07   1.939926342935279e-05
-4.069898420175363e-06   1.1078445681087824e-06   8.509899039051833e-06
-4.069898420175363e-06   1.1078445681087824e-06   8.509899039051833e-06
-4.069898420175363e-06   1.1078445681087824e-06   8.509899039051833e-06
-4.069898420175363e-06   1.1078445681087824e-06   8.509899039051833e-06
-4.373910675769258e-06   1.3277397863543233e-07   1.9458243278104343e-05
-4.373910675769258e-06   1.3277397863543233e-07   1.9458243278104343e-05
-4.373910675769258e-06   1.3277397863543233e-07   1.9458243278104343e-05
-4.373910675769258e-06   1.3277397863543233e-07   1.9458243278104343e-05
2.308100611488388e-06   6.60107121330019e-07   8.005157913725067e-06
2.308100611488388e-06   6.60107121330019e-07   8.005157913725067e-06
2.308100611488388e-06   6.60107121330019e-07   8.005157913725067e-06
2.308100611488388e-06   6.60107121330019e-07   8.005157913725067e-06
-9.210910987081145e-07   5.750032246276508e-07   1.3438206435407982e-05
-9.210910987081145e-07   5.750032246276508e-07   1.3438206435407982e-05
-9.210910987081145e-07   5.750032246276508e-07   1.3438206435407982e-05
-9.210910987081145e-07   5.750032246276508e-07   1.3438206435407982e-05
2.3081006114883913e-06   1.3277397863564917e-07   1.9141843392487547e-05
2.3081006114883913e-06   1.3277397863564917e-07   1.9141843392487547e-05
2.3081006114883913e-06   1.3277397863564917e-07   1.9141843392487547e-05
2.3081006114883913e-06   1.3277397863564917e-07   1.9141843392487547e-05
-4.373910675769258e-06   6.601071213301274e-07   8.321557799341808e-06
-4.373910675769258e-06   6.601071213301274e-07   8.321557799341808e-06
-4.373910675769258e-06   6.601071213301274e-07   8.321557799341808e-06
-4.373910675769258e-06   6.601071213301274e-07   8.321557799341808e-06
-4.686913643297522e-06   -2.3214820817313124e-07   1.9328919433573752e-05
-4.686913643297522e-06   -2.3214820817313124e-07   1.9328919433573752e-05
-4.686913643297522e-06   -2.3214820817313124e-07   1.9328919433573752e-05
-4.686913643297522e-06   -2.3214820817313124e-07   1.9328919433573752e-05
1.904646888084075e-06   2.814428587842371e-07   8.034830574430218e-06
1.904646888084075e-06   2.814428587842371e-07   8.034830574430218e-06
1.904646888084075e-06   2.814428587842371e-07   8.034830574430218e-06
1.904646888084075e-06   2.814428587842371e-07   8.034830574430218e-06
-1.2459342275716617e-06   2.6323100743379756e-07   1.3296726211333611e-05
-1.2459342275716617e-06   2.6323100743379756e-07   1.3296726211333611e-05
-1.2459342275716617e-06   2.6323100743379756e-07   1.3296726211333611e-05
-1.2459342275716617e-06   2.6323100743379756e-07   1.3296726211333611e-05
1.9046468880840818e-06   -2.321482081729144e-07   1.9020764793399635e-05
1.9046468880840818e-06   -2.321482081729144e-07   1.9020764793399635e-05
1.9046468880840818e-06   -2.321482081729144e-07   1.9020764793399635e-05
1.9046468880840818e-06   -2.321482081729144e-07   1.9020764793399635e-05
-4.686913643297522e-06   2.814428587841287e-07   8.34298521460461e-06
-4.686913643297522e-06   2.814428587841287e-07   8.34298521460461e-06
-4.686913643297522e-06   2.814428587841287e-07   8.34298521460461e-06
-4.686913643297522e-06   2.814428587841287e-07   8.34298521460461e-06
-4.995376135012014e-06   -5.907964456439933e-07   1.9578762761366243e-05
-4.995376135012014e-06   -5.907964456439933e-07   1.9578762761366243e-05
-4.995376135012014e-06   -5.907964456439933e-07   1.9578762761366243e-05
-4.995376135012014e-06   -5.907964456439933e-07   1.9578762761366243e-05
1.5548298369640532e-06   -1.0455297687740703e-07   8.37000672681293e-06
1.5548298369640532e-06   -1.0455297687740703e-07   8.37000672681293e-06
1.5548298369640532e-06   -1.0455297687740703e-07   8.37000672681293e-06
1.5548298369640532e-06   -1.0455297687740703e-07   8.37000672681293e-06
-1.5204653019434502e-06   -1.5638802270540042e-08   1.3442150120228339e-05
-1.5204653019434502e-06   -1.5638802270540042e-08   1.3442150120228339e-05
-1.5204653019434502e-06   -1.5638802270540042e-08   1.3442150120228339e-05
-1.5204653019434502e-06   -1.5638802270540042e-08   1.3442150120228339e-05
-4.069898420175363e-06   2.2019323698931666e-06   2.150307875524438e-05
-4.069898420175363e-06   2.2019323698931666e-06   2.150307875524438e-05
-4.069898420175363e-06   2.2019323698931666e-06   2.150307875524438e-05
-4.069898420175363e-06   2.2019323698931666e-06   2.150307875524438e-05
-1.0676627518003235e-05   2.078223144103648e-06   1.0417638056724242e-05
-1.0676627518003235e-05   2.078223144103648e-06   1.0417638056724242e-05
-1.0676627518003235e-05   2.078223144103648e-06   1.0417638056724242e-05
-1.0676627518003235e-05   2.078223144103648e-06   1.0417638056724242e-05
-1.0968563819363519e-05   1.7966845504595926e-06   2.131281108822881e-05
-1.0968563819363519e-05   1.7966845504595926e-06   2.131281108822881e-05
-1.0968563819363519e-05   1.7966845504595926e-06   2.131281108822881e-05
-1.0968563819363519e-05   1.7966845504595926e-06   2.131281108822881e-05
-4.3739106757692444e-06   1.6662500249489806e-06   1.0399983230878246e-05
-4.3739106757692444e-06   1.6662500249489806e-06   1.0399983230878246e-05
-4.3739106757692444e-06   1.6662500249489806e-06   1.0399983230878246e-05
-4.3739106757692444e-06   1.6662500249489806e-06   1.0399983230878246e-05
-7.536523027733825e-06   1.888785148676346e-06   1.553748274324998e-05
-7.536523027733825e-06   1.888785148676346e-06   1.553748274324998e-05
-7.536523027733825e-06   1.888785148676346e-06   1.553748274324998e-05
-7.536523027733825e-06   1.888785148676346e-06   1.553748274324998e-05
-4.373910675769258e-06   1.7966845504595926e-06   2.1391071803535176e-05
-4.373910675769258e-06   1.7966845504595926e-06   2.1391071803535176e-05
-4.373910675769258e-06   1.7966845504595926e-06   2.1391071803535176e-05
-4.373910675769258e-06   1.7966845504595926e-06   2.1391071803535176e-05
-1.0968563819363492e-05   1.6662500249489806e-06   1.0321722515571933e-05
-1.0968563819363492e-05   1.6662500249489806e-06   1.0321722515571933e-05
-1.0968563819363492e-05   1.6662500249489806e-06   1.0321722515571933e-05
-1.0968563819363492e-05   1.6662500249489806e-06   1.0321722515571933e-05
-1.1269979342641546e-05   1.3961121259622403e-06   2.1451958811534205e-05
-1.1269979342641546e-05   1.3961121259622403e-06   2.1451958811534205e-05
-1.1269979342641546e-05   1.3961121259622403e-06   2.1451958811534205e-05
-1.1269979342641546e-05   1.3961121259622403e-06   2.1451958811534205e-05
-4.686913643297522e-06   1.2564101818905585e-06   1.056400381240375e-05
-4.686913643297522e-06   1.2564101818905585e-06   1.056400381240375e-05
-4.686913643297522e-06   1.2564101818905585e-06   1.056400381240375e-05
-4.686913643297522e-06   1.2564101818905585e-06   1.056400381240375e-05
-7.79626311518077e-06   1.575798917030375e-06   1.5554619691125163e-05
-7.79626311518077e-06   1.575798917030375e-06   1.5554619691125163e-05
-7.79626311518077e-06   1.575798917030375e-06   1.5554619691125163e-05
-7.79626311518077e-06   1.575798917030375e-06   1.5554619691125163e-05
-4.686913643297522e-06   1.3961121259622403e-06   2.1535779977977106e-05
-4.686913643297522e-06   1.3961121259622403e-06   2.1535779977977106e-05
-4.686913643297522e-06   1.3961121259622403e-06   2.1535779977977106e-05
-4.686913643297522e-06   1.3961121259622403e-06   2.1535779977977106e-05
-1.1269979342641519e-05   1.2564101818905585e-06   1.0480182645960796e-05
-1.1269979342641519e-05   1.2564101818905585e-06   1.0480182645960796e-05
-1.1269979342641519e-05   1.2564101818905585e-06   1.0480182645960796e-05
-1.1269979342641519e-05   1.2564101818905585e-06   1.0480182645960796e-05
-1.1566624185180014e-05   1.0105904411535083e-06   2.1795191221912237e-05
-1.1566624185180014e-05   1.0105904411535083e-06   2.1795191221912237e-05
-1.1566624185180014e-05   1.0105904411535083e-06   2.1795191221912237e-05
-1.1566624185180014e-05   1.0105904411535083e-06   2.1795191221912237e-05
-4.995376135012014e-06   8.641870778406833e-07   1.0930953156286868e-05
-4.995376135012014e-06   8.641870778406833e-07   1.0930953156286868e-05
-4.995376135012014e-06   8.641870778406833e-07   1.0930953156286868e-05
-4.995376135012014e-06   8.641870778406833e-07   1.0930953156286868e-05
-8.072646612479055e-06   1.2691875930607999e-06   1.5816736976266782e-05
-8.072646612479055e-06   1.2691875930607999e-06   1.5816736976266782e-05
-8.072646612479055e-06   1.2691875930607999e-06   1.5816736976266782e-05
-8.072646612479055e-06   1.2691875930607999e-06   1.5816736976266782e-05
-1.0676627518003235e-05   3.7807753780609056e-06   1.8949648432523805e-05
-1.0676627518003235e-05   3.7807753780609056e-06   1.8949648432523805e-05
-1.0676627518003235e-05   3.7807753780609056e-06   1.8949648432523805e-05
-1.0676627518003235e-05   3.7807753780609056e-06   1.8949648432523805e-05
-1.7167510274852246e-05   3.092584723919569e-06   7.71859611195725e-06
-1.7167510274852246e-05   3.092584723919569e-06   7.71859611195725e-06
-1.7167510274852246e-05   3.092584723919569e-06   7.71859611195725e-06
-1.7167510274852246e-05   3.092584723919569e-06   7.71859611195725e-06
-1.7485976648140805e-05   3.3854773773562413e-06   1.8602045133091433e-05
-1.7485976648140805e-05   3.3854773773562413e-06   1.8602045133091433e-05
-1.7485976648140805e-05   3.3854773773562413e-06   1.8602045133091433e-05
-1.7485976648140805e-05   3.3854773773562413e-06   1.8602045133091433e-05
-1.0968563819363465e-05   2.677480749461265e-06   8.164488395199674e-06
-1.0968563819363465e-05   2.677480749461265e-06   8.164488395199674e-06
-1.0968563819363465e-05   2.677480749461265e-06   8.164488395199674e-06
-1.0968563819363465e-05   2.677480749461265e-06   8.164488395199674e-06
-1.4040622948382461e-05   3.1804593651561363e-06   1.2982799774148633e-05
-1.4040622948382461e-05   3.1804593651561363e-06   1.2982799774148633e-05
-1.4040622948382461e-05   3.1804593651561363e-06   1.2982799774148633e-05
-1.4040622948382461e-05   3.1804593651561363e-06   1.2982799774148633e-05
-1.0968563819363519e-05   3.385477377356458e-06   1.9026843109828592e-05
-1.0968563819363519e-05   3.385477377356458e-06   1.9026843109828592e-05
-1.0968563819363519e-05   3.385477377356458e-06   1.9026843109828592e-05
-1.0968563819363519e-05   3.385477377356458e-06   1.9026843109828592e-05
-1.7485976648140805e-05   2.677480749461265e-06   7.739690418462732e-06
-1.7485976648140805e-05   2.677480749461265e-06   7.739690418462732e-06
-1.7485976648140805e-05   2.677480749461265e-06   7.739690418462732e-06
-1.7485976648140805e-05   2.677480749461265e-06   7.739690418462732e-06
-1.7862817300665676e-05   3.0190917733906916e-06   1.9213709020775055e-05
-1.7862817300665676e-05   3.0190917733906916e-06   1.9213709020775055e-05
-1.7862817300665676e-05   3.0190917733906916e-06   1.9213709020775055e-05
-1.7862817300665676e-05   3.0190917733906916e-06   1.9213709020775055e-05
-1.1269979342641491e-05   2.2995730734528272e-06   8.65735697736425e-06
-1.1269979342641491e-05   2.2995730734528272e-06   8.65735697736425e-06
-1.1269979342641491e-05   2.2995730734528272e-06   8.65735697736425e-06
-1.1269979342641491e-05   2.2995730734528272e-06   8.65735697736425e-06
-1.4246179843708745e-05   2.8871430669795157e-06   1.3265149149693616e-05
-1.4246179843708745e-05   2.8871430669795157e-06   1.3265149149693616e-05
-1.4246179843708745e-05   2.8871430669795157e-06   1.3265149149693616e-05
-1.4246179843708745e-05   2.8871430669795157e-06   1.3265149149693616e-05
-1.1269979342641519e-05   3.0190917733906916e-06   1.96454202407376e-05
-1.1269979342641519e-05   3.0190917733906916e-06   1.96454202407376e-05
-1.1269979342641519e-05   3.0190917733906916e-06   1.96454202407376e-05
-1.1269979342641519e-05   3.0190917733906916e-06   1.96454202407376e-05
-1.786281730066562e-05   2.2995730734528272e-06   8.225645757401596e-06
-1.786281730066562e-05   2.2995730734528272e-06   8.225645757401596e-06
-1.786281730066562e-05   2.2995730734528272e-06   8.225645757401596e-06
-1.786281730066562e-05   2.2995730734528272e-06   8.225645757401596e-06
-1.818579806449802e-05   2.608911108278964e-06   1.9802421472695365e-05
-1.818579806449802e-05   2.608911108278964e-06   1.9802421472695365e-05
-1.818579806449802e-05   2.608911108278964e-06   1.9802421472695365e-05
-1.818579806449802e-05   2.608911108278964e-06   1.9802421472695365e-05
-1.156662418517996e-05   1.8951801929448968e-06   9.198703556365811e-06
-1.156662418517996e-05   1.8951801929448968e-06   9.198703556365811e-06
-1.156662418517996e-05   1.8951801929448968e-06   9.198703556365811e-06
-1.156662418517996e-05   1.8951801929448968e-06   9.198703556365811e-06
-1.460116419057607e-05   2.5928232647064522e-06   1.3837684388969646e-05
-1.460116419057607e-05   2.5928232647064522e-06   1.3837684388969646e-05
-1.460116419057607e-05   2.5928232647064522e-06   1.3837684388969646e-05
-1.460116419057607e-05   2.5928232647064522e-06   1.3837684388969646e-05
-1.71675102748523e-05   4.9682393498894604e-06   8.866009982739847e-06
-1.71675102748523e-05   4.9682393498894604e-06   8.866009982739847e-06
-1.71675102748523e-05   4.9682393498894604e-06   8.866009982739847e-06
-1.71675102748523e-05   4.9682393498894604e-06   8.866009982739847e-06
-2.3037515526940205e-05   3.8131643644868365e-06   -1.610377095314806e-06
-2.3037515526940205e-05   3.8131643644868365e-06   -1.610377095314806e-06
-2.3037515526940205e-05   3.8131643644868365e-06   -1.610377095314806e-06
-2.3037515526940205e-05   3.8131643644868365e-06   -1.610377095314806e-06
-2.3854634330467295e-05   4.842986885138841e-06   1.0942423725642143e-05
-2.3854634330467295e-05   4.842986885138841e-06   1.0942423725642143e-05
-2.3854634330467295e-05   4.842986885138841e-06   1.0942423725642143e-05
-2.3854634330467295e-05   4.842986885138841e-06   1.0942423725642143e-05
-1.748597664814075e-05   3.6012056263394097e-06   1.0730630103777668e-06
-1.748597664814075e-05   3.6012056263394097e-06   1.0730630103777668e-06
-1.748597664814075e-05   3.6012056263394097e-06   1.0730630103777668e-06
-1.748597664814075e-05   3.6012056263394097e-06   1.0730630103777668e-06
-1.9643541746431272e-05   4.226150802632287e-06   4.2940377350872004e-06
-1.9643541746431272e-05   4.226150802632287e-06   4.2940377350872004e-06
-1.9643541746431272e-05   4.226150802632287e-06   4.2940377350872004e-06
-1.9643541746431272e-05   4.226150802632287e-06   4.2940377350872004e-06
-1.7485976648140778e-05   4.842986885139058e-06   1.1687492480921954e-05
-1.7485976648140778e-05   4.842986885139058e-06   1.1687492480921954e-05
-1.7485976648140778e-05   4.842986885139058e-06   1.1687492480921954e-05
-1.7485976648140778e-05   4.842986885139058e-06   1.1687492480921954e-05
-2.3854634330467295e-05   3.6012056263394097e-06   3.279942550981729e-07
-2.3854634330467295e-05   3.6012056263394097e-06   3.279942550981729e-07
-2.3854634330467295e-05   3.6012056263394097e-06   3.279942550981729e-07
-2.3854634330467295e-05   3.6012056263394097e-06   3.279942550981729e-07
-2.455744021193513e-05   4.687526816695917e-06   1.2948993968753698e-05
-2.455744021193513e-05   4.687526816695917e-06   1.2948993968753698e-05
-2.455744021193513e-05   4.687526816695917e-06   1.2948993968753698e-05
-2.455744021193513e-05   4.687526816695917e-06   1.2948993968753698e-05
-1.786281730066562e-05   3.423075841109662e-06   2.549959701989826e-06
-1.786281730066562e-05   3.423075841109662e-06   2.549959701989826e-06
-1.786281730066562e-05   3.423075841109662e-06   2.549959701989826e-06
-1.786281730066562e-05   3.423075841109662e-06   2.549959701989826e-06
-2.042964525808205e-05   4.171888168677789e-06   6.378718901143231e-06
-2.042964525808205e-05   4.171888168677789e-06   6.378718901143231e-06
-2.042964525808205e-05   4.171888168677789e-06   6.378718901143231e-06
-2.042964525808205e-05   4.171888168677789e-06   6.378718901143231e-06
-1.7862817300665676e-05   4.6875268166961335e-06   1.370766455410571e-05
-1.7862817300665676e-05   4.6875268166961335e-06   1.370766455410571e-05
-1.7862817300665676e-05   4.6875268166961335e-06   1.370766455410571e-05
-1.7862817300665676e-05   4.6875268166961335e-06   1.370766455410571e-05
-2.455744021193513e-05   3.423075841109662e-06   1.7912891166380301e-06
-2.455744021193513e-05   3.423075841109662e-06   1.7912891166380301e-06
-2.455744021193513e-05   3.423075841109662e-06   1.7912891166380301e-06
-2.455744021193513e-05   3.423075841109662e-06   1.7912891166380301e-06
-2.5397784620596984e-05   4.164000937478471e-06   1.6497601091534485e-05
-2.5397784620596984e-05   4.164000937478471e-06   1.6497601091534485e-05
-2.5397784620596984e-05   4.164000937478471e-06   1.6497601091534485e-05
-2.5397784620596984e-05   4.164000937478471e-06   1.6497601091534485e-05
-1.8185798064497967e-05   2.936898300421502e-06   5.213885080270473e-06
-1.8185798064497967e-05   2.936898300421502e-06   5.213885080270473e-06
-1.8185798064497967e-05   2.936898300421502e-06   5.213885080270473e-06
-1.8185798064497967e-05   2.936898300421502e-06   5.213885080270473e-06
-2.0622330747314878e-05   3.950793732399429e-06   8.666435625778886e-06
-2.0622330747314878e-05   3.950793732399429e-06   8.666435625778886e-06
-2.0622330747314878e-05   3.950793732399429e-06   8.666435625778886e-06
-2.0622330747314878e-05   3.950793732399429e-06   8.666435625778886e-06
2.1155138051750244e-06   1.0232772399169573e-08   1.0590431630605707e-05
2.1155138051750244e-06   1.0232772399169573e-08   1.0590431630605707e-05
2.1155138051750244e-06   1.0232772399169573e-08   1.0590431630605707e-05
2.1155138051750244e-06   1.0232772399169573e-08   1.0590431630605707e-05
-2.1417129169288318e-06   1.1292473995715277e-06   4.1664625367362346e-06
-2.1417129169288318e-06   1.1292473995715277e-06   4.1664625367362346e-06
-2.1417129169288318e-06   1.1292473995715277e-06   4.1664625367362346e-06
-2.1417129169288318e-06   1.1292473995715277e-06   4.1664625367362346e-06
-2.38817521136148e-06   -3.869371454967357e-07   1.0432564287005304e-05
-2.38817521136148e-06   -3.869371454967357e-07   1.0432564287005304e-05
-2.38817521136148e-06   -3.869371454967357e-07   1.0432564287005304e-05
-2.38817521136148e-06   -3.869371454967357e-07   1.0432564287005304e-05
1.3667314104023366e-06   7.586301200289717e-07   3.487046224750145e-06
1.3667314104023366e-06   7.586301200289717e-07   3.487046224750145e-06
1.3667314104023366e-06   7.586301200289717e-07   3.487046224750145e-06
1.3667314104023366e-06   7.586301200289717e-07   3.487046224750145e-06
-3.6452340253729295e-07   3.139603033508855e-07   6.639272802989659e-06
-3.6452340253729295e-07   3.139603033508855e-07   6.639272802989659e-06
-3.6452340253729295e-07   3.139603033508855e-07   6.639272802989659e-06
-3.6452340253729295e-07   3.139603033508855e-07   6.639272802989659e-06
1.3667314104023366e-06   -3.869371454967357e-07   9.74522392768989e-06
1.3667314104023366e-06   -3.869371454967357e-07   9.74522392768989e-06
1.3667314104023366e-06   -3.869371454967357e-07   9.74522392768989e-06
1.3667314104023366e-06   -3.869371454967357e-07   9.74522392768989e-06
-2.38817521136148e-06   7.586301200289717e-07   4.1743865840655585e-06
-2.38817521136148e-06   7.586301200289717e-07   4.1743865840655585e-06
-2.38817521136148e-06   7.586301200289717e-07   4.1743865840655585e-06
-2.38817521136148e-06   7.586301200289717e-07   4.1743865840655585e-06
-2.6929006027749025e-06   -5.573792291801646e-07   1.0151346387672036e-05
-2.6929006027749025e-06   -5.573792291801646e-07   1.0151346387672036e-05
-2.6929006027749025e-06   -5.573792291801646e-07   1.0151346387672036e-05
-2.6929006027749025e-06   -5.573792291801646e-07   1.0151346387672036e-05
7.162850463686478e-07   5.557510484484329e-07   3.8014921391888844e-06
7.162850463686478e-07   5.557510484484329e-07   3.8014921391888844e-06
7.162850463686478e-07   5.557510484484329e-07   3.8014921391888844e-06
7.162850463686478e-07   5.557510484484329e-07   3.8014921391888844e-06
-7.674299268100879e-07   1.5612533660173695e-07   6.5141258549281965e-06
-7.674299268100879e-07   1.5612533660173695e-07   6.5141258549281965e-06
-7.674299268100879e-07   1.5612533660173695e-07   6.5141258549281965e-06
-7.674299268100879e-07   1.5612533660173695e-07   6.5141258549281965e-06
7.162850463686478e-07   -5.573792291801646e-07   9.483468221094726e-06
7.162850463686478e-07   -5.573792291801646e-07   9.483468221094726e-06
7.162850463686478e-07   -5.573792291801646e-07   9.483468221094726e-06
7.162850463686478e-07   -5.573792291801646e-07   9.483468221094726e-06
-2.6929006027748957e-06   5.557510484484329e-07   4.469370305766195e-06
-2.6929006027748957e-06   5.557510484484329e-07   4.469370305766195e-06
-2.6929006027748957e-06   5.557510484484329e-07   4.469370305766195e-06
-2.6929006027748957e-06   5.557510484484329e-07   4.469370305766195e-06
-2.948027384813153e-06   -8.397716026864585e-07   1.0039136453066175e-05
-2.948027384813153e-06   -8.397716026864585e-07   1.0039136453066175e-05
-2.948027384813153e-06   -8.397716026864585e-07   1.0039136453066175e-05
-2.948027384813153e-06   -8.397716026864585e-07   1.0039136453066175e-05
-1.0029026606469952e-07   1.2654916519111003e-07   4.713115461092409e-06
-1.0029026606469952e-07   1.2654916519111003e-07   4.713115461092409e-06
-1.0029026606469952e-07   1.2654916519111003e-07   4.713115461092409e-06
-1.0029026606469952e-07   1.2654916519111003e-07   4.713115461092409e-06
-1.2053758456170422e-06   1.310554513945638e-08   6.6229909323771004e-06
-1.2053758456170422e-06   1.310554513945638e-08   6.6229909323771004e-06
-1.2053758456170422e-06   1.310554513945638e-08   6.6229909323771004e-06
-1.2053758456170422e-06   1.310554513945638e-08   6.6229909323771004e-06
-2.1417129169288318e-06   1.1078445681088908e-06   1.6924827363404e-05
-2.1417129169288318e-06   1.1078445681088908e-06   1.6924827363404e-05
-2.1417129169288318e-06   1.1078445681088908e-06   1.6924827363404e-05
-2.1417129169288318e-06   1.1078445681088908e-06   1.6924827363404e-05
-5.70282514347203e-06   1.3307827333022349e-06   1.112340321828139e-05
-5.70282514347203e-06   1.3307827333022349e-06   1.112340321828139e-05
-5.70282514347203e-06   1.3307827333022349e-06   1.112340321828139e-05
-5.70282514347203e-06   1.3307827333022349e-06   1.112340321828139e-05
-5.889253235751661e-06   6.601071213301274e-07   1.6876660829525086e-05
-5.889253235751661e-06   6.601071213301274e-07   1.6876660829525086e-05
-5.889253235751661e-06   6.601071213301274e-07   1.6876660829525086e-05
-5.889253235751661e-06   6.601071213301274e-07   1.6876660829525086e-05
-2.38817521136148e-06   9.175091809304021e-07   1.0887089553114428e-05
-2.38817521136148e-06   9.175091809304021e-07   1.0887089553114428e-05
-2.38817521136148e-06   9.175091809304021e-07   1.0887089553114428e-05
-2.38817521136148e-06   9.175091809304021e-07   1.0887089553114428e-05
-4.055675270704875e-06   9.55482050833136e-07   1.364347259674515e-05
-4.055675270704875e-06   9.55482050833136e-07   1.364347259674515e-05
-4.055675270704875e-06   9.55482050833136e-07   1.364347259674515e-05
-4.055675270704875e-06   9.55482050833136e-07   1.364347259674515e-05
-2.3881752113614834e-06   6.601071213301274e-07   1.672221959376466e-05
-2.3881752113614834e-06   6.601071213301274e-07   1.672221959376466e-05
-2.3881752113614834e-06   6.601071213301274e-07   1.672221959376466e-05
-2.3881752113614834e-06   6.601071213301274e-07   1.672221959376466e-05
-5.889253235751661e-06   9.175091809304021e-07   1.104153078887465e-05
-5.889253235751661e-06   9.175091809304021e-07   1.104153078887465e-05
-5.889253235751661e-06   9.175091809304021e-07   1.104153078887465e-05
-5.889253235751661e-06   9.175091809304021e-07   1.104153078887465e-05
-6.081623187556353e-06   2.814428587841287e-07   1.6904497405529403e-05
-6.081623187556353e-06   2.814428587841287e-07   1.6904497405529403e-05
-6.081623187556353e-06   2.814428587841287e-07   1.6904497405529403e-05
-6.081623187556353e-06   2.814428587841287e-07   1.6904497405529403e-05
-2.6929006027748957e-06   5.370301723103951e-07   1.1103274042778072e-05
-2.6929006027748957e-06   5.370301723103951e-07   1.1103274042778072e-05
-2.6929006027748957e-06   5.370301723103951e-07   1.1103274042778072e-05
-2.6929006027748957e-06   5.370301723103951e-07   1.1103274042778072e-05
-4.2462015331879935e-06   6.540685379975405e-07   1.3621885907387797e-05
-4.2462015331879935e-06   6.540685379975405e-07   1.3621885907387797e-05
-4.2462015331879935e-06   6.540685379975405e-07   1.3621885907387797e-05
-4.2462015331879935e-06   6.540685379975405e-07   1.3621885907387797e-05
-2.6929006027749025e-06   2.814428587841287e-07   1.675114501741373e-05
-2.6929006027749025e-06   2.814428587841287e-07   1.675114501741373e-05
-2.6929006027749025e-06   2.814428587841287e-07   1.675114501741373e-05
-2.6929006027749025e-06   2.814428587841287e-07   1.675114501741373e-05
-6.081623187556353e-06   5.370301723103951e-07   1.1256626430893664e-05
-6.081623187556353e-06   5.370301723103951e-07   1.1256626430893664e-05
-6.081623187556353e-06   5.370301723103951e-07   1.1256626430893664e-05
-6.081623187556353e-06   5.370301723103951e-07   1.1256626430893664e-05
-6.270538421607232e-06   -1.0455297687729861e-07   1.7227477296091406e-05
-6.270538421607232e-06   -1.0455297687729861e-07   1.7227477296091406e-05
-6.270538421607232e-06   -1.0455297687729861e-07   1.7227477296091406e-05
-6.270538421607232e-06   -1.0455297687729861e-07   1.7227477296091406e-05
-2.9480273848131497e-06   1.2589916960586804e-07   1.1551687613544755e-05
-2.9480273848131497e-06   1.2589916960586804e-07   1.1551687613544755e-05
-2.9480273848131497e-06   1.2589916960586804e-07   1.1551687613544755e-05
-2.9480273848131497e-06   1.2589916960586804e-07   1.1551687613544755e-05
-4.436142910967792e-06   3.587868364535217e-07   1.3892147557027247e-05
-4.436142910967792e-06   3.587868364535217e-07   1.3892147557027247e-05
-4.436142910967792e-06   3.587868364535217e-07   1.3892147557027247e-05
-4.436142910967792e-06   3.587868364535217e-07   1.3892147557027247e-05
-5.702825143472017e-06   2.078223144103648e-06   1.9040554815666073e-05
-5.702825143472017e-06   2.078223144103648e-06   1.9040554815666073e-05
-5.702825143472017e-06   2.078223144103648e-06   1.9040554815666073e-05
-5.702825143472017e-06   2.078223144103648e-06   1.9040554815666073e-05
-9.24608660395613e-06   1.602554090744928e-06   1.2849717616177526e-05
-9.24608660395613e-06   1.602554090744928e-06   1.2849717616177526e-05
-9.24608660395613e-06   1.602554090744928e-06   1.2849717616177526e-05
-9.24608660395613e-06   1.602554090744928e-06   1.2849717616177526e-05
-9.404237318198696e-06   1.6662500249488722e-06   1.868756167237428e-05
-9.404237318198696e-06   1.6662500249488722e-06   1.868756167237428e-05
-9.404237318198696e-06   1.6662500249488722e-06   1.868756167237428e-05
-9.404237318198696e-06   1.6662500249488722e-06   1.868756167237428e-05
-5.889253235751661e-06   1.2203757104706746e-06   1.3096779456982856e-05
-5.889253235751661e-06   1.2203757104706746e-06   1.3096779456982856e-05
-5.889253235751661e-06   1.2203757104706746e-06   1.3096779456982856e-05
-5.889253235751661e-06   1.2203757104706746e-06   1.3096779456982856e-05
-7.564785161682948e-06   1.6093365508042246e-06   1.5655956162668273e-05
-7.564785161682948e-06   1.6093365508042246e-06   1.5655956162668273e-05
-7.564785161682948e-06   1.6093365508042246e-06   1.5655956162668273e-05
-7.564785161682948e-06   1.6093365508042246e-06   1.5655956162668273e-05
-5.889253235751661e-06   1.6662500249488722e-06   1.8955086261061307e-05
-5.889253235751661e-06   1.6662500249488722e-06   1.8955086261061307e-05
-5.889253235751661e-06   1.6662500249488722e-06   1.8955086261061307e-05
-5.889253235751661e-06   1.6662500249488722e-06   1.8955086261061307e-05
-9.404237318198696e-06   1.2203757104706746e-06   1.2829254868295802e-05
-9.404237318198696e-06   1.2203757104706746e-06   1.2829254868295802e-05
-9.404237318198696e-06   1.2203757104706746e-06   1.2829254868295802e-05
-9.404237318198696e-06   1.2203757104706746e-06   1.2829254868295802e-05
-9.57356380954137e-06   1.2564101818905585e-06   1.887088986029053e-05
-9.57356380954137e-06   1.2564101818905585e-06   1.887088986029053e-05
-9.57356380954137e-06   1.2564101818905585e-06   1.887088986029053e-05
-9.57356380954137e-06   1.2564101818905585e-06   1.887088986029053e-05
-6.081623187556353e-06   8.320332768269132e-07   1.3305614966686971e-05
-6.081623187556353e-06   8.320332768269132e-07   1.3305614966686971e-05
-6.081623187556353e-06   8.320332768269132e-07   1.3305614966686971e-05
-6.081623187556353e-06   8.320332768269132e-07   1.3305614966686971e-05
-7.69993290649678e-06   1.303734169028222e-06   1.5719777296266933e-05
-7.69993290649678e-06   1.303734169028222e-06   1.5719777296266933e-05
-7.69993290649678e-06   1.303734169028222e-06   1.5719777296266933e-05
-7.69993290649678e-06   1.303734169028222e-06   1.5719777296266933e-05
-6.081623187556353e-06   1.2564101818905585e-06   1.9125516003328544e-05
-6.081623187556353e-06   1.2564101818905585e-06   1.9125516003328544e-05
-6.081623187556353e-06   1.2564101818905585e-06   1.9125516003328544e-05
-6.081623187556353e-06   1.2564101818905585e-06   1.9125516003328544e-05
-9.573563809541343e-06   8.320332768269132e-07   1.305098882364874e-05
-9.573563809541343e-06   8.320332768269132e-07   1.305098882364874e-05
-9.573563809541343e-06   8.320332768269132e-07   1.305098882364874e-05
-9.573563809541343e-06   8.320332768269132e-07   1.305098882364874e-05
-9.739402894260607e-06   8.641870778406833e-07   1.925673608846952e-05
-9.739402894260607e-06   8.641870778406833e-07   1.925673608846952e-05
-9.739402894260607e-06   8.641870778406833e-07   1.925673608846952e-05
-9.739402894260607e-06   8.641870778406833e-07   1.925673608846952e-05
-6.270538421607232e-06   4.642844847808263e-07   1.371523685654989e-05
-6.270538421607232e-06   4.642844847808263e-07   1.371523685654989e-05
-6.270538421607232e-06   4.642844847808263e-07   1.371523685654989e-05
-6.270538421607232e-06   4.642844847808263e-07   1.371523685654989e-05
-7.850481914560748e-06   1.0028955720726117e-06   1.6025309359097174e-05
-7.850481914560748e-06   1.0028955720726117e-06   1.6025309359097174e-05
-7.850481914560748e-06   1.0028955720726117e-06   1.6025309359097174e-05
-7.850481914560748e-06   1.0028955720726117e-06   1.6025309359097174e-05
-9.246086603956156e-06   3.0925847239196775e-06   1.6469025831368804e-05
-9.246086603956156e-06   3.0925847239196775e-06   1.6469025831368804e-05
-9.246086603956156e-06   3.0925847239196775e-06   1.6469025831368804e-05
-9.246086603956156e-06   3.0925847239196775e-06   1.6469025831368804e-05
-1.2733686706506995e-05   2.1708304428349557e-06   1.0103306425133119e-05
-1.2733686706506995e-05   2.1708304428349557e-06   1.0103306425133119e-05
-1.2733686706506995e-05   2.1708304428349557e-06   1.0103306425133119e-05
-1.2733686706506995e-05   2.1708304428349557e-06   1.0103306425133119e-05
-1.2907584821322734e-05   2.6774807494613735e-06   1.5985145528893776e-05
-1.2907584821322734e-05   2.6774807494613735e-06   1.5985145528893776e-05
-1.2907584821322734e-05   2.6774807494613735e-06   1.5985145528893776e-05
-1.2907584821322734e-05   2.6774807494613735e-06   1.5985145528893776e-05
-9.404237318198696e-06   1.768844044280622e-06   1.069141504679539e-05
-9.404237318198696e-06   1.768844044280622e-06   1.069141504679539e-05
-9.404237318198696e-06   1.768844044280622e-06   1.069141504679539e-05
-9.404237318198696e-06   1.768844044280622e-06   1.069141504679539e-05
-1.1049421613913997e-05   2.4056488770573658e-06   1.3051305973321584e-05
-1.1049421613913997e-05   2.4056488770573658e-06   1.3051305973321584e-05
-1.1049421613913997e-05   2.4056488770573658e-06   1.3051305973321584e-05
-1.1049421613913997e-05   2.4056488770573658e-06   1.3051305973321584e-05
-9.404237318198696e-06   2.6774807494613735e-06   1.6530327552002184e-05
-9.404237318198696e-06   2.6774807494613735e-06   1.6530327552002184e-05
-9.404237318198696e-06   2.6774807494613735e-06   1.6530327552002184e-05
-9.404237318198696e-06   2.6774807494613735e-06   1.6530327552002184e-05
-1.290758482132268e-05   1.768844044280622e-06   1.0146233023687146e-05
-1.290758482132268e-05   1.768844044280622e-06   1.0146233023687146e-05
-1.290758482132268e-05   1.768844044280622e-06   1.0146233023687146e-05
-1.290758482132268e-05   1.768844044280622e-06   1.0146233023687146e-05
-1.3147144052729057e-05   2.2995730734529356e-06   1.6514818088757786e-05
-1.3147144052729057e-05   2.2995730734529356e-06   1.6514818088757786e-05
-1.3147144052729057e-05   2.2995730734529356e-06   1.6514818088757786e-05
-1.3147144052729057e-05   2.2995730734529356e-06   1.6514818088757786e-05
-9.57356380954137e-06   1.4108295685593287e-06   1.1092097119714487e-05
-9.57356380954137e-06   1.4108295685593287e-06   1.1092097119714487e-05
-9.57356380954137e-06   1.4108295685593287e-06   1.1092097119714487e-05
-9.57356380954137e-06   1.4108295685593287e-06   1.1092097119714487e-05
-1.1143892533781473e-05   2.1094963818579565e-06   1.329011157213554e-05
-1.1143892533781473e-05   2.1094963818579565e-06   1.329011157213554e-05
-1.1143892533781473e-05   2.1094963818579565e-06   1.329011157213554e-05
-1.1143892533781473e-05   2.1094963818579565e-06   1.329011157213554e-05
-9.573563809541343e-06   2.2995730734529356e-06   1.7048064191693712e-05
-9.573563809541343e-06   2.2995730734529356e-06   1.7048064191693712e-05
-9.573563809541343e-06   2.2995730734529356e-06   1.7048064191693712e-05
-9.573563809541343e-06   2.2995730734529356e-06   1.7048064191693712e-05
-1.314714405272903e-05   1.4108295685592203e-06   1.055885101677829e-05
-1.314714405272903e-05   1.4108295685592203e-06   1.055885101677829e-05
-1.314714405272903e-05   1.4108295685592203e-06   1.055885101677829e-05
-1.314714405272903e-05   1.4108295685592203e-06   1.055885101677829e-05
-1.3339015250447703e-05   1.8951801929448968e-06   1.710263902122088e-05
-1.3339015250447703e-05   1.8951801929448968e-06   1.710263902122088e-05
-1.3339015250447703e-05   1.8951801929448968e-06   1.710263902122088e-05
-1.3339015250447703e-05   1.8951801929448968e-06   1.710263902122088e-05
-9.73940289426058e-06   1.0456977174192958e-06   1.1612974579557663e-05
-9.73940289426058e-06   1.0456977174192958e-06   1.1612974579557663e-05
-9.73940289426058e-06   1.0456977174192958e-06   1.1612974579557663e-05
-9.73940289426058e-06   1.0456977174192958e-06   1.1612974579557663e-05
-1.1342732977647762e-05   1.8274207901749833e-06   1.3816157541549946e-05
-1.1342732977647762e-05   1.8274207901749833e-06   1.3816157541549946e-05
-1.1342732977647762e-05   1.8274207901749833e-06   1.3816157541549946e-05
-1.1342732977647762e-05   1.8274207901749833e-06   1.3816157541549946e-05
-1.2733686706506995e-05   3.813164364486945e-06   7.280045046687109e-06
-1.2733686706506995e-05   3.813164364486945e-06   7.280045046687109e-06
-1.2733686706506995e-05   3.813164364486945e-06   7.280045046687109e-06
-1.2733686706506995e-05   3.813164364486945e-06   7.280045046687109e-06
-1.5491220038673173e-05   2.5722930870465503e-06   1.93963339327935e-06
-1.5491220038673173e-05   2.5722930870465503e-06   1.93963339327935e-06
-1.5491220038673173e-05   2.5722930870465503e-06   1.93963339327935e-06
-1.5491220038673173e-05   2.5722930870465503e-06   1.93963339327935e-06
-1.6148570002631096e-05   3.6012056263394097e-06   8.540742658071565e-06
-1.6148570002631096e-05   3.6012056263394097e-06   8.540742658071565e-06
-1.6148570002631096e-05   3.6012056263394097e-06   8.540742658071565e-06
-1.6148570002631096e-05   3.6012056263394097e-06   8.540742658071565e-06
-1.2907584821322707e-05   2.3049131884434393e-06   3.9168761519616044e-06
-1.2907584821322707e-05   2.3049131884434393e-06   3.9168761519616044e-06
-1.2907584821322707e-05   2.3049131884434393e-06   3.9168761519616044e-06
-1.2907584821322707e-05   2.3049131884434393e-06   3.9168761519616044e-06
-1.382292401345984e-05   3.040532057374339e-06   5.00107015083157e-06
-1.382292401345984e-05   3.040532057374339e-06   5.00107015083157e-06
-1.382292401345984e-05   3.040532057374339e-06   5.00107015083157e-06
-1.382292401345984e-05   3.040532057374339e-06   5.00107015083157e-06
-1.2907584821322707e-05   3.6012056263394097e-06   9.318518120808865e-06
-1.2907584821322707e-05   3.6012056263394097e-06   9.318518120808865e-06
-1.2907584821322707e-05   3.6012056263394097e-06   9.318518120808865e-06
-1.2907584821322707e-05   3.6012056263394097e-06   9.318518120808865e-06
-1.6148570002631204e-05   2.3049131884434393e-06   3.139100689224033e-06
-1.6148570002631204e-05   2.3049131884434393e-06   3.139100689224033e-06
-1.6148570002631204e-05   2.3049131884434393e-06   3.139100689224033e-06
-1.6148570002631204e-05   2.3049131884434393e-06   3.139100689224033e-06
-1.6712359070133814e-05   3.423075841109662e-06   1.0057851206028787e-05
-1.6712359070133814e-05   3.423075841109662e-06   1.0057851206028787e-05
-1.6712359070133814e-05   3.423075841109662e-06   1.0057851206028787e-05
-1.6712359070133814e-05   3.423075841109662e-06   1.0057851206028787e-05
-1.314714405272903e-05   2.12094112891437e-06   4.897107004338025e-06
-1.314714405272903e-05   2.12094112891437e-06   4.897107004338025e-06
-1.314714405272903e-05   2.12094112891437e-06   4.897107004338025e-06
-1.314714405272903e-05   2.12094112891437e-06   4.897107004338025e-06
-1.4380891388243825e-05   2.936361200617959e-06   6.464100520507633e-06
-1.4380891388243825e-05   2.936361200617959e-06   6.464100520507633e-06
-1.4380891388243825e-05   2.936361200617959e-06   6.464100520507633e-06
-1.4380891388243825e-05   2.936361200617959e-06   6.464100520507633e-06
-1.314714405272903e-05   3.4230758411095538e-06   1.0839132033345854e-05
-1.314714405272903e-05   3.4230758411095538e-06   1.0839132033345854e-05
-1.314714405272903e-05   3.4230758411095538e-06   1.0839132033345854e-05
-1.314714405272903e-05   3.4230758411095538e-06   1.0839132033345854e-05
-1.6712359070133922e-05   2.12094112891437e-06   4.115826177020958e-06
-1.6712359070133922e-05   2.12094112891437e-06   4.115826177020958e-06
-1.6712359070133922e-05   2.12094112891437e-06   4.115826177020958e-06
-1.6712359070133922e-05   2.12094112891437e-06   4.115826177020958e-06
-1.74289837977169e-05   2.9368983004216106e-06   1.2801998416205832e-05
-1.74289837977169e-05   2.9368983004216106e-06   1.2801998416205832e-05
-1.74289837977169e-05   2.9368983004216106e-06   1.2801998416205832e-05
-1.74289837977169e-05   2.9368983004216106e-06   1.2801998416205832e-05
-1.3339015250447649e-05   1.6967971702216847e-06   6.729444848877213e-06
-1.3339015250447649e-05   1.6967971702216847e-06   6.729444848877213e-06
-1.3339015250447649e-05   1.6967971702216847e-06   6.729444848877213e-06
-1.3339015250447649e-05   1.6967971702216847e-06   6.729444848877213e-06
-1.4538775534321294e-05   2.734352415088544e-06   8.106512175079766e-06
-1.4538775534321294e-05   2.734352415088544e-06   8.106512175079766e-06
-1.4538775534321294e-05   2.734352415088544e-06   8.106512175079766e-06
-1.4538775534321294e-05   2.734352415088544e-06   8.106512175079766e-06
-6.170437160598862e-06   1.1292473995715277e-06   7.590701136025893e-06
-6.170437160598862e-06   1.1292473995715277e-06   7.590701136025893e-06
-6.170437160598862e-06   1.1292473995715277e-06   7.590701136025893e-06
-6.170437160598862e-06   1.1292473995715277e-06   7.590701136025893e-06
-6.822706884963199e-06   2.146510042903599e-06   7.113942514751193e-06
-6.822706884963199e-06   2.146510042903599e-06   7.113942514751193e-06
-6.822706884963199e-06   2.146510042903599e-06   7.113942514751193e-06
-6.822706884963199e-06   2.146510042903599e-06   7.113942514751193e-06
-7.001935097214477e-06   7.586301200289717e-07   8.13361157277323e-06
-7.001935097214477e-06   7.586301200289717e-07   8.13361157277323e-06
-7.001935097214477e-06   7.586301200289717e-07   8.13361157277323e-06
-7.001935097214477e-06   7.586301200289717e-07   8.13361157277323e-06
-6.917304031907914e-06   1.6742838627836591e-06   7.443167551609512e-06
-6.917304031907914e-06   1.6742838627836591e-06   7.443167551609512e-06
-6.917304031907914e-06   1.6742838627836591e-06   7.443167551609512e-06
-6.917304031907914e-06   1.6742838627836591e-06   7.443167551609512e-06
-6.563218778180715e-06   1.3325659272954166e-06   7.058056223357092e-06
-6.563218778180715e-06   1.3325659272954166e-06   7.058056223357092e-06
-6.563218778180715e-06   1.3325659272954166e-06   7.058056223357092e-06
-6.563218778180715e-06   1.3325659272954166e-06   7.058056223357092e-06
-6.917304031907934e-06   7.586301200289717e-07   7.584219327120309e-06
-6.917304031907934e-06   7.586301200289717e-07   7.584219327120309e-06
-6.917304031907934e-06   7.586301200289717e-07   7.584219327120309e-06
-6.917304031907934e-06   7.586301200289717e-07   7.584219327120309e-06
-7.001935097214477e-06   1.6742838627836591e-06   7.992559797262325e-06
-7.001935097214477e-06   1.6742838627836591e-06   7.992559797262325e-06
-7.001935097214477e-06   1.6742838627836591e-06   7.992559797262325e-06
-7.001935097214477e-06   1.6742838627836591e-06   7.992559797262325e-06
-7.234410997245066e-06   5.557510484484329e-07   8.379019769555983e-06
-7.234410997245066e-06   5.557510484484329e-07   8.379019769555983e-06
-7.234410997245066e-06   5.557510484484329e-07   8.379019769555983e-06
-7.234410997245066e-06   5.557510484484329e-07   8.379019769555983e-06
-7.644569753091864e-06   1.3489077380315797e-06   8.586723682217344e-06
-7.644569753091864e-06   1.3489077380315797e-06   8.586723682217344e-06
-7.644569753091864e-06   1.3489077380315797e-06   8.586723682217344e-06
-7.644569753091864e-06   1.3489077380315797e-06   8.586723682217344e-06
-7.007342358890175e-06   1.1292044093613946e-06   7.656500022416392e-06
-7.007342358890175e-06   1.1292044093613946e-06   7.656500022416392e-06
-7.007342358890175e-06   1.1292044093613946e-06   7.656500022416392e-06
-7.007342358890175e-06   1.1292044093613946e-06   7.656500022416392e-06
-7.644569753091877e-06   5.557510484484329e-07   7.903125755805856e-06
-7.644569753091877e-06   5.557510484484329e-07   7.903125755805856e-06
-7.644569753091877e-06   5.557510484484329e-07   7.903125755805856e-06
-7.644569753091877e-06   5.557510484484329e-07   7.903125755805856e-06
-7.234410997245066e-06   1.3489077380315797e-06   9.062617695967132e-06
-7.234410997245066e-06   1.3489077380315797e-06   9.062617695967132e-06
-7.234410997245066e-06   1.3489077380315797e-06   9.062617695967132e-06
-7.234410997245066e-06   1.3489077380315797e-06   9.062617695967132e-06
-7.383738135884514e-06   1.2654916519121845e-07   9.188311135334816e-06
-7.383738135884514e-06   1.2654916519121845e-07   9.188311135334816e-06
-7.383738135884514e-06   1.2654916519121845e-07   9.188311135334816e-06
-7.383738135884514e-06   1.2654916519121845e-07   9.188311135334816e-06
-8.41945661619163e-06   5.492089736816455e-07   1.0660912717418866e-05
-8.41945661619163e-06   5.492089736816455e-07   1.0660912717418866e-05
-8.41945661619163e-06   5.492089736816455e-07   1.0660912717418866e-05
-8.41945661619163e-06   5.492089736816455e-07   1.0660912717418866e-05
-7.322934355685428e-06   8.809723986411867e-07   8.634317561599249e-06
-7.322934355685428e-06   8.809723986411867e-07   8.634317561599249e-06
-7.322934355685428e-06   8.809723986411867e-07   8.634317561599249e-06
-7.322934355685428e-06   8.809723986411867e-07   8.634317561599249e-06
-6.822706884963189e-06   1.3307827333022349e-06   1.5024236504454188e-05
-6.822706884963189e-06   1.3307827333022349e-06   1.5024236504454188e-05
-6.822706884963189e-06   1.3307827333022349e-06   1.5024236504454188e-05
-6.822706884963189e-06   1.3307827333022349e-06   1.5024236504454188e-05
-6.961502098685115e-06   5.562958352574136e-07   1.432821900942407e-05
-6.961502098685115e-06   5.562958352574136e-07   1.432821900942407e-05
-6.961502098685115e-06   5.562958352574136e-07   1.432821900942407e-05
-6.961502098685115e-06   5.562958352574136e-07   1.432821900942407e-05
-7.0189250563874135e-06   9.175091809305105e-07   1.4454535570388013e-05
-7.0189250563874135e-06   9.175091809305105e-07   1.4454535570388013e-05
-7.0189250563874135e-06   9.175091809305105e-07   1.4454535570388013e-05
-7.0189250563874135e-06   9.175091809305105e-07   1.4454535570388013e-05
-7.001935097214477e-06   2.645442285402e-07   1.4817997943200553e-05
-7.001935097214477e-06   2.645442285402e-07   1.4817997943200553e-05
-7.001935097214477e-06   2.645442285402e-07   1.4817997943200553e-05
-7.001935097214477e-06   2.645442285402e-07   1.4817997943200553e-05
-6.930991063963424e-06   6.776593267503487e-07   1.4451888828856085e-05
-6.930991063963424e-06   6.776593267503487e-07   1.4451888828856085e-05
-6.930991063963424e-06   6.776593267503487e-07   1.4451888828856085e-05
-6.930991063963424e-06   6.776593267503487e-07   1.4451888828856085e-05
-7.00193509721447e-06   9.175091809305105e-07   1.4846314541821896e-05
-7.00193509721447e-06   9.175091809305105e-07   1.4846314541821896e-05
-7.00193509721447e-06   9.175091809305105e-07   1.4846314541821896e-05
-7.00193509721447e-06   9.175091809305105e-07   1.4846314541821896e-05
-7.018925056387386e-06   2.645442285402e-07   1.4426218971766392e-05
-7.018925056387386e-06   2.645442285402e-07   1.4426218971766392e-05
-7.018925056387386e-06   2.645442285402e-07   1.4426218971766392e-05
-7.018925056387386e-06   2.645442285402e-07   1.4426218971766392e-05
-7.0896805762915165e-06   5.370301723103951e-07   1.464763742316938e-05
-7.0896805762915165e-06   5.370301723103951e-07   1.464763742316938e-05
-7.0896805762915165e-06   5.370301723103951e-07   1.464763742316938e-05
-7.0896805762915165e-06   5.370301723103951e-07   1.464763742316938e-05
-7.234410997245066e-06   -7.177996668735311e-08   1.5254140874823688e-05
-7.234410997245066e-06   -7.177996668735311e-08   1.5254140874823688e-05
-7.234410997245066e-06   -7.177996668735311e-08   1.5254140874823688e-05
-7.234410997245066e-06   -7.177996668735311e-08   1.5254140874823688e-05
-7.000932450677698e-06   4.3705156086684595e-07   1.4559711047345441e-05
-7.000932450677698e-06   4.3705156086684595e-07   1.4559711047345441e-05
-7.000932450677698e-06   4.3705156086684595e-07   1.4559711047345441e-05
-7.000932450677698e-06   4.3705156086684595e-07   1.4559711047345441e-05
-7.234410997245066e-06   5.370301723103951e-07   1.501292350656767e-05
-7.234410997245066e-06   5.370301723103951e-07   1.501292350656767e-05
-7.234410997245066e-06   5.370301723103951e-07   1.501292350656767e-05
-7.234410997245066e-06   5.370301723103951e-07   1.501292350656767e-05
-7.089680576291489e-06   -7.177996668735311e-08   1.4888854791425099e-05
-7.089680576291489e-06   -7.177996668735311e-08   1.4888854791425099e-05
-7.089680576291489e-06   -7.177996668735311e-08   1.4888854791425099e-05
-7.089680576291489e-06   -7.177996668735311e-08   1.4888854791425099e-05
-7.142300245824073e-06   1.2589916960597646e-07   1.5064040292222375e-05
-7.142300245824073e-06   1.2589916960597646e-07   1.5064040292222375e-05
-7.142300245824073e-06   1.2589916960597646e-07   1.5064040292222375e-05
-7.142300245824073e-06   1.2589916960597646e-07   1.5064040292222375e-05
-7.3837381358845075e-06   -5.125183884581203e-07   1.584948731049462e-05
-7.3837381358845075e-06   -5.125183884581203e-07   1.584948731049462e-05
-7.3837381358845075e-06   -5.125183884581203e-07   1.584948731049462e-05
-7.3837381358845075e-06   -5.125183884581203e-07   1.584948731049462e-05
-7.109673246317615e-06   1.5549983895587084e-07   1.4991901558101075e-05
-7.109673246317615e-06   1.5549983895587084e-07   1.4991901558101075e-05
-7.109673246317615e-06   1.5549983895587084e-07   1.4991901558101075e-05
-7.109673246317615e-06   1.5549983895587084e-07   1.4991901558101075e-05
-6.9615020986851285e-06   1.6025540907448196e-06   1.6571260195538673e-05
-6.9615020986851285e-06   1.6025540907448196e-06   1.6571260195538673e-05
-6.9615020986851285e-06   1.6025540907448196e-06   1.6571260195538673e-05
-6.9615020986851285e-06   1.6025540907448196e-06   1.6571260195538673e-05
-7.5338744902493356e-06   1.5576274245166508e-07   1.4749231400622368e-05
-7.5338744902493356e-06   1.5576274245166508e-07   1.4749231400622368e-05
-7.5338744902493356e-06   1.5576274245166508e-07   1.4749231400622368e-05
-7.5338744902493356e-06   1.5576274245166508e-07   1.4749231400622368e-05
-7.555135634256747e-06   1.2203757104706746e-06   1.5723886389519656e-05
-7.555135634256747e-06   1.2203757104706746e-06   1.5723886389519656e-05
-7.555135634256747e-06   1.2203757104706746e-06   1.5723886389519656e-05
-7.555135634256747e-06   1.2203757104706746e-06   1.5723886389519656e-05
-7.018925056387386e-06   -8.945403782355211e-08   1.5616099942047267e-05
-7.018925056387386e-06   -8.945403782355211e-08   1.5616099942047267e-05
-7.018925056387386e-06   -8.945403782355211e-08   1.5616099942047267e-05
-7.018925056387386e-06   -8.945403782355211e-08   1.5616099942047267e-05
-7.255434108299991e-06   6.973068451170475e-07   1.5538225165470497e-05
-7.255434108299991e-06   6.973068451170475e-07   1.5538225165470497e-05
-7.255434108299991e-06   6.973068451170475e-07   1.5538225165470497e-05
-7.255434108299991e-06   6.973068451170475e-07   1.5538225165470497e-05
-7.0189250563874135e-06   1.2203757104706746e-06   1.6509784238496084e-05
-7.0189250563874135e-06   1.2203757104706746e-06   1.6509784238496084e-05
-7.0189250563874135e-06   1.2203757104706746e-06   1.6509784238496084e-05
-7.0189250563874135e-06   1.2203757104706746e-06   1.6509784238496084e-05
-7.55513563425672e-06   -8.945403782355211e-08   1.4830202093070758e-05
-7.55513563425672e-06   -8.945403782355211e-08   1.4830202093070758e-05
-7.55513563425672e-06   -8.945403782355211e-08   1.4830202093070758e-05
-7.55513563425672e-06   -8.945403782355211e-08   1.4830202093070758e-05
-7.5915153905314024e-06   8.320332768269132e-07   1.5967605532535983e-05
-7.5915153905314024e-06   8.320332768269132e-07   1.5967605532535983e-05
-7.5915153905314024e-06   8.320332768269132e-07   1.5967605532535983e-05
-7.5915153905314024e-06   8.320332768269132e-07   1.5967605532535983e-05
-7.089680576291503e-06   -3.8300076721741166e-07   1.586023460189599e-05
-7.089680576291503e-06   -3.8300076721741166e-07   1.586023460189599e-05
-7.089680576291503e-06   -3.8300076721741166e-07   1.586023460189599e-05
-7.089680576291503e-06   -3.8300076721741166e-07   1.586023460189599e-05
-7.2622228770786356e-06   4.5495183206823407e-07   1.5645033543636026e-05
-7.2622228770786356e-06   4.5495183206823407e-07   1.5645033543636026e-05
-7.2622228770786356e-06   4.5495183206823407e-07   1.5645033543636026e-05
-7.2622228770786356e-06   4.5495183206823407e-07   1.5645033543636026e-05
-7.0896805762915165e-06   8.320332768269132e-07   1.669662595896236e-05
-7.0896805762915165e-06   8.320332768269132e-07   1.669662595896236e-05
-7.0896805762915165e-06   8.320332768269132e-07   1.669662595896236e-05
-7.0896805762915165e-06   8.320332768269132e-07   1.669662595896236e-05
-7.591515390531375e-06   -3.8300076721741166e-07   1.513121417546934e-05
-7.591515390531375e-06   -3.8300076721741166e-07   1.513121417546934e-05
-7.591515390531375e-06   -3.8300076721741166e-07   1.513121417546934e-05
-7.591515390531375e-06   -3.8300076721741166e-07   1.513121417546934e-05
-7.615928646639879e-06   4.642844847807179e-07   1.640454919530764e-05
-7.615928646639879e-06   4.642844847807179e-07   1.640454919530764e-05
-7.615928646639879e-06   4.642844847807179e-07   1.640454919530764e-05
-7.615928646639879e-06   4.642844847807179e-07   1.640454919530764e-05
-7.142300245824073e-06   -6.769972686023525e-07   1.6299937579311038e-05
-7.142300245824073e-06   -6.769972686023525e-07   1.6299937579311038e-05
-7.142300245824073e-06   -6.769972686023525e-07   1.6299937579311038e-05
-7.142300245824073e-06   -6.769972686023525e-07   1.6299937579311038e-05
-7.281235410452139e-06   2.0595824160897502e-07   1.6001722880897257e-05
-7.281235410452139e-06   2.0595824160897502e-07   1.6001722880897257e-05
-7.281235410452139e-06   2.0595824160897502e-07   1.6001722880897257e-05
-7.281235410452139e-06   2.0595824160897502e-07   1.6001722880897257e-05
-7.5338744902493356e-06   2.1708304428349557e-06   1.350982676416926e-05
-7.5338744902493356e-06   2.1708304428349557e-06   1.350982676416926e-05
-7.5338744902493356e-06   2.1708304428349557e-06   1.350982676416926e-05
-7.5338744902493356e-06   2.1708304428349557e-06   1.350982676416926e-05
-8.344680672520247e-06   7.149603360213377e-07   1.1284961062962959e-05
-8.344680672520247e-06   7.149603360213377e-07   1.1284961062962959e-05
-8.344680672520247e-06   7.149603360213377e-07   1.1284961062962959e-05
-8.344680672520247e-06   7.149603360213377e-07   1.1284961062962959e-05
-8.36134171301804e-06   1.7688440442807304e-06   1.2759624632402325e-05
-8.36134171301804e-06   1.7688440442807304e-06   1.2759624632402325e-05
-8.36134171301804e-06   1.7688440442807304e-06   1.2759624632402325e-05
-8.36134171301804e-06   1.7688440442807304e-06   1.2759624632402325e-05
-7.555135634256747e-06   3.9147415158559233e-07   1.224236977008373e-05
-7.555135634256747e-06   3.9147415158559233e-07   1.224236977008373e-05
-7.555135634256747e-06   3.9147415158559233e-07   1.224236977008373e-05
-7.555135634256747e-06   3.9147415158559233e-07   1.224236977008373e-05
-7.928067703194826e-06   1.290389915866233e-06   1.2324573759745524e-05
-7.928067703194826e-06   1.290389915866233e-06   1.2324573759745524e-05
-7.928067703194826e-06   1.290389915866233e-06   1.2324573759745524e-05
-7.928067703194826e-06   1.290389915866233e-06   1.2324573759745524e-05
-7.555135634256747e-06   1.768844044280622e-06   1.3586046568019137e-05
-7.555135634256747e-06   1.768844044280622e-06   1.3586046568019137e-05
-7.555135634256747e-06   1.768844044280622e-06   1.3586046568019137e-05
-7.555135634256747e-06   1.768844044280622e-06   1.3586046568019137e-05
-8.36134171301804e-06   3.9147415158559233e-07   1.1415947834466755e-05
-8.36134171301804e-06   3.9147415158559233e-07   1.1415947834466755e-05
-8.36134171301804e-06   3.9147415158559233e-07   1.1415947834466755e-05
-8.36134171301804e-06   3.9147415158559233e-07   1.1415947834466755e-05
-8.454405445175667e-06   1.4108295685593287e-06   1.3230764957670267e-05
-8.454405445175667e-06   1.4108295685593287e-06   1.3230764957670267e-05
-8.454405445175667e-06   1.4108295685593287e-06   1.3230764957670267e-05
-8.454405445175667e-06   1.4108295685593287e-06   1.3230764957670267e-05
-7.591515390531375e-06   1.1424811700681825e-07   1.2570563737527738e-05
-7.591515390531375e-06   1.1424811700681825e-07   1.2570563737527738e-05
-7.591515390531375e-06   1.1424811700681825e-07   1.2570563737527738e-05
-7.591515390531375e-06   1.1424811700681825e-07   1.2570563737527738e-05
-7.9080887580656e-06   1.0252082932102466e-06   1.2551609911028768e-05
-7.9080887580656e-06   1.0252082932102466e-06   1.2551609911028768e-05
-7.9080887580656e-06   1.0252082932102466e-06   1.2551609911028768e-05
-7.9080887580656e-06   1.0252082932102466e-06   1.2551609911028768e-05
-7.591515390531375e-06   1.4108295685592203e-06   1.4008713828601296e-05
-7.591515390531375e-06   1.4108295685592203e-06   1.4008713828601296e-05
-7.591515390531375e-06   1.4108295685592203e-06   1.4008713828601296e-05
-7.591515390531375e-06   1.4108295685592203e-06   1.4008713828601296e-05
-8.454405445175667e-06   1.1424811700681825e-07   1.179261486659633e-05
-8.454405445175667e-06   1.1424811700681825e-07   1.179261486659633e-05
-8.454405445175667e-06   1.1424811700681825e-07   1.179261486659633e-05
-8.454405445175667e-06   1.1424811700681825e-07   1.179261486659633e-05
-8.510694754349359e-06   1.0456977174194042e-06   1.3815590937601725e-05
-8.510694754349359e-06   1.0456977174194042e-06   1.3815590937601725e-05
-8.510694754349359e-06   1.0456977174194042e-06   1.3815590937601725e-05
-8.510694754349359e-06   1.0456977174194042e-06   1.3815590937601725e-05
-7.615928646639879e-06   -1.6536484349671853e-07   1.3050951627968774e-05
-7.615928646639879e-06   -1.6536484349671853e-07   1.3050951627968774e-05
-7.615928646639879e-06   -1.6536484349671853e-07   1.3050951627968774e-05
-7.615928646639879e-06   -1.6536484349671853e-07   1.3050951627968774e-05
-7.950564576593311e-06   7.880487453584915e-07   1.303663002457777e-05
-7.950564576593311e-06   7.880487453584915e-07   1.303663002457777e-05
-7.950564576593311e-06   7.880487453584915e-07   1.303663002457777e-05
-7.950564576593311e-06   7.880487453584915e-07   1.303663002457777e-05
-8.34468067252022e-06   2.5722930870465503e-06   5.217154434691558e-06
-8.34468067252022e-06   2.5722930870465503e-06   5.217154434691558e-06
-8.34468067252022e-06   2.5722930870465503e-06   5.217154434691558e-06
-8.34468067252022e-06   2.5722930870465503e-06   5.217154434691558e-06
-8.283363801970037e-06   1.1833721928040074e-06   4.485996682396373e-06
-8.283363801970037e-06   1.1833721928040074e-06   4.485996682396373e-06
-8.283363801970037e-06   1.1833721928040074e-06   4.485996682396373e-06
-8.283363801970037e-06   1.1833721928040074e-06   4.485996682396373e-06
-8.709519411859363e-06   2.3049131884434393e-06   5.719605834201115e-06
-8.709519411859363e-06   2.3049131884434393e-06   5.719605834201115e-06
-8.709519411859363e-06   2.3049131884434393e-06   5.719605834201115e-06
-8.709519411859363e-06   2.3049131884434393e-06   5.719605834201115e-06
-8.361341713018013e-06   9.53809977650641e-07   5.949971595941119e-06
-8.361341713018013e-06   9.53809977650641e-07   5.949971595941119e-06
-8.361341713018013e-06   9.53809977650641e-07   5.949971595941119e-06
-8.361341713018013e-06   9.53809977650641e-07   5.949971595941119e-06
-8.150621625651691e-06   1.8115392580637674e-06   5.084133882082755e-06
-8.150621625651691e-06   1.8115392580637674e-06   5.084133882082755e-06
-8.150621625651691e-06   1.8115392580637674e-06   5.084133882082755e-06
-8.150621625651691e-06   1.8115392580637674e-06   5.084133882082755e-06
-8.36134171301804e-06   2.3049131884434393e-06   6.530267760676512e-06
-8.36134171301804e-06   2.3049131884434393e-06   6.530267760676512e-06
-8.36134171301804e-06   2.3049131884434393e-06   6.530267760676512e-06
-8.36134171301804e-06   2.3049131884434393e-06   6.530267760676512e-06
-8.709519411859363e-06   9.53809977650641e-07   5.139309669465451e-06
-8.709519411859363e-06   9.53809977650641e-07   5.139309669465451e-06
-8.709519411859363e-06   9.53809977650641e-07   5.139309669465451e-06
-8.709519411859363e-06   9.53809977650641e-07   5.139309669465451e-06
-9.083402283279558e-06   2.12094112891437e-06   6.7787745120004685e-06
-9.083402283279558e-06   2.12094112891437e-06   6.7787745120004685e-06
-9.083402283279558e-06   2.12094112891437e-06   6.7787745120004685e-06
-9.083402283279558e-06   2.12094112891437e-06   6.7787745120004685e-06
-8.45440544517564e-06   8.038637401987887e-07   6.520692881723119e-06
-8.45440544517564e-06   8.038637401987887e-07   6.520692881723119e-06
-8.45440544517564e-06   8.038637401987887e-07   6.520692881723119e-06
-8.45440544517564e-06   8.038637401987887e-07   6.520692881723119e-06
-8.45540635871252e-06   1.6784448974589e-06   5.997612376594898e-06
-8.45540635871252e-06   1.6784448974589e-06   5.997612376594898e-06
-8.45540635871252e-06   1.6784448974589e-06   5.997612376594898e-06
-8.45540635871252e-06   1.6784448974589e-06   5.997612376594898e-06
-8.454405445175613e-06   2.12094112891437e-06   7.569020945229622e-06
-8.454405445175613e-06   2.12094112891437e-06   7.569020945229622e-06
-8.454405445175613e-06   2.12094112891437e-06   7.569020945229622e-06
-8.454405445175613e-06   2.12094112891437e-06   7.569020945229622e-06
-9.083402283279504e-06   8.038637401987887e-07   5.730446448493803e-06
-9.083402283279504e-06   8.038637401987887e-07   5.730446448493803e-06
-9.083402283279504e-06   8.038637401987887e-07   5.730446448493803e-06
-9.083402283279504e-06   8.038637401987887e-07   5.730446448493803e-06
-9.636811765892557e-06   1.6967971702216847e-06   8.723934484779249e-06
-9.636811765892557e-06   1.6967971702216847e-06   8.723934484779249e-06
-9.636811765892557e-06   1.6967971702216847e-06   8.723934484779249e-06
-9.636811765892557e-06   1.6967971702216847e-06   8.723934484779249e-06
-8.510694754349359e-06   5.004368244595917e-07   7.5648890063309505e-06
-8.510694754349359e-06   5.004368244595917e-07   7.5648890063309505e-06
-8.510694754349359e-06   5.004368244595917e-07   7.5648890063309505e-06
-8.510694754349359e-06   5.004368244595917e-07   7.5648890063309505e-06
-8.55869697956462e-06   1.5187648048324695e-06   7.033895926798772e-06
-8.55869697956462e-06   1.5187648048324695e-06   7.033895926798772e-06
-8.55869697956462e-06   1.5187648048324695e-06   7.033895926798772e-06
-8.55869697956462e-06   1.5187648048324695e-06   7.033895926798772e-06
-1.620359450717328e-05   2.146510042903599e-06   6.376397938594235e-06
-1.620359450717328e-05   2.146510042903599e-06   6.376397938594235e-06
-1.620359450717328e-05   2.146510042903599e-06   6.376397938594235e-06
-1.620359450717328e-05   2.146510042903599e-06   6.376397938594235e-06
-1.0972096940078814e-05   2.9682129497286814e-06   1.5588582294513416e-05
-1.0972096940078814e-05   2.9682129497286814e-06   1.5588582294513416e-05
-1.0972096940078814e-05   2.9682129497286814e-06   1.5588582294513416e-05
-1.0972096940078814e-05   2.9682129497286814e-06   1.5588582294513416e-05
-1.096911346800453e-05   1.6742838627836591e-06   7.212794630503201e-06
-1.096911346800453e-05   1.6742838627836591e-06   7.212794630503201e-06
-1.096911346800453e-05   1.6742838627836591e-06   7.212794630503201e-06
-1.096911346800453e-05   1.6742838627836591e-06   7.212794630503201e-06
-1.7866521003509135e-05   1.186472666581302e-06   1.900116057406578e-05
-1.7866521003509135e-05   1.186472666581302e-06   1.900116057406578e-05
-1.7866521003509135e-05   1.186472666581302e-06   1.900116057406578e-05
-1.7866521003509135e-05   1.186472666581302e-06   1.900116057406578e-05
-1.327956730733409e-05   1.7552089731711642e-06   1.101499596315342e-05
-1.327956730733409e-05   1.7552089731711642e-06   1.101499596315342e-05
-1.327956730733409e-05   1.7552089731711642e-06   1.101499596315342e-05
-1.327956730733409e-05   1.7552089731711642e-06   1.101499596315342e-05
-1.786652100350917e-05   1.6742838627836591e-06   7.50548134822467e-06
-1.786652100350917e-05   1.6742838627836591e-06   7.50548134822467e-06
-1.786652100350917e-05   1.6742838627836591e-06   7.50548134822467e-06
-1.786652100350917e-05   1.6742838627836591e-06   7.50548134822467e-06
-1.096911346800453e-05   1.186472666581302e-06   1.8708473856344338e-05
-1.096911346800453e-05   1.186472666581302e-06   1.8708473856344338e-05
-1.096911346800453e-05   1.186472666581302e-06   1.8708473856344338e-05
-1.096911346800453e-05   1.186472666581302e-06   1.8708473856344338e-05
-1.1124484367705742e-05   1.3489077380315797e-06   8.053415371639237e-06
-1.1124484367705742e-05   1.3489077380315797e-06   8.053415371639237e-06
-1.1124484367705742e-05   1.3489077380315797e-06   8.053415371639237e-06
-1.1124484367705742e-05   1.3489077380315797e-06   8.053415371639237e-06
-1.7934604617166725e-05   8.457193649526662e-07   1.9705528811254844e-05
-1.7934604617166725e-05   8.457193649526662e-07   1.9705528811254844e-05
-1.7934604617166725e-05   8.457193649526662e-07   1.9705528811254844e-05
-1.7934604617166725e-05   8.457193649526662e-07   1.9705528811254844e-05
-1.4179592619344447e-05   1.090679524744394e-06   1.3300199385675835e-05
-1.4179592619344447e-05   1.090679524744394e-06   1.3300199385675835e-05
-1.4179592619344447e-05   1.090679524744394e-06   1.3300199385675835e-05
-1.4179592619344447e-05   1.090679524744394e-06   1.3300199385675835e-05
-1.793460461716676e-05   1.3489077380315797e-06   8.355328395486569e-06
-1.793460461716676e-05   1.3489077380315797e-06   8.355328395486569e-06
-1.793460461716676e-05   1.3489077380315797e-06   8.355328395486569e-06
-1.793460461716676e-05   1.3489077380315797e-06   8.355328395486569e-06
-1.1124484367705721e-05   8.457193649526662e-07   1.9403615787407506e-05
-1.1124484367705721e-05   8.457193649526662e-07   1.9403615787407506e-05
-1.1124484367705721e-05   8.457193649526662e-07   1.9403615787407506e-05
-1.1124484367705721e-05   8.457193649526662e-07   1.9403615787407506e-05
-1.1011386329905929e-05   5.492089736816455e-07   9.522627749911089e-06
-1.1011386329905929e-05   5.492089736816455e-07   9.522627749911089e-06
-1.1011386329905929e-05   5.492089736816455e-07   9.522627749911089e-06
-1.1011386329905929e-05   5.492089736816455e-07   9.522627749911089e-06
-1.813767920157006e-05   -6.067266463915502e-07   2.209334390806186e-05
-1.813767920157006e-05   -6.067266463915502e-07   2.209334390806186e-05
-1.813767920157006e-05   -6.067266463915502e-07   2.209334390806186e-05
-1.813767920157006e-05   -6.067266463915502e-07   2.209334390806186e-05
-1.3968996022503424e-05   5.218093427856248e-07   1.4468417016111182e-05
-1.3968996022503424e-05   5.218093427856248e-07   1.4468417016111182e-05
-1.3968996022503424e-05   5.218093427856248e-07   1.4468417016111182e-05
-1.3968996022503424e-05   5.218093427856248e-07   1.4468417016111182e-05
-1.0972096940078834e-05   5.562958352574136e-07   1.4548388316189124e-05
-1.0972096940078834e-05   5.562958352574136e-07   1.4548388316189124e-05
-1.0972096940078834e-05   5.562958352574136e-07   1.4548388316189124e-05
-1.0972096940078834e-05   5.562958352574136e-07   1.4548388316189124e-05
-6.748139268646539e-06   -3.403116581656351e-06   1.9212670318428048e-05
-6.748139268646539e-06   -3.403116581656351e-06   1.9212670318428048e-05
-6.748139268646539e-06   -3.403116581656351e-06   1.9212670318428048e-05
-6.748139268646539e-06   -3.403116581656351e-06   1.9212670318428048e-05
-6.765519094879569e-06   2.645442285402e-07   1.2204186159901276e-05
-6.765519094879569e-06   2.645442285402e-07   1.2204186159901276e-05
-6.765519094879569e-06   2.645442285402e-07   1.2204186159901276e-05
-6.765519094879569e-06   2.645442285402e-07   1.2204186159901276e-05
-1.096911346800453e-05   -2.792200132360089e-06   2.1044223398316566e-05
-1.096911346800453e-05   -2.792200132360089e-06   2.1044223398316566e-05
-1.096911346800453e-05   -2.792200132360089e-06   2.1044223398316566e-05
-1.096911346800453e-05   -2.792200132360089e-06   2.1044223398316566e-05
-8.818080483492811e-06   -1.6839915816363438e-06   1.6794243293696213e-05
-8.818080483492811e-06   -1.6839915816363438e-06   1.6794243293696213e-05
-8.818080483492811e-06   -1.6839915816363438e-06   1.6794243293696213e-05
-8.818080483492811e-06   -1.6839915816363438e-06   1.6794243293696213e-05
-1.096911346800454e-05   2.645442285402e-07   1.4038232776441369e-05
-1.096911346800454e-05   2.645442285402e-07   1.4038232776441369e-05
-1.096911346800454e-05   2.645442285402e-07   1.4038232776441369e-05
-1.096911346800454e-05   2.645442285402e-07   1.4038232776441369e-05
-6.765519094879542e-06   -2.792200132360089e-06   1.9210176781776393e-05
-6.765519094879542e-06   -2.792200132360089e-06   1.9210176781776393e-05
-6.765519094879542e-06   -2.792200132360089e-06   1.9210176781776393e-05
-6.765519094879542e-06   -2.792200132360089e-06   1.9210176781776393e-05
-6.79739082746964e-06   -7.177996668735311e-08   1.2575829650409212e-05
-6.79739082746964e-06   -7.177996668735311e-08   1.2575829650409212e-05
-6.79739082746964e-06   -7.177996668735311e-08   1.2575829650409212e-05
-6.79739082746964e-06   -7.177996668735311e-08   1.2575829650409212e-05
-1.1124484367705721e-05   -2.8536281334982667e-06   2.1456761117555814e-05
-1.1124484367705721e-05   -2.8536281334982667e-06   2.1456761117555814e-05
-1.1124484367705721e-05   -2.8536281334982667e-06   2.1456761117555814e-05
-1.1124484367705721e-05   -2.8536281334982667e-06   2.1456761117555814e-05
-8.757516571598569e-06   -1.4715526300410802e-06   1.668256948863614e-05
-8.757516571598569e-06   -1.4715526300410802e-06   1.668256948863614e-05
-8.757516571598569e-06   -1.4715526300410802e-06   1.668256948863614e-05
-8.757516571598569e-06   -1.4715526300410802e-06   1.668256948863614e-05
-1.1124484367705742e-05   -7.177996668735311e-08   1.4244938550495739e-05
-1.1124484367705742e-05   -7.177996668735311e-08   1.4244938550495739e-05
-1.1124484367705742e-05   -7.177996668735311e-08   1.4244938550495739e-05
-1.1124484367705742e-05   -7.177996668735311e-08   1.4244938550495739e-05
-6.797390827469627e-06   -2.8536281334982667e-06   1.978765221746926e-05
-6.797390827469627e-06   -2.8536281334982667e-06   1.978765221746926e-05
-6.797390827469627e-06   -2.8536281334982667e-06   1.978765221746926e-05
-6.797390827469627e-06   -2.8536281334982667e-06   1.978765221746926e-05
-6.737394667281915e-06   -5.125183884581203e-07   1.3040572463347095e-05
-6.737394667281915e-06   -5.125183884581203e-07   1.3040572463347095e-05
-6.737394667281915e-06   -5.125183884581203e-07   1.3040572463347095e-05
-6.737394667281915e-06   -5.125183884581203e-07   1.3040572463347095e-05
-1.1011386329905902e-05   -2.8742417127006496e-06   2.158092589559913e-05
-1.1011386329905902e-05   -2.8742417127006496e-06   2.158092589559913e-05
-1.1011386329905902e-05   -2.8742417127006496e-06   2.158092589559913e-05
-1.1011386329905902e-05   -2.8742417127006496e-06   2.158092589559913e-05
-8.803903407723424e-06   -1.648665666225573e-06   1.7166442064076606e-05
-8.803903407723424e-06   -1.648665666225573e-06   1.7166442064076606e-05
-8.803903407723424e-06   -1.648665666225573e-06   1.7166442064076606e-05
-8.803903407723424e-06   -1.648665666225573e-06   1.7166442064076606e-05
-6.748139268646539e-06   1.5576274245166508e-07   1.3461828066215083e-05
-6.748139268646539e-06   1.5576274245166508e-07   1.3461828066215083e-05
-6.748139268646539e-06   1.5576274245166508e-07   1.3461828066215083e-05
-6.748139268646539e-06   1.5576274245166508e-07   1.3461828066215083e-05
-4.985016828940118e-06   -2.659118599811737e-06   1.4711436660367792e-05
-4.985016828940118e-06   -2.659118599811737e-06   1.4711436660367792e-05
-4.985016828940118e-06   -2.659118599811737e-06   1.4711436660367792e-05
-4.985016828940118e-06   -2.659118599811737e-06   1.4711436660367792e-05
-4.9448504212416995e-06   -8.945403782355211e-08   1.1880784956115218e-05
-4.9448504212416995e-06   -8.945403782355211e-08   1.1880784956115218e-05
-4.9448504212416995e-06   -8.945403782355211e-08   1.1880784956115218e-05
-4.9448504212416995e-06   -8.945403782355211e-08   1.1880784956115218e-05
-6.765519094879542e-06   -2.6115909946018278e-06   1.6428514919578628e-05
-6.765519094879542e-06   -2.6115909946018278e-06   1.6428514919578628e-05
-6.765519094879542e-06   -2.6115909946018278e-06   1.6428514919578628e-05
-6.765519094879542e-06   -2.6115909946018278e-06   1.6428514919578628e-05
-5.825529179925749e-06   -1.3426195311533632e-06   1.4100482183253385e-05
-5.825529179925749e-06   -1.3426195311533632e-06   1.4100482183253385e-05
-5.825529179925749e-06   -1.3426195311533632e-06   1.4100482183253385e-05
-5.825529179925749e-06   -1.3426195311533632e-06   1.4100482183253385e-05
-6.765519094879542e-06   -8.945403782355211e-08   1.3394067130182124e-05
-6.765519094879542e-06   -8.945403782355211e-08   1.3394067130182124e-05
-6.765519094879542e-06   -8.945403782355211e-08   1.3394067130182124e-05
-6.765519094879542e-06   -8.945403782355211e-08   1.3394067130182124e-05
-4.9448504212416995e-06   -2.611590994601882e-06   1.4915232745511722e-05
-4.9448504212416995e-06   -2.611590994601882e-06   1.4915232745511722e-05
-4.9448504212416995e-06   -2.611590994601882e-06   1.4915232745511722e-05
-4.9448504212416995e-06   -2.611590994601882e-06   1.4915232745511722e-05
-4.911870440034389e-06   -3.8300076721741166e-07   1.2162866278953163e-05
-4.911870440034389e-06   -3.8300076721741166e-07   1.2162866278953163e-05
-4.911870440034389e-06   -3.8300076721741166e-07   1.2162866278953163e-05
-4.911870440034389e-06   -3.8300076721741166e-07   1.2162866278953163e-05
-6.797390827469627e-06   -2.690239403762239e-06   1.668974343993867e-05
-6.797390827469627e-06   -2.690239403762239e-06   1.668974343993867e-05
-6.797390827469627e-06   -2.690239403762239e-06   1.668974343993867e-05
-6.797390827469627e-06   -2.690239403762239e-06   1.668974343993867e-05
-5.77850953926149e-06   -1.4294093013102953e-06   1.4235109898120282e-05
-5.77850953926149e-06   -1.4294093013102953e-06   1.4235109898120282e-05
-5.77850953926149e-06   -1.4294093013102953e-06   1.4235109898120282e-05
-5.77850953926149e-06   -1.4294093013102953e-06   1.4235109898120282e-05
-6.797390827469627e-06   -3.8300076721741166e-07   1.3547209460880048e-05
-6.797390827469627e-06   -3.8300076721741166e-07   1.3547209460880048e-05
-6.797390827469627e-06   -3.8300076721741166e-07   1.3547209460880048e-05
-6.797390827469627e-06   -3.8300076721741166e-07   1.3547209460880048e-05
-4.9118704400344165e-06   -2.690239403762239e-06   1.5305400258011783e-05
-4.9118704400344165e-06   -2.690239403762239e-06   1.5305400258011783e-05
-4.9118704400344165e-06   -2.690239403762239e-06   1.5305400258011783e-05
-4.9118704400344165e-06   -2.690239403762239e-06   1.5305400258011783e-05
-4.82170077064785e-06   -6.769972686022983e-07   1.2600351551315275e-05
-4.82170077064785e-06   -6.769972686022983e-07   1.2600351551315275e-05
-4.82170077064785e-06   -6.769972686022983e-07   1.2600351551315275e-05
-4.82170077064785e-06   -6.769972686022983e-07   1.2600351551315275e-05
-6.737394667281901e-06   -2.799866794746627e-06   1.7066896428058454e-05
-6.737394667281901e-06   -2.799866794746627e-06   1.7066896428058454e-05
-6.737394667281901e-06   -2.799866794746627e-06   1.7066896428058454e-05
-6.737394667281901e-06   -2.799866794746627e-06   1.7066896428058454e-05
-5.723873391333159e-06   -1.5570261862293583e-06   1.4631989936366932e-05
-5.723873391333159e-06   -1.5570261862293583e-06   1.4631989936366932e-05
-5.723873391333159e-06   -1.5570261862293583e-06   1.4631989936366932e-05
-5.723873391333159e-06   -1.5570261862293583e-06   1.4631989936366932e-05
-4.985016828940091e-06   7.149603360213377e-07   9.182150987285765e-06
-4.985016828940091e-06   7.149603360213377e-07   9.182150987285765e-06
-4.985016828940091e-06   7.149603360213377e-07   9.182150987285765e-06
-4.985016828940091e-06   7.149603360213377e-07   9.182150987285765e-06
-4.180270544025392e-06   -1.0931891249167343e-06   9.438505118913968e-06
-4.180270544025392e-06   -1.0931891249167343e-06   9.438505118913968e-06
-4.180270544025392e-06   -1.0931891249167343e-06   9.438505118913968e-06
-4.180270544025392e-06   -1.0931891249167343e-06   9.438505118913968e-06
-4.095517695313071e-06   3.9147415158559233e-07   8.291417436995024e-06
-4.095517695313071e-06   3.9147415158559233e-07   8.291417436995024e-06
-4.095517695313071e-06   3.9147415158559233e-07   8.291417436995024e-06
-4.095517695313071e-06   3.9147415158559233e-07   8.291417436995024e-06
-4.9448504212416995e-06   -1.2777511753029442e-06   1.0708507176342597e-05
-4.9448504212416995e-06   -1.2777511753029442e-06   1.0708507176342597e-05
-4.9448504212416995e-06   -1.2777511753029442e-06   1.0708507176342597e-05
-4.9448504212416995e-06   -1.2777511753029442e-06   1.0708507176342597e-05
-4.518426811932951e-06   -2.4972863197649485e-07   9.380987634832337e-06
-4.518426811932951e-06   -2.4972863197649485e-07   9.380987634832337e-06
-4.518426811932951e-06   -2.4972863197649485e-07   9.380987634832337e-06
-4.518426811932951e-06   -2.4972863197649485e-07   9.380987634832337e-06
-4.9448504212416995e-06   3.9147415158559233e-07   9.29295263312819e-06
-4.9448504212416995e-06   3.9147415158559233e-07   9.29295263312819e-06
-4.9448504212416995e-06   3.9147415158559233e-07   9.29295263312819e-06
-4.9448504212416995e-06   3.9147415158559233e-07   9.29295263312819e-06
-4.095517695313071e-06   -1.2777511753029442e-06   9.706971980209513e-06
-4.095517695313071e-06   -1.2777511753029442e-06   9.706971980209513e-06
-4.095517695313071e-06   -1.2777511753029442e-06   9.706971980209513e-06
-4.095517695313071e-06   -1.2777511753029442e-06   9.706971980209513e-06
-4.0602666344320476e-06   1.1424811700681825e-07   8.682034451766183e-06
-4.0602666344320476e-06   1.1424811700681825e-07   8.682034451766183e-06
-4.0602666344320476e-06   1.1424811700681825e-07   8.682034451766183e-06
-4.0602666344320476e-06   1.1424811700681825e-07   8.682034451766183e-06
-4.911870440034389e-06   -1.4193875317354966e-06   1.1021555517015365e-05
-4.911870440034389e-06   -1.4193875317354966e-06   1.1021555517015365e-05
-4.911870440034389e-06   -1.4193875317354966e-06   1.1021555517015365e-05
-4.911870440034389e-06   -1.4193875317354966e-06   1.1021555517015365e-05
-4.43421873412778e-06   -4.4607011047561413e-07   9.641478887747936e-06
-4.43421873412778e-06   -4.4607011047561413e-07   9.641478887747936e-06
-4.43421873412778e-06   -4.4607011047561413e-07   9.641478887747936e-06
-4.43421873412778e-06   -4.4607011047561413e-07   9.641478887747936e-06
-4.911870440034389e-06   1.1424811700681825e-07   9.602215841011453e-06
-4.911870440034389e-06   1.1424811700681825e-07   9.602215841011453e-06
-4.911870440034389e-06   1.1424811700681825e-07   9.602215841011453e-06
-4.911870440034389e-06   1.1424811700681825e-07   9.602215841011453e-06
-4.0602666344320476e-06   -1.4193875317354966e-06   1.0101374127769987e-05
-4.0602666344320476e-06   -1.4193875317354966e-06   1.0101374127769987e-05
-4.0602666344320476e-06   -1.4193875317354966e-06   1.0101374127769987e-05
-4.0602666344320476e-06   -1.4193875317354966e-06   1.0101374127769987e-05
-3.998842288663036e-06   -1.6536484349677274e-07   9.172556884311884e-06
-3.998842288663036e-06   -1.6536484349677274e-07   9.172556884311884e-06
-3.998842288663036e-06   -1.6536484349677274e-07   9.172556884311884e-06
-3.998842288663036e-06   -1.6536484349677274e-07   9.172556884311884e-06
-4.82170077064785e-06   -1.6046611229817386e-06   1.1407565455310838e-05
-4.82170077064785e-06   -1.6046611229817386e-06   1.1407565455310838e-05
-4.82170077064785e-06   -1.6046611229817386e-06   1.1407565455310838e-05
-4.82170077064785e-06   -1.6046611229817386e-06   1.1407565455310838e-05
-4.3707538950342505e-06   -6.186143530345091e-07   1.0064359267320216e-05
-4.3707538950342505e-06   -6.186143530345091e-07   1.0064359267320216e-05
-4.3707538950342505e-06   -6.186143530345091e-07   1.0064359267320216e-05
-4.3707538950342505e-06   -6.186143530345091e-07   1.0064359267320216e-05
-4.180270544025392e-06   1.1833721928040074e-06   2.13164946670177e-06
-4.180270544025392e-06   1.1833721928040074e-06   2.13164946670177e-06
-4.180270544025392e-06   1.1833721928040074e-06   2.13164946670177e-06
-4.180270544025392e-06   1.1833721928040074e-06   2.13164946670177e-06
-2.454811790591441e-06   -1.1900547455934011e-07   4.225987455340539e-06
-2.454811790591441e-06   -1.1900547455934011e-07   4.225987455340539e-06
-2.454811790591441e-06   -1.1900547455934011e-07   4.225987455340539e-06
-2.454811790591441e-06   -1.1900547455934011e-07   4.225987455340539e-06
-2.598196176566885e-06   9.53809977650641e-07   2.1527661861353185e-06
-2.598196176566885e-06   9.53809977650641e-07   2.1527661861353185e-06
-2.598196176566885e-06   9.53809977650641e-07   2.1527661861353185e-06
-2.598196176566885e-06   9.53809977650641e-07   2.1527661861353185e-06
-4.095517695313071e-06   -1.673150429062052e-07   5.320977063046745e-06
-4.095517695313071e-06   -1.673150429062052e-07   5.320977063046745e-06
-4.095517695313071e-06   -1.673150429062052e-07   5.320977063046745e-06
-4.095517695313071e-06   -1.673150429062052e-07   5.320977063046745e-06
-3.217502228453832e-06   6.091574296379501e-07   3.3917344680883398e-06
-3.217502228453832e-06   6.091574296379501e-07   3.3917344680883398e-06
-3.217502228453832e-06   6.091574296379501e-07   3.3917344680883398e-06
-3.217502228453832e-06   6.091574296379501e-07   3.3917344680883398e-06
-4.095517695313071e-06   9.53809977650641e-07   2.825441198469388e-06
-4.095517695313071e-06   9.53809977650641e-07   2.825441198469388e-06
-4.095517695313071e-06   9.53809977650641e-07   2.825441198469388e-06
-4.095517695313071e-06   9.53809977650641e-07   2.825441198469388e-06
-2.5981961765668307e-06   -1.673150429061781e-07   4.648302050712621e-06
-2.5981961765668307e-06   -1.673150429061781e-07   4.648302050712621e-06
-2.5981961765668307e-06   -1.673150429061781e-07   4.648302050712621e-06
-2.5981961765668307e-06   -1.673150429061781e-07   4.648302050712621e-06
-2.716534385062018e-06   8.038637401987887e-07   2.7884435290599294e-06
-2.716534385062018e-06   8.038637401987887e-07   2.7884435290599294e-06
-2.716534385062018e-06   8.038637401987887e-07   2.7884435290599294e-06
-2.716534385062018e-06   8.038637401987887e-07   2.7884435290599294e-06
-4.0602666344320476e-06   -2.3225115618983336e-07   5.649666215843058e-06
-4.0602666344320476e-06   -2.3225115618983336e-07   5.649666215843058e-06
-4.0602666344320476e-06   -2.3225115618983336e-07   5.649666215843058e-06
-4.0602666344320476e-06   -2.3225115618983336e-07   5.649666215843058e-06
-3.279469970382564e-06   4.964608294028526e-07   3.911111251071395e-06
-3.279469970382564e-06   4.964608294028526e-07   3.911111251071395e-06
-3.279469970382564e-06   4.964608294028526e-07   3.911111251071395e-06
-3.279469970382564e-06   4.964608294028526e-07   3.911111251071395e-06
-4.0602666344320476e-06   8.038637401987887e-07   3.410112466893081e-06
-4.0602666344320476e-06   8.038637401987887e-07   3.410112466893081e-06
-4.0602666344320476e-06   8.038637401987887e-07   3.410112466893081e-06
-4.0602666344320476e-06   8.038637401987887e-07   3.410112466893081e-06
-2.716534385062018e-06   -2.3225115618983336e-07   5.0279972780099065e-06
-2.716534385062018e-06   -2.3225115618983336e-07   5.0279972780099065e-06
-2.716534385062018e-06   -2.3225115618983336e-07   5.0279972780099065e-06
-2.716534385062018e-06   -2.3225115618983336e-07   5.0279972780099065e-06
-2.99910537769892e-06   5.004368244595917e-07   3.925298378158878e-06
-2.99910537769892e-06   5.004368244595917e-07   3.925298378158878e-06
-2.99910537769892e-06   5.004368244595917e-07   3.925298378158878e-06
-2.99910537769892e-06   5.004368244595917e-07   3.925298378158878e-06
-3.998842288663036e-06   -3.126188773152055e-07   6.079359984163823e-06
-3.998842288663036e-06   -3.126188773152055e-07   6.079359984163823e-06
-3.998842288663036e-06   -3.126188773152055e-07   6.079359984163823e-06
-3.998842288663036e-06   -3.126188773152055e-07   6.079359984163823e-06
-3.2913344668156457e-06   4.193842660233358e-07   4.460978395081771e-06
-3.2913344668156457e-06   4.193842660233358e-07   4.460978395081771e-06
-3.2913344668156457e-06   4.193842660233358e-07   4.460978395081771e-06
-3.2913344668156457e-06   4.193842660233358e-07   4.460978395081771e-06
-3.813788140328546e-05   2.9682129497287085e-06   1.655111334703522e-05
-3.813788140328546e-05   2.9682129497287085e-06   1.655111334703522e-05
-3.813788140328546e-05   2.9682129497287085e-06   1.655111334703522e-05
-3.813788140328546e-05   2.9682129497287085e-06   1.655111334703522e-05
-8.941850809049245e-06   -1.8891097762113698e-05   5.20955779103235e-05
-8.941850809049245e-06   -1.8891097762113698e-05   5.20955779103235e-05
-8.941850809049245e-06   -1.8891097762113698e-05   5.20955779103235e-05
-8.941850809049245e-06   -1.8891097762113698e-05   5.20955779103235e-05
-1.0511840312633158e-05   1.186472666581329e-06   9.0645237828027e-06
-1.0511840312633158e-05   1.186472666581329e-06   9.0645237828027e-06
-1.0511840312633158e-05   1.186472666581329e-06   9.0645237828027e-06
-1.0511840312633158e-05   1.186472666581329e-06   9.0645237828027e-06
-3.4783018954573936e-05   -1.472159421286845e-05   5.906132831370707e-05
-3.4783018954573936e-05   -1.472159421286845e-05   5.906132831370707e-05
-3.4783018954573936e-05   -1.472159421286845e-05   5.906132831370707e-05
-3.4783018954573936e-05   -1.472159421286845e-05   5.906132831370707e-05
-2.3185119193499362e-05   -7.3274308966496935e-06   3.529499738885153e-05
-2.3185119193499362e-05   -7.3274308966496935e-06   3.529499738885153e-05
-2.3185119193499362e-05   -7.3274308966496935e-06   3.529499738885153e-05
-2.3185119193499362e-05   -7.3274308966496935e-06   3.529499738885153e-05
-3.4783018954573875e-05   1.186472666581329e-06   1.86093639104725e-05
-3.4783018954573875e-05   1.186472666581329e-06   1.86093639104725e-05
-3.4783018954573875e-05   1.186472666581329e-06   1.86093639104725e-05
-3.4783018954573875e-05   1.186472666581329e-06   1.86093639104725e-05
-1.0511840312633179e-05   -1.472159421286845e-05   4.951648818603721e-05
-1.0511840312633179e-05   -1.472159421286845e-05   4.951648818603721e-05
-1.0511840312633179e-05   -1.472159421286845e-05   4.951648818603721e-05
-1.0511840312633179e-05   -1.472159421286845e-05   4.951648818603721e-05
-1.0757726692142224e-05   8.457193649526933e-07   9.962318636767264e-06
-1.0757726692142224e-05   8.457193649526933e-07   9.962318636767264e-06
-1.0757726692142224e-05   8.457193649526933e-07   9.962318636767264e-06
-1.0757726692142224e-05   8.457193649526933e-07   9.962318636767264e-06
-3.28205475990649e-05   -1.2717632644100549e-05   5.487169802040359e-05
-3.28205475990649e-05   -1.2717632644100549e-05   5.487169802040359e-05
-3.28205475990649e-05   -1.2717632644100549e-05   5.487169802040359e-05
-3.28205475990649e-05   -1.2717632644100549e-05   5.487169802040359e-05
-2.249810640011684e-05   -6.946070665768509e-06   3.4204692168490967e-05
-2.249810640011684e-05   -6.946070665768509e-06   3.4204692168490967e-05
-2.249810640011684e-05   -6.946070665768509e-06   3.4204692168490967e-05
-2.249810640011684e-05   -6.946070665768509e-06   3.4204692168490967e-05
-3.282054759906484e-05   8.457193649526933e-07   1.8100329842199187e-05
-3.282054759906484e-05   8.457193649526933e-07   1.8100329842199187e-05
-3.282054759906484e-05   8.457193649526933e-07   1.8100329842199187e-05
-3.282054759906484e-05   8.457193649526933e-07   1.8100329842199187e-05
-1.0757726692142244e-05   -1.2717632644100549e-05   4.6733686814971643e-05
-1.0757726692142244e-05   -1.2717632644100549e-05   4.6733686814971643e-05
-1.0757726692142244e-05   -1.2717632644100549e-05   4.6733686814971643e-05
-1.0757726692142244e-05   -1.2717632644100549e-05   4.6733686814971643e-05
-1.180061139516786e-05   -6.067266463915773e-07   1.2467488162198504e-05
-1.180061139516786e-05   -6.067266463915773e-07   1.2467488162198504e-05
-1.180061139516786e-05   -6.067266463915773e-07   1.2467488162198504e-05
-1.180061139516786e-05   -6.067266463915773e-07   1.2467488162198504e-05
-3.030223331788789e-05   -1.0053091077883606e-05   4.8971343358960367e-05
-3.030223331788789e-05   -1.0053091077883606e-05   4.8971343358960367e-05
-3.030223331788789e-05   -1.0053091077883606e-05   4.8971343358960367e-05
-3.030223331788789e-05   -1.0053091077883606e-05   4.8971343358960367e-05
-2.1648493734981854e-05   -6.413665491093596e-06   3.236478870204302e-05
-2.1648493734981854e-05   -6.413665491093596e-06   3.236478870204302e-05
-2.1648493734981854e-05   -6.413665491093596e-06   3.236478870204302e-05
-2.1648493734981854e-05   -6.413665491093596e-06   3.236478870204302e-05
-8.941850809049225e-06   -3.403116581656351e-06   9.435262393992595e-06
-8.941850809049225e-06   -3.403116581656351e-06   9.435262393992595e-06
-8.941850809049225e-06   -3.403116581656351e-06   9.435262393992595e-06
-8.941850809049225e-06   -3.403116581656351e-06   9.435262393992595e-06
-3.1078074634521087e-06   -5.926619521512975e-06   1.7644566206073884e-05
-3.1078074634521087e-06   -5.926619521512975e-06   1.7644566206073884e-05
-3.1078074634521087e-06   -5.926619521512975e-06   1.7644566206073884e-05
-3.1078074634521087e-06   -5.926619521512975e-06   1.7644566206073884e-05
-3.4813761322890276e-06   -2.792200132360089e-06   8.378642362789175e-06
-3.4813761322890276e-06   -2.792200132360089e-06   8.378642362789175e-06
-3.4813761322890276e-06   -2.792200132360089e-06   8.378642362789175e-06
-3.4813761322890276e-06   -2.792200132360089e-06   8.378642362789175e-06
-1.0511840312633179e-05   -7.828251735669679e-06   2.3117713625348412e-05
-1.0511840312633179e-05   -7.828251735669679e-06   2.3117713625348412e-05
-1.0511840312633179e-05   -7.828251735669679e-06   2.3117713625348412e-05
-1.0511840312633179e-05   -7.828251735669679e-06   2.3117713625348412e-05
-6.171067585836391e-06   -4.090802507546523e-06   1.364062287714652e-05
-6.171067585836391e-06   -4.090802507546523e-06   1.364062287714652e-05
-6.171067585836391e-06   -4.090802507546523e-06   1.364062287714652e-05
-6.171067585836391e-06   -4.090802507546523e-06   1.364062287714652e-05
-1.0511840312633152e-05   -2.792200132360089e-06   1.1400273324774793e-05
-1.0511840312633152e-05   -2.792200132360089e-06   1.1400273324774793e-05
-1.0511840312633152e-05   -2.792200132360089e-06   1.1400273324774793e-05
-1.0511840312633152e-05   -2.792200132360089e-06   1.1400273324774793e-05
-3.4813761322890276e-06   -7.828251735669679e-06   2.009608266336268e-05
-3.4813761322890276e-06   -7.828251735669679e-06   2.009608266336268e-05
-3.4813761322890276e-06   -7.828251735669679e-06   2.009608266336268e-05
-3.4813761322890276e-06   -7.828251735669679e-06   2.009608266336268e-05
-3.8021714350374325e-06   -2.8536281334982938e-06   9.422150595751234e-06
-3.8021714350374325e-06   -2.8536281334982938e-06   9.422150595751234e-06
-3.8021714350374325e-06   -2.8536281334982938e-06   9.422150595751234e-06
-3.8021714350374325e-06   -2.8536281334982938e-06   9.422150595751234e-06
-1.0757726692142244e-05   -7.175817085438858e-06   2.3608056062090207e-05
-1.0757726692142244e-05   -7.175817085438858e-06   2.3608056062090207e-05
-1.0757726692142244e-05   -7.175817085438858e-06   2.3608056062090207e-05
-1.0757726692142244e-05   -7.175817085438858e-06   2.3608056062090207e-05
-6.969520714141209e-06   -4.992141850710129e-06   1.5984174291251355e-05
-6.969520714141209e-06   -4.992141850710129e-06   1.5984174291251355e-05
-6.969520714141209e-06   -4.992141850710129e-06   1.5984174291251355e-05
-6.969520714141209e-06   -4.992141850710129e-06   1.5984174291251355e-05
-1.0757726692142224e-05   -2.8536281334982938e-06   1.2015463966915573e-05
-1.0757726692142224e-05   -2.8536281334982938e-06   1.2015463966915573e-05
-1.0757726692142224e-05   -2.8536281334982938e-06   1.2015463966915573e-05
-1.0757726692142224e-05   -2.8536281334982938e-06   1.2015463966915573e-05
-3.802171435037446e-06   -7.175817085438858e-06   2.101474269092586e-05
-3.802171435037446e-06   -7.175817085438858e-06   2.101474269092586e-05
-3.802171435037446e-06   -7.175817085438858e-06   2.101474269092586e-05
-3.802171435037446e-06   -7.175817085438858e-06   2.101474269092586e-05
-4.325611892570246e-06   -2.8742417127006496e-06   1.0315632236743697e-05
-4.325611892570246e-06   -2.8742417127006496e-06   1.0315632236743697e-05
-4.325611892570246e-06   -2.8742417127006496e-06   1.0315632236743697e-05
-4.325611892570246e-06   -2.8742417127006496e-06   1.0315632236743697e-05
-1.1800611395167867e-05   -6.762573854427389e-06   2.5106964026109042e-05
-1.1800611395167867e-05   -6.762573854427389e-06   2.5106964026109042e-05
-1.1800611395167867e-05   -6.762573854427389e-06   2.5106964026109042e-05
-1.1800611395167867e-05   -6.762573854427389e-06   2.5106964026109042e-05
-7.441184121391868e-06   -4.55958683981037e-06   1.6519459694378858e-05
-7.441184121391868e-06   -4.55958683981037e-06   1.6519459694378858e-05
-7.441184121391868e-06   -4.55958683981037e-06   1.6519459694378858e-05
-7.441184121391868e-06   -4.55958683981037e-06   1.6519459694378858e-05
-3.1078074634521087e-06   -2.659118599811737e-06   5.108855777376432e-06
-3.1078074634521087e-06   -2.659118599811737e-06   5.108855777376432e-06
-3.1078074634521087e-06   -2.659118599811737e-06   5.108855777376432e-06
-3.1078074634521087e-06   -2.659118599811737e-06   5.108855777376432e-06
-1.7382600404039668e-06   -1.6956108879555943e-06   7.9695394429036e-06
-1.7382600404039668e-06   -1.6956108879555943e-06   7.9695394429036e-06
-1.7382600404039668e-06   -1.6956108879555943e-06   7.9695394429036e-06
-1.7382600404039668e-06   -1.6956108879555943e-06   7.9695394429036e-06
-1.6758433271508153e-06   -2.611590994601882e-06   5.840090835174843e-06
-1.6758433271508153e-06   -2.611590994601882e-06   5.840090835174843e-06
-1.6758433271508153e-06   -2.611590994601882e-06   5.840090835174843e-06
-1.6758433271508153e-06   -2.611590994601882e-06   5.840090835174843e-06
-3.4813761322890276e-06   -2.206407103629591e-06   8.606201842488367e-06
-3.4813761322890276e-06   -2.206407103629591e-06   8.606201842488367e-06
-3.4813761322890276e-06   -2.206407103629591e-06   8.606201842488367e-06
-3.4813761322890276e-06   -2.206407103629591e-06   8.606201842488367e-06
-2.342086613317388e-06   -2.1641555323306685e-06   6.682035034756198e-06
-2.342086613317388e-06   -2.1641555323306685e-06   6.682035034756198e-06
-2.342086613317388e-06   -2.1641555323306685e-06   6.682035034756198e-06
-2.342086613317388e-06   -2.1641555323306685e-06   6.682035034756198e-06
-3.4813761322890276e-06   -2.611590994601855e-06   5.5969805005914365e-06
-3.4813761322890276e-06   -2.611590994601855e-06   5.5969805005914365e-06
-3.4813761322890276e-06   -2.611590994601855e-06   5.5969805005914365e-06
-3.4813761322890276e-06   -2.611590994601855e-06   5.5969805005914365e-06
-1.6758433271508153e-06   -2.206407103629591e-06   8.849312177071746e-06
-1.6758433271508153e-06   -2.206407103629591e-06   8.849312177071746e-06
-1.6758433271508153e-06   -2.206407103629591e-06   8.849312177071746e-06
-1.6758433271508153e-06   -2.206407103629591e-06   8.849312177071746e-06
-1.6840679848689072e-06   -2.690239403762239e-06   6.2477123242013835e-06
-1.6840679848689072e-06   -2.690239403762239e-06   6.2477123242013835e-06
-1.6840679848689072e-06   -2.690239403762239e-06   6.2477123242013835e-06
-1.6840679848689072e-06   -2.690239403762239e-06   6.2477123242013835e-06
-3.802171435037446e-06   -2.8177885604610497e-06   9.854414235168117e-06
-3.802171435037446e-06   -2.8177885604610497e-06   9.854414235168117e-06
-3.802171435037446e-06   -2.8177885604610497e-06   9.854414235168117e-06
-3.802171435037446e-06   -2.8177885604610497e-06   9.854414235168117e-06
-2.4901109734847874e-06   -2.3658916936575736e-06   7.396508679164988e-06
-2.4901109734847874e-06   -2.3658916936575736e-06   7.396508679164988e-06
-2.4901109734847874e-06   -2.3658916936575736e-06   7.396508679164988e-06
-2.4901109734847874e-06   -2.3658916936575736e-06   7.396508679164988e-06
-3.8021714350374325e-06   -2.690239403762239e-06   6.324241818220629e-06
-3.8021714350374325e-06   -2.690239403762239e-06   6.324241818220629e-06
-3.8021714350374325e-06   -2.690239403762239e-06   6.324241818220629e-06
-3.8021714350374325e-06   -2.690239403762239e-06   6.324241818220629e-06
-1.6840679848689072e-06   -2.8177885604610497e-06   9.777884741148872e-06
-1.6840679848689072e-06   -2.8177885604610497e-06   9.777884741148872e-06
-1.6840679848689072e-06   -2.8177885604610497e-06   9.777884741148872e-06
-1.6840679848689072e-06   -2.8177885604610497e-06   9.777884741148872e-06
-1.7194185549112857e-06   -2.799866794746627e-06   6.859749400128226e-06
-1.7194185549112857e-06   -2.799866794746627e-06   6.859749400128226e-06
-1.7194185549112857e-06   -2.799866794746627e-06   6.859749400128226e-06
-1.7194185549112857e-06   -2.799866794746627e-06   6.859749400128226e-06
-4.325611892570246e-06   -3.398012400780537e-06   1.15622923265134e-05
-4.325611892570246e-06   -3.398012400780537e-06   1.15622923265134e-05
-4.325611892570246e-06   -3.398012400780537e-06   1.15622923265134e-05
-4.325611892570246e-06   -3.398012400780537e-06   1.15622923265134e-05
-2.6600358326493663e-06   -2.578683343012019e-06   8.294734791984229e-06
-2.6600358326493663e-06   -2.578683343012019e-06   8.294734791984229e-06
-2.6600358326493663e-06   -2.578683343012019e-06   8.294734791984229e-06
-2.6600358326493663e-06   -2.578683343012019e-06   8.294734791984229e-06
-1.7382600404039668e-06   -1.0931891249167343e-06   1.4989185395991773e-06
-1.7382600404039668e-06   -1.0931891249167343e-06   1.4989185395991773e-06
-1.7382600404039668e-06   -1.0931891249167343e-06   1.4989185395991773e-06
-1.7382600404039668e-06   -1.0931891249167343e-06   1.4989185395991773e-06
-1.3010430355272834e-06   2.463024930406196e-07   3.0313085185014552e-06
-1.3010430355272834e-06   2.463024930406196e-07   3.0313085185014552e-06
-1.3010430355272834e-06   2.463024930406196e-07   3.0313085185014552e-06
-1.3010430355272834e-06   2.463024930406196e-07   3.0313085185014552e-06
-1.0573510707159012e-06   -1.2777511753029442e-06   2.4358075481450124e-06
-1.0573510707159012e-06   -1.2777511753029442e-06   2.4358075481450124e-06
-1.0573510707159012e-06   -1.2777511753029442e-06   2.4358075481450124e-06
-1.0573510707159012e-06   -1.2777511753029442e-06   2.4358075481450124e-06
-1.6758433271508153e-06   5.965262826267777e-08   2.664185693397169e-06
-1.6758433271508153e-06   5.965262826267777e-08   2.664185693397169e-06
-1.6758433271508153e-06   5.965262826267777e-08   2.664185693397169e-06
-1.6758433271508153e-06   5.965262826267777e-08   2.664185693397169e-06
-1.3536718848593254e-06   -5.273228393789858e-07   2.4794185701627978e-06
-1.3536718848593254e-06   -5.273228393789858e-07   2.4794185701627978e-06
-1.3536718848593254e-06   -5.273228393789858e-07   2.4794185701627978e-06
-1.3536718848593254e-06   -5.273228393789858e-07   2.4794185701627978e-06
-1.6758433271508153e-06   -1.2777511753029442e-06   1.6333652660056907e-06
-1.6758433271508153e-06   -1.2777511753029442e-06   1.6333652660056907e-06
-1.6758433271508153e-06   -1.2777511753029442e-06   1.6333652660056907e-06
-1.6758433271508153e-06   -1.2777511753029442e-06   1.6333652660056907e-06
-1.0573510707159012e-06   5.965262826267777e-08   3.4666279755364636e-06
-1.0573510707159012e-06   5.965262826267777e-08   3.4666279755364636e-06
-1.0573510707159012e-06   5.965262826267777e-08   3.4666279755364636e-06
-1.0573510707159012e-06   5.965262826267777e-08   3.4666279755364636e-06
-9.256230079059883e-07   -1.4193875317354966e-06   2.6763391550002668e-06
-9.256230079059883e-07   -1.4193875317354966e-06   2.6763391550002668e-06
-9.256230079059883e-07   -1.4193875317354966e-06   2.6763391550002668e-06
-9.256230079059883e-07   -1.4193875317354966e-06   2.6763391550002668e-06
-1.6840679848689072e-06   -2.3193491207673257e-07   3.22794254480974e-06
-1.6840679848689072e-06   -2.3193491207673257e-07   3.22794254480974e-06
-1.6840679848689072e-06   -2.3193491207673257e-07   3.22794254480974e-06
-1.6840679848689072e-06   -2.3193491207673257e-07   3.22794254480974e-06
-1.2312578339824382e-06   -6.724114836515241e-07   2.737544902943836e-06
-1.2312578339824382e-06   -6.724114836515241e-07   2.737544902943836e-06
-1.2312578339824382e-06   -6.724114836515241e-07   2.737544902943836e-06
-1.2312578339824382e-06   -6.724114836515241e-07   2.737544902943836e-06
-1.6840679848689072e-06   -1.4193875317354966e-06   1.9638675832048843e-06
-1.6840679848689072e-06   -1.4193875317354966e-06   1.9638675832048843e-06
-1.6840679848689072e-06   -1.4193875317354966e-06   1.9638675832048843e-06
-1.6840679848689072e-06   -1.4193875317354966e-06   1.9638675832048843e-06
-9.256230079059883e-07   -2.3193491207673257e-07   3.940414116605068e-06
-9.256230079059883e-07   -2.3193491207673257e-07   3.940414116605068e-06
-9.256230079059883e-07   -2.3193491207673257e-07   3.940414116605068e-06
-9.256230079059883e-07   -2.3193491207673257e-07   3.940414116605068e-06
-7.238552763951162e-07   -1.6046611229817386e-06   2.9416763187004903e-06
-7.238552763951162e-07   -1.6046611229817386e-06   2.9416763187004903e-06
-7.238552763951162e-07   -1.6046611229817386e-06   2.9416763187004903e-06
-7.238552763951162e-07   -1.6046611229817386e-06   2.9416763187004903e-06
-1.7194185549112857e-06   -8.254341635928741e-07   4.133412273927314e-06
-1.7194185549112857e-06   -8.254341635928741e-07   4.133412273927314e-06
-1.7194185549112857e-06   -8.254341635928741e-07   4.133412273927314e-06
-1.7194185549112857e-06   -8.254341635928741e-07   4.133412273927314e-06
-1.1337318231263135e-06   -8.922665130723577e-07   3.197367130640264e-06
-1.1337318231263135e-06   -8.922665130723577e-07   3.197367130640264e-06
-1.1337318231263135e-06   -8.922665130723577e-07   3.197367130640264e-06
-1.1337318231263135e-06   -8.922665130723577e-07   3.197367130640264e-06
-1.3010430355272834e-06   -1.19005474559313e-07   -2.1284775527819096e-06
-1.3010430355272834e-06   -1.19005474559313e-07   -2.1284775527819096e-06
-1.3010430355272834e-06   -1.19005474559313e-07   -2.1284775527819096e-06
-1.3010430355272834e-06   -1.19005474559313e-07   -2.1284775527819096e-06
-2.5280301700587393e-07   1.8195241854205036e-07   -2.0083611938542974e-07
-2.5280301700587393e-07   1.8195241854205036e-07   -2.0083611938542974e-07
-2.5280301700587393e-07   1.8195241854205036e-07   -2.0083611938542974e-07
-2.5280301700587393e-07   1.8195241854205036e-07   -2.0083611938542974e-07
-1.3901009140874013e-08   -1.673150429062052e-07   -1.6619572268297255e-06
-1.3901009140874013e-08   -1.673150429062052e-07   -1.6619572268297255e-06
-1.3901009140874013e-08   -1.673150429062052e-07   -1.6619572268297255e-06
-1.3901009140874013e-08   -1.673150429062052e-07   -1.6619572268297255e-06
-1.0573510707159012e-06   3.1306852740707163e-07   -2.1110393305938564e-07
-1.0573510707159012e-06   3.1306852740707163e-07   -2.1110393305938564e-07
-1.0573510707159012e-06   3.1306852740707163e-07   -2.1110393305938564e-07
-1.0573510707159012e-06   3.1306852740707163e-07   -2.1110393305938564e-07
-5.998095078356544e-07   8.543302817604396e-08   -8.370919049881286e-07
-5.998095078356544e-07   8.543302817604396e-08   -8.370919049881286e-07
-5.998095078356544e-07   8.543302817604396e-08   -8.370919049881286e-07
-5.998095078356544e-07   8.543302817604396e-08   -8.370919049881286e-07
-1.0573510707159012e-06   -1.673150429061781e-07   -1.9501873690177824e-06
-1.0573510707159012e-06   -1.673150429061781e-07   -1.9501873690177824e-06
-1.0573510707159012e-06   -1.673150429061781e-07   -1.9501873690177824e-06
-1.0573510707159012e-06   -1.673150429061781e-07   -1.9501873690177824e-06
-1.3901009140874013e-08   3.1306852740707163e-07   7.712620912861705e-08
-1.3901009140874013e-08   3.1306852740707163e-07   7.712620912861705e-08
-1.3901009140874013e-08   3.1306852740707163e-07   7.712620912861705e-08
-1.3901009140874013e-08   3.1306852740707163e-07   7.712620912861705e-08
1.0915210231602105e-07   -2.3225115618986047e-07   -1.4780956696008917e-06
1.0915210231602105e-07   -2.3225115618986047e-07   -1.4780956696008917e-06
1.0915210231602105e-07   -2.3225115618986047e-07   -1.4780956696008917e-06
1.0915210231602105e-07   -2.3225115618986047e-07   -1.4780956696008917e-06
-9.256230079059883e-07   2.6320398935291653e-07   -5.074357322342165e-08
-9.256230079059883e-07   2.6320398935291653e-07   -5.074357322342165e-08
-9.256230079059883e-07   2.6320398935291653e-07   -5.074357322342165e-08
-9.256230079059883e-07   2.6320398935291653e-07   -5.074357322342165e-08
-4.243380490830378e-07   5.5400441308257886e-08   -7.615363757678588e-07
-4.243380490830378e-07   5.5400441308257886e-08   -7.615363757678588e-07
-4.243380490830378e-07   5.5400441308257886e-08   -7.615363757678588e-07
-4.243380490830378e-07   5.5400441308257886e-08   -7.615363757678588e-07
-9.256230079059883e-07   -2.3225115618983336e-07   -1.7753687569266351e-06
-9.256230079059883e-07   -2.3225115618983336e-07   -1.7753687569266351e-06
-9.256230079059883e-07   -2.3225115618983336e-07   -1.7753687569266351e-06
-9.256230079059883e-07   -2.3225115618983336e-07   -1.7753687569266351e-06
1.0915210231602105e-07   2.6320398935291653e-07   2.465295141022405e-07
1.0915210231602105e-07   2.6320398935291653e-07   2.465295141022405e-07
1.0915210231602105e-07   2.6320398935291653e-07   2.465295141022405e-07
1.0915210231602105e-07   2.6320398935291653e-07   2.465295141022405e-07
2.608992376461794e-07   -3.126188773152055e-07   -1.205522449932708e-06
2.608992376461794e-07   -3.126188773152055e-07   -1.205522449932708e-06
2.608992376461794e-07   -3.126188773152055e-07   -1.205522449932708e-06
2.608992376461794e-07   -3.126188773152055e-07   -1.205522449932708e-06
-7.238552763951162e-07   2.164293473896106e-07   1.1830613864645748e-07
-7.238552763951162e-07   2.164293473896106e-07   1.1830613864645748e-07
-7.238552763951162e-07   2.164293473896106e-07   1.1830613864645748e-07
-7.238552763951162e-07   2.164293473896106e-07   1.1830613864645748e-07
-2.6600801508305035e-07   1.812060005675466e-08   -5.257873818072961e-07
-2.6600801508305035e-07   1.812060005675466e-08   -5.257873818072961e-07
-2.6600801508305035e-07   1.812060005675466e-08   -5.257873818072961e-07
-2.6600801508305035e-07   1.812060005675466e-08   -5.257873818072961e-07
              </DataArray>   
             <DataArray type="Float64" NumberOfComponents="3" Name="Stress" format="ascii">   
-1.9835258730790921   -0.49588146826977303   -0.49588146826977303
-1.9835258730790921   -0.49588146826977303   -0.49588146826977303
-1.9835258730790921   -0.49588146826977303   -0.49588146826977303
-1.9835258730790921   -0.49588146826977303   -0.49588146826977303
-1.147673372181871   -0.03672996063996084   -0.023154986774508175
-1.147673372181871   -0.03672996063996084   -0.023154986774508175
-1.147673372181871   -0.03672996063996084   -0.023154986774508175
-1.147673372181871   -0.03672996063996084   -0.023154986774508175
-1.236744952146266   -0.3091862380365665   -0.3091862380365665
-1.236744952146266   -0.3091862380365665   -0.3091862380365665
-1.236744952146266   -0.3091862380365665   -0.3091862380365665
-1.236744952146266   -0.3091862380365665   -0.3091862380365665
-1.9115652180099774   -0.15727131204013584   -0.06023658549704576
-1.9115652180099774   -0.15727131204013584   -0.06023658549704576
-1.9115652180099774   -0.15727131204013584   -0.06023658549704576
-1.9115652180099774   -0.15727131204013584   -0.06023658549704576
-1.499143409819122   -0.24594795697569324   -0.004159735362873125
-1.499143409819122   -0.24594795697569324   -0.004159735362873125
-1.499143409819122   -0.24594795697569324   -0.004159735362873125
-1.499143409819122   -0.24594795697569324   -0.004159735362873125
-2.0756262650028274   -0.5189065662507069   -0.5189065662507069
-2.0756262650028274   -0.5189065662507069   -0.5189065662507069
-2.0756262650028274   -0.5189065662507069   -0.5189065662507069
-2.0756262650028274   -0.5189065662507069   -0.5189065662507069
-1.111621163137917   0.013511758189506978   -0.006265289220894463
-1.111621163137917   0.013511758189506978   -0.006265289220894463
-1.111621163137917   0.013511758189506978   -0.006265289220894463
-1.111621163137917   0.013511758189506978   -0.006265289220894463
-1.240033915559759   -0.31000847888993976   -0.31000847888993976
-1.240033915559759   -0.31000847888993976   -0.31000847888993976
-1.240033915559759   -0.31000847888993976   -0.31000847888993976
-1.240033915559759   -0.31000847888993976   -0.31000847888993976
-1.9755859167618035   -0.15871737246309559   -0.08823945663275282
-1.9755859167618035   -0.15871737246309559   -0.08823945663275282
-1.9755859167618035   -0.15871737246309559   -0.08823945663275282
-1.9755859167618035   -0.15871737246309559   -0.08823945663275282
-1.554844659358958   -0.2314920269009898   -0.08249586362799467
-1.554844659358958   -0.2314920269009898   -0.08249586362799467
-1.554844659358958   -0.2314920269009898   -0.08249586362799467
-1.554844659358958   -0.2314920269009898   -0.08249586362799467
-2.1402161677140414   -0.5350540419285104   -0.5350540419285104
-2.1402161677140414   -0.5350540419285104   -0.5350540419285104
-2.1402161677140414   -0.5350540419285104   -0.5350540419285104
-2.1402161677140414   -0.5350540419285104   -0.5350540419285104
-1.1082047758084672   0.033527079374532365   0.005601661602046948
-1.1082047758084672   0.033527079374532365   0.005601661602046948
-1.1082047758084672   0.033527079374532365   0.005601661602046948
-1.1082047758084672   0.033527079374532365   0.005601661602046948
-1.239157937322652   -0.309789484330663   -0.309789484330663
-1.239157937322652   -0.309789484330663   -0.309789484330663
-1.239157937322652   -0.309789484330663   -0.309789484330663
-1.239157937322652   -0.309789484330663   -0.309789484330663
-2.0900251019780614   -0.13906897210365698   -0.05304564983426911
-2.0900251019780614   -0.13906897210365698   -0.05304564983426911
-2.0900251019780614   -0.13906897210365698   -0.05304564983426911
-2.0900251019780614   -0.13906897210365698   -0.05304564983426911
-1.5960952154746966   -0.22782897617357895   -0.1490553648673569
-1.5960952154746966   -0.22782897617357895   -0.1490553648673569
-1.5960952154746966   -0.22782897617357895   -0.1490553648673569
-1.5960952154746966   -0.22782897617357895   -0.1490553648673569
-1.2618848696655323   -0.31547121741638307   -0.31547121741638307
-1.2618848696655323   -0.31547121741638307   -0.31547121741638307
-1.2618848696655323   -0.31547121741638307   -0.31547121741638307
-1.2618848696655323   -0.31547121741638307   -0.31547121741638307
-0.5267572404837711   -0.03529242802482521   -0.011447467896565082
-0.5267572404837711   -0.03529242802482521   -0.011447467896565082
-0.5267572404837711   -0.03529242802482521   -0.011447467896565082
-0.5267572404837711   -0.03529242802482521   -0.011447467896565082
-0.5527360649632581   -0.13818401624081453   -0.13818401624081453
-0.5527360649632581   -0.13818401624081453   -0.13818401624081453
-0.5527360649632581   -0.13818401624081453   -0.13818401624081453
-0.5527360649632581   -0.13818401624081453   -0.13818401624081453
-1.1487351302546631   -0.13525168362837092   -0.04307168298674823
-1.1487351302546631   -0.13525168362837092   -0.04307168298674823
-1.1487351302546631   -0.13525168362837092   -0.04307168298674823
-1.1487351302546631   -0.13525168362837092   -0.04307168298674823
-0.8473836875776392   -0.16060945709600757   0.006588122122582545
-0.8473836875776392   -0.16060945709600757   0.006588122122582545
-0.8473836875776392   -0.16060945709600757   0.006588122122582545
-0.8473836875776392   -0.16060945709600757   0.006588122122582545
-1.2367449521462648   -0.3091862380365662   -0.3091862380365662
-1.2367449521462648   -0.3091862380365662   -0.3091862380365662
-1.2367449521462648   -0.3091862380365662   -0.3091862380365662
-1.2367449521462648   -0.3091862380365662   -0.3091862380365662
-0.4967984939248569   0.0036782873141794625   -0.00035846460380250383
-0.4967984939248569   0.0036782873141794625   -0.00035846460380250383
-0.4967984939248569   0.0036782873141794625   -0.00035846460380250383
-0.4967984939248569   0.0036782873141794625   -0.00035846460380250383
-0.5402072820125549   -0.13505182050313871   -0.13505182050313871
-0.5402072820125549   -0.13505182050313871   -0.13505182050313871
-0.5402072820125549   -0.13505182050313871   -0.13505182050313871
-0.5402072820125549   -0.13505182050313871   -0.13505182050313871
-1.1456534567737184   -0.11028380355309983   -0.037830860296576126
-1.1456534567737184   -0.11028380355309983   -0.037830860296576126
-1.1456534567737184   -0.11028380355309983   -0.037830860296576126
-1.1456534567737184   -0.11028380355309983   -0.037830860296576126
-0.8353942329633545   -0.13517207574025994   -0.04365656221917368
-0.8353942329633545   -0.13517207574025994   -0.04365656221917368
-0.8353942329633545   -0.13517207574025994   -0.04365656221917368
-0.8353942329633545   -0.13517207574025994   -0.04365656221917368
-1.240033915559759   -0.31000847888993976   -0.31000847888993976
-1.240033915559759   -0.31000847888993976   -0.31000847888993976
-1.240033915559759   -0.31000847888993976   -0.31000847888993976
-1.240033915559759   -0.31000847888993976   -0.31000847888993976
-0.4768909115896691   0.03360876647054625   0.012869444637604956
-0.4768909115896691   0.03360876647054625   0.012869444637604956
-0.4768909115896691   0.03360876647054625   0.012869444637604956
-0.4768909115896691   0.03360876647054625   0.012869444637604956
-0.5287659905490789   -0.13219149763726973   -0.13219149763726973
-0.5287659905490789   -0.13219149763726973   -0.13219149763726973
-0.5287659905490789   -0.13219149763726973   -0.13219149763726973
-0.5287659905490789   -0.13219149763726973   -0.13219149763726973
-1.137025713535878   -0.0850415899242731   -0.023876259803196555
-1.137025713535878   -0.0850415899242731   -0.023876259803196555
-1.137025713535878   -0.0850415899242731   -0.023876259803196555
-1.137025713535878   -0.0850415899242731   -0.023876259803196555
-0.8393199442692617   -0.1195644035128686   -0.09723552908855537
-0.8393199442692617   -0.1195644035128686   -0.09723552908855537
-0.8393199442692617   -0.1195644035128686   -0.09723552908855537
-0.8393199442692617   -0.1195644035128686   -0.09723552908855537
-0.5748991792216599   -0.14372479480541497   -0.14372479480541497
-0.5748991792216599   -0.14372479480541497   -0.14372479480541497
-0.5748991792216599   -0.14372479480541497   -0.14372479480541497
-0.5748991792216599   -0.14372479480541497   -0.14372479480541497
0.0675778240539313   0.004311672911572688   0.0005626968800738446
0.0675778240539313   0.004311672911572688   0.0005626968800738446
0.0675778240539313   0.004311672911572688   0.0005626968800738446
0.0675778240539313   0.004311672911572688   0.0005626968800738446
0.08824214740708082   0.022060536851770205   0.022060536851770205
0.08824214740708082   0.022060536851770205   0.022060536851770205
0.08824214740708082   0.022060536851770205   0.022060536851770205
0.08824214740708082   0.022060536851770205   0.022060536851770205
-0.519607397802964   -0.08980473577060019   -0.020919960909558482
-0.519607397802964   -0.08980473577060019   -0.020919960909558482
-0.519607397802964   -0.08980473577060019   -0.020919960909558482
-0.519607397802964   -0.08980473577060019   -0.020919960909558482
-0.22276478511278486   -0.056496925552872175   0.037651321571748414
-0.22276478511278486   -0.056496925552872175   0.037651321571748414
-0.22276478511278486   -0.056496925552872175   0.037651321571748414
-0.22276478511278486   -0.056496925552872175   0.037651321571748414
-0.5527360649632581   -0.13818401624081453   -0.13818401624081453
-0.5527360649632581   -0.13818401624081453   -0.13818401624081453
-0.5527360649632581   -0.13818401624081453   -0.13818401624081453
-0.5527360649632581   -0.13818401624081453   -0.13818401624081453
0.08984480150297458   0.03891380425758427   0.013220539925424237
0.08984480150297458   0.03891380425758427   0.013220539925424237
0.08984480150297458   0.03891380425758427   0.013220539925424237
0.08984480150297458   0.03891380425758427   0.013220539925424237
0.09950665214169124   0.02487666303542281   0.02487666303542281
0.09950665214169124   0.02487666303542281   0.02487666303542281
0.09950665214169124   0.02487666303542281   0.02487666303542281
0.09950665214169124   0.02487666303542281   0.02487666303542281
-0.5010706201334699   -0.06039315358541306   -0.014027178025443806
-0.5010706201334699   -0.06039315358541306   -0.014027178025443806
-0.5010706201334699   -0.06039315358541306   -0.014027178025443806
-0.5010706201334699   -0.06039315358541306   -0.014027178025443806
-0.21351657113344052   -0.034891835650790494   -0.0129248411678871
-0.21351657113344052   -0.034891835650790494   -0.0129248411678871
-0.21351657113344052   -0.034891835650790494   -0.0129248411678871
-0.21351657113344052   -0.034891835650790494   -0.0129248411678871
-0.5402072820125549   -0.13505182050313871   -0.13505182050313871
-0.5402072820125549   -0.13505182050313871   -0.13505182050313871
-0.5402072820125549   -0.13505182050313871   -0.13505182050313871
-0.5402072820125549   -0.13505182050313871   -0.13505182050313871
0.10775229018888353   0.06864430612125655   0.022337210185549822
0.10775229018888353   0.06864430612125655   0.022337210185549822
0.10775229018888353   0.06864430612125655   0.022337210185549822
0.10775229018888353   0.06864430612125655   0.022337210185549822
0.11459707891226244   0.02864926972806561   0.02864926972806561
0.11459707891226244   0.02864926972806561   0.02864926972806561
0.11459707891226244   0.02864926972806561   0.02864926972806561
0.11459707891226244   0.02864926972806561   0.02864926972806561
-0.4809001674123576   -0.025333099808243664   0.000279220217309091
-0.4809001674123576   -0.025333099808243664   0.000279220217309091
-0.4809001674123576   -0.025333099808243664   0.000279220217309091
-0.4809001674123576   -0.025333099808243664   0.000279220217309091
-0.2069471284014925   -0.014063547202551374   -0.06304913782925531
-0.2069471284014925   -0.014063547202551374   -0.06304913782925531
-0.2069471284014925   -0.014063547202551374   -0.06304913782925531
-0.2069471284014925   -0.014063547202551374   -0.06304913782925531
0.07400327788400236   0.01850081947100059   0.01850081947100059
0.07400327788400236   0.01850081947100059   0.01850081947100059
0.07400327788400236   0.01850081947100059   0.01850081947100059
0.07400327788400236   0.01850081947100059   0.01850081947100059
0.7183304933121544   0.06593335619610954   0.0222608700928695
0.7183304933121544   0.06593335619610954   0.0222608700928695
0.7183304933121544   0.06593335619610954   0.0222608700928695
0.7183304933121544   0.06593335619610954   0.0222608700928695
0.7801685902317986   0.19504214755794966   0.19504214755794966
0.7801685902317986   0.19504214755794966   0.19504214755794966
0.7801685902317986   0.19504214755794966   0.19504214755794966
0.7801685902317986   0.19504214755794966   0.19504214755794966
0.06720845236767246   -0.05056157454500855   -0.01048582694849417
0.06720845236767246   -0.05056157454500855   -0.01048582694849417
0.06720845236767246   -0.05056157454500855   -0.01048582694849417
0.06720845236767246   -0.05056157454500855   -0.01048582694849417
0.409442040445069   0.05098670071708276   0.07433679824770983
0.409442040445069   0.05098670071708276   0.07433679824770983
0.409442040445069   0.05098670071708276   0.07433679824770983
0.409442040445069   0.05098670071708276   0.07433679824770983
0.08824214740708113   0.02206053685177028   0.02206053685177028
0.08824214740708113   0.02206053685177028   0.02206053685177028
0.08824214740708113   0.02206053685177028   0.02206053685177028
0.08824214740708113   0.02206053685177028   0.02206053685177028
0.7270845962735242   0.09036973724230504   0.03429458808222206
0.7270845962735242   0.09036973724230504   0.03429458808222206
0.7270845962735242   0.09036973724230504   0.03429458808222206
0.7270845962735242   0.09036973724230504   0.03429458808222206
0.7770322834393153   0.19425807085982882   0.19425807085982882
0.7770322834393153   0.19425807085982882   0.19425807085982882
0.7770322834393153   0.19425807085982882   0.19425807085982882
0.7770322834393153   0.19425807085982882   0.19425807085982882
0.085228343097694   -0.02179392211832715   0.00015570296918583984
0.085228343097694   -0.02179392211832715   0.00015570296918583984
0.085228343097694   -0.02179392211832715   0.00015570296918583984
0.085228343097694   -0.02179392211832715   0.00015570296918583984
0.406629222400696   0.06699357179802327   0.01928507080106479
0.406629222400696   0.06699357179802327   0.01928507080106479
0.406629222400696   0.06699357179802327   0.01928507080106479
0.406629222400696   0.06699357179802327   0.01928507080106479
0.09950665214169133   0.02487666303542283   0.02487666303542283
0.09950665214169133   0.02487666303542283   0.02487666303542283
0.09950665214169133   0.02487666303542283   0.02487666303542283
0.09950665214169133   0.02487666303542283   0.02487666303542283
0.7310128528037156   0.11584636411447663   0.04257262442718308
0.7310128528037156   0.11584636411447663   0.04257262442718308
0.7310128528037156   0.11584636411447663   0.04257262442718308
0.7310128528037156   0.11584636411447663   0.04257262442718308
0.7922780789119919   0.19806951972799797   0.19806951972799797
0.7922780789119919   0.19806951972799797   0.19806951972799797
0.7922780789119919   0.19806951972799797   0.19806951972799797
0.7922780789119919   0.19806951972799797   0.19806951972799797
0.10879994162570278   0.016245811478891394   0.012067041544440639
0.10879994162570278   0.016245811478891394   0.012067041544440639
0.10879994162570278   0.016245811478891394   0.012067041544440639
0.10879994162570278   0.016245811478891394   0.012067041544440639
0.41313825539886395   0.0909345732894368   -0.03175894116590296
0.41313825539886395   0.0909345732894368   -0.03175894116590296
0.41313825539886395   0.0909345732894368   -0.03175894116590296
0.41313825539886395   0.0909345732894368   -0.03175894116590296
0.7785462756159539   0.19463656890398848   0.19463656890398848
0.7785462756159539   0.19463656890398848   0.19463656890398848
0.7785462756159539   0.19463656890398848   0.19463656890398848
0.7785462756159539   0.19463656890398848   0.19463656890398848
1.6162008822867207   0.12326245619986628   0.042523604232402874
1.6162008822867207   0.12326245619986628   0.042523604232402874
1.6162008822867207   0.12326245619986628   0.042523604232402874
1.6162008822867207   0.12326245619986628   0.042523604232402874
1.6522351356679095   0.41305878391697737   0.41305878391697737
1.6522351356679095   0.41305878391697737   0.41305878391697737
1.6522351356679095   0.41305878391697737   0.41305878391697737
1.6522351356679095   0.41305878391697737   0.41305878391697737
0.6935396510039179   -0.03931369284625366   -0.0037467081772504934
0.6935396510039179   -0.03931369284625366   -0.0037467081772504934
0.6935396510039179   -0.03931369284625366   -0.0037467081772504934
0.6935396510039179   -0.03931369284625366   -0.0037467081772504934
1.1524928517901658   0.1631891979880344   0.13001688557410127
1.1524928517901658   0.1631891979880344   0.13001688557410127
1.1524928517901658   0.1631891979880344   0.13001688557410127
1.1524928517901658   0.1631891979880344   0.13001688557410127
0.7801685902317981   0.19504214755794952   0.19504214755794952
0.7801685902317981   0.19504214755794952   0.19504214755794952
0.7801685902317981   0.19504214755794952   0.19504214755794952
0.7801685902317981   0.19504214755794952   0.19504214755794952
1.5312450988782507   0.1443418459510009   0.07682553793468586
1.5312450988782507   0.1443418459510009   0.07682553793468586
1.5312450988782507   0.1443418459510009   0.07682553793468586
1.5312450988782507   0.1443418459510009   0.07682553793468586
1.6031230653770046   0.40078076634425114   0.40078076634425114
1.6031230653770046   0.40078076634425114   0.40078076634425114
1.6031230653770046   0.40078076634425114   0.40078076634425114
1.6031230653770046   0.40078076634425114   0.40078076634425114
0.6961591968953607   -0.02157070979853684   0.005721418798420787
0.6961591968953607   -0.02157070979853684   0.005721418798420787
0.6961591968953607   -0.02157070979853684   0.005721418798420787
0.6961591968953607   -0.02157070979853684   0.005721418798420787
1.118540507390711   0.16796475862361615   0.06233155321013577
1.118540507390711   0.16796475862361615   0.06233155321013577
1.118540507390711   0.16796475862361615   0.06233155321013577
1.118540507390711   0.16796475862361615   0.06233155321013577
0.7770322834393153   0.19425807085982882   0.19425807085982882
0.7770322834393153   0.19425807085982882   0.19425807085982882
0.7770322834393153   0.19425807085982882   0.19425807085982882
0.7770322834393153   0.19425807085982882   0.19425807085982882
1.4821743413474766   0.14487634820031714   0.05194156434057062
1.4821743413474766   0.14487634820031714   0.05194156434057062
1.4821743413474766   0.14487634820031714   0.05194156434057062
1.4821743413474766   0.14487634820031714   0.05194156434057062
1.5298656940986768   0.3824664235246692   0.3824664235246692
1.5298656940986768   0.3824664235246692   0.3824664235246692
1.5298656940986768   0.3824664235246692   0.3824664235246692
1.5298656940986768   0.3824664235246692   0.3824664235246692
0.722129395106121   0.023140800301560627   0.022254820125080725
0.722129395106121   0.023140800301560627   0.022254820125080725
0.722129395106121   0.023140800301560627   0.022254820125080725
0.722129395106121   0.023140800301560627   0.022254820125080725
1.071260213010554   0.18219518371410318   -0.016414568121820815
1.071260213010554   0.18219518371410318   -0.016414568121820815
1.071260213010554   0.18219518371410318   -0.016414568121820815
1.071260213010554   0.18219518371410318   -0.016414568121820815
-1.5659156606330058   -0.11216448260209491   0.0179146918659562
-1.5659156606330058   -0.11216448260209491   0.0179146918659562
-1.5659156606330058   -0.11216448260209491   0.0179146918659562
-1.5659156606330058   -0.11216448260209491   0.0179146918659562
-0.9970111539229115   -0.02327187164060568   -0.006548225661864401
-0.9970111539229115   -0.02327187164060568   -0.006548225661864401
-0.9970111539229115   -0.02327187164060568   -0.006548225661864401
-0.9970111539229115   -0.02327187164060568   -0.006548225661864401
-1.0035394734082452   0.040609073959647496   0.021139599900138653
-1.0035394734082452   0.040609073959647496   0.021139599900138653
-1.0035394734082452   0.040609073959647496   0.021139599900138653
-1.0035394734082452   0.040609073959647496   0.021139599900138653
-1.589115164219434   -0.1085428150997555   -0.018943554297608703
-1.589115164219434   -0.1085428150997555   -0.018943554297608703
-1.589115164219434   -0.1085428150997555   -0.018943554297608703
-1.589115164219434   -0.1085428150997555   -0.018943554297608703
-1.238204737000356   -0.04237166090266911   -0.0050554436809017375
-1.238204737000356   -0.04237166090266911   -0.0050554436809017375
-1.238204737000356   -0.04237166090266911   -0.0050554436809017375
-1.238204737000356   -0.04237166090266911   -0.0050554436809017375
-1.577433697635097   -0.07684458180073878   0.007765545325059173
-1.577433697635097   -0.07684458180073878   0.007765545325059173
-1.577433697635097   -0.07684458180073878   0.007765545325059173
-1.577433697635097   -0.07684458180073878   0.007765545325059173
-1.0168745841281586   0.007257196525057935   -0.012184076264821174
-1.0168745841281586   0.007257196525057935   -0.012184076264821174
-1.0168745841281586   0.007257196525057935   -0.012184076264821174
-1.0168745841281586   0.007257196525057935   -0.012184076264821174
-1.0046046515165423   0.05793115021416925   0.024021891508312118
-1.0046046515165423   0.05793115021416925   0.024021891508312118
-1.0046046515165423   0.05793115021416925   0.024021891508312118
-1.0046046515165423   0.05793115021416925   0.024021891508312118
-1.5985643869780213   -0.09555861518863501   -0.024994343952454784
-1.5985643869780213   -0.09555861518863501   -0.024994343952454784
-1.5985643869780213   -0.09555861518863501   -0.024994343952454784
-1.5985643869780213   -0.09555861518863501   -0.024994343952454784
-1.2728120058021595   -0.028312618519498123   -0.012141648408659667
-1.2728120058021595   -0.028312618519498123   -0.012141648408659667
-1.2728120058021595   -0.028312618519498123   -0.012141648408659667
-1.2728120058021595   -0.028312618519498123   -0.012141648408659667
-1.5697206426114756   -0.045969394806795905   0.06963515749841957
-1.5697206426114756   -0.045969394806795905   0.06963515749841957
-1.5697206426114756   -0.045969394806795905   0.06963515749841957
-1.5697206426114756   -0.045969394806795905   0.06963515749841957
-1.0214675970432696   0.020322728672147516   -0.02268441458329362
-1.0214675970432696   0.020322728672147516   -0.02268441458329362
-1.0214675970432696   0.020322728672147516   -0.02268441458329362
-1.0214675970432696   0.020322728672147516   -0.02268441458329362
-0.9861842047920213   0.10100875967342743   0.04350211186511457
-0.9861842047920213   0.10100875967342743   0.04350211186511457
-0.9861842047920213   0.10100875967342743   0.04350211186511457
-0.9861842047920213   0.10100875967342743   0.04350211186511457
-1.5541109131384947   -0.07698972773083584   -0.04082174922734555
-1.5541109131384947   -0.07698972773083584   -0.04082174922734555
-1.5541109131384947   -0.07698972773083584   -0.04082174922734555
-1.5541109131384947   -0.07698972773083584   -0.04082174922734555
-1.223930456845422   0.011537925621143419   0.02717020812248727
-1.223930456845422   0.011537925621143419   0.02717020812248727
-1.223930456845422   0.011537925621143419   0.02717020812248727
-1.223930456845422   0.011537925621143419   0.02717020812248727
-1.0216984290023807   -0.13553538890766448   -0.01772108379215081
-1.0216984290023807   -0.13553538890766448   -0.01772108379215081
-1.0216984290023807   -0.13553538890766448   -0.01772108379215081
-1.0216984290023807   -0.13553538890766448   -0.01772108379215081
-0.4710455282547323   -0.010648576452745973   0.004957465540855879
-0.4710455282547323   -0.010648576452745973   0.004957465540855879
-0.4710455282547323   -0.010648576452745973   0.004957465540855879
-0.4710455282547323   -0.010648576452745973   0.004957465540855879
-0.47779676631712814   0.008990571109199028   0.007201226763568363
-0.47779676631712814   0.008990571109199028   0.007201226763568363
-0.47779676631712814   0.008990571109199028   0.007201226763568363
-0.47779676631712814   0.008990571109199028   0.007201226763568363
-1.0418662982280849   -0.09918380837052812   -0.030701641868883543
-1.0418662982280849   -0.09918380837052812   -0.030701641868883543
-1.0418662982280849   -0.09918380837052812   -0.030701641868883543
-1.0418662982280849   -0.09918380837052812   -0.030701641868883543
-0.7530940754920036   -0.06123100294261437   -0.017335916295205134
-0.7530940754920036   -0.06123100294261437   -0.017335916295205134
-0.7530940754920036   -0.06123100294261437   -0.017335916295205134
-0.7530940754920036   -0.06123100294261437   -0.017335916295205134
-1.0408584894255857   -0.10835941675882525   -0.01648698946809545
-1.0408584894255857   -0.10835941675882525   -0.01648698946809545
-1.0408584894255857   -0.10835941675882525   -0.01648698946809545
-1.0408584894255857   -0.10835941675882525   -0.01648698946809545
-0.4769507320975228   0.020020022519601083   0.00040194645119663586
-0.4769507320975228   0.020020022519601083   0.00040194645119663586
-0.4769507320975228   0.020020022519601083   0.00040194645119663586
-0.4769507320975228   0.020020022519601083   0.00040194645119663586
-0.4758804622545437   0.03318215027451579   0.009725914322327299
-0.4758804622545437   0.03318215027451579   0.009725914322327299
-0.4758804622545437   0.03318215027451579   0.009725914322327299
-0.4758804622545437   0.03318215027451579   0.009725914322327299
-1.04216183286033   -0.07261658306682467   -0.033216281929632566
-1.04216183286033   -0.07261658306682467   -0.033216281929632566
-1.04216183286033   -0.07261658306682467   -0.033216281929632566
-1.04216183286033   -0.07261658306682467   -0.033216281929632566
-0.7515167916813063   -0.0340486148632726   -0.008247064477410249
-0.7515167916813063   -0.0340486148632726   -0.008247064477410249
-0.7515167916813063   -0.0340486148632726   -0.008247064477410249
-0.7515167916813063   -0.0340486148632726   -0.008247064477410249
-1.0380641051928783   -0.08189050542454693   -0.003453721234651687
-1.0380641051928783   -0.08189050542454693   -0.003453721234651687
-1.0380641051928783   -0.08189050542454693   -0.003453721234651687
-1.0380641051928783   -0.08189050542454693   -0.003453721234651687
-0.47653419930811164   0.04590006324612386   -0.006260683917112146
-0.47653419930811164   0.04590006324612386   -0.006260683917112146
-0.47653419930811164   0.04590006324612386   -0.006260683917112146
-0.47653419930811164   0.04590006324612386   -0.006260683917112146
-0.46780059394157814   0.0574706634685922   0.019459887566832153
-0.46780059394157814   0.0574706634685922   0.019459887566832153
-0.46780059394157814   0.0574706634685922   0.019459887566832153
-0.46780059394157814   0.0574706634685922   0.019459887566832153
-1.03087269883716   -0.04191801500887685   -0.03701358367827671
-1.03087269883716   -0.04191801500887685   -0.03701358367827671
-1.03087269883716   -0.04191801500887685   -0.03701358367827671
-1.03087269883716   -0.04191801500887685   -0.03701358367827671
-0.7482511646834066   -0.008323195959934748   0.0037503278078308347
-0.7482511646834066   -0.008323195959934748   0.0037503278078308347
-0.7482511646834066   -0.008323195959934748   0.0037503278078308347
-0.7482511646834066   -0.008323195959934748   0.0037503278078308347
-0.49666199715541337   -0.11283626815780907   -0.020937187257490313
-0.49666199715541337   -0.11283626815780907   -0.020937187257490313
-0.49666199715541337   -0.11283626815780907   -0.020937187257490313
-0.49666199715541337   -0.11283626815780907   -0.020937187257490313
0.050820212097047957   0.011545030034525715   0.019347425777331097
0.050820212097047957   0.011545030034525715   0.019347425777331097
0.050820212097047957   0.011545030034525715   0.019347425777331097
0.050820212097047957   0.011545030034525715   0.019347425777331097
0.04859503348607905   0.028333857818706537   0.0015705757479301617
0.04859503348607905   0.028333857818706537   0.0015705757479301617
0.04859503348607905   0.028333857818706537   0.0015705757479301617
0.04859503348607905   0.028333857818706537   0.0015705757479301617
-0.4986507861023513   -0.0747036919293583   -0.013374609123990387
-0.4986507861023513   -0.0747036919293583   -0.013374609123990387
-0.4986507861023513   -0.0747036919293583   -0.013374609123990387
-0.4986507861023513   -0.0747036919293583   -0.013374609123990387
-0.22614260836157274   -0.03745877039416083   -0.007191822510221407
-0.22614260836157274   -0.03745877039416083   -0.007191822510221407
-0.22614260836157274   -0.03745877039416083   -0.007191822510221407
-0.22614260836157274   -0.03745877039416083   -0.007191822510221407
-0.5021039419101359   -0.08599072369048079   -0.01935335640179063
-0.5021039419101359   -0.08599072369048079   -0.01935335640179063
-0.5021039419101359   -0.08599072369048079   -0.01935335640179063
-0.5021039419101359   -0.08599072369048079   -0.01935335640179063
0.053956705192671935   0.041529405478636566   0.015183386620964565
0.053956705192671935   0.041529405478636566   0.015183386620964565
0.053956705192671935   0.041529405478636566   0.015183386620964565
0.053956705192671935   0.041529405478636566   0.015183386620964565
0.05261537557671021   0.0549456874369194   0.008981031376038394
0.05261537557671021   0.0549456874369194   0.008981031376038394
0.05261537557671021   0.0549456874369194   0.008981031376038394
0.05261537557671021   0.0549456874369194   0.008981031376038394
-0.4969048756603104   -0.045517596388924136   -0.016696406043065916
-0.4969048756603104   -0.045517596388924136   -0.016696406043065916
-0.4969048756603104   -0.045517596388924136   -0.016696406043065916
-0.4969048756603104   -0.045517596388924136   -0.016696406043065916
-0.22248268680831285   -0.009186097798805512   0.002630024937357223
-0.22248268680831285   -0.009186097798805512   0.002630024937357223
-0.22248268680831285   -0.009186097798805512   0.002630024937357223
-0.22248268680831285   -0.009186097798805512   0.002630024937357223
-0.49824889471884737   -0.059008493701945657   -0.009925604022729356
-0.49824889471884737   -0.059008493701945657   -0.009925604022729356
-0.49824889471884737   -0.059008493701945657   -0.009925604022729356
-0.49824889471884737   -0.059008493701945657   -0.009925604022729356
0.05601424771519968   0.07049143782989332   0.010429641675511388
0.05601424771519968   0.07049143782989332   0.010429641675511388
0.05601424771519968   0.07049143782989332   0.010429641675511388
0.05601424771519968   0.07049143782989332   0.010429641675511388
0.05397570973360165   0.0845383730745156   0.014760707485145255
0.05397570973360165   0.0845383730745156   0.014760707485145255
0.05397570973360165   0.0845383730745156   0.014760707485145255
0.05397570973360165   0.0845383730745156   0.014760707485145255
-0.49026242076956417   -0.014326868538230828   -0.02105171456627379
-0.49026242076956417   -0.014326868538230828   -0.02105171456627379
-0.49026242076956417   -0.014326868538230828   -0.02105171456627379
-0.49026242076956417   -0.014326868538230828   -0.02105171456627379
-0.21677838076764988   0.020380128626856057   0.013382866974536566
-0.21677838076764988   0.020380128626856057   0.013382866974536566
-0.21677838076764988   0.020380128626856057   0.013382866974536566
-0.21677838076764988   0.020380128626856057   0.013382866974536566
0.022935212427995687   -0.08275365208831402   -0.025778890445090526
0.022935212427995687   -0.08275365208831402   -0.025778890445090526
0.022935212427995687   -0.08275365208831402   -0.025778890445090526
0.022935212427995687   -0.08275365208831402   -0.025778890445090526
0.5901282529461106   0.04065055200346614   0.03555257139830445
0.5901282529461106   0.04065055200346614   0.03555257139830445
0.5901282529461106   0.04065055200346614   0.03555257139830445
0.5901282529461106   0.04065055200346614   0.03555257139830445
0.5895373540890037   0.05485883894870837   -0.005712661201240768
0.5895373540890037   0.05485883894870837   -0.005712661201240768
0.5895373540890037   0.05485883894870837   -0.005712661201240768
0.5895373540890037   0.05485883894870837   -0.005712661201240768
0.033415713654753806   -0.04962473805996383   0.0036325724699743586
0.033415713654753806   -0.04962473805996383   0.0036325724699743586
0.033415713654753806   -0.04962473805996383   0.0036325724699743586
0.033415713654753806   -0.04962473805996383   0.0036325724699743586
0.3051879213707462   -0.007149686420354295   0.0006019431298925418
0.3051879213707462   -0.007149686420354295   0.0006019431298925418
0.3051879213707462   -0.007149686420354295   0.0006019431298925418
0.3051879213707462   -0.007149686420354295   0.0006019431298925418
0.026672029509854044   -0.060428175824809305   -0.019282410489678582
0.026672029509854044   -0.060428175824809305   -0.019282410489678582
0.026672029509854044   -0.060428175824809305   -0.019282410489678582
0.026672029509854044   -0.060428175824809305   -0.019282410489678582
0.5997194399765091   0.06910067845615812   0.030955928728832727
0.5997194399765091   0.06910067845615812   0.030955928728832727
0.5997194399765091   0.06910067845615812   0.030955928728832727
0.5997194399765091   0.06910067845615812   0.030955928728832727
0.5943769104851846   0.08118799110474212   0.005916701697041567
0.5943769104851846   0.08118799110474212   0.005916701697041567
0.5943769104851846   0.08118799110474212   0.005916701697041567
0.5943769104851846   0.08118799110474212   0.005916701697041567
0.034791323592117084   -0.0235316419292783   -0.0016618991807295699
0.034791323592117084   -0.0235316419292783   -0.0016618991807295699
0.034791323592117084   -0.0235316419292783   -0.0016618991807295699
0.034791323592117084   -0.0235316419292783   -0.0016618991807295699
0.30944192241581714   0.018011947926190167   0.012674193344904904
0.30944192241581714   0.018011947926190167   0.012674193344904904
0.30944192241581714   0.018011947926190167   0.012674193344904904
0.30944192241581714   0.018011947926190167   0.012674193344904904
0.02986313523563696   -0.035720834052548   -0.014113648839860403
0.02986313523563696   -0.035720834052548   -0.014113648839860403
0.02986313523563696   -0.035720834052548   -0.014113648839860403
0.02986313523563696   -0.035720834052548   -0.014113648839860403
0.6017946307793086   0.09586671516565459   0.028326579106739476
0.6017946307793086   0.09586671516565459   0.028326579106739476
0.6017946307793086   0.09586671516565459   0.028326579106739476
0.6017946307793086   0.09586671516565459   0.028326579106739476
0.5849830995323134   0.11157136973054882   0.012511674896117216
0.5849830995323134   0.11157136973054882   0.012511674896117216
0.5849830995323134   0.11157136973054882   0.012511674896117216
0.5849830995323134   0.11157136973054882   0.012511674896117216
0.03462826461239554   0.008756414553881865   -0.006194559600251538
0.03462826461239554   0.008756414553881865   -0.006194559600251538
0.03462826461239554   0.008756414553881865   -0.006194559600251538
0.03462826461239554   0.008756414553881865   -0.006194559600251538
0.3141941980484286   0.046772240196427325   0.023857864413229502
0.3141941980484286   0.046772240196427325   0.023857864413229502
0.3141941980484286   0.046772240196427325   0.023857864413229502
0.3141941980484286   0.046772240196427325   0.023857864413229502
0.5434656033750791   -0.10934278776635005   -0.04776733668703708
0.5434656033750791   -0.10934278776635005   -0.04776733668703708
0.5434656033750791   -0.10934278776635005   -0.04776733668703708
0.5434656033750791   -0.10934278776635005   -0.04776733668703708
1.1197559519062426   0.07397016836096146   0.03476936690044229
1.1197559519062426   0.07397016836096146   0.03476936690044229
1.1197559519062426   0.07397016836096146   0.03476936690044229
1.1197559519062426   0.07397016836096146   0.03476936690044229
1.1326161787331306   0.03487686332435619   -0.07187045505341769
1.1326161787331306   0.03487686332435619   -0.07187045505341769
1.1326161787331306   0.03487686332435619   -0.07187045505341769
1.1326161787331306   0.03487686332435619   -0.07187045505341769
0.5794313037530263   -0.022222620909519736   0.020838546977090422
0.5794313037530263   -0.022222620909519736   0.020838546977090422
0.5794313037530263   -0.022222620909519736   0.020838546977090422
0.5794313037530263   -0.022222620909519736   0.020838546977090422
0.8018389616401901   -0.014158135192097382   -0.020173041835167972
0.8018389616401901   -0.014158135192097382   -0.020173041835167972
0.8018389616401901   -0.014158135192097382   -0.020173041835167972
0.8018389616401901   -0.014158135192097382   -0.020173041835167972
0.5589899761459756   -0.07182702381327191   -0.03176368815440306
0.5589899761459756   -0.07182702381327191   -0.03176368815440306
0.5589899761459756   -0.07182702381327191   -0.03176368815440306
0.5589899761459756   -0.07182702381327191   -0.03176368815440306
1.1633721526864869   0.09479591257441516   0.02199036546330442
1.1633721526864869   0.09479591257441516   0.02199036546330442
1.1633721526864869   0.09479591257441516   0.02199036546330442
1.1633721526864869   0.09479591257441516   0.02199036546330442
1.1453670610803024   0.06383634532890262   -0.01645116974932386
1.1453670610803024   0.06383634532890262   -0.01645116974932386
1.1453670610803024   0.06383634532890262   -0.01645116974932386
1.1453670610803024   0.06383634532890262   -0.01645116974932386
0.5772787668092818   -0.009194736651579244   0.010808711073839607
0.5772787668092818   -0.009194736651579244   0.010808711073839607
0.5772787668092818   -0.009194736651579244   0.010808711073839607
0.5772787668092818   -0.009194736651579244   0.010808711073839607
0.8441100284087939   0.021100905562792843   0.013899343092883959
0.8441100284087939   0.021100905562792843   0.013899343092883959
0.8441100284087939   0.021100905562792843   0.013899343092883959
0.8441100284087939   0.021100905562792843   0.013899343092883959
0.5608549543904358   -0.05489738299466537   -0.025607704677300946
0.5608549543904358   -0.05489738299466537   -0.025607704677300946
0.5608549543904358   -0.05489738299466537   -0.025607704677300946
0.5608549543904358   -0.05489738299466537   -0.025607704677300946
1.1604420445958183   0.10819016276865992   0.01456993038849879
1.1604420445958183   0.10819016276865992   0.01456993038849879
1.1604420445958183   0.10819016276865992   0.01456993038849879
1.1604420445958183   0.10819016276865992   0.01456993038849879
1.1437610750949179   0.0979926047544821   -0.025117837599108718
1.1437610750949179   0.0979926047544821   -0.025117837599108718
1.1437610750949179   0.0979926047544821   -0.025117837599108718
1.1437610750949179   0.0979926047544821   -0.025117837599108718
0.5655328180737415   0.02077563650108459   0.0060560008327120475
0.5655328180737415   0.02077563650108459   0.0060560008327120475
0.5655328180737415   0.02077563650108459   0.0060560008327120475
0.5655328180737415   0.02077563650108459   0.0060560008327120475
0.8227410152435579   0.03708708342881306   0.010394884007047696
0.8227410152435579   0.03708708342881306   0.010394884007047696
0.8227410152435579   0.03708708342881306   0.010394884007047696
0.8227410152435579   0.03708708342881306   0.010394884007047696
-1.2292989687124516   -0.05570222906395106   0.06358780201094906
-1.2292989687124516   -0.05570222906395106   0.06358780201094906
-1.2292989687124516   -0.05570222906395106   0.06358780201094906
-1.2292989687124516   -0.05570222906395106   0.06358780201094906
-0.81686987871685   -0.031231513028911   -0.016545611426061764
-0.81686987871685   -0.031231513028911   -0.016545611426061764
-0.81686987871685   -0.031231513028911   -0.016545611426061764
-0.81686987871685   -0.031231513028911   -0.016545611426061764
-0.7872450509270892   0.06628311694929123   0.05331599265527988
-0.7872450509270892   0.06628311694929123   0.05331599265527988
-0.7872450509270892   0.06628311694929123   0.05331599265527988
-0.7872450509270892   0.06628311694929123   0.05331599265527988
-1.2348995175251338   -0.08823299849044641   -0.02590681617230911
-1.2348995175251338   -0.08823299849044641   -0.02590681617230911
-1.2348995175251338   -0.08823299849044641   -0.02590681617230911
-1.2348995175251338   -0.08823299849044641   -0.02590681617230911
-0.9758115289151846   -0.015083992285065101   -0.0019372435039616762
-0.9758115289151846   -0.015083992285065101   -0.0019372435039616762
-0.9758115289151846   -0.015083992285065101   -0.0019372435039616762
-0.9758115289151846   -0.015083992285065101   -0.0019372435039616762
-1.2003852870238336   -0.01276821769363723   0.07119955553738193
-1.2003852870238336   -0.01276821769363723   0.07119955553738193
-1.2003852870238336   -0.01276821769363723   0.07119955553738193
-1.2003852870238336   -0.01276821769363723   0.07119955553738193
-0.8163263346395842   -0.0037487170587116314   -0.022058591899192424
-0.8163263346395842   -0.0037487170587116314   -0.022058591899192424
-0.8163263346395842   -0.0037487170587116314   -0.022058591899192424
-0.8163263346395842   -0.0037487170587116314   -0.022058591899192424
-0.7839602071543335   0.08224016826206232   0.04939539347734398
-0.7839602071543335   0.08224016826206232   0.04939539347734398
-0.7839602071543335   0.08224016826206232   0.04939539347734398
-0.7839602071543335   0.08224016826206232   0.04939539347734398
-1.215613617758519   -0.07376040816528581   -0.035448979780357624
-1.215613617758519   -0.07376040816528581   -0.035448979780357624
-1.215613617758519   -0.07376040816528581   -0.035448979780357624
-1.215613617758519   -0.07376040816528581   -0.035448979780357624
-0.9777562141265445   0.0036620385260539012   0.011202329835837993
-0.9777562141265445   0.0036620385260539012   0.011202329835837993
-0.9777562141265445   0.0036620385260539012   0.011202329835837993
-0.9777562141265445   0.0036620385260539012   0.011202329835837993
-1.183482069648217   0.002288656324158589   0.04915969628170888
-1.183482069648217   0.002288656324158589   0.04915969628170888
-1.183482069648217   0.002288656324158589   0.04915969628170888
-1.183482069648217   0.002288656324158589   0.04915969628170888
-0.8143021031833283   0.007980755853927407   -0.02805467425949003
-0.8143021031833283   0.007980755853927407   -0.02805467425949003
-0.8143021031833283   0.007980755853927407   -0.02805467425949003
-0.8143021031833283   0.007980755853927407   -0.02805467425949003
-0.7846517996938821   0.09290550482706939   0.03919530011756808
-0.7846517996938821   0.09290550482706939   0.03919530011756808
-0.7846517996938821   0.09290550482706939   0.03919530011756808
-0.7846517996938821   0.09290550482706939   0.03919530011756808
-1.1906232807925259   -0.05834171523850812   -0.04518579405783356
-1.1906232807925259   -0.05834171523850812   -0.04518579405783356
-1.1906232807925259   -0.05834171523850812   -0.04518579405783356
-1.1906232807925259   -0.05834171523850812   -0.04518579405783356
-0.9495427628248416   0.02046847984996844   0.023427682107316043
-0.9495427628248416   0.02046847984996844   0.023427682107316043
-0.9495427628248416   0.02046847984996844   0.023427682107316043
-0.9495427628248416   0.02046847984996844   0.023427682107316043
-0.8192167777118204   -0.07764720278191714   0.01813558335209193
-0.8192167777118204   -0.07764720278191714   0.01813558335209193
-0.8192167777118204   -0.07764720278191714   0.01813558335209193
-0.8192167777118204   -0.07764720278191714   0.01813558335209193
-0.41415101549168026   -0.015085988913059845   0.0007725504936314034
-0.41415101549168026   -0.015085988913059845   0.0007725504936314034
-0.41415101549168026   -0.015085988913059845   0.0007725504936314034
-0.41415101549168026   -0.015085988913059845   0.0007725504936314034
-0.40231661085240916   0.04065942743828929   0.028964849799527924
-0.40231661085240916   0.04065942743828929   0.028964849799527924
-0.40231661085240916   0.04065942743828929   0.028964849799527924
-0.40231661085240916   0.04065942743828929   0.028964849799527924
-0.8322161131821034   -0.07657303829764776   -0.02868316337286021
-0.8322161131821034   -0.07657303829764776   -0.02868316337286021
-0.8322161131821034   -0.07657303829764776   -0.02868316337286021
-0.8322161131821034   -0.07657303829764776   -0.02868316337286021
-0.6147992991442188   -0.030171110369333412   -0.012523412446387803
-0.6147992991442188   -0.030171110369333412   -0.012523412446387803
-0.6147992991442188   -0.030171110369333412   -0.012523412446387803
-0.6147992991442188   -0.030171110369333412   -0.012523412446387803
-0.8165528640242625   -0.044473986943539406   0.01753403106223781
-0.8165528640242625   -0.044473986943539406   0.01753403106223781
-0.8165528640242625   -0.044473986943539406   0.01753403106223781
-0.8165528640242625   -0.044473986943539406   0.01753403106223781
-0.4148109223179872   0.011729313776445927   -0.00457659386651571
-0.4148109223179872   0.011729313776445927   -0.00457659386651571
-0.4148109223179872   0.011729313776445927   -0.00457659386651571
-0.4148109223179872   0.011729313776445927   -0.00457659386651571
-0.400974577810236   0.0672737071771535   0.025047914240164296
-0.400974577810236   0.0672737071771535   0.025047914240164296
-0.400974577810236   0.0672737071771535   0.025047914240164296
-0.400974577810236   0.0672737071771535   0.025047914240164296
-0.8274109538642882   -0.05174366623164739   -0.03387450557872001
-0.8274109538642882   -0.05174366623164739   -0.03387450557872001
-0.8274109538642882   -0.05174366623164739   -0.03387450557872001
-0.8274109538642882   -0.05174366623164739   -0.03387450557872001
-0.6080135905317743   -0.003265199847178546   -8.10007733936316e-05
-0.6080135905317743   -0.003265199847178546   -8.10007733936316e-05
-0.6080135905317743   -0.003265199847178546   -8.10007733936316e-05
-0.6080135905317743   -0.003265199847178546   -8.10007733936316e-05
-0.8114293552852111   -0.01747405579072575   0.011763876875743248
-0.8114293552852111   -0.01747405579072575   0.011763876875743248
-0.8114293552852111   -0.01747405579072575   0.011763876875743248
-0.8114293552852111   -0.01747405579072575   0.011763876875743248
-0.4143762175662579   0.035584055559288216   -0.010270632922072219
-0.4143762175662579   0.035584055559288216   -0.010270632922072219
-0.4143762175662579   0.035584055559288216   -0.010270632922072219
-0.4143762175662579   0.035584055559288216   -0.010270632922072219
-0.40078964449065546   0.09525307862032478   0.018758830121219254
-0.40078964449065546   0.09525307862032478   0.018758830121219254
-0.40078964449065546   0.09525307862032478   0.018758830121219254
-0.40078964449065546   0.09525307862032478   0.018758830121219254
-0.823348263404282   -0.02493454677741444   -0.03644696682994915
-0.823348263404282   -0.02493454677741444   -0.03644696682994915
-0.823348263404282   -0.02493454677741444   -0.03644696682994915
-0.823348263404282   -0.02493454677741444   -0.03644696682994915
-0.6083279601199304   0.02143107681183193   0.009439306522279298
-0.6083279601199304   0.02143107681183193   0.009439306522279298
-0.6083279601199304   0.02143107681183193   0.009439306522279298
-0.6083279601199304   0.02143107681183193   0.009439306522279298
-0.4295404228581038   -0.08887389763523407   -0.002386577616316044
-0.4295404228581038   -0.08887389763523407   -0.002386577616316044
-0.4295404228581038   -0.08887389763523407   -0.002386577616316044
-0.4295404228581038   -0.08887389763523407   -0.002386577616316044
-0.015129536876591687   0.004249904336967139   0.018338219683955485
-0.015129536876591687   0.004249904336967139   0.018338219683955485
-0.015129536876591687   0.004249904336967139   0.018338219683955485
-0.015129536876591687   0.004249904336967139   0.018338219683955485
-0.01663568192991274   0.02612885304472238   0.00877301157397829
-0.01663568192991274   0.02612885304472238   0.00877301157397829
-0.01663568192991274   0.02612885304472238   0.00877301157397829
-0.01663568192991274   0.02612885304472238   0.00877301157397829
-0.4297623653914019   -0.05689331146120441   -0.010711183995941832
-0.4297623653914019   -0.05689331146120441   -0.010711183995941832
-0.4297623653914019   -0.05689331146120441   -0.010711183995941832
-0.4297623653914019   -0.05689331146120441   -0.010711183995941832
-0.2234538200613149   -0.027905387434684906   -0.007023819707303729
-0.2234538200613149   -0.027905387434684906   -0.007023819707303729
-0.2234538200613149   -0.027905387434684906   -0.007023819707303729
-0.2234538200613149   -0.027905387434684906   -0.007023819707303729
-0.4292989971436666   -0.05934661929709764   -0.005941034921371854
-0.4292989971436666   -0.05934661929709764   -0.005941034921371854
-0.4292989971436666   -0.05934661929709764   -0.005941034921371854
-0.4292989971436666   -0.05934661929709764   -0.005941034921371854
-0.014737855720212079   0.0309433553380523   0.013447640329151911
-0.014737855720212079   0.0309433553380523   0.013447640329151911
-0.014737855720212079   0.0309433553380523   0.013447640329151911
-0.014737855720212079   0.0309433553380523   0.013447640329151911
-0.014607784135737052   0.05511877568386954   0.00418836279632917
-0.014607784135737052   0.05511877568386954   0.00418836279632917
-0.014607784135737052   0.05511877568386954   0.00418836279632917
-0.014607784135737052   0.05511877568386954   0.00418836279632917
-0.4286116674428067   -0.03015101758230157   -0.01571280916322911
-0.4286116674428067   -0.03015101758230157   -0.01571280916322911
-0.4286116674428067   -0.03015101758230157   -0.01571280916322911
-0.4286116674428067   -0.03015101758230157   -0.01571280916322911
-0.22121799838916278   -0.001108607147228241   0.003032850708002747
-0.22121799838916278   -0.001108607147228241   0.003032850708002747
-0.22121799838916278   -0.001108607147228241   0.003032850708002747
-0.22121799838916278   -0.001108607147228241   0.003032850708002747
-0.427968556979935   -0.030767255275391966   -0.011881019155780388
-0.427968556979935   -0.030767255275391966   -0.011881019155780388
-0.427968556979935   -0.030767255275391966   -0.011881019155780388
-0.427968556979935   -0.030767255275391966   -0.011881019155780388
-0.013301732394143131   0.05768417558142558   0.008153221606743043
-0.013301732394143131   0.05768417558142558   0.008153221606743043
-0.013301732394143131   0.05768417558142558   0.008153221606743043
-0.013301732394143131   0.05768417558142558   0.008153221606743043
-0.014122295869750036   0.08497115461822433   -0.000701723683812161
-0.014122295869750036   0.08497115461822433   -0.000701723683812161
-0.014122295869750036   0.08497115461822433   -0.000701723683812161
-0.014122295869750036   0.08497115461822433   -0.000701723683812161
-0.42833777081830865   -0.0029574735103197053   -0.02077124938640395
-0.42833777081830865   -0.0029574735103197053   -0.02077124938640395
-0.42833777081830865   -0.0029574735103197053   -0.02077124938640395
-0.42833777081830865   -0.0029574735103197053   -0.02077124938640395
-0.21946614172305706   0.025713987437599672   0.012256232926227465
-0.21946614172305706   0.025713987437599672   0.012256232926227465
-0.21946614172305706   0.025713987437599672   0.012256232926227465
-0.21946614172305706   0.025713987437599672   0.012256232926227465
-0.043388856177084864   -0.09742089883095205   -0.021287573650591023
-0.043388856177084864   -0.09742089883095205   -0.021287573650591023
-0.043388856177084864   -0.09742089883095205   -0.021287573650591023
-0.043388856177084864   -0.09742089883095205   -0.021287573650591023
0.3822743786864357   0.026864676370326218   0.03487229869530424
0.3822743786864357   0.026864676370326218   0.03487229869530424
0.3822743786864357   0.026864676370326218   0.03487229869530424
0.3822743786864357   0.026864676370326218   0.03487229869530424
0.3697508550715656   0.014151220847858442   -0.013822774407726075
0.3697508550715656   0.014151220847858442   -0.013822774407726075
0.3697508550715656   0.014151220847858442   -0.013822774407726075
0.3697508550715656   0.014151220847858442   -0.013822774407726075
-0.029222588388245083   -0.03558524682265983   0.007552579149699035
-0.029222588388245083   -0.03558524682265983   0.007552579149699035
-0.029222588388245083   -0.03558524682265983   0.007552579149699035
-0.029222588388245083   -0.03558524682265983   0.007552579149699035
0.1674418366602147   -0.022640372012964816   -0.003978367490789666
0.1674418366602147   -0.022640372012964816   -0.003978367490789666
0.1674418366602147   -0.022640372012964816   -0.003978367490789666
0.1674418366602147   -0.022640372012964816   -0.003978367490789666
-0.04317012505911646   -0.07101874208516422   -0.026751608942153463
-0.04317012505911646   -0.07101874208516422   -0.026751608942153463
-0.04317012505911646   -0.07101874208516422   -0.026751608942153463
-0.04317012505911646   -0.07101874208516422   -0.026751608942153463
0.3863843558966033   0.052270680264528496   0.031225270300792335
0.3863843558966033   0.052270680264528496   0.031225270300792335
0.3863843558966033   0.052270680264528496   0.031225270300792335
0.3863843558966033   0.052270680264528496   0.031225270300792335
0.3758395352720466   0.041127440273120014   -0.019414699848667588
0.3758395352720466   0.041127440273120014   -0.019414699848667588
0.3758395352720466   0.041127440273120014   -0.019414699848667588
0.3758395352720466   0.041127440273120014   -0.019414699848667588
-0.02835156122068502   -0.011623312588323245   0.002211565643782597
-0.02835156122068502   -0.011623312588323245   0.002211565643782597
-0.02835156122068502   -0.011623312588323245   0.002211565643782597
-0.02835156122068502   -0.011623312588323245   0.002211565643782597
0.16900332069151894   0.0016161987536317257   0.006019978946290054
0.16900332069151894   0.0016161987536317257   0.006019978946290054
0.16900332069151894   0.0016161987536317257   0.006019978946290054
0.16900332069151894   0.0016161987536317257   0.006019978946290054
-0.04191829710338037   -0.04499189291986221   -0.032253533438155534
-0.04191829710338037   -0.04499189291986221   -0.032253533438155534
-0.04191829710338037   -0.04499189291986221   -0.032253533438155534
-0.04191829710338037   -0.04499189291986221   -0.032253533438155534
0.3923338328033865   0.07742358225330409   0.0267606458278477
0.3923338328033865   0.07742358225330409   0.0267606458278477
0.3923338328033865   0.07742358225330409   0.0267606458278477
0.3923338328033865   0.07742358225330409   0.0267606458278477
0.3796211190669863   0.07493500428237415   -0.02029446541238087
0.3796211190669863   0.07493500428237415   -0.02029446541238087
0.3796211190669863   0.07493500428237415   -0.02029446541238087
0.3796211190669863   0.07493500428237415   -0.02029446541238087
-0.028327688698103544   0.016359392969149567   -0.003116926176504624
-0.028327688698103544   0.016359392969149567   -0.003116926176504624
-0.028327688698103544   0.016359392969149567   -0.003116926176504624
-0.028327688698103544   0.016359392969149567   -0.003116926176504624
0.17494964110820357   0.02864322572941172   0.017884259392342495
0.17494964110820357   0.02864322572941172   0.017884259392342495
0.17494964110820357   0.02864322572941172   0.017884259392342495
0.17494964110820357   0.02864322572941172   0.017884259392342495
0.34226940269479167   -0.0967821631999455   -0.041505741692641644
0.34226940269479167   -0.0967821631999455   -0.041505741692641644
0.34226940269479167   -0.0967821631999455   -0.041505741692641644
0.34226940269479167   -0.0967821631999455   -0.041505741692641644
0.7533128307532091   0.05598074744750782   0.03887421031793248
0.7533128307532091   0.05598074744750782   0.03887421031793248
0.7533128307532091   0.05598074744750782   0.03887421031793248
0.7533128307532091   0.05598074744750782   0.03887421031793248
0.7474624493153308   -0.0038341402608984   -0.05525019534211126
0.7474624493153308   -0.0038341402608984   -0.05525019534211126
0.7474624493153308   -0.0038341402608984   -0.05525019534211126
0.7474624493153308   -0.0038341402608984   -0.05525019534211126
0.37331899921423173   -0.007949266977776107   0.026118434131242978
0.37331899921423173   -0.007949266977776107   0.026118434131242978
0.37331899921423173   -0.007949266977776107   0.026118434131242978
0.37331899921423173   -0.007949266977776107   0.026118434131242978
0.5271896928499397   -0.018951664298837267   -0.01735119846909835
0.5271896928499397   -0.018951664298837267   -0.01735119846909835
0.5271896928499397   -0.018951664298837267   -0.01735119846909835
0.5271896928499397   -0.018951664298837267   -0.01735119846909835
0.3426822158669193   -0.08395258149898108   -0.05106216808411307
0.3426822158669193   -0.08395258149898108   -0.05106216808411307
0.3426822158669193   -0.08395258149898108   -0.05106216808411307
0.3426822158669193   -0.08395258149898108   -0.05106216808411307
0.7802982157889764   0.07436815738663982   0.030726339378578035
0.7802982157889764   0.07436815738663982   0.030726339378578035
0.7802982157889764   0.07436815738663982   0.030726339378578035
0.7802982157889764   0.07436815738663982   0.030726339378578035
0.765964301998924   0.01155265701433647   -0.0741398557862239
0.765964301998924   0.01155265701433647   -0.0741398557862239
0.765964301998924   0.01155265701433647   -0.0741398557862239
0.765964301998924   0.01155265701433647   -0.0741398557862239
0.37615171859275626   0.0037908752007415614   0.01948278182726554
0.37615171859275626   0.0037908752007415614   0.01948278182726554
0.37615171859275626   0.0037908752007415614   0.01948278182726554
0.37615171859275626   0.0037908752007415614   0.01948278182726554
0.5511947149929917   -0.0023039360022338168   -0.005262478753767504
0.5511947149929917   -0.0023039360022338168   -0.005262478753767504
0.5511947149929917   -0.0023039360022338168   -0.005262478753767504
0.5511947149929917   -0.0023039360022338168   -0.005262478753767504
0.3466583406772683   -0.06859934216886429   -0.05559389038057216
0.3466583406772683   -0.06859934216886429   -0.05559389038057216
0.3466583406772683   -0.06859934216886429   -0.05559389038057216
0.3466583406772683   -0.06859934216886429   -0.05559389038057216
0.8003174448218342   0.08880263929136495   0.020375876051304476
0.8003174448218342   0.08880263929136495   0.020375876051304476
0.8003174448218342   0.08880263929136495   0.020375876051304476
0.8003174448218342   0.08880263929136495   0.020375876051304476
0.7953331557269208   0.051569299872266286   -0.06977601996455872
0.7953331557269208   0.051569299872266286   -0.06977601996455872
0.7953331557269208   0.051569299872266286   -0.06977601996455872
0.7953331557269208   0.051569299872266286   -0.06977601996455872
0.377477204389619   0.02968030149060854   0.014240663992555093
0.377477204389619   0.02968030149060854   0.014240663992555093
0.377477204389619   0.02968030149060854   0.014240663992555093
0.377477204389619   0.02968030149060854   0.014240663992555093
0.5554213565034305   0.01671252854181718   0.008133719290491323
0.5554213565034305   0.01671252854181718   0.008133719290491323
0.5554213565034305   0.01671252854181718   0.008133719290491323
0.5554213565034305   0.01671252854181718   0.008133719290491323
-0.8774197080718596   -0.028526257845222475   0.05753049384739047
-0.8774197080718596   -0.028526257845222475   0.05753049384739047
-0.8774197080718596   -0.028526257845222475   0.05753049384739047
-0.8774197080718596   -0.028526257845222475   0.05753049384739047
-0.6144721242213536   -0.0411924022702469   -0.0216937854965618
-0.6144721242213536   -0.0411924022702469   -0.0216937854965618
-0.6144721242213536   -0.0411924022702469   -0.0216937854965618
-0.6144721242213536   -0.0411924022702469   -0.0216937854965618
-0.5782701463587295   0.05808163177871371   0.049036964007087264
-0.5782701463587295   0.05808163177871371   0.049036964007087264
-0.5782701463587295   0.05808163177871371   0.049036964007087264
-0.5782701463587295   0.05808163177871371   0.049036964007087264
-0.8774814344258193   -0.07226077881651553   -0.03174025023282205
-0.8774814344258193   -0.07226077881651553   -0.03174025023282205
-0.8774814344258193   -0.07226077881651553   -0.03174025023282205
-0.8774814344258193   -0.07226077881651553   -0.03174025023282205
-0.706752723089361   -0.011230718771726544   -0.0016754569638285088
-0.706752723089361   -0.011230718771726544   -0.0016754569638285088
-0.706752723089361   -0.011230718771726544   -0.0016754569638285088
-0.706752723089361   -0.011230718771726544   -0.0016754569638285088
-0.8445474502251005   0.005960463829061152   0.054708428125195496
-0.8445474502251005   0.005960463829061152   0.054708428125195496
-0.8445474502251005   0.005960463829061152   0.054708428125195496
-0.8445474502251005   0.005960463829061152   0.054708428125195496
-0.6085219295204037   -0.017457409827817363   -0.026682910194746837
-0.6085219295204037   -0.017457409827817363   -0.026682910194746837
-0.6085219295204037   -0.017457409827817363   -0.026682910194746837
-0.6085219295204037   -0.017457409827817363   -0.026682910194746837
-0.5728188633745734   0.07017382064654876   0.04142740989486181
-0.5728188633745734   0.07017382064654876   0.04142740989486181
-0.5728188633745734   0.07017382064654876   0.04142740989486181
-0.5728188633745734   0.07017382064654876   0.04142740989486181
-0.8566412190349502   -0.058778759059450764   -0.04010695334435773
-0.8566412190349502   -0.058778759059450764   -0.04010695334435773
-0.8566412190349502   -0.058778759059450764   -0.04010695334435773
-0.8566412190349502   -0.058778759059450764   -0.04010695334435773
-0.7017608769859665   0.004711124072367928   0.007339242695952174
-0.7017608769859665   0.004711124072367928   0.007339242695952174
-0.7017608769859665   0.004711124072367928   0.007339242695952174
-0.7017608769859665   0.004711124072367928   0.007339242695952174
-0.8239991638127472   0.020430992767819067   0.043893570939387214
-0.8239991638127472   0.020430992767819067   0.043893570939387214
-0.8239991638127472   0.020430992767819067   0.043893570939387214
-0.8239991638127472   0.020430992767819067   0.043893570939387214
-0.6030386007580587   -0.006613613342002528   -0.03288384303400794
-0.6030386007580587   -0.006613613342002528   -0.03288384303400794
-0.6030386007580587   -0.006613613342002528   -0.03288384303400794
-0.6030386007580587   -0.006613613342002528   -0.03288384303400794
-0.5698028654725361   0.08198888652024125   0.03564679941593119
-0.5698028654725361   0.08198888652024125   0.03564679941593119
-0.5698028654725361   0.08198888652024125   0.03564679941593119
-0.5698028654725361   0.08198888652024125   0.03564679941593119
-0.8287491958749483   -0.04093643693551627   -0.04800848536106291
-0.8287491958749483   -0.04093643693551627   -0.04800848536106291
-0.8287491958749483   -0.04093643693551627   -0.04800848536106291
-0.8287491958749483   -0.04093643693551627   -0.04800848536106291
-0.6753906403707184   0.019664990716584424   0.0199642354575389
-0.6753906403707184   0.019664990716584424   0.0199642354575389
-0.6753906403707184   0.019664990716584424   0.0199642354575389
-0.6753906403707184   0.019664990716584424   0.0199642354575389
-0.6074764376839785   -0.0495726120551946   0.02166485697525581
-0.6074764376839785   -0.0495726120551946   0.02166485697525581
-0.6074764376839785   -0.0495726120551946   0.02166485697525581
-0.6074764376839785   -0.0495726120551946   0.02166485697525581
-0.3527779968685544   -0.02668840094317504   -0.003503514730320463
-0.3527779968685544   -0.02668840094317504   -0.003503514730320463
-0.3527779968685544   -0.02668840094317504   -0.003503514730320463
-0.3527779968685544   -0.02668840094317504   -0.003503514730320463
-0.3348403388070065   0.033926172890188386   0.026437118191215817
-0.3348403388070065   0.033926172890188386   0.026437118191215817
-0.3348403388070065   0.033926172890188386   0.026437118191215817
-0.3348403388070065   0.033926172890188386   0.026437118191215817
-0.616639225390741   -0.0590317284148886   -0.025695070959368023
-0.616639225390741   -0.0590317284148886   -0.025695070959368023
-0.616639225390741   -0.0590317284148886   -0.025695070959368023
-0.616639225390741   -0.0590317284148886   -0.025695070959368023
-0.47602692485868525   -0.023176469152535323   -0.009769474646813887
-0.47602692485868525   -0.023176469152535323   -0.009769474646813887
-0.47602692485868525   -0.023176469152535323   -0.009769474646813887
-0.47602692485868525   -0.023176469152535323   -0.009769474646813887
-0.6003367296138178   -0.020919494172787934   0.017705173683145586
-0.6003367296138178   -0.020919494172787934   0.017705173683145586
-0.6003367296138178   -0.020919494172787934   0.017705173683145586
-0.6003367296138178   -0.020919494172787934   0.017705173683145586
-0.34905086232917626   -0.002094089097156679   -0.008595237432288447
-0.34905086232917626   -0.002094089097156679   -0.008595237432288447
-0.34905086232917626   -0.002094089097156679   -0.008595237432288447
-0.34905086232917626   -0.002094089097156679   -0.008595237432288447
-0.33058356223545193   0.0587305378008378   0.021669122954869717
-0.33058356223545193   0.0587305378008378   0.021669122954869717
-0.33058356223545193   0.0587305378008378   0.021669122954869717
-0.33058356223545193   0.0587305378008378   0.021669122954869717
-0.6083229782493973   -0.035639754881438945   -0.03027958895126985
-0.6083229782493973   -0.035639754881438945   -0.03027958895126985
-0.6083229782493973   -0.035639754881438945   -0.03027958895126985
-0.6083229782493973   -0.035639754881438945   -0.03027958895126985
-0.46688233100825255   0.0011843701962020725   0.0006971620515737048
-0.46688233100825255   0.0011843701962020725   0.0006971620515737048
-0.46688233100825255   0.0011843701962020725   0.0006971620515737048
-0.46688233100825255   0.0011843701962020725   0.0006971620515737048
-0.5907870602966881   0.005590052319819905   0.016170193611016494
-0.5907870602966881   0.005590052319819905   0.016170193611016494
-0.5907870602966881   0.005590052319819905   0.016170193611016494
-0.5907870602966881   0.005590052319819905   0.016170193611016494
-0.3455216709153886   0.020098539872354534   -0.014389422516326508
-0.3455216709153886   0.020098539872354534   -0.014389422516326508
-0.3455216709153886   0.020098539872354534   -0.014389422516326508
-0.3455216709153886   0.020098539872354534   -0.014389422516326508
-0.32647012128798086   0.08517628130852319   0.017229031483430184
-0.32647012128798086   0.08517628130852319   0.017229031483430184
-0.32647012128798086   0.08517628130852319   0.017229031483430184
-0.32647012128798086   0.08517628130852319   0.017229031483430184
-0.6021044871113882   -0.010415103851510621   -0.033457318406575454
-0.6021044871113882   -0.010415103851510621   -0.033457318406575454
-0.6021044871113882   -0.010415103851510621   -0.033457318406575454
-0.6021044871113882   -0.010415103851510621   -0.033457318406575454
-0.463331686602144   0.024128211433574465   0.01067211587126015
-0.463331686602144   0.024128211433574465   0.01067211587126015
-0.463331686602144   0.024128211433574465   0.01067211587126015
-0.463331686602144   0.024128211433574465   0.01067211587126015
-0.3602028710514843   -0.06824638646035878   0.0009300998722108103
-0.3602028710514843   -0.06824638646035878   0.0009300998722108103
-0.3602028710514843   -0.06824638646035878   0.0009300998722108103
-0.3602028710514843   -0.06824638646035878   0.0009300998722108103
-0.09373434471848853   -0.008086284603622223   0.014674322930137077
-0.09373434471848853   -0.008086284603622223   0.014674322930137077
-0.09373434471848853   -0.008086284603622223   0.014674322930137077
-0.09373434471848853   -0.008086284603622223   0.014674322930137077
-0.09145764865284493   0.013910824977039198   0.005004781456719249
-0.09145764865284493   0.013910824977039198   0.005004781456719249
-0.09145764865284493   0.013910824977039198   0.005004781456719249
-0.09145764865284493   0.013910824977039198   0.005004781456719249
-0.3562542781393545   -0.03987109565374538   -0.006835309926594554
-0.3562542781393545   -0.03987109565374538   -0.006835309926594554
-0.3562542781393545   -0.03987109565374538   -0.006835309926594554
-0.3562542781393545   -0.03987109565374538   -0.006835309926594554
-0.22579918486092598   -0.024476849110650442   -0.00694979279763735
-0.22579918486092598   -0.024476849110650442   -0.00694979279763735
-0.22579918486092598   -0.024476849110650442   -0.00694979279763735
-0.22579918486092598   -0.024476849110650442   -0.00694979279763735
-0.35566968384308034   -0.0405743543101213   -0.003209079788847786
-0.35566968384308034   -0.0405743543101213   -0.003209079788847786
-0.35566968384308034   -0.0405743543101213   -0.003209079788847786
-0.35566968384308034   -0.0405743543101213   -0.003209079788847786
-0.08994489308790955   0.016711433494624665   0.009767950763810694
-0.08994489308790955   0.016711433494624665   0.009767950763810694
-0.08994489308790955   0.016711433494624665   0.009767950763810694
-0.08994489308790955   0.016711433494624665   0.009767950763810694
-0.08631602137376308   0.04170764655241427   0.0012848654413141047
-0.08631602137376308   0.04170764655241427   0.0012848654413141047
-0.08631602137376308   0.04170764655241427   0.0012848654413141047
-0.08631602137376308   0.04170764655241427   0.0012848654413141047
-0.35199222591813134   -0.01489913777253428   -0.011744519885155364
-0.35199222591813134   -0.01489913777253428   -0.011744519885155364
-0.35199222591813134   -0.01489913777253428   -0.011744519885155364
-0.35199222591813134   -0.01489913777253428   -0.011744519885155364
-0.22030665047822556   0.0004942325711299114   0.0029181601654360047
-0.22030665047822556   0.0004942325711299114   0.0029181601654360047
-0.22030665047822556   0.0004942325711299114   0.0029181601654360047
-0.22030665047822556   0.0004942325711299114   0.0029181601654360047
-0.35068119453559665   -0.01286671776434875   -0.007221782980667363
-0.35068119453559665   -0.01286671776434875   -0.007221782980667363
-0.35068119453559665   -0.01286671776434875   -0.007221782980667363
-0.35068119453559665   -0.01286671776434875   -0.007221782980667363
-0.08569047112240345   0.0416118081781232   0.004508455072404103
-0.08569047112240345   0.0416118081781232   0.004508455072404103
-0.08569047112240345   0.0416118081781232   0.004508455072404103
-0.08569047112240345   0.0416118081781232   0.004508455072404103
-0.08170113930894538   0.06990771217743046   -0.0030819524570164306
-0.08170113930894538   0.06990771217743046   -0.0030819524570164306
-0.08170113930894538   0.06990771217743046   -0.0030819524570164306
-0.08170113930894538   0.06990771217743046   -0.0030819524570164306
-0.3482558524488208   0.010360519821029923   -0.01688386283327787
-0.3482558524488208   0.010360519821029923   -0.01688386283327787
-0.3482558524488208   0.010360519821029923   -0.01688386283327787
-0.3482558524488208   0.010360519821029923   -0.01688386283327787
-0.21529241129425594   0.025585194167517214   0.012425047262517312
-0.21529241129425594   0.025585194167517214   0.012425047262517312
-0.21529241129425594   0.025585194167517214   0.012425047262517312
-0.21529241129425594   0.025585194167517214   0.012425047262517312
-0.11562731179147417   -0.08355456739333289   -0.019322229645081398
-0.11562731179147417   -0.08355456739333289   -0.019322229645081398
-0.11562731179147417   -0.08355456739333289   -0.019322229645081398
-0.11562731179147417   -0.08355456739333289   -0.019322229645081398
0.16176729429984257   0.012763141798036844   0.03181505680050809
0.16176729429984257   0.012763141798036844   0.03181505680050809
0.16176729429984257   0.012763141798036844   0.03181505680050809
0.16176729429984257   0.012763141798036844   0.03181505680050809
0.15035525866990698   -0.00474696391394018   -0.01783385336485479
0.15035525866990698   -0.00474696391394018   -0.01783385336485479
0.15035525866990698   -0.00474696391394018   -0.01783385336485479
0.15035525866990698   -0.00474696391394018   -0.01783385336485479
-0.09674763131994293   -0.01935269119358516   0.011818384291853608
-0.09674763131994293   -0.01935269119358516   0.011818384291853608
-0.09674763131994293   -0.01935269119358516   0.011818384291853608
-0.09674763131994293   -0.01935269119358516   0.011818384291853608
0.023916881333530256   -0.023063300444105973   -0.0049515679986175684
0.023916881333530256   -0.023063300444105973   -0.0049515679986175684
0.023916881333530256   -0.023063300444105973   -0.0049515679986175684
0.023916881333530256   -0.023063300444105973   -0.0049515679986175684
-0.11166882897993136   -0.05834422484272635   -0.02379607035894729
-0.11166882897993136   -0.05834422484272635   -0.02379607035894729
-0.11166882897993136   -0.05834422484272635   -0.02379607035894729
-0.11166882897993136   -0.05834422484272635   -0.02379607035894729
0.16777194177146926   0.036740055176774214   0.0277625430522383
0.16777194177146926   0.036740055176774214   0.0277625430522383
0.16777194177146926   0.036740055176774214   0.0277625430522383
0.16777194177146926   0.036740055176774214   0.0277625430522383
0.15993004757731644   0.021548698499298313   -0.020209987716111072
0.15993004757731644   0.021548698499298313   -0.020209987716111072
0.15993004757731644   0.021548698499298313   -0.020209987716111072
0.15993004757731644   0.021548698499298313   -0.020209987716111072
-0.09303804077267945   0.0029794837260129353   0.006402931273134369
-0.09303804077267945   0.0029794837260129353   0.006402931273134369
-0.09303804077267945   0.0029794837260129353   0.006402931273134369
-0.09303804077267945   0.0029794837260129353   0.006402931273134369
0.029015084553641057   -0.00040963611818946224   0.005090679305419282
0.029015084553641057   -0.00040963611818946224   0.005090679305419282
0.029015084553641057   -0.00040963611818946224   0.005090679305419282
0.029015084553641057   -0.00040963611818946224   0.005090679305419282
-0.1074379654426922   -0.03367195685972047   -0.02894525149119636
-0.1074379654426922   -0.03367195685972047   -0.02894525149119636
-0.1074379654426922   -0.03367195685972047   -0.02894525149119636
-0.1074379654426922   -0.03367195685972047   -0.02894525149119636
0.17649452421372916   0.060364691051433855   0.023796402913815063
0.17649452421372916   0.060364691051433855   0.023796402913815063
0.17649452421372916   0.060364691051433855   0.023796402913815063
0.17649452421372916   0.060364691051433855   0.023796402913815063
0.16764356652430754   0.05150479632625562   -0.02336116461337779
0.16764356652430754   0.05150479632625562   -0.02336116461337779
0.16764356652430754   0.05150479632625562   -0.02336116461337779
0.16764356652430754   0.05150479632625562   -0.02336116461337779
-0.08907428421620003   0.028708920305099788   0.001251114879040104
-0.08907428421620003   0.028708920305099788   0.001251114879040104
-0.08907428421620003   0.028708920305099788   0.001251114879040104
-0.08907428421620003   0.028708920305099788   0.001251114879040104
0.03687302733748507   0.024212707871724245   0.01548293019968832
0.03687302733748507   0.024212707871724245   0.01548293019968832
0.03687302733748507   0.024212707871724245   0.01548293019968832
0.03687302733748507   0.024212707871724245   0.01548293019968832
0.12833179034382372   -0.08442513911188784   -0.0381741820696606
0.12833179034382372   -0.08442513911188784   -0.0381741820696606
0.12833179034382372   -0.08442513911188784   -0.0381741820696606
0.12833179034382372   -0.08442513911188784   -0.0381741820696606
0.38849816069829446   0.03837309115835307   0.041275653273592484
0.38849816069829446   0.03837309115835307   0.041275653273592484
0.38849816069829446   0.03837309115835307   0.041275653273592484
0.38849816069829446   0.03837309115835307   0.041275653273592484
0.38458097329790386   -0.02097314699980865   -0.050262940062591854
0.38458097329790386   -0.02097314699980865   -0.050262940062591854
0.38458097329790386   -0.02097314699980865   -0.050262940062591854
0.38458097329790386   -0.02097314699980865   -0.050262940062591854
0.1624481466450149   0.00707085307234033   0.03081276952440325
0.1624481466450149   0.00707085307234033   0.03081276952440325
0.1624481466450149   0.00707085307234033   0.03081276952440325
0.1624481466450149   0.00707085307234033   0.03081276952440325
0.2520930234976248   -0.01753177436378002   -0.013386535932874977
0.2520930234976248   -0.01753177436378002   -0.013386535932874977
0.2520930234976248   -0.01753177436378002   -0.013386535932874977
0.2520930234976248   -0.01753177436378002   -0.013386535932874977
0.1319842216456552   -0.07027259149812562   -0.0441634109019281
0.1319842216456552   -0.07027259149812562   -0.0441634109019281
0.1319842216456552   -0.07027259149812562   -0.0441634109019281
0.1319842216456552   -0.07027259149812562   -0.0441634109019281
0.41758915742672503   0.05891455670011777   0.0348902768815956
0.41758915742672503   0.05891455670011777   0.0348902768815956
0.41758915742672503   0.05891455670011777   0.0348902768815956
0.41758915742672503   0.05891455670011777   0.0348902768815956
0.4057502246679731   -0.006247247931519123   -0.06030633990925478
0.4057502246679731   -0.006247247931519123   -0.06030633990925478
0.4057502246679731   -0.006247247931519123   -0.06030633990925478
0.4057502246679731   -0.006247247931519123   -0.06030633990925478
0.16804226240019732   0.017859323962467293   0.02404046093512253
0.16804226240019732   0.017859323962467293   0.02404046093512253
0.16804226240019732   0.017859323962467293   0.02404046093512253
0.16804226240019732   0.017859323962467293   0.02404046093512253
0.27343841541452424   -0.0026721902094936495   -0.0015658742856021514
0.27343841541452424   -0.0026721902094936495   -0.0015658742856021514
0.27343841541452424   -0.0026721902094936495   -0.0015658742856021514
0.27343841541452424   -0.0026721902094936495   -0.0015658742856021514
0.13781176655998986   -0.058020175359961776   -0.0512325189434848
0.13781176655998986   -0.058020175359961776   -0.0512325189434848
0.13781176655998986   -0.058020175359961776   -0.0512325189434848
0.13781176655998986   -0.058020175359961776   -0.0512325189434848
0.4386340749959226   0.0722856058786534   0.025580057920327776
0.4386340749959226   0.0722856058786534   0.025580057920327776
0.4386340749959226   0.0722856058786534   0.025580057920327776
0.4386340749959226   0.0722856058786534   0.025580057920327776
0.4382776974189558   0.026076819833808294   -0.0645772373207829
0.4382776974189558   0.026076819833808294   -0.0645772373207829
0.4382776974189558   0.026076819833808294   -0.0645772373207829
0.4382776974189558   0.026076819833808294   -0.0645772373207829
0.17376576003904648   0.03964740618164979   0.019107193104921715
0.17376576003904648   0.03964740618164979   0.019107193104921715
0.17376576003904648   0.03964740618164979   0.019107193104921715
0.17376576003904648   0.03964740618164979   0.019107193104921715
0.28414680944299414   0.013686582219452535   0.00862359708382014
0.28414680944299414   0.013686582219452535   0.00862359708382014
0.28414680944299414   0.013686582219452535   0.00862359708382014
0.28414680944299414   0.013686582219452535   0.00862359708382014
-0.5248817441196282   -0.008634583783589195   0.05150492683500145
-0.5248817441196282   -0.008634583783589195   0.05150492683500145
-0.5248817441196282   -0.008634583783589195   0.05150492683500145
-0.5248817441196282   -0.008634583783589195   0.05150492683500145
-0.41013052368624575   -0.052175438580511345   -0.025426487292712532
-0.41013052368624575   -0.052175438580511345   -0.025426487292712532
-0.41013052368624575   -0.052175438580511345   -0.025426487292712532
-0.41013052368624575   -0.052175438580511345   -0.025426487292712532
-0.37121153709118004   0.0441464720559184   0.04402610679470827
-0.37121153709118004   0.0441464720559184   0.04402610679470827
-0.37121153709118004   0.0441464720559184   0.04402610679470827
-0.37121153709118004   0.0441464720559184   0.04402610679470827
-0.5227000951186087   -0.05696579930757622   -0.03463050378960404
-0.5227000951186087   -0.05696579930757622   -0.03463050378960404
-0.5227000951186087   -0.05696579930757622   -0.03463050378960404
-0.5227000951186087   -0.05696579930757622   -0.03463050378960404
-0.43976487462802805   -0.012067310227650799   -0.0065852474330518156
-0.43976487462802805   -0.012067310227650799   -0.0065852474330518156
-0.43976487462802805   -0.012067310227650799   -0.0065852474330518156
-0.43976487462802805   -0.012067310227650799   -0.0065852474330518156
-0.4902674271130432   0.02136956673227791   0.049197470198368995
-0.4902674271130432   0.02136956673227791   0.049197470198368995
-0.4902674271130432   0.02136956673227791   0.049197470198368995
-0.4902674271130432   0.02136956673227791   0.049197470198368995
-0.40138441085631515   -0.0319290997435073   -0.030762690231537642
-0.40138441085631515   -0.0319290997435073   -0.030762690231537642
-0.40138441085631515   -0.0319290997435073   -0.030762690231537642
-0.40138441085631515   -0.0319290997435073   -0.030762690231537642
-0.36204017215774403   0.05560815170159274   0.03722655358366905
-0.36204017215774403   0.05560815170159274   0.03722655358366905
-0.36204017215774403   0.05560815170159274   0.03722655358366905
-0.36204017215774403   0.05560815170159274   0.03722655358366905
-0.49866953839840855   -0.04397594345535566   -0.04324919883290457
-0.49866953839840855   -0.04397594345535566   -0.04324919883290457
-0.49866953839840855   -0.04397594345535566   -0.04324919883290457
-0.49866953839840855   -0.04397594345535566   -0.04324919883290457
-0.42720174846439896   0.0029271283399174425   0.00299389514596669
-0.42720174846439896   0.0029271283399174425   0.00299389514596669
-0.42720174846439896   0.0029271283399174425   0.00299389514596669
-0.42720174846439896   0.0029271283399174425   0.00299389514596669
-0.4662218119848857   0.03527434247941788   0.03973914729993645
-0.4662218119848857   0.03527434247941788   0.03973914729993645
-0.4662218119848857   0.03527434247941788   0.03973914729993645
-0.4662218119848857   0.03527434247941788   0.03973914729993645
-0.3923512851092335   -0.021505520771146716   -0.03721533870103494
-0.3923512851092335   -0.021505520771146716   -0.03721533870103494
-0.3923512851092335   -0.021505520771146716   -0.03721533870103494
-0.3923512851092335   -0.021505520771146716   -0.03721533870103494
-0.3546230296656853   0.06991134598866953   0.032104263050603064
-0.3546230296656853   0.06991134598866953   0.032104263050603064
-0.3546230296656853   0.06991134598866953   0.032104263050603064
-0.3546230296656853   0.06991134598866953   0.032104263050603064
-0.46639053307625244   -0.023174038242396444   -0.05004374414026932
-0.46639053307625244   -0.023174038242396444   -0.05004374414026932
-0.46639053307625244   -0.023174038242396444   -0.05004374414026932
-0.46639053307625244   -0.023174038242396444   -0.05004374414026932
-0.40187341490270556   0.017728053651438536   0.014865651152272504
-0.40187341490270556   0.017728053651438536   0.014865651152272504
-0.40187341490270556   0.017728053651438536   0.014865651152272504
-0.40187341490270556   0.017728053651438536   0.014865651152272504
-0.3956759813522358   -0.029694281445404237   0.02436506724223028
-0.3956759813522358   -0.029694281445404237   0.02436506724223028
-0.3956759813522358   -0.029694281445404237   0.02436506724223028
-0.3956759813522358   -0.029694281445404237   0.02436506724223028
-0.29112260564348924   -0.039550126878734944   -0.007524030225365385
-0.29112260564348924   -0.039550126878734944   -0.007524030225365385
-0.29112260564348924   -0.039550126878734944   -0.007524030225365385
-0.29112260564348924   -0.039550126878734944   -0.007524030225365385
-0.26944995126466764   0.020046974497935466   0.022509169478678988
-0.26944995126466764   0.020046974497935466   0.022509169478678988
-0.26944995126466764   0.020046974497935466   0.022509169478678988
-0.26944995126466764   0.020046974497935466   0.022509169478678988
-0.401590107596784   -0.04203079776555631   -0.021689475911828765
-0.401590107596784   -0.04203079776555631   -0.021689475911828765
-0.401590107596784   -0.04203079776555631   -0.021689475911828765
-0.401590107596784   -0.04203079776555631   -0.021689475911828765
-0.33853774152097665   -0.020999308824780273   -0.009156119981410209
-0.33853774152097665   -0.020999308824780273   -0.009156119981410209
-0.33853774152097665   -0.020999308824780273   -0.009156119981410209
-0.33853774152097665   -0.020999308824780273   -0.009156119981410209
-0.3853989230319976   -0.0034979366016321123   0.02073358574817106
-0.3853989230319976   -0.0034979366016321123   0.02073358574817106
-0.3853989230319976   -0.0034979366016321123   0.02073358574817106
-0.3853989230319976   -0.0034979366016321123   0.02073358574817106
-0.2838187270973241   -0.016663477933860096   -0.012624257252807553
-0.2838187270973241   -0.016663477933860096   -0.012624257252807553
-0.2838187270973241   -0.016663477933860096   -0.012624257252807553
-0.2838187270973241   -0.016663477933860096   -0.012624257252807553
-0.26154557633659326   0.043371427925528894   0.01799892317076529
-0.26154557633659326   0.043371427925528894   0.01799892317076529
-0.26154557633659326   0.043371427925528894   0.01799892317076529
-0.26154557633659326   0.043371427925528894   0.01799892317076529
-0.38972588201208336   -0.01962389956036434   -0.025969944426063086
-0.38972588201208336   -0.01962389956036434   -0.025969944426063086
-0.38972588201208336   -0.01962389956036434   -0.025969944426063086
-0.38972588201208336   -0.01962389956036434   -0.025969944426063086
-0.32708939180503366   0.0014720525807051382   0.0009081579607066424
-0.32708939180503366   0.0014720525807051382   0.0009081579607066424
-0.32708939180503366   0.0014720525807051382   0.0009081579607066424
-0.32708939180503366   0.0014720525807051382   0.0009081579607066424
-0.3725836373651352   0.021322922446107173   0.018794456802198697
-0.3725836373651352   0.021322922446107173   0.018794456802198697
-0.3725836373651352   0.021322922446107173   0.018794456802198697
-0.3725836373651352   0.021322922446107173   0.018794456802198697
-0.2765840340914939   0.004528392811103274   -0.018350330489314556
-0.2765840340914939   0.004528392811103274   -0.018350330489314556
-0.2765840340914939   0.004528392811103274   -0.018350330489314556
-0.2765840340914939   0.004528392811103274   -0.018350330489314556
-0.25366568600798606   0.06870472223814741   0.013703010938312575
-0.25366568600798606   0.06870472223814741   0.013703010938312575
-0.25366568600798606   0.06870472223814741   0.013703010938312575
-0.25366568600798606   0.06870472223814741   0.013703010938312575
-0.3799450575172563   0.0048653823415264474   -0.029459912560104877
-0.3799450575172563   0.0048653823415264474   -0.029459912560104877
-0.3799450575172563   0.0048653823415264474   -0.029459912560104877
-0.3799450575172563   0.0048653823415264474   -0.029459912560104877
-0.31881626151570436   0.023520320715165133   0.010759254051146132
-0.31881626151570436   0.023520320715165133   0.010759254051146132
-0.31881626151570436   0.023520320715165133   0.010759254051146132
-0.31881626151570436   0.023520320715165133   0.010759254051146132
-0.29075433675127793   -0.04955975843734753   0.00432694579429996
-0.29075433675127793   -0.04955975843734753   0.00432694579429996
-0.29075433675127793   -0.04955975843734753   0.00432694579429996
-0.29075433675127793   -0.04955975843734753   0.00432694579429996
-0.17367333448093464   -0.0209562958666555   0.010662260307553063
-0.17367333448093464   -0.0209562958666555   0.010662260307553063
-0.17367333448093464   -0.0209562958666555   0.010662260307553063
-0.17367333448093464   -0.0209562958666555   0.010662260307553063
-0.16780386348649307   -0.0005400161650021343   0.0013696728642601883
-0.16780386348649307   -0.0005400161650021343   0.0013696728642601883
-0.16780386348649307   -0.0005400161650021343   0.0013696728642601883
-0.16780386348649307   -0.0005400161650021343   0.0013696728642601883
-0.2829737269002115   -0.02256542091678468   -0.0024973132843201656
-0.2829737269002115   -0.02256542091678468   -0.0024973132843201656
-0.2829737269002115   -0.02256542091678468   -0.0024973132843201656
-0.2829737269002115   -0.02256542091678468   -0.0024973132843201656
-0.22916659585521268   -0.022308497823598686   -0.006673649951282935
-0.22916659585521268   -0.022308497823598686   -0.006673649951282935
-0.22916659585521268   -0.022308497823598686   -0.006673649951282935
-0.22916659585521268   -0.022308497823598686   -0.006673649951282935
-0.2826289292854273   -0.02370559426923185   0.0003668481420459283
-0.2826289292854273   -0.02370559426923185   0.0003668481420459283
-0.2826289292854273   -0.02370559426923185   0.0003668481420459283
-0.2826289292854273   -0.02370559426923185   0.0003668481420459283
-0.16633583089442094   0.002412987394301   0.0057568322653176185
-0.16633583089442094   0.002412987394301   0.0057568322653176185
-0.16633583089442094   0.002412987394301   0.0057568322653176185
-0.16633583089442094   0.002412987394301   0.0057568322653176185
-0.1592126829806778   0.02554176667630617   -0.0023195405784066578
-0.1592126829806778   0.02554176667630617   -0.0023195405784066578
-0.1592126829806778   0.02554176667630617   -0.0023195405784066578
-0.1592126829806778   0.02554176667630617   -0.0023195405784066578
-0.27505423807831525   0.001138088541596402   -0.007311046153914487
-0.27505423807831525   0.001138088541596402   -0.007311046153914487
-0.27505423807831525   0.001138088541596402   -0.007311046153914487
-0.27505423807831525   0.001138088541596402   -0.007311046153914487
-0.22010161014932533   0.0011321359077149235   0.0030905683084974083
-0.22010161014932533   0.0011321359077149235   0.0030905683084974083
-0.22010161014932533   0.0011321359077149235   0.0030905683084974083
-0.22010161014932533   0.0011321359077149235   0.0030905683084974083
-0.27409310309527835   0.0022967785247002687   -0.0036640612218356954
-0.27409310309527835   0.0022967785247002687   -0.0036640612218356954
-0.27409310309527835   0.0022967785247002687   -0.0036640612218356954
-0.27409310309527835   0.0022967785247002687   -0.0036640612218356954
-0.1585340621964391   0.02602283246047791   0.000592497558616862
-0.1585340621964391   0.02602283246047791   0.000592497558616862
-0.1585340621964391   0.02602283246047791   0.000592497558616862
-0.1585340621964391   0.02602283246047791   0.000592497558616862
-0.15109725210062303   0.051864541568283413   -0.006522354445208149
-0.15109725210062303   0.051864541568283413   -0.006522354445208149
-0.15109725210062303   0.051864541568283413   -0.006522354445208149
-0.15109725210062303   0.051864541568283413   -0.006522354445208149
-0.2676347637491441   0.025023749544782634   -0.012461405074108717
-0.2676347637491441   0.025023749544782634   -0.012461405074108717
-0.2676347637491441   0.025023749544782634   -0.012461405074108717
-0.2676347637491441   0.025023749544782634   -0.012461405074108717
-0.21153055934454806   0.02465721722090935   0.012461355113187966
-0.21153055934454806   0.02465721722090935   0.012461355113187966
-0.21153055934454806   0.02465721722090935   0.012461355113187966
-0.21153055934454806   0.02465721722090935   0.012461355113187966
-0.1881591636399801   -0.06677483118407987   -0.015948350170252763
-0.1881591636399801   -0.06677483118407987   -0.015948350170252763
-0.1881591636399801   -0.06677483118407987   -0.015948350170252763
-0.1881591636399801   -0.06677483118407987   -0.015948350170252763
-0.05964730442718532   -0.0012169024494176244   0.02794577322485702
-0.05964730442718532   -0.0012169024494176244   0.02794577322485702
-0.05964730442718532   -0.0012169024494176244   0.02794577322485702
-0.05964730442718532   -0.0012169024494176244   0.02794577322485702
-0.06764760121008609   -0.020021325168963027   -0.02062481569487723
-0.06764760121008609   -0.020021325168963027   -0.02062481569487723
-0.06764760121008609   -0.020021325168963027   -0.02062481569487723
-0.06764760121008609   -0.020021325168963027   -0.02062481569487723
-0.16527370269797106   -0.0025441543296753633   0.016024614971541805
-0.16527370269797106   -0.0025441543296753633   0.016024614971541805
-0.16527370269797106   -0.0025441543296753633   0.016024614971541805
-0.16527370269797106   -0.0025441543296753633   0.016024614971541805
-0.1201463050852639   -0.021653483608462937   -0.004817854310809841
-0.1201463050852639   -0.021653483608462937   -0.004817854310809841
-0.1201463050852639   -0.021653483608462937   -0.004817854310809841
-0.1201463050852639   -0.021653483608462937   -0.004817854310809841
-0.18050871622524328   -0.04250625535992933   -0.020188351634566854
-0.18050871622524328   -0.04250625535992933   -0.020188351634566854
-0.18050871622524328   -0.04250625535992933   -0.020188351634566854
-0.18050871622524328   -0.04250625535992933   -0.020188351634566854
-0.05038217583374282   0.021971187710364607   0.02370979830751343
-0.05038217583374282   0.021971187710364607   0.02370979830751343
-0.05038217583374282   0.021971187710364607   0.02370979830751343
-0.05038217583374282   0.021971187710364607   0.02370979830751343
-0.05505698002299749   0.004650894950958828   -0.02322107335181812
-0.05505698002299749   0.004650894950958828   -0.02322107335181812
-0.05505698002299749   0.004650894950958828   -0.02322107335181812
-0.05505698002299749   0.004650894950958828   -0.02322107335181812
-0.15797063423425803   0.018737663092923733   0.010694806737074748
-0.15797063423425803   0.018737663092923733   0.010694806737074748
-0.15797063423425803   0.018737663092923733   0.010694806737074748
-0.15797063423425803   0.018737663092923733   0.010694806737074748
-0.11049113561101503   0.00018784877975687106   0.005136187390010619
-0.11049113561101503   0.00018784877975687106   0.005136187390010619
-0.11049113561101503   0.00018784877975687106   0.005136187390010619
-0.11049113561101503   0.00018784877975687106   0.005136187390010619
-0.1727216165316243   -0.019251921676474926   -0.025070519980360074
-0.1727216165316243   -0.019251921676474926   -0.025070519980360074
-0.1727216165316243   -0.019251921676474926   -0.025070519980360074
-0.1727216165316243   -0.019251921676474926   -0.025070519980360074
-0.03841562022656683   0.04453085721942407   0.0201057633618699
-0.03841562022656683   0.04453085721942407   0.0201057633618699
-0.03841562022656683   0.04453085721942407   0.0201057633618699
-0.03841562022656683   0.04453085721942407   0.0201057633618699
-0.044409256479859924   0.03218775478075196   -0.026019740479039127
-0.044409256479859924   0.03218775478075196   -0.026019740479039127
-0.044409256479859924   0.03218775478075196   -0.026019740479039127
-0.044409256479859924   0.03218775478075196   -0.026019740479039127
-0.15049391765304937   0.042802416154786936   0.00555644320615661
-0.15049391765304937   0.042802416154786936   0.00555644320615661
-0.15049391765304937   0.042802416154786936   0.00555644320615661
-0.15049391765304937   0.042802416154786936   0.00555644320615661
-0.10051039388871097   0.02293424227823128   0.015084293932479629
-0.10051039388871097   0.02293424227823128   0.015084293932479629
-0.10051039388871097   0.02293424227823128   0.015084293932479629
-0.10051039388871097   0.02293424227823128   0.015084293932479629
-0.08629028232894025   -0.07178077654039952   -0.03470524219293574
-0.08629028232894025   -0.07178077654039952   -0.03470524219293574
-0.08629028232894025   -0.07178077654039952   -0.03470524219293574
-0.08629028232894025   -0.07178077654039952   -0.03470524219293574
0.02600741587277966   0.021005316857269224   0.042683991748293466
0.02600741587277966   0.021005316857269224   0.042683991748293466
0.02600741587277966   0.021005316857269224   0.042683991748293466
0.02600741587277966   0.021005316857269224   0.042683991748293466
0.026157838267177828   -0.03554496708017503   -0.04597602286033646
0.026157838267177828   -0.03554496708017503   -0.04597602286033646
0.026157838267177828   -0.03554496708017503   -0.04597602286033646
0.026157838267177828   -0.03554496708017503   -0.04597602286033646
-0.04809299037449979   0.022189080657344675   0.03493783265674658
-0.04809299037449979   0.022189080657344675   0.03493783265674658
-0.04809299037449979   0.022189080657344675   0.03493783265674658
-0.04809299037449979   0.022189080657344675   0.03493783265674658
-0.021383516155050217   -0.015309316049235152   -0.00806450184938326
-0.021383516155050217   -0.015309316049235152   -0.00806450184938326
-0.021383516155050217   -0.015309316049235152   -0.00806450184938326
-0.021383516155050217   -0.015309316049235152   -0.00806450184938326
-0.07855407740228496   -0.055273208339139346   -0.03990531348569525
-0.07855407740228496   -0.055273208339139346   -0.03990531348569525
-0.07855407740228496   -0.055273208339139346   -0.03990531348569525
-0.07855407740228496   -0.055273208339139346   -0.03990531348569525
0.058788574215226694   0.04408697083657269   0.037545718963160155
0.058788574215226694   0.04408697083657269   0.037545718963160155
0.058788574215226694   0.04408697083657269   0.037545718963160155
0.058788574215226694   0.04408697083657269   0.037545718963160155
0.050308288670621384   -0.021422213137915695   -0.05463325083723183
0.050308288670621384   -0.021422213137915695   -0.05463325083723183
0.050308288670621384   -0.021422213137915695   -0.05463325083723183
0.050308288670621384   -0.021422213137915695   -0.05463325083723183
-0.039249543595625803   0.032437430435779346   0.028029573300219775
-0.039249543595625803   0.032437430435779346   0.028029573300219775
-0.039249543595625803   0.032437430435779346   0.028029573300219775
-0.039249543595625803   0.032437430435779346   0.028029573300219775
-0.0015701745370799256   -0.0007689106140201711   0.0027116156177282537
-0.0015701745370799256   -0.0007689106140201711   0.0027116156177282537
-0.0015701745370799256   -0.0007689106140201711   0.0027116156177282537
-0.0015701745370799256   -0.0007689106140201711   0.0027116156177282537
-0.06930678839308713   -0.04365201869456044   -0.04616720155674705
-0.06930678839308713   -0.04365201869456044   -0.04616720155674705
-0.06930678839308713   -0.04365201869456044   -0.04616720155674705
-0.06930678839308713   -0.04365201869456044   -0.04616720155674705
0.08253895746969563   0.056840659994037014   0.028257220026186677
0.08253895746969563   0.056840659994037014   0.028257220026186677
0.08253895746969563   0.056840659994037014   0.028257220026186677
0.08253895746969563   0.056840659994037014   0.028257220026186677
0.08419265606229677   0.006206538913426891   -0.058524039259443064
0.08419265606229677   0.006206538913426891   -0.058524039259443064
0.08419265606229677   0.006206538913426891   -0.058524039259443064
0.08419265606229677   0.006206538913426891   -0.058524039259443064
-0.03099126307663081   0.05047793164157206   0.02278004967628632
-0.03099126307663081   0.05047793164157206   0.02278004967628632
-0.03099126307663081   0.05047793164157206   0.02278004967628632
-0.03099126307663081   0.05047793164157206   0.02278004967628632
0.01635369350483107   0.014490576361335251   0.013260449824084787
0.01635369350483107   0.014490576361335251   0.013260449824084787
0.01635369350483107   0.014490576361335251   0.013260449824084787
0.01635369350483107   0.014490576361335251   0.013260449824084787
-0.17277472323160467   0.010136005269606032   0.048774931503233206
-0.17277472323160467   0.010136005269606032   0.048774931503233206
-0.17277472323160467   0.010136005269606032   0.048774931503233206
-0.17277472323160467   0.010136005269606032   0.048774931503233206
-0.20671903246474954   -0.0635179119231094   -0.028683605165746015
-0.20671903246474954   -0.0635179119231094   -0.028683605165746015
-0.20671903246474954   -0.0635179119231094   -0.028683605165746015
-0.20671903246474954   -0.0635179119231094   -0.028683605165746015
-0.16504072087348867   0.029476550517246684   0.0399218710893905
-0.16504072087348867   0.029476550517246684   0.0399218710893905
-0.16504072087348867   0.029476550517246684   0.0399218710893905
-0.16504072087348867   0.029476550517246684   0.0399218710893905
-0.16781446462118937   -0.0415961528583692   -0.03699134993306055
-0.16781446462118937   -0.0415961528583692   -0.03699134993306055
-0.16781446462118937   -0.0415961528583692   -0.03699134993306055
-0.16781446462118937   -0.0415961528583692   -0.03699134993306055
-0.17362750296811041   -0.013347912972915335   -0.013401929462667111
-0.17362750296811041   -0.013347912972915335   -0.013401929462667111
-0.17362750296811041   -0.013347912972915335   -0.013401929462667111
-0.17362750296811041   -0.013347912972915335   -0.013401929462667111
-0.13572434395547198   0.036440059825336144   0.045423040711821114
-0.13572434395547198   0.036440059825336144   0.045423040711821114
-0.13572434395547198   0.036440059825336144   0.045423040711821114
-0.13572434395547198   0.036440059825336144   0.045423040711821114
-0.19511062560952117   -0.046539446236773765   -0.03441165583675156
-0.19511062560952117   -0.046539446236773765   -0.03441165583675156
-0.19511062560952117   -0.046539446236773765   -0.03441165583675156
-0.19511062560952117   -0.046539446236773765   -0.03441165583675156
-0.15224829586924496   0.04067522433330578   0.033585397581239004
-0.15224829586924496   0.04067522433330578   0.033585397581239004
-0.15224829586924496   0.04067522433330578   0.033585397581239004
-0.15224829586924496   0.04067522433330578   0.033585397581239004
-0.14029566051910017   -0.028940195375723596   -0.046056546131339894
-0.14029566051910017   -0.028940195375723596   -0.046056546131339894
-0.14029566051910017   -0.028940195375723596   -0.046056546131339894
-0.14029566051910017   -0.028940195375723596   -0.046056546131339894
-0.15332845211514015   0.0009505891989346482   -0.0028460301842700535
-0.15332845211514015   0.0009505891989346482   -0.0028460301842700535
-0.15332845211514015   0.0009505891989346482   -0.0028460301842700535
-0.15332845211514015   0.0009505891989346482   -0.0028460301842700535
-0.1080300763212166   0.0500566871859448   0.036274492296405725
-0.1080300763212166   0.0500566871859448   0.036274492296405725
-0.1080300763212166   0.0500566871859448   0.036274492296405725
-0.1080300763212166   0.0500566871859448   0.036274492296405725
-0.18261160315126562   -0.036419381312495246   -0.041136533183063366
-0.18261160315126562   -0.036419381312495246   -0.041136533183063366
-0.18261160315126562   -0.036419381312495246   -0.041136533183063366
-0.18261160315126562   -0.036419381312495246   -0.041136533183063366
-0.14055431281842912   0.05780311106196876   0.029005782123748648
-0.14055431281842912   0.05780311106196876   0.029005782123748648
-0.14055431281842912   0.05780311106196876   0.029005782123748648
-0.14055431281842912   0.05780311106196876   0.029005782123748648
-0.10355848200890028   -0.004885272653524432   -0.05187684614066812
-0.10355848200890028   -0.004885272653524432   -0.05187684614066812
-0.10355848200890028   -0.004885272653524432   -0.05187684614066812
-0.10355848200890028   -0.004885272653524432   -0.05187684614066812
-0.12895124330943422   0.015905796026078396   0.00844455139084829
-0.12895124330943422   0.015905796026078396   0.00844455139084829
-0.12895124330943422   0.015905796026078396   0.00844455139084829
-0.12895124330943422   0.015905796026078396   0.00844455139084829
-0.18497250298117748   -0.011257561862832104   0.02778869219183698
-0.18497250298117748   -0.011257561862832104   0.02778869219183698
-0.18497250298117748   -0.011257561862832104   0.02778869219183698
-0.18497250298117748   -0.011257561862832104   0.02778869219183698
-0.23050112189399488   -0.051816918321819845   -0.011204782294226003
-0.23050112189399488   -0.051816918321819845   -0.011204782294226003
-0.23050112189399488   -0.051816918321819845   -0.011204782294226003
-0.23050112189399488   -0.051816918321819845   -0.011204782294226003
-0.2056160454631934   0.005207678417513087   0.01852884286994301
-0.2056160454631934   0.005207678417513087   0.01852884286994301
-0.2056160454631934   0.005207678417513087   0.01852884286994301
-0.2056160454631934   0.005207678417513087   0.01852884286994301
-0.18717722656883642   -0.024343704390133076   -0.01694040247996851
-0.18717722656883642   -0.024343704390133076   -0.01694040247996851
-0.18717722656883642   -0.024343704390133076   -0.01694040247996851
-0.18717722656883642   -0.024343704390133076   -0.01694040247996851
-0.20222506667337714   -0.018969401728686924   -0.009402023630285677
-0.20222506667337714   -0.018969401728686924   -0.009402023630285677
-0.20222506667337714   -0.018969401728686924   -0.009402023630285677
-0.20222506667337714   -0.018969401728686924   -0.009402023630285677
-0.17143235832074202   0.013188911788406713   0.024251322581959778
-0.17143235832074202   0.013188911788406713   0.024251322581959778
-0.17143235832074202   0.013188911788406713   0.024251322581959778
-0.17143235832074202   0.013188911788406713   0.024251322581959778
-0.21977756132801318   -0.030741585377758198   -0.01632947265888665
-0.21977756132801318   -0.030741585377758198   -0.01632947265888665
-0.21977756132801318   -0.030741585377758198   -0.01632947265888665
-0.21977756132801318   -0.030741585377758198   -0.01632947265888665
-0.19419879399147427   0.02750207491666673   0.014132839938467773
-0.19419879399147427   0.02750207491666673   0.014132839938467773
-0.19419879399147427   0.02750207491666673   0.014132839938467773
-0.19419879399147427   0.02750207491666673   0.014132839938467773
-0.17188155180887932   -0.0028730882952959294   -0.02103256948832724
-0.17188155180887932   -0.0028730882952959294   -0.02103256948832724
-0.17188155180887932   -0.0028730882952959294   -0.02103256948832724
-0.17188155180887932   -0.0028730882952959294   -0.02103256948832724
-0.18857336194195096   0.0018190417595955327   0.0003360403035508625
-0.18857336194195096   0.0018190417595955327   0.0003360403035508625
-0.18857336194195096   0.0018190417595955327   0.0003360403035508625
-0.18857336194195096   0.0018190417595955327   0.0003360403035508625
-0.15536955355730747   0.036810184758877484   0.021844148715354724
-0.15536955355730747   0.036810184758877484   0.021844148715354724
-0.15536955355730747   0.036810184758877484   0.021844148715354724
-0.15536955355730747   0.036810184758877484   0.021844148715354724
-0.20902271909311043   -0.010493124987577408   -0.0219915856654728
-0.20902271909311043   -0.010493124987577408   -0.0219915856654728
-0.20902271909311043   -0.010493124987577408   -0.0219915856654728
-0.20902271909311043   -0.010493124987577408   -0.0219915856654728
-0.18272462114743174   0.05219231961975811   0.00995433746122884
-0.18272462114743174   0.05219231961975811   0.00995433746122884
-0.18272462114743174   0.05219231961975811   0.00995433746122884
-0.18272462114743174   0.05219231961975811   0.00995433746122884
-0.1586968989119456   0.020971398992366323   -0.024875436274227437
-0.1586968989119456   0.020971398992366323   -0.024875436274227437
-0.1586968989119456   0.020971398992366323   -0.024875436274227437
-0.1586968989119456   0.020971398992366323   -0.024875436274227437
-0.17566506964670828   0.023303790830587173   0.010253180246682307
-0.17566506964670828   0.023303790830587173   0.010253180246682307
-0.17566506964670828   0.023303790830587173   0.010253180246682307
-0.17566506964670828   0.023303790830587173   0.010253180246682307
-0.22259185884334398   -0.0313062748943395   0.007830889531542377
-0.22259185884334398   -0.0313062748943395   0.007830889531542377
-0.22259185884334398   -0.0313062748943395   0.007830889531542377
-0.22259185884334398   -0.0313062748943395   0.007830889531542377
-0.2541629153279848   -0.03281241560027019   0.006766506364804082
-0.2541629153279848   -0.03281241560027019   0.006766506364804082
-0.2541629153279848   -0.03281241560027019   0.006766506364804082
-0.2541629153279848   -0.03281241560027019   0.006766506364804082
-0.24503057779937165   -0.014959285704493036   -0.002409786323701847
-0.24503057779937165   -0.014959285704493036   -0.002409786323701847
-0.24503057779937165   -0.014959285704493036   -0.002409786323701847
-0.24503057779937165   -0.014959285704493036   -0.002409786323701847
-0.210799954437549   -0.00440154870479096   0.0022185251204689446
-0.210799954437549   -0.00440154870479096   0.0022185251204689446
-0.210799954437549   -0.00440154870479096   0.0022185251204689446
-0.210799954437549   -0.00440154870479096   0.0022185251204689446
-0.23349626886410574   -0.019687319833003952   -0.006248598647811198
-0.23349626886410574   -0.019687319833003952   -0.006248598647811198
-0.23349626886410574   -0.019687319833003952   -0.006248598647811198
-0.23349626886410574   -0.019687319833003952   -0.006248598647811198
-0.2109590077803291   -0.006882227079657861   0.0039039367814315065
-0.2109590077803291   -0.006882227079657861   0.0039039367814315065
-0.2109590077803291   -0.006882227079657861   0.0039039367814315065
-0.2109590077803291   -0.006882227079657861   0.0039039367814315065
-0.24337746430198917   -0.010984547175024034   0.0018810426337437219
-0.24337746430198917   -0.010984547175024034   0.0018810426337437219
-0.24337746430198917   -0.010984547175024034   0.0018810426337437219
-0.24337746430198917   -0.010984547175024034   0.0018810426337437219
-0.23303187841880252   0.009783098708956328   -0.006108354976627629
-0.23303187841880252   0.009783098708956328   -0.006108354976627629
-0.23303187841880252   0.009783098708956328   -0.006108354976627629
-0.23303187841880252   0.009783098708956328   -0.006108354976627629
-0.19942104156166768   0.01802794052852786   -0.002504263524360336
-0.19942104156166768   0.01802794052852786   -0.002504263524360336
-0.19942104156166768   0.01802794052852786   -0.002504263524360336
-0.19942104156166768   0.01802794052852786   -0.002504263524360336
-0.22095799743364697   0.0024223155590259934   0.003370290994970545
-0.22095799743364697   0.0024223155590259934   0.003370290994970545
-0.22095799743364697   0.0024223155590259934   0.003370290994970545
-0.22095799743364697   0.0024223155590259934   0.003370290994970545
-0.1990086568597766   0.017772111765675717   -0.00018651125205660507
-0.1990086568597766   0.017772111765675717   -0.00018651125205660507
-0.1990086568597766   0.017772111765675717   -0.00018651125205660507
-0.1990086568597766   0.017772111765675717   -0.00018651125205660507
-0.23214021436423662   0.0113429762282648   -0.003209912223106671
-0.23214021436423662   0.0113429762282648   -0.003209912223106671
-0.23214021436423662   0.0113429762282648   -0.003209912223106671
-0.23214021436423662   0.0113429762282648   -0.003209912223106671
-0.22154226390191714   0.03467894653555718   -0.010277919967462894
-0.22154226390191714   0.03467894653555718   -0.010277919967462894
-0.22154226390191714   0.03467894653555718   -0.010277919967462894
-0.22154226390191714   0.03467894653555718   -0.010277919967462894
-0.18858312990888237   0.04054929675403782   -0.0076951834803041415
-0.18858312990888237   0.04054929675403782   -0.0076951834803041415
-0.18858312990888237   0.04054929675403782   -0.0076951834803041415
-0.18858312990888237   0.04054929675403782   -0.0076951834803041415
-0.2090038849508267   0.02457309958133895   0.012538558057618394
-0.2090038849508267   0.02457309958133895   0.012538558057618394
-0.2090038849508267   0.02457309958133895   0.012538558057618394
-0.2090038849508267   0.02457309958133895   0.012538558057618394
-0.26141759548762333   -0.04968664776100773   -0.012632662272655498
-0.26141759548762333   -0.04968664776100773   -0.012632662272655498
-0.26141759548762333   -0.04968664776100773   -0.012632662272655498
-0.26141759548762333   -0.04968664776100773   -0.012632662272655498
-0.2798938684506477   -0.014195858612976758   0.023930615673721727
-0.2798938684506477   -0.014195858612976758   0.023930615673721727
-0.2798938684506477   -0.014195858612976758   0.023930615673721727
-0.2798938684506477   -0.014195858612976758   0.023930615673721727
-0.2844610696912446   -0.03431382353151321   -0.02363636404437395
-0.2844610696912446   -0.03431382353151321   -0.02363636404437395
-0.2844610696912446   -0.03431382353151321   -0.02363636404437395
-0.2844610696912446   -0.03431382353151321   -0.02363636404437395
-0.23453872150370653   0.01486365100034745   0.02022655844978326
-0.23453872150370653   0.01486365100034745   0.02022655844978326
-0.23453872150370653   0.01486365100034745   0.02022655844978326
-0.23453872150370653   0.01486365100034745   0.02022655844978326
-0.2639673974456673   -0.019491102162499753   -0.003930966937936894
-0.2639673974456673   -0.019491102162499753   -0.003930966937936894
-0.2639673974456673   -0.019491102162499753   -0.003930966937936894
-0.2639673974456673   -0.019491102162499753   -0.003930966937936894
-0.250105552609438   -0.02605353043498574   -0.016690415643543142
-0.250105552609438   -0.02605353043498574   -0.016690415643543142
-0.250105552609438   -0.02605353043498574   -0.016690415643543142
-0.250105552609438   -0.02605353043498574   -0.016690415643543142
-0.2673278759104706   0.008169720578862123   0.019546060749120648
-0.2673278759104706   0.008169720578862123   0.019546060749120648
-0.2673278759104706   0.008169720578862123   0.019546060749120648
-0.2673278759104706   0.008169720578862123   0.019546060749120648
-0.26870891900455196   -0.010853034148223188   -0.02652039469836595
-0.26870891900455196   -0.010853034148223188   -0.02652039469836595
-0.26870891900455196   -0.010853034148223188   -0.02652039469836595
-0.26870891900455196   -0.010853034148223188   -0.02652039469836595
-0.22374412561828935   0.03509073994117034   0.015022767793722178
-0.22374412561828935   0.03509073994117034   0.015022767793722178
-0.22374412561828935   0.03509073994117034   0.015022767793722178
-0.22374412561828935   0.03509073994117034   0.015022767793722178
-0.24970203428600435   0.0018070852764394962   0.00600119599685898
-0.24970203428600435   0.0018070852764394962   0.00600119599685898
-0.24970203428600435   0.0018070852764394962   0.00600119599685898
-0.24970203428600435   0.0018070852764394962   0.00600119599685898
-0.23882770460080546   -0.0038613248027824093   -0.021443062374908478
-0.23882770460080546   -0.0038613248027824093   -0.021443062374908478
-0.23882770460080546   -0.0038613248027824093   -0.021443062374908478
-0.23882770460080546   -0.0038613248027824093   -0.021443062374908478
-0.25204241389821536   0.029681956719555154   0.016277139965541577
-0.25204241389821536   0.029681956719555154   0.016277139965541577
-0.25204241389821536   0.029681956719555154   0.016277139965541577
-0.25204241389821536   0.029681956719555154   0.016277139965541577
-0.25492856710563355   0.014982914720287704   -0.029106414513770718
-0.25492856710563355   0.014982914720287704   -0.029106414513770718
-0.25492856710563355   0.014982914720287704   -0.029106414513770718
-0.25492856710563355   0.014982914720287704   -0.029106414513770718
-0.2129201029214726   0.05762193054210313   0.009889900928213798
-0.2129201029214726   0.05762193054210313   0.009889900928213798
-0.2129201029214726   0.05762193054210313   0.009889900928213798
-0.2129201029214726   0.05762193054210313   0.009889900928213798
-0.23761180563641532   0.022924614073482147   0.01549201450905914
-0.23761180563641532   0.022924614073482147   0.01549201450905914
-0.23761180563641532   0.022924614073482147   0.01549201450905914
-0.23761180563641532   0.022924614073482147   0.01549201450905914
-0.2999937859772084   -0.05907057331399981   -0.03169425725806364
-0.2999937859772084   -0.05907057331399981   -0.03169425725806364
-0.2999937859772084   -0.05907057331399981   -0.03169425725806364
-0.2999937859772084   -0.05907057331399981   -0.03169425725806364
-0.3326819429253462   0.004349200050809257   0.04313790032845298
-0.3326819429253462   0.004349200050809257   0.04313790032845298
-0.3326819429253462   0.004349200050809257   0.04313790032845298
-0.3326819429253462   0.004349200050809257   0.04313790032845298
-0.32833991127243795   -0.049297059858367756   -0.042245949023877453
-0.32833991127243795   -0.049297059858367756   -0.042245949023877453
-0.32833991127243795   -0.049297059858367756   -0.042245949023877453
-0.32833991127243795   -0.049297059858367756   -0.042245949023877453
-0.2576846861709697   0.03726675514435982   0.038664974881124636
-0.2576846861709697   0.03726675514435982   0.038664974881124636
-0.2576846861709697   0.03726675514435982   0.038664974881124636
-0.2576846861709697   0.03726675514435982   0.038664974881124636
-0.29244697686873083   -0.012758129106399715   -0.0018747161777844176
-0.29244697686873083   -0.012758129106399715   -0.0018747161777844176
-0.29244697686873083   -0.012758129106399715   -0.0018747161777844176
-0.29244697686873083   -0.012758129106399715   -0.0018747161777844176
-0.28813111682532744   -0.04005516317785984   -0.03624526006844839
-0.28813111682532744   -0.04005516317785984   -0.03624526006844839
-0.28813111682532744   -0.04005516317785984   -0.03624526006844839
-0.28813111682532744   -0.04005516317785984   -0.03624526006844839
-0.2962381403745986   0.02968019870732711   0.039285646899620705
-0.2962381403745986   0.02968019870732711   0.039285646899620705
-0.2962381403745986   0.02968019870732711   0.039285646899620705
-0.2962381403745986   0.02968019870732711   0.039285646899620705
-0.30107820931204843   -0.0356075247390355   -0.0503665368574165
-0.30107820931204843   -0.0356075247390355   -0.0503665368574165
-0.30107820931204843   -0.0356075247390355   -0.0503665368574165
-0.30107820931204843   -0.0356075247390355   -0.0503665368574165
-0.2455212632374097   0.04690950901763471   0.03165534097148734
-0.2455212632374097   0.04690950901763471   0.03165534097148734
-0.2455212632374097   0.04690950901763471   0.03165534097148734
-0.2455212632374097   0.04690950901763471   0.03165534097148734
-0.2740546631083211   0.0015575666807127603   0.007646498169987106
-0.2740546631083211   0.0015575666807127603   0.007646498169987106
-0.2740546631083211   0.0015575666807127603   0.007646498169987106
-0.2740546631083211   0.0015575666807127603   0.007646498169987106
-0.27538133124521647   -0.028784949803473805   -0.041950540246439974
-0.27538133124521647   -0.028784949803473805   -0.041950540246439974
-0.27538133124521647   -0.028784949803473805   -0.041950540246439974
-0.27538133124521647   -0.028784949803473805   -0.041950540246439974
-0.26948251310004523   0.04182256228626911   0.030181857177294897
-0.26948251310004523   0.04182256228626911   0.030181857177294897
-0.26948251310004523   0.04182256228626911   0.030181857177294897
-0.26948251310004523   0.04182256228626911   0.030181857177294897
-0.26525422718518804   -0.011942271766790913   -0.05505800325695602
-0.26525422718518804   -0.011942271766790913   -0.05505800325695602
-0.26525422718518804   -0.011942271766790913   -0.05505800325695602
-0.26525422718518804   -0.011942271766790913   -0.05505800325695602
-0.2346370852536696   0.0612600792631627   0.026073830203172232
-0.2346370852536696   0.0612600792631627   0.026073830203172232
-0.2346370852536696   0.0612600792631627   0.026073830203172232
-0.2346370852536696   0.0612600792631627   0.026073830203172232
-0.2487729626056421   0.015845507319934997   0.01868455716592014
-0.2487729626056421   0.015845507319934997   0.01868455716592014
-0.2487729626056421   0.015845507319934997   0.01868455716592014
-0.2487729626056421   0.015845507319934997   0.01868455716592014
0.18169955059451331   0.029321523394009653   0.047094988360555756
0.18169955059451331   0.029321523394009653   0.047094988360555756
0.18169955059451331   0.029321523394009653   0.047094988360555756
0.18169955059451331   0.029321523394009653   0.047094988360555756
-0.004033074828603551   -0.07562932771385104   -0.031055104031287056
-0.004033074828603551   -0.07562932771385104   -0.031055104031287056
-0.004033074828603551   -0.07562932771385104   -0.031055104031287056
-0.004033074828603551   -0.07562932771385104   -0.031055104031287056
0.0403320069821238   0.01470567549016214   0.03637132020628296
0.0403320069821238   0.01470567549016214   0.03637132020628296
0.0403320069821238   0.01470567549016214   0.03637132020628296
0.0403320069821238   0.01470567549016214   0.03637132020628296
0.1894049339400034   -0.026312537193061036   -0.03889446788838395
0.1894049339400034   -0.026312537193061036   -0.03889446788838395
0.1894049339400034   -0.026312537193061036   -0.03889446788838395
0.1894049339400034   -0.026312537193061036   -0.03889446788838395
0.09275800148388236   -0.01462424855937984   -0.022469444607029248
0.09275800148388236   -0.01462424855937984   -0.022469444607029248
0.09275800148388236   -0.01462424855937984   -0.022469444607029248
0.09275800148388236   -0.01462424855937984   -0.022469444607029248
0.22137249303479958   0.05213805561495589   0.04249273477757595
0.22137249303479958   0.05213805561495589   0.04249273477757595
0.22137249303479958   0.05213805561495589   0.04249273477757595
0.22137249303479958   0.05213805561495589   0.04249273477757595
0.01033959632923535   -0.06176976887594775   -0.037115288692049414
0.01033959632923535   -0.06176976887594775   -0.037115288692049414
0.01033959632923535   -0.06176976887594775   -0.037115288692049414
0.01033959632923535   -0.06176976887594775   -0.037115288692049414
0.056440272540377014   0.02568706569849624   0.03034382618028207
0.056440272540377014   0.02568706569849624   0.03034382618028207
0.056440272540377014   0.02568706569849624   0.03034382618028207
0.056440272540377014   0.02568706569849624   0.03034382618028207
0.22034844177051774   -0.013909584461483875   -0.048631443445185746
0.22034844177051774   -0.013909584461483875   -0.048631443445185746
0.22034844177051774   -0.013909584461483875   -0.048631443445185746
0.22034844177051774   -0.013909584461483875   -0.048631443445185746
0.12069221223290603   -0.0009437500239413005   -0.010591235554704505
0.12069221223290603   -0.0009437500239413005   -0.010591235554704505
0.12069221223290603   -0.0009437500239413005   -0.010591235554704505
0.12069221223290603   -0.0009437500239413005   -0.010591235554704505
0.25265798337599765   0.06555264887809094   0.03345403124263492
0.25265798337599765   0.06555264887809094   0.03345403124263492
0.25265798337599765   0.06555264887809094   0.03345403124263492
0.25265798337599765   0.06555264887809094   0.03345403124263492
0.02605883450711215   -0.051847064068863566   -0.04402923421867861
0.02605883450711215   -0.051847064068863566   -0.04402923421867861
0.02605883450711215   -0.051847064068863566   -0.04402923421867861
0.02605883450711215   -0.051847064068863566   -0.04402923421867861
0.0720692379396958   0.04586702377484783   0.026256916052597154
0.0720692379396958   0.04586702377484783   0.026256916052597154
0.0720692379396958   0.04586702377484783   0.026256916052597154
0.0720692379396958   0.04586702377484783   0.026256916052597154
0.26143521366287603   0.013845250550683752   -0.05362378931112954
0.26143521366287603   0.013845250550683752   -0.05362378931112954
0.26143521366287603   0.013845250550683752   -0.05362378931112954
0.26143521366287603   0.013845250550683752   -0.05362378931112954
0.14408854443892957   0.014402482722322415   0.0006278638657397301
0.14408854443892957   0.014402482722322415   0.0006278638657397301
0.14408854443892957   0.014402482722322415   0.0006278638657397301
0.14408854443892957   0.014402482722322415   0.0006278638657397301
0.025306470085927846   0.007990179248756288   0.0320231135787626
0.025306470085927846   0.007990179248756288   0.0320231135787626
0.025306470085927846   0.007990179248756288   0.0320231135787626
0.025306470085927846   0.007990179248756288   0.0320231135787626
-0.17185092106530006   -0.06423611292193405   -0.014251432673908805
-0.17185092106530006   -0.06423611292193405   -0.014251432673908805
-0.17185092106530006   -0.06423611292193405   -0.014251432673908805
-0.17185092106530006   -0.06423611292193405   -0.014251432673908805
-0.1438950367230398   -0.009378356504292158   0.014604147103470161
-0.1438950367230398   -0.009378356504292158   0.014604147103470161
-0.1438950367230398   -0.009378356504292158   0.014604147103470161
-0.1438950367230398   -0.009378356504292158   0.014604147103470161
0.02641207265244415   -0.007235389133038533   -0.011287286818914631
0.02641207265244415   -0.007235389133038533   -0.011287286818914631
0.02641207265244415   -0.007235389133038533   -0.011287286818914631
0.02641207265244415   -0.007235389133038533   -0.011287286818914631
-0.06743184409648204   -0.016570411681482655   -0.0107869099008897
-0.06743184409648204   -0.016570411681482655   -0.0107869099008897
-0.06743184409648204   -0.016570411681482655   -0.0107869099008897
-0.06743184409648204   -0.016570411681482655   -0.0107869099008897
0.041906836478743756   0.030542847792737388   0.02840829538680365
0.041906836478743756   0.030542847792737388   0.02840829538680365
0.041906836478743756   0.030542847792737388   0.02840829538680365
0.041906836478743756   0.030542847792737388   0.02840829538680365
-0.15794926310647772   -0.04571605598720193   -0.01932928533080972
-0.15794926310647772   -0.04571605598720193   -0.01932928533080972
-0.15794926310647772   -0.04571605598720193   -0.01932928533080972
-0.15794926310647772   -0.04571605598720193   -0.01932928533080972
-0.12921212597264783   0.011930934444955507   0.01031811837672916
-0.12921212597264783   0.011930934444955507   0.01031811837672916
-0.12921212597264783   0.011930934444955507   0.01031811837672916
-0.12921212597264783   0.011930934444955507   0.01031811837672916
0.04477297085731638   0.012974202895598974   -0.015279819432123866
0.04477297085731638   0.012974202895598974   -0.015279819432123866
0.04477297085731638   0.012974202895598974   -0.015279819432123866
0.04477297085731638   0.012974202895598974   -0.015279819432123866
-0.05186616064696512   0.0022180906824146533   -0.0013231053410604396
-0.05186616064696512   0.0022180906824146533   -0.0013231053410604396
-0.05186616064696512   0.0022180906824146533   -0.0013231053410604396
-0.05186616064696512   0.0022180906824146533   -0.0013231053410604396
0.06092104898119979   0.052984083814136475   0.025450690268755675
0.06092104898119979   0.052984083814136475   0.025450690268755675
0.06092104898119979   0.052984083814136475   0.025450690268755675
0.06092104898119979   0.052984083814136475   0.025450690268755675
-0.1439728248443456   -0.026691567221386114   -0.024862874315418018
-0.1439728248443456   -0.026691567221386114   -0.024862874315418018
-0.1439728248443456   -0.026691567221386114   -0.024862874315418018
-0.1439728248443456   -0.026691567221386114   -0.024862874315418018
-0.11443952590539161   0.036044475460874886   0.0062325730617614275
-0.11443952590539161   0.036044475460874886   0.0062325730617614275
-0.11443952590539161   0.036044475460874886   0.0062325730617614275
-0.11443952590539161   0.036044475460874886   0.0062325730617614275
0.06092449246425093   0.03590575188641595   -0.01950553943619534
0.06092449246425093   0.03590575188641595   -0.01950553943619534
0.06092449246425093   0.03590575188641595   -0.01950553943619534
0.06092449246425093   0.03590575188641595   -0.01950553943619534
-0.03463593470510601   0.022977894990487725   0.00877218336285441
-0.03463593470510601   0.022977894990487725   0.00877218336285441
-0.03463593470510601   0.022977894990487725   0.00877218336285441
-0.03463593470510601   0.022977894990487725   0.00877218336285441
-0.15630220995644917   -0.012285311507696167   0.011541321456107874
-0.15630220995644917   -0.012285311507696167   0.011541321456107874
-0.15630220995644917   -0.012285311507696167   0.011541321456107874
-0.15630220995644917   -0.012285311507696167   0.011541321456107874
-0.33661659332958727   -0.04573407649795132   0.0029349777915779586
-0.33661659332958727   -0.04573407649795132   0.0029349777915779586
-0.33661659332958727   -0.04573407649795132   0.0029349777915779586
-0.33661659332958727   -0.04573407649795132   0.0029349777915779586
-0.3237784780586181   -0.028708107359735557   -0.006335744533215653
-0.3237784780586181   -0.028708107359735557   -0.006335744533215653
-0.3237784780586181   -0.028708107359735557   -0.006335744533215653
-0.3237784780586181   -0.028708107359735557   -0.006335744533215653
-0.141123321264072   0.011952548352744213   0.007131819541272849
-0.141123321264072   0.011952548352744213   0.007131819541272849
-0.141123321264072   0.011952548352744213   0.007131819541272849
-0.141123321264072   0.011952548352744213   0.007131819541272849
-0.23980436092451832   -0.017169185657601532   -0.006292102063814427
-0.23980436092451832   -0.017169185657601532   -0.006292102063814427
-0.23980436092451832   -0.017169185657601532   -0.006292102063814427
-0.23980436092451832   -0.017169185657601532   -0.006292102063814427
-0.14129769042516913   0.01058141957608124   0.007631102512450047
-0.14129769042516913   0.01058141957608124   0.007631102512450047
-0.14129769042516913   0.01058141957608124   0.007631102512450047
-0.14129769042516913   0.01058141957608124   0.007631102512450047
-0.32236605728454537   -0.02609892697010214   -0.0018828210524855105
-0.32236605728454537   -0.02609892697010214   -0.0018828210524855105
-0.32236605728454537   -0.02609892697010214   -0.0018828210524855105
-0.32236605728454537   -0.02609892697010214   -0.0018828210524855105
-0.30833486930805726   -0.005246539689969812   -0.009962836870459051
-0.30833486930805726   -0.005246539689969812   -0.009962836870459051
-0.30833486930805726   -0.005246539689969812   -0.009962836870459051
-0.30833486930805726   -0.005246539689969812   -0.009962836870459051
-0.12658663499961365   0.03274171349904516   0.0026347941878125114
-0.12658663499961365   0.03274171349904516   0.0026347941878125114
-0.12658663499961365   0.03274171349904516   0.0026347941878125114
-0.12658663499961365   0.03274171349904516   0.0026347941878125114
-0.2238560037025549   0.0034327475004419725   0.003246448915546216
-0.2238560037025549   0.0034327475004419725   0.003246448915546216
-0.2238560037025549   0.0034327475004419725   0.003246448915546216
-0.2238560037025549   0.0034327475004419725   0.003246448915546216
-0.12620087818098402   0.033861570221281515   0.003443721558724272
-0.12620087818098402   0.033861570221281515   0.003443721558724272
-0.12620087818098402   0.033861570221281515   0.003443721558724272
-0.12620087818098402   0.033861570221281515   0.003443721558724272
-0.30772940789588005   -0.005375178181399806   -0.006806891318145884
-0.30772940789588005   -0.005375178181399806   -0.006806891318145884
-0.30772940789588005   -0.005375178181399806   -0.006806891318145884
-0.30772940789588005   -0.005375178181399806   -0.006806891318145884
-0.29351357899629954   0.01828292453497997   -0.014096595488176225
-0.29351357899629954   0.01828292453497997   -0.014096595488176225
-0.29351357899629954   0.01828292453497997   -0.014096595488176225
-0.29351357899629954   0.01828292453497997   -0.014096595488176225
-0.11268631043186168   0.05359198656577667   -0.002548860675488679
-0.11268631043186168   0.05359198656577667   -0.002548860675488679
-0.11268631043186168   0.05359198656577667   -0.002548860675488679
-0.11268631043186168   0.05359198656577667   -0.002548860675488679
-0.20874378862922255   0.023979673363143807   0.012162469918204397
-0.20874378862922255   0.023979673363143807   0.012162469918204397
-0.20874378862922255   0.023979673363143807   0.012162469918204397
-0.20874378862922255   0.023979673363143807   0.012162469918204397
-0.33640798051677473   -0.032196675907840096   -0.009559358734467888
-0.33640798051677473   -0.032196675907840096   -0.009559358734467888
-0.33640798051677473   -0.032196675907840096   -0.009559358734467888
-0.33640798051677473   -0.032196675907840096   -0.009559358734467888
-0.49980811170545847   -0.028340342722353307   0.01979822247214592
-0.49980811170545847   -0.028340342722353307   0.01979822247214592
-0.49980811170545847   -0.028340342722353307   0.01979822247214592
-0.49980811170545847   -0.028340342722353307   0.01979822247214592
-0.5000775948317312   -0.04764877805332714   -0.026796713490565057
-0.5000775948317312   -0.04764877805332714   -0.026796713490565057
-0.5000775948317312   -0.04764877805332714   -0.026796713490565057
-0.5000775948317312   -0.04764877805332714   -0.026796713490565057
-0.30585152359684875   0.030296761148483453   0.024294159267412234
-0.30585152359684875   0.030296761148483453   0.024294159267412234
-0.30585152359684875   0.030296761148483453   0.024294159267412234
-0.30585152359684875   0.030296761148483453   0.024294159267412234
-0.408235444078845   -0.017484648172801473   -0.0026584369566850195
-0.408235444078845   -0.017484648172801473   -0.0026584369566850195
-0.408235444078845   -0.017484648172801473   -0.0026584369566850195
-0.408235444078845   -0.017484648172801473   -0.0026584369566850195
-0.32127758393884137   -0.009197757862869194   -0.01334162343119575
-0.32127758393884137   -0.009197757862869194   -0.01334162343119575
-0.32127758393884137   -0.009197757862869194   -0.01334162343119575
-0.32127758393884137   -0.009197757862869194   -0.01334162343119575
-0.4836249514320589   -0.0071276759842884285   0.014945401438762947
-0.4836249514320589   -0.0071276759842884285   0.014945401438762947
-0.4836249514320589   -0.0071276759842884285   0.014945401438762947
-0.4836249514320589   -0.0071276759842884285   0.014945401438762947
-0.48070639685381   -0.025269776433058375   -0.029817542841931343
-0.48070639685381   -0.025269776433058375   -0.029817542841931343
-0.48070639685381   -0.025269776433058375   -0.029817542841931343
-0.48070639685381   -0.025269776433058375   -0.029817542841931343
-0.29158297256312354   0.04921377156535049   0.019336335598889386
-0.29158297256312354   0.04921377156535049   0.019336335598889386
-0.29158297256312354   0.04921377156535049   0.019336335598889386
-0.29158297256312354   0.04921377156535049   0.019336335598889386
-0.38908210256089365   0.0032857356311068314   0.007174157611510138
-0.38908210256089365   0.0032857356311068314   0.007174157611510138
-0.38908210256089365   0.0032857356311068314   0.007174157611510138
-0.38908210256089365   0.0032857356311068314   0.007174157611510138
-0.30649650807602974   0.011943496509021156   -0.01796106690931402
-0.30649650807602974   0.011943496509021156   -0.01796106690931402
-0.30649650807602974   0.011943496509021156   -0.01796106690931402
-0.30649650807602974   0.011943496509021156   -0.01796106690931402
-0.46463908413609717   0.013154275828077322   0.012094968485497203
-0.46463908413609717   0.013154275828077322   0.012094968485497203
-0.46463908413609717   0.013154275828077322   0.012094968485497203
-0.46463908413609717   0.013154275828077322   0.012094968485497203
-0.46338007038852586   -0.000868124658579772   -0.03210040760814751
-0.46338007038852586   -0.000868124658579772   -0.03210040760814751
-0.46338007038852586   -0.000868124658579772   -0.03210040760814751
-0.46338007038852586   -0.000868124658579772   -0.03210040760814751
-0.27746369493987927   0.07009538534964253   0.014340363979262742
-0.27746369493987927   0.07009538534964253   0.014340363979262742
-0.27746369493987927   0.07009538534964253   0.014340363979262742
-0.27746369493987927   0.07009538534964253   0.014340363979262742
-0.3747807384232514   0.02264543422320353   0.015983169126109014
-0.3747807384232514   0.02264543422320353   0.015983169126109014
-0.3747807384232514   0.02264543422320353   0.015983169126109014
-0.3747807384232514   0.02264543422320353   0.015983169126109014
-0.5131644947125092   -0.04619974785783852   -0.029124287427622946
-0.5131644947125092   -0.04619974785783852   -0.029124287427622946
-0.5131644947125092   -0.04619974785783852   -0.029124287427622946
-0.5131644947125092   -0.04619974785783852   -0.029124287427622946
-0.6859463617277881   -0.012228328025696261   0.042993416154269
-0.6859463617277881   -0.012228328025696261   0.042993416154269
-0.6859463617277881   -0.012228328025696261   0.042993416154269
-0.6859463617277881   -0.012228328025696261   0.042993416154269
-0.6765479817846246   -0.06202075879720319   -0.03890929921300479
-0.6765479817846246   -0.06202075879720319   -0.03890929921300479
-0.6765479817846246   -0.06202075879720319   -0.03890929921300479
-0.6765479817846246   -0.06202075879720319   -0.03890929921300479
-0.4664647089794439   0.051236638463104237   0.04238229925443993
-0.4664647089794439   0.051236638463104237   0.04238229925443993
-0.4664647089794439   0.051236638463104237   0.04238229925443993
-0.4664647089794439   0.051236638463104237   0.04238229925443993
-0.5602772714657691   -0.009959044550773885   0.004702882933232677
-0.5602772714657691   -0.009959044550773885   0.004702882933232677
-0.5602772714657691   -0.009959044550773885   0.004702882933232677
-0.5602772714657691   -0.009959044550773885   0.004702882933232677
-0.49675155468723564   -0.024868893082838975   -0.032946397738572594
-0.49675155468723564   -0.024868893082838975   -0.032946397738572594
-0.49675155468723564   -0.024868893082838975   -0.032946397738572594
-0.49675155468723564   -0.024868893082838975   -0.032946397738572594
-0.6453272871191049   0.015018621706466506   0.04015479361091224
-0.6453272871191049   0.015018621706466506   0.04015479361091224
-0.6453272871191049   0.015018621706466506   0.04015479361091224
-0.6453272871191049   0.015018621706466506   0.04015479361091224
-0.6458404468573559   -0.04874954867534502   -0.046320763873465176
-0.6458404468573559   -0.04874954867534502   -0.046320763873465176
-0.6458404468573559   -0.04874954867534502   -0.046320763873465176
-0.6458404468573559   -0.04874954867534502   -0.046320763873465176
-0.45070682340664964   0.05996332143342184   0.03494722652738684
-0.45070682340664964   0.05996332143342184   0.03494722652738684
-0.45070682340664964   0.05996332143342184   0.03494722652738684
-0.45070682340664964   0.05996332143342184   0.03494722652738684
-0.5429474542681901   0.003976559160710269   0.012636895238951958
-0.5429474542681901   0.003976559160710269   0.012636895238951958
-0.5429474542681901   0.003976559160710269   0.012636895238951958
-0.5429474542681901   0.003976559160710269   0.012636895238951958
-0.4800899464231005   -0.013946924365079522   -0.038058142756362386
-0.4800899464231005   -0.013946924365079522   -0.038058142756362386
-0.4800899464231005   -0.013946924365079522   -0.038058142756362386
-0.4800899464231005   -0.013946924365079522   -0.038058142756362386
-0.615317283244456   0.02630073771959987   0.031244767796083303
-0.615317283244456   0.02630073771959987   0.031244767796083303
-0.615317283244456   0.02630073771959987   0.031244767796083303
-0.615317283244456   0.02630073771959987   0.031244767796083303
-0.607969844820239   -0.02895548230790751   -0.0516712180855788
-0.607969844820239   -0.02895548230790751   -0.0516712180855788
-0.607969844820239   -0.02895548230790751   -0.0516712180855788
-0.607969844820239   -0.02895548230790751   -0.0516712180855788
-0.43687251101476987   0.0704598638815877   0.029109400720464737
-0.43687251101476987   0.0704598638815877   0.029109400720464737
-0.43687251101476987   0.0704598638815877   0.029109400720464737
-0.43687251101476987   0.0704598638815877   0.029109400720464737
-0.5102828052888102   0.01701641566280221   0.023829869408856667
-0.5102828052888102   0.01701641566280221   0.023829869408856667
-0.5102828052888102   0.01701641566280221   0.023829869408856667
-0.5102828052888102   0.01701641566280221   0.023829869408856667
0.542940205520159   0.04936600826605278   0.04694829551946953
0.542940205520159   0.04936600826605278   0.04694829551946953
0.542940205520159   0.04936600826605278   0.04694829551946953
0.542940205520159   0.04936600826605278   0.04694829551946953
0.19867075383274135   -0.08995108962704534   -0.030895193179573704
0.19867075383274135   -0.08995108962704534   -0.030895193179573704
0.19867075383274135   -0.08995108962704534   -0.030895193179573704
0.19867075383274135   -0.08995108962704534   -0.030895193179573704
0.24507855441578824   -0.0006461479668281034   0.03376385776699589
0.24507855441578824   -0.0006461479668281034   0.03376385776699589
0.24507855441578824   -0.0006461479668281034   0.03376385776699589
0.24507855441578824   -0.0006461479668281034   0.03376385776699589
0.5526491210869923   -0.012252175182913022   -0.03945408398337309
0.5526491210869923   -0.012252175182913022   -0.03945408398337309
0.5526491210869923   -0.012252175182913022   -0.03945408398337309
0.5526491210869923   -0.012252175182913022   -0.03945408398337309
0.3611666214414875   -0.01620714408314458   -0.034798976150468786
0.3611666214414875   -0.01620714408314458   -0.034798976150468786
0.3611666214414875   -0.01620714408314458   -0.034798976150468786
0.3611666214414875   -0.01620714408314458   -0.034798976150468786
0.5848965684362833   0.06872573233325475   0.0408052452469151
0.5848965684362833   0.06872573233325475   0.0408052452469151
0.5848965684362833   0.06872573233325475   0.0408052452469151
0.5848965684362833   0.06872573233325475   0.0408052452469151
0.21512121607484658   -0.07933394647464513   -0.03733503542988803
0.21512121607484658   -0.07933394647464513   -0.03733503542988803
0.21512121607484658   -0.07933394647464513   -0.03733503542988803
0.21512121607484658   -0.07933394647464513   -0.03733503542988803
0.26332439084642045   0.009978144625057694   0.0278312529115887
0.26332439084642045   0.009978144625057694   0.0278312529115887
0.26332439084642045   0.009978144625057694   0.0278312529115887
0.26332439084642045   0.009978144625057694   0.0278312529115887
0.5860075777437128   -0.00018236003114276145   -0.04966679410128187
0.5860075777437128   -0.00018236003114276145   -0.04966679410128187
0.5860075777437128   -0.00018236003114276145   -0.04966679410128187
0.5860075777437128   -0.00018236003114276145   -0.04966679410128187
0.3960336544185293   -0.0031790856573028076   -0.021097761654860343
0.3960336544185293   -0.0031790856573028076   -0.021097761654860343
0.3960336544185293   -0.0031790856573028076   -0.021097761654860343
0.3960336544185293   -0.0031790856573028076   -0.021097761654860343
0.618604657777891   0.08174599719727219   0.031390248841190745
0.618604657777891   0.08174599719727219   0.031390248841190745
0.618604657777891   0.08174599719727219   0.031390248841190745
0.618604657777891   0.08174599719727219   0.031390248841190745
0.2331570974686893   -0.06952042594691016   -0.04350664340509536
0.2331570974686893   -0.06952042594691016   -0.04350664340509536
0.2331570974686893   -0.06952042594691016   -0.04350664340509536
0.2331570974686893   -0.06952042594691016   -0.04350664340509536
0.28154649421544165   0.03341646524039032   0.02412100358483768
0.28154649421544165   0.03341646524039032   0.02412100358483768
0.28154649421544165   0.03341646524039032   0.02412100358483768
0.28154649421544165   0.03341646524039032   0.02412100358483768
0.6298295832362041   0.03129130883690917   -0.05356571405801187
0.6298295832362041   0.03129130883690917   -0.05356571405801187
0.6298295832362041   0.03129130883690917   -0.05356571405801187
0.6298295832362041   0.03129130883690917   -0.05356571405801187
0.4174625468502142   0.012687020914517566   -0.009265145872554038
0.4174625468502142   0.012687020914517566   -0.009265145872554038
0.4174625468502142   0.012687020914517566   -0.009265145872554038
0.4174625468502142   0.012687020914517566   -0.009265145872554038
0.2358949377442701   0.027681893937472207   0.03759274281355232
0.2358949377442701   0.027681893937472207   0.03759274281355232
0.2358949377442701   0.027681893937472207   0.03759274281355232
0.2358949377442701   0.027681893937472207   0.03759274281355232
-0.11527379336258492   -0.08394165487864574   -0.016196729680042776
-0.11527379336258492   -0.08394165487864574   -0.016196729680042776
-0.11527379336258492   -0.08394165487864574   -0.016196729680042776
-0.11527379336258492   -0.08394165487864574   -0.016196729680042776
-0.08340282674734562   -0.024670656139993377   0.011351277546070225
-0.08340282674734562   -0.024670656139993377   0.011351277546070225
-0.08340282674734562   -0.024670656139993377   0.011351277546070225
-0.08340282674734562   -0.024670656139993377   0.011351277546070225
0.23765520059402104   0.0009241888277004284   -0.004923248136368611
0.23765520059402104   0.0009241888277004284   -0.004923248136368611
0.23765520059402104   0.0009241888277004284   -0.004923248136368611
0.23765520059402104   0.0009241888277004284   -0.004923248136368611
0.06561275896199022   -0.01767701681649045   -0.01480194814552387
0.06561275896199022   -0.01767701681649045   -0.01480194814552387
0.06561275896199022   -0.01767701681649045   -0.01480194814552387
0.06561275896199022   -0.01767701681649045   -0.01480194814552387
0.25464734703904734   0.04738454807613717   0.03357712484032997
0.25464734703904734   0.04738454807613717   0.03357712484032997
0.25464734703904734   0.04738454807613717   0.03357712484032997
0.25464734703904734   0.04738454807613717   0.03357712484032997
-0.0990093545321611   -0.06974539672821897   -0.021606620789783502
-0.0990093545321611   -0.06974539672821897   -0.021606620789783502
-0.0990093545321611   -0.06974539672821897   -0.021606620789783502
-0.0990093545321611   -0.06974539672821897   -0.021606620789783502
-0.06640948823661887   -0.00477286340482987   0.007167308159636464
-0.06640948823661887   -0.00477286340482987   0.007167308159636464
-0.06640948823661887   -0.00477286340482987   0.007167308159636464
-0.06640948823661887   -0.00477286340482987   0.007167308159636464
0.2576747648265251   0.01876566985149758   -0.009204402414323767
0.2576747648265251   0.01876566985149758   -0.009204402414323767
0.2576747648265251   0.01876566985149758   -0.009204402414323767
0.2576747648265251   0.01876566985149758   -0.009204402414323767
0.08202258409316261   -0.001960553880391982   -0.005882576943689465
0.08202258409316261   -0.001960553880391982   -0.005882576943689465
0.08202258409316261   -0.001960553880391982   -0.005882576943689465
0.08202258409316261   -0.001960553880391982   -0.005882576943689465
0.27534834157238797   0.06810922596527899   0.02981992520120467
0.27534834157238797   0.06810922596527899   0.02981992520120467
0.27534834157238797   0.06810922596527899   0.02981992520120467
0.27534834157238797   0.06810922596527899   0.02981992520120467
-0.0826953574323979   -0.052728711968533334   -0.02630618925555528
-0.0826953574323979   -0.052728711968533334   -0.02630618925555528
-0.0826953574323979   -0.052728711968533334   -0.02630618925555528
-0.0826953574323979   -0.052728711968533334   -0.02630618925555528
-0.04962584484001031   0.01829766597786252   0.0030043683252987683
-0.04962584484001031   0.01829766597786252   0.0030043683252987683
-0.04962584484001031   0.01829766597786252   0.0030043683252987683
-0.04962584484001031   0.01829766597786252   0.0030043683252987683
0.27541515915116616   0.04002644948589346   -0.013145655982039268
0.27541515915116616   0.04002644948589346   -0.013145655982039268
0.27541515915116616   0.04002644948589346   -0.013145655982039268
0.27541515915116616   0.04002644948589346   -0.013145655982039268
0.10233387735922467   0.01732925591347878   0.004535517258449279
0.10233387735922467   0.01732925591347878   0.004535517258449279
0.10233387735922467   0.01732925591347878   0.004535517258449279
0.10233387735922467   0.01732925591347878   0.004535517258449279
-0.09083784585283332   0.006035790030914815   0.0160055629591547
-0.09083784585283332   0.006035790030914815   0.0160055629591547
-0.09083784585283332   0.006035790030914815   0.0160055629591547
-0.09083784585283332   0.006035790030914815   0.0160055629591547
-0.4229941637931288   -0.07416201233598634   -0.002168492483065149
-0.4229941637931288   -0.07416201233598634   -0.002168492483065149
-0.4229941637931288   -0.07416201233598634   -0.002168492483065149
-0.4229941637931288   -0.07416201233598634   -0.002168492483065149
-0.4028634213647202   -0.04380765633209557   -0.009929103782277864
-0.4028634213647202   -0.04380765633209557   -0.009929103782277864
-0.4028634213647202   -0.04380765633209557   -0.009929103782277864
-0.4028634213647202   -0.04380765633209557   -0.009929103782277864
-0.07636611519283117   0.011242535207508116   0.010621643971139136
-0.07636611519283117   0.011242535207508116   0.010621643971139136
-0.07636611519283117   0.011242535207508116   0.010621643971139136
-0.07636611519283117   0.011242535207508116   0.010621643971139136
-0.24869959844039544   -0.02277766560965607   -0.00924676628738593
-0.24869959844039544   -0.02277766560965607   -0.00924676628738593
-0.24869959844039544   -0.02277766560965607   -0.00924676628738593
-0.24869959844039544   -0.02277766560965607   -0.00924676628738593
-0.07300032692472602   0.026574506180161498   0.012118614339013305
-0.07300032692472602   0.026574506180161498   0.012118614339013305
-0.07300032692472602   0.026574506180161498   0.012118614339013305
-0.07300032692472602   0.026574506180161498   0.012118614339013305
-0.40529786642420496   -0.05820828409612829   -0.007700701315669073
-0.40529786642420496   -0.05820828409612829   -0.007700701315669073
-0.40529786642420496   -0.05820828409612829   -0.007700701315669073
-0.40529786642420496   -0.05820828409612829   -0.007700701315669073
-0.3841304511373311   -0.021976241095693003   -0.013411162648160824
-0.3841304511373311   -0.021976241095693003   -0.013411162648160824
-0.3841304511373311   -0.021976241095693003   -0.013411162648160824
-0.3841304511373311   -0.021976241095693003   -0.013411162648160824
-0.059828232322789436   0.02926836777184924   0.006032356552104474
-0.059828232322789436   0.02926836777184924   0.006032356552104474
-0.059828232322789436   0.02926836777184924   0.006032356552104474
-0.059828232322789436   0.02926836777184924   0.006032356552104474
-0.22980246306030208   -0.004514182548799754   -0.00013822482367862807
-0.22980246306030208   -0.004514182548799754   -0.00013822482367862807
-0.22980246306030208   -0.004514182548799754   -0.00013822482367862807
-0.22980246306030208   -0.004514182548799754   -0.00013822482367862807
-0.05576428416421861   0.04791943154326935   0.007701033573538473
-0.05576428416421861   0.04791943154326935   0.007701033573538473
-0.05576428416421861   0.04791943154326935   0.007701033573538473
-0.05576428416421861   0.04791943154326935   0.007701033573538473
-0.38733055269373134   -0.03976345826494252   -0.01162445326091247
-0.38733055269373134   -0.03976345826494252   -0.01162445326091247
-0.38733055269373134   -0.03976345826494252   -0.01162445326091247
-0.38733055269373134   -0.03976345826494252   -0.01162445326091247
-0.3666905113964699   -0.00021239246712279058   -0.017566554875408445
-0.3666905113964699   -0.00021239246712279058   -0.017566554875408445
-0.3666905113964699   -0.00021239246712279058   -0.017566554875408445
-0.3666905113964699   -0.00021239246712279058   -0.017566554875408445
-0.04405096697064606   0.047673327016233974   0.0015030966337485508
-0.04405096697064606   0.047673327016233974   0.0015030966337485508
-0.04405096697064606   0.047673327016233974   0.0015030966337485508
-0.04405096697064606   0.047673327016233974   0.0015030966337485508
-0.21244808081713737   0.013681828414404566   0.008526777701502434
-0.21244808081713737   0.013681828414404566   0.008526777701502434
-0.21244808081713737   0.013681828414404566   0.008526777701502434
-0.21244808081713737   0.013681828414404566   0.008526777701502434
-0.41217930678774534   -0.016021225159721472   -0.0062349946324080675
-0.41217930678774534   -0.016021225159721472   -0.0062349946324080675
-0.41217930678774534   -0.016021225159721472   -0.0062349946324080675
-0.41217930678774534   -0.016021225159721472   -0.0062349946324080675
-0.7239074334622206   -0.06016700694762572   0.01383315688652488
-0.7239074334622206   -0.06016700694762572   0.01383315688652488
-0.7239074334622206   -0.06016700694762572   0.01383315688652488
-0.7239074334622206   -0.06016700694762572   0.01383315688652488
-0.7142227016572809   -0.06220794969982821   -0.02985821691371395
-0.7142227016572809   -0.06220794969982821   -0.02985821691371395
-0.7142227016572809   -0.06220794969982821   -0.02985821691371395
-0.7142227016572809   -0.06220794969982821   -0.02985821691371395
-0.3811695590733179   0.02808643367878924   0.02664611766385215
-0.3811695590733179   0.02808643367878924   0.02664611766385215
-0.3811695590733179   0.02808643367878924   0.02664611766385215
-0.3811695590733179   0.02808643367878924   0.02664611766385215
-0.5540109767764133   -0.024120812578671713   -0.0032295964675339364
-0.5540109767764133   -0.024120812578671713   -0.0032295964675339364
-0.5540109767764133   -0.024120812578671713   -0.0032295964675339364
-0.5540109767764133   -0.024120812578671713   -0.0032295964675339364
-0.3927905187651582   0.006146400698355897   -0.009518647814916077
-0.3927905187651582   0.006146400698355897   -0.009518647814916077
-0.3927905187651582   0.006146400698355897   -0.009518647814916077
-0.3927905187651582   0.006146400698355897   -0.009518647814916077
-0.7025367620804059   -0.04020293683435919   0.006566468105198009
-0.7025367620804059   -0.04020293683435919   0.006566468105198009
-0.7025367620804059   -0.04020293683435919   0.006566468105198009
-0.7025367620804059   -0.04020293683435919   0.006566468105198009
-0.6897239403066986   -0.04088693888646233   -0.03302624891659977
-0.6897239403066986   -0.04088693888646233   -0.03302624891659977
-0.6897239403066986   -0.04088693888646233   -0.03302624891659977
-0.6897239403066986   -0.04088693888646233   -0.03302624891659977
-0.36373903520205436   0.04526412848712141   0.021305547445410994
-0.36373903520205436   0.04526412848712141   0.021305547445410994
-0.36373903520205436   0.04526412848712141   0.021305547445410994
-0.36373903520205436   0.04526412848712141   0.021305547445410994
-0.5290673981337086   -0.00393927189062146   0.00591239119168168
-0.5290673981337086   -0.00393927189062146   0.00591239119168168
-0.5290673981337086   -0.00393927189062146   0.00591239119168168
-0.5290673981337086   -0.00393927189062146   0.00591239119168168
-0.37464854352742655   0.02594818092820518   -0.013926046622534181
-0.37464854352742655   0.02594818092820518   -0.013926046622534181
-0.37464854352742655   0.02594818092820518   -0.013926046622534181
-0.37464854352742655   0.02594818092820518   -0.013926046622534181
-0.6782196993266397   -0.0209762586728596   0.004584275770091337
-0.6782196993266397   -0.0209762586728596   0.004584275770091337
-0.6782196993266397   -0.0209762586728596   0.004584275770091337
-0.6782196993266397   -0.0209762586728596   0.004584275770091337
-0.6678197575755752   -0.017789900257241642   -0.03473000141946219
-0.6678197575755752   -0.017789900257241642   -0.03473000141946219
-0.6678197575755752   -0.017789900257241642   -0.03473000141946219
-0.6678197575755752   -0.017789900257241642   -0.03473000141946219
-0.34685736178748533   0.06413660344089174   0.017250197261503585
-0.34685736178748533   0.06413660344089174   0.017250197261503585
-0.34685736178748533   0.06413660344089174   0.017250197261503585
-0.34685736178748533   0.06413660344089174   0.017250197261503585
-0.512251710336963   0.013301888694976213   0.013794279646586
-0.512251710336963   0.013301888694976213   0.013794279646586
-0.512251710336963   0.013301888694976213   0.013794279646586
-0.512251710336963   0.013301888694976213   0.013794279646586
-0.726881244264801   -0.034378807148961105   -0.02682409692504225
-0.726881244264801   -0.034378807148961105   -0.02682409692504225
-0.726881244264801   -0.034378807148961105   -0.02682409692504225
-0.726881244264801   -0.034378807148961105   -0.02682409692504225
-1.036412115427564   -0.03743431580790685   0.04645860056953352
-1.036412115427564   -0.03743431580790685   0.04645860056953352
-1.036412115427564   -0.03743431580790685   0.04645860056953352
-1.036412115427564   -0.03743431580790685   0.04645860056953352
-1.0167553429378318   -0.07441926153748049   -0.03560656679009613
-1.0167553429378318   -0.07441926153748049   -0.03560656679009613
-1.0167553429378318   -0.07441926153748049   -0.03560656679009613
-1.0167553429378318   -0.07441926153748049   -0.03560656679009613
-0.6747920987146961   0.05783101906152205   0.04725582903785932
-0.6747920987146961   0.05783101906152205   0.04725582903785932
-0.6747920987146961   0.05783101906152205   0.04725582903785932
-0.6747920987146961   0.05783101906152205   0.04725582903785932
-0.8253863965423552   -0.010197188636255572   0.009652813750425919
-0.8253863965423552   -0.010197188636255572   0.009652813750425919
-0.8253863965423552   -0.010197188636255572   0.009652813750425919
-0.8253863965423552   -0.010197188636255572   0.009652813750425919
-0.7039135627800424   -0.010694738827810607   -0.02982573339953589
-0.7039135627800424   -0.010694738827810607   -0.02982573339953589
-0.7039135627800424   -0.010694738827810607   -0.02982573339953589
-0.7039135627800424   -0.010694738827810607   -0.02982573339953589
-0.9871393764893164   -0.005399001264979525   0.043453005179971714
-0.9871393764893164   -0.005399001264979525   0.043453005179971714
-0.9871393764893164   -0.005399001264979525   0.043453005179971714
-0.9871393764893164   -0.005399001264979525   0.043453005179971714
-0.9796145357996947   -0.06119681504578972   -0.04194574347565658
-0.9796145357996947   -0.06119681504578972   -0.04194574347565658
-0.9796145357996947   -0.06119681504578972   -0.04194574347565658
-0.9796145357996947   -0.06119681504578972   -0.04194574347565658
-0.6542522200171264   0.06598454146672733   0.03746087217807121
-0.6542522200171264   0.06598454146672733   0.03746087217807121
-0.6542522200171264   0.06598454146672733   0.03746087217807121
-0.6542522200171264   0.06598454146672733   0.03746087217807121
-0.8063465386817086   0.004240981761687135   0.017238523691845975
-0.8063465386817086   0.004240981761687135   0.017238523691845975
-0.8063465386817086   0.004240981761687135   0.017238523691845975
-0.8063465386817086   0.004240981761687135   0.017238523691845975
-0.6817383444522114   -2.4558156072468362e-05   -0.033960650374553675
-0.6817383444522114   -2.4558156072468362e-05   -0.033960650374553675
-0.6817383444522114   -2.4558156072468362e-05   -0.033960650374553675
-0.6817383444522114   -2.4558156072468362e-05   -0.033960650374553675
-0.9516325587529282   0.005308137188688805   0.031459189523680355
-0.9516325587529282   0.005308137188688805   0.031459189523680355
-0.9516325587529282   0.005308137188688805   0.031459189523680355
-0.9516325587529282   0.005308137188688805   0.031459189523680355
-0.9389812587791271   -0.04534729248576119   -0.04781763335192274
-0.9389812587791271   -0.04534729248576119   -0.04781763335192274
-0.9389812587791271   -0.04534729248576119   -0.04781763335192274
-0.9389812587791271   -0.04534729248576119   -0.04781763335192274
-0.6362193863900263   0.0735853034658791   0.03189665078516178
-0.6362193863900263   0.0735853034658791   0.03189665078516178
-0.6362193863900263   0.0735853034658791   0.03189665078516178
-0.6362193863900263   0.0735853034658791   0.03189665078516178
-0.7652970149568032   0.01622878344452905   0.028738523474414093
-0.7652970149568032   0.01622878344452905   0.028738523474414093
-0.7652970149568032   0.01622878344452905   0.028738523474414093
-0.7652970149568032   0.01622878344452905   0.028738523474414093
0.909733315361069   0.06804489510013928   0.04802216892805237
0.909733315361069   0.06804489510013928   0.04802216892805237
0.909733315361069   0.06804489510013928   0.04802216892805237
0.909733315361069   0.06804489510013928   0.04802216892805237
0.40100730041557464   -0.10681373228472237   -0.022141804000577657
0.40100730041557464   -0.10681373228472237   -0.022141804000577657
0.40100730041557464   -0.10681373228472237   -0.022141804000577657
0.40100730041557464   -0.10681373228472237   -0.022141804000577657
0.44689932117937897   -0.018919969504931855   0.03295674431417651
0.44689932117937897   -0.018919969504931855   0.03295674431417651
0.44689932117937897   -0.018919969504931855   0.03295674431417651
0.44689932117937897   -0.018919969504931855   0.03295674431417651
0.9196345722437475   -0.0013606882334728232   -0.03465355024867682
0.9196345722437475   -0.0013606882334728232   -0.03465355024867682
0.9196345722437475   -0.0013606882334728232   -0.03465355024867682
0.9196345722437475   -0.0013606882334728232   -0.03465355024867682
0.6301298257765254   -0.018973115593831663   -0.0491706966112031
0.6301298257765254   -0.018973115593831663   -0.0491706966112031
0.6301298257765254   -0.018973115593831663   -0.0491706966112031
0.6301298257765254   -0.018973115593831663   -0.0491706966112031
0.9515629609759103   0.08345579218939203   0.0401719129892646
0.9515629609759103   0.08345579218939203   0.0401719129892646
0.9515629609759103   0.08345579218939203   0.0401719129892646
0.9515629609759103   0.08345579218939203   0.0401719129892646
0.4180400309220757   -0.10066735145293848   -0.029592325024333316
0.4180400309220757   -0.10066735145293848   -0.029592325024333316
0.4180400309220757   -0.10066735145293848   -0.029592325024333316
0.4180400309220757   -0.10066735145293848   -0.029592325024333316
0.46479351404692326   -0.00916517839411135   0.02663317778063406
0.46479351404692326   -0.00916517839411135   0.02663317778063406
0.46479351404692326   -0.00916517839411135   0.02663317778063406
0.46479351404692326   -0.00916517839411135   0.02663317778063406
0.9509833313506821   0.009390305917726743   -0.043264986058060666
0.9509833313506821   0.009390305917726743   -0.043264986058060666
0.9509833313506821   0.009390305917726743   -0.043264986058060666
0.9509833313506821   0.009390305917726743   -0.043264986058060666
0.6695492053090359   -0.007494629365043526   -0.03346674620419958
0.6695492053090359   -0.007494629365043526   -0.03346674620419958
0.6695492053090359   -0.007494629365043526   -0.03346674620419958
0.6695492053090359   -0.007494629365043526   -0.03346674620419958
0.9827201834118717   0.09504619662989541   0.029763383535719327
0.9827201834118717   0.09504619662989541   0.029763383535719327
0.9827201834118717   0.09504619662989541   0.029763383535719327
0.9827201834118717   0.09504619662989541   0.029763383535719327
0.43573985247473324   -0.09213787861728025   -0.03566242985714691
0.43573985247473324   -0.09213787861728025   -0.03566242985714691
0.43573985247473324   -0.09213787861728025   -0.03566242985714691
0.43573985247473324   -0.09213787861728025   -0.03566242985714691
0.48101070710580657   0.016910738713300025   0.0233503114543705
0.48101070710580657   0.016910738713300025   0.0233503114543705
0.48101070710580657   0.016910738713300025   0.0233503114543705
0.48101070710580657   0.016910738713300025   0.0233503114543705
0.9895771322558492   0.040857988085243935   -0.045295480183126874
0.9895771322558492   0.040857988085243935   -0.045295480183126874
0.9895771322558492   0.040857988085243935   -0.045295480183126874
0.9895771322558492   0.040857988085243935   -0.045295480183126874
0.6841858047633863   0.007978708407645363   -0.02261501587859216
0.6841858047633863   0.007978708407645363   -0.02261501587859216
0.6841858047633863   0.007978708407645363   -0.02261501587859216
0.6841858047633863   0.007978708407645363   -0.02261501587859216
0.44358526511103186   0.03988030015874064   0.04405398703324159
0.44358526511103186   0.03988030015874064   0.04405398703324159
0.44358526511103186   0.03988030015874064   0.04405398703324159
0.44358526511103186   0.03988030015874064   0.04405398703324159
-0.05541365097190013   -0.13147724962717822   -0.012628219004957662
-0.05541365097190013   -0.13147724962717822   -0.012628219004957662
-0.05541365097190013   -0.13147724962717822   -0.012628219004957662
-0.05541365097190013   -0.13147724962717822   -0.012628219004957662
-0.015945987734440795   -0.046583298673384343   0.011140502686638716
-0.015945987734440795   -0.046583298673384343   0.011140502686638716
-0.015945987734440795   -0.046583298673384343   0.011140502686638716
-0.015945987734440795   -0.046583298673384343   0.011140502686638716
0.439784631378436   -0.023760902370341022   0.0022242281748704774
0.439784631378436   -0.023760902370341022   0.0022242281748704774
0.439784631378436   -0.023760902370341022   0.0022242281748704774
0.439784631378436   -0.023760902370341022   0.0022242281748704774
0.19749876395578259   -0.036505936157953375   -0.023373211661689722
0.19749876395578259   -0.036505936157953375   -0.023373211661689722
0.19749876395578259   -0.036505936157953375   -0.023373211661689722
0.19749876395578259   -0.036505936157953375   -0.023373211661689722
0.4628481038489911   0.05475296394786278   0.039027724209442456
0.4628481038489911   0.05475296394786278   0.039027724209442456
0.4628481038489911   0.05475296394786278   0.039027724209442456
0.4628481038489911   0.05475296394786278   0.039027724209442456
-0.03738619245750234   -0.12347389724409454   -0.019169922357958835
-0.03738619245750234   -0.12347389724409454   -0.019169922357958835
-0.03738619245750234   -0.12347389724409454   -0.019169922357958835
-0.03738619245750234   -0.12347389724409454   -0.019169922357958835
0.0022980769197985217   -0.02911249820597141   0.006781445205057935
0.0022980769197985217   -0.02911249820597141   0.006781445205057935
0.0022980769197985217   -0.02911249820597141   0.006781445205057935
0.0022980769197985217   -0.02911249820597141   0.006781445205057935
0.45848537225048175   -0.010585769273016979   -0.0034869403226678065
0.45848537225048175   -0.010585769273016979   -0.0034869403226678065
0.45848537225048175   -0.010585769273016979   -0.0034869403226678065
0.45848537225048175   -0.010585769273016979   -0.0034869403226678065
0.21332474651637684   -0.025774255252476744   -0.01513979702298705
0.21332474651637684   -0.025774255252476744   -0.01513979702298705
0.21332474651637684   -0.025774255252476744   -0.01513979702298705
0.21332474651637684   -0.025774255252476744   -0.01513979702298705
0.48278813231613354   0.07259786831566574   0.03484322241690867
0.48278813231613354   0.07259786831566574   0.03484322241690867
0.48278813231613354   0.07259786831566574   0.03484322241690867
0.48278813231613354   0.07259786831566574   0.03484322241690867
-0.021033918587860845   -0.11132537123666167   -0.02766565930254864
-0.021033918587860845   -0.11132537123666167   -0.02766565930254864
-0.021033918587860845   -0.11132537123666167   -0.02766565930254864
-0.021033918587860845   -0.11132537123666167   -0.02766565930254864
0.016622535761791978   -0.008627414208516298   0.002377648935286105
0.016622535761791978   -0.008627414208516298   0.002377648935286105
0.016622535761791978   -0.008627414208516298   0.002377648935286105
0.016622535761791978   -0.008627414208516298   0.002377648935286105
0.4724773077635735   0.006234513777017128   -0.008640460320519384
0.4724773077635735   0.006234513777017128   -0.008640460320519384
0.4724773077635735   0.006234513777017128   -0.008640460320519384
0.4724773077635735   0.006234513777017128   -0.008640460320519384
0.2327711296676788   -0.009712601213380564   -0.006290813380520975
0.2327711296676788   -0.009712601213380564   -0.006290813380520975
0.2327711296676788   -0.009712601213380564   -0.006290813380520975
0.2327711296676788   -0.009712601213380564   -0.006290813380520975
-0.019959263915121008   0.011259966222150159   0.021906500429609576
-0.019959263915121008   0.011259966222150159   0.021906500429609576
-0.019959263915121008   0.011259966222150159   0.021906500429609576
-0.019959263915121008   0.011259966222150159   0.021906500429609576
-0.5082856733199379   -0.16486908700127056   -0.010118787103142426
-0.5082856733199379   -0.16486908700127056   -0.010118787103142426
-0.5082856733199379   -0.16486908700127056   -0.010118787103142426
-0.5082856733199379   -0.16486908700127056   -0.010118787103142426
-0.4684328653813414   -0.07143740592825398   -0.010711311519161196
-0.4684328653813414   -0.07143740592825398   -0.010711311519161196
-0.4684328653813414   -0.07143740592825398   -0.010711311519161196
-0.4684328653813414   -0.07143740592825398   -0.010711311519161196
-0.018090218710129776   -0.056079890198351835   0.0099159393331613
-0.018090218710129776   -0.056079890198351835   0.0099159393331613
-0.018090218710129776   -0.056079890198351835   0.0099159393331613
-0.018090218710129776   -0.056079890198351835   0.0099159393331613
-0.2548339958262359   -0.06651209663465242   -0.020862658992963346
-0.2548339958262359   -0.06651209663465242   -0.020862658992963346
-0.2548339958262359   -0.06651209663465242   -0.020862658992963346
-0.2548339958262359   -0.06651209663465242   -0.020862658992963346
0.00030723465715888285   0.028014616314607374   0.01780869965664538
0.00030723465715888285   0.028014616314607374   0.01780869965664538
0.00030723465715888285   0.028014616314607374   0.01780869965664538
0.00030723465715888285   0.028014616314607374   0.01780869965664538
-0.48565578804375986   -0.15435738173634297   -0.01390594902316436
-0.48565578804375986   -0.15435738173634297   -0.01390594902316436
-0.48565578804375986   -0.15435738173634297   -0.01390594902316436
-0.48565578804375986   -0.15435738173634297   -0.01390594902316436
-0.44579885679212466   -0.05204591348587934   -0.014568425267203219
-0.44579885679212466   -0.05204591348587934   -0.014568425267203219
-0.44579885679212466   -0.05204591348587934   -0.014568425267203219
-0.44579885679212466   -0.05204591348587934   -0.014568425267203219
-0.001098666438201593   -0.04341427673802856   0.004099506947114511
-0.001098666438201593   -0.04341427673802856   0.004099506947114511
-0.001098666438201593   -0.04341427673802856   0.004099506947114511
-0.001098666438201593   -0.04341427673802856   0.004099506947114511
-0.23286176890632063   -0.052562391638627255   -0.011564117341008465
-0.23286176890632063   -0.052562391638627255   -0.011564117341008465
-0.23286176890632063   -0.052562391638627255   -0.011564117341008465
-0.23286176890632063   -0.052562391638627255   -0.011564117341008465
0.01885092156403957   0.04657030106904375   0.013862869151248017
0.01885092156403957   0.04657030106904375   0.013862869151248017
0.01885092156403957   0.04657030106904375   0.013862869151248017
0.01885092156403957   0.04657030106904375   0.013862869151248017
-0.4657425910617898   -0.14202463756037498   -0.024308372541029417
-0.4657425910617898   -0.14202463756037498   -0.024308372541029417
-0.4657425910617898   -0.14202463756037498   -0.024308372541029417
-0.4657425910617898   -0.14202463756037498   -0.024308372541029417
-0.4298011964310223   -0.033552621118397255   -0.018876414579062004
-0.4298011964310223   -0.033552621118397255   -0.018876414579062004
-0.4298011964310223   -0.033552621118397255   -0.018876414579062004
-0.4298011964310223   -0.033552621118397255   -0.018876414579062004
0.010050663669626004   -0.033271214275284275   -0.005837911458775794
0.010050663669626004   -0.033271214275284275   -0.005837911458775794
0.010050663669626004   -0.033271214275284275   -0.005837911458775794
0.010050663669626004   -0.033271214275284275   -0.005837911458775794
-0.21674917722295423   -0.039540493957783814   -0.005726682749528497
-0.21674917722295423   -0.039540493957783814   -0.005726682749528497
-0.21674917722295423   -0.039540493957783814   -0.005726682749528497
-0.21674917722295423   -0.039540493957783814   -0.005726682749528497
-0.4761227230238758   -0.013509433968407647   -0.0006636886556988103
-0.4761227230238758   -0.013509433968407647   -0.0006636886556988103
-0.4761227230238758   -0.013509433968407647   -0.0006636886556988103
-0.4761227230238758   -0.013509433968407647   -0.0006636886556988103
-0.9633762037216825   -0.17725393216632387   -0.008101379185229553
-0.9633762037216825   -0.17725393216632387   -0.008101379185229553
-0.9633762037216825   -0.17725393216632387   -0.008101379185229553
-0.9633762037216825   -0.17725393216632387   -0.008101379185229553
-0.9206514491370013   -0.09149543420677618   -0.03178133170026094
-0.9206514491370013   -0.09149543420677618   -0.03178133170026094
-0.9206514491370013   -0.09149543420677618   -0.03178133170026094
-0.9206514491370013   -0.09149543420677618   -0.03178133170026094
-0.4594676208583364   -0.058284279684854924   0.020961784852460995
-0.4594676208583364   -0.058284279684854924   0.020961784852460995
-0.4594676208583364   -0.058284279684854924   0.020961784852460995
-0.4594676208583364   -0.058284279684854924   0.020961784852460995
-0.6987499304589977   -0.08003108812392487   -0.014695435178198275
-0.6987499304589977   -0.08003108812392487   -0.014695435178198275
-0.6987499304589977   -0.08003108812392487   -0.014695435178198275
-0.6987499304589977   -0.08003108812392487   -0.014695435178198275
-0.4511168991162102   0.008044970760901368   -0.003613856882664187
-0.4511168991162102   0.008044970760901368   -0.003613856882664187
-0.4511168991162102   0.008044970760901368   -0.003613856882664187
-0.4511168991162102   0.008044970760901368   -0.003613856882664187
-0.9293517942749512   -0.15817430804835492   -0.00860418354842433
-0.9293517942749512   -0.15817430804835492   -0.00860418354842433
-0.9293517942749512   -0.15817430804835492   -0.00860418354842433
-0.9293517942749512   -0.15817430804835492   -0.00860418354842433
-0.8882763061056057   -0.07126313109299093   -0.0367934795515687
-0.8882763061056057   -0.07126313109299093   -0.0367934795515687
-0.8882763061056057   -0.07126313109299093   -0.0367934795515687
-0.8882763061056057   -0.07126313109299093   -0.0367934795515687
-0.43750218888251174   -0.043106038634473265   0.017975039429459203
-0.43750218888251174   -0.043106038634473265   0.017975039429459203
-0.43750218888251174   -0.043106038634473265   0.017975039429459203
-0.43750218888251174   -0.043106038634473265   0.017975039429459203
-0.6654447744230216   -0.06061840485272148   -0.004781189429242081
-0.6654447744230216   -0.06061840485272148   -0.004781189429242081
-0.6654447744230216   -0.06061840485272148   -0.004781189429242081
-0.6654447744230216   -0.06061840485272148   -0.004781189429242081
-0.42843299477687913   0.026756017789747316   -0.006541046466604056
-0.42843299477687913   0.026756017789747316   -0.006541046466604056
-0.42843299477687913   0.026756017789747316   -0.006541046466604056
-0.42843299477687913   0.026756017789747316   -0.006541046466604056
-0.8988870311001455   -0.14266671840611853   -0.018443517211133395
-0.8988870311001455   -0.14266671840611853   -0.018443517211133395
-0.8988870311001455   -0.14266671840611853   -0.018443517211133395
-0.8988870311001455   -0.14266671840611853   -0.018443517211133395
-0.862045277008514   -0.04994597568953865   -0.037974783169619684
-0.862045277008514   -0.04994597568953865   -0.037974783169619684
-0.862045277008514   -0.04994597568953865   -0.037974783169619684
-0.862045277008514   -0.04994597568953865   -0.037974783169619684
-0.4248915476213426   -0.03345629609016067   0.0055755044411028715
-0.4248915476213426   -0.03345629609016067   0.0055755044411028715
-0.4248915476213426   -0.03345629609016067   0.0055755044411028715
-0.4248915476213426   -0.03345629609016067   0.0055755044411028715
-0.6471666514434822   -0.048790978098218626   -0.0015348350824661676
-0.6471666514434822   -0.048790978098218626   -0.0015348350824661676
-0.6471666514434822   -0.048790978098218626   -0.0015348350824661676
-0.6471666514434822   -0.048790978098218626   -0.0015348350824661676
-0.937226703798136   -0.03150876328557667   -0.023099048448243786
-0.937226703798136   -0.03150876328557667   -0.023099048448243786
-0.937226703798136   -0.03150876328557667   -0.023099048448243786
-0.937226703798136   -0.03150876328557667   -0.023099048448243786
-1.4133041008359732   -0.12017512601974906   0.05307257324948943
-1.4133041008359732   -0.12017512601974906   0.05307257324948943
-1.4133041008359732   -0.12017512601974906   0.05307257324948943
-1.4133041008359732   -0.12017512601974906   0.05307257324948943
-1.3652196180010152   -0.09590506037502347   -0.030997048858579672
-1.3652196180010152   -0.09590506037502347   -0.030997048858579672
-1.3652196180010152   -0.09590506037502347   -0.030997048858579672
-1.3652196180010152   -0.09590506037502347   -0.030997048858579672
-0.8811400773328094   0.025402883823420735   0.04887720929049362
-0.8811400773328094   0.025402883823420735   0.04887720929049362
-0.8811400773328094   0.025402883823420735   0.04887720929049362
-0.8811400773328094   0.025402883823420735   0.04887720929049362
-1.0977682115989047   -0.037614858162051595   0.005456150221484754
-1.0977682115989047   -0.037614858162051595   0.005456150221484754
-1.0977682115989047   -0.037614858162051595   0.005456150221484754
-1.0977682115989047   -0.037614858162051595   0.005456150221484754
-0.9015365841492594   -0.002091276688856031   -0.025611164279467864
-0.9015365841492594   -0.002091276688856031   -0.025611164279467864
-0.9015365841492594   -0.002091276688856031   -0.025611164279467864
-0.9015365841492594   -0.002091276688856031   -0.025611164279467864
-1.3415350082414592   -0.06512279691964379   0.05664373648382094
-1.3415350082414592   -0.06512279691964379   0.05664373648382094
-1.3415350082414592   -0.06512279691964379   0.05664373648382094
-1.3415350082414592   -0.06512279691964379   0.05664373648382094
-1.3136122493638864   -0.08076249236107089   -0.03691426761415983
-1.3136122493638864   -0.08076249236107089   -0.03691426761415983
-1.3136122493638864   -0.08076249236107089   -0.03691426761415983
-1.3136122493638864   -0.08076249236107089   -0.03691426761415983
-0.8491386487375956   0.04046530752231109   0.04716636867317958
-0.8491386487375956   0.04046530752231109   0.04716636867317958
-0.8491386487375956   0.04046530752231109   0.04716636867317958
-0.8491386487375956   0.04046530752231109   0.04716636867317958
-1.0674831907844586   -0.01517056925793911   0.021920597462792638
-1.0674831907844586   -0.01517056925793911   0.021920597462792638
-1.0674831907844586   -0.01517056925793911   0.021920597462792638
-1.0674831907844586   -0.01517056925793911   0.021920597462792638
-0.8702482381950685   0.009758257647625973   -0.027674528739493463
-0.8702482381950685   0.009758257647625973   -0.027674528739493463
-0.8702482381950685   0.009758257647625973   -0.027674528739493463
-0.8702482381950685   0.009758257647625973   -0.027674528739493463
-1.291825476149922   -0.04937825872988982   0.04063536482447057
-1.291825476149922   -0.04937825872988982   0.04063536482447057
-1.291825476149922   -0.04937825872988982   0.04063536482447057
-1.291825476149922   -0.04937825872988982   0.04063536482447057
-1.260220792909723   -0.06651908848351656   -0.04462390244211971
-1.260220792909723   -0.06651908848351656   -0.04462390244211971
-1.260220792909723   -0.06651908848351656   -0.04462390244211971
-1.260220792909723   -0.06651908848351656   -0.04462390244211971
-0.8254927302569302   0.05839440688335651   0.03644756801540469
-0.8254927302569302   0.05839440688335651   0.03644756801540469
-0.8254927302569302   0.05839440688335651   0.03644756801540469
-0.8254927302569302   0.05839440688335651   0.03644756801540469
-1.0099746247977135   0.003993621545934495   0.038474079582594224
-1.0099746247977135   0.003993621545934495   0.038474079582594224
-1.0099746247977135   0.003993621545934495   0.038474079582594224
-1.0099746247977135   0.003993621545934495   0.038474079582594224
1.240925522551849   0.07455586295267644   0.04478795005017296
1.240925522551849   0.07455586295267644   0.04478795005017296
1.240925522551849   0.07455586295267644   0.04478795005017296
1.240925522551849   0.07455586295267644   0.04478795005017296
0.591175133000268   -0.11048552308272411   0.00981986864211254
0.591175133000268   -0.11048552308272411   0.00981986864211254
0.591175133000268   -0.11048552308272411   0.00981986864211254
0.591175133000268   -0.11048552308272411   0.00981986864211254
0.6236199789585055   -0.04675437625812015   0.03439260291332856
0.6236199789585055   -0.04675437625812015   0.03439260291332856
0.6236199789585055   -0.04675437625812015   0.03439260291332856
0.6236199789585055   -0.04675437625812015   0.03439260291332856
1.2473575864088737   0.010987431187372054   -0.010135939166397337
1.2473575864088737   0.010987431187372054   -0.010135939166397337
1.2473575864088737   0.010987431187372054   -0.010135939166397337
1.2473575864088737   0.010987431187372054   -0.010135939166397337
0.8722258965970038   -0.023620214472772433   -0.05782640854469541
0.8722258965970038   -0.023620214472772433   -0.05782640854469541
0.8722258965970038   -0.023620214472772433   -0.05782640854469541
0.8722258965970038   -0.023620214472772433   -0.05782640854469541
1.2708479294095796   0.0828944455452747   0.03540876147922882
1.2708479294095796   0.0828944455452747   0.03540876147922882
1.2708479294095796   0.0828944455452747   0.03540876147922882
1.2708479294095796   0.0828944455452747   0.03540876147922882
0.6057526720344328   -0.11303835453938971   0.011340046574234902
0.6057526720344328   -0.11303835453938971   0.011340046574234902
0.6057526720344328   -0.11303835453938971   0.011340046574234902
0.6057526720344328   -0.11303835453938971   0.011340046574234902
0.6358665491406076   -0.039748712011129006   0.02615670650773496
0.6358665491406076   -0.039748712011129006   0.02615670650773496
0.6358665491406076   -0.039748712011129006   0.02615670650773496
0.6358665491406076   -0.039748712011129006   0.02615670650773496
1.2690738033526925   0.018878351677507843   -0.003256661622486695
1.2690738033526925   0.018878351677507843   -0.003256661622486695
1.2690738033526925   0.018878351677507843   -0.003256661622486695
1.2690738033526925   0.018878351677507843   -0.003256661622486695
0.908063735696624   -0.018650335302701243   -0.03954339995281753
0.908063735696624   -0.018650335302701243   -0.03954339995281753
0.908063735696624   -0.018650335302701243   -0.03954339995281753
0.908063735696624   -0.018650335302701243   -0.03954339995281753
1.2889616649929472   0.09054264125754233   0.024518356998751996
1.2889616649929472   0.09054264125754233   0.024518356998751996
1.2889616649929472   0.09054264125754233   0.024518356998751996
1.2889616649929472   0.09054264125754233   0.024518356998751996
0.6198898263422481   -0.1075018627492684   0.014026243254076504
0.6198898263422481   -0.1075018627492684   0.014026243254076504
0.6198898263422481   -0.1075018627492684   0.014026243254076504
0.6198898263422481   -0.1075018627492684   0.014026243254076504
0.6539102520658142   -0.012433798707534027   0.023912466043018513
0.6539102520658142   -0.012433798707534027   0.023912466043018513
0.6539102520658142   -0.012433798707534027   0.023912466043018513
0.6539102520658142   -0.012433798707534027   0.023912466043018513
1.2916909144021738   0.03703177405431951   -0.0007050762587200998
1.2916909144021738   0.03703177405431951   -0.0007050762587200998
1.2916909144021738   0.03703177405431951   -0.0007050762587200998
1.2916909144021738   0.03703177405431951   -0.0007050762587200998
0.9123867884150454   -0.008517762098221165   -0.02961222485282613
0.9123867884150454   -0.008517762098221165   -0.02961222485282613
0.9123867884150454   -0.008517762098221165   -0.02961222485282613
0.9123867884150454   -0.008517762098221165   -0.02961222485282613
0.6239954617486128   0.016347845481781975   0.047088143819330436
0.6239954617486128   0.016347845481781975   0.047088143819330436
0.6239954617486128   0.016347845481781975   0.047088143819330436
0.6239954617486128   0.016347845481781975   0.047088143819330436
0.03187929122179485   -0.21950272190011405   0.022343544725210635
0.03187929122179485   -0.21950272190011405   0.022343544725210635
0.03187929122179485   -0.21950272190011405   0.022343544725210635
0.03187929122179485   -0.21950272190011405   0.022343544725210635
0.07408249105018938   -0.09315925438123464   0.020934608448648955
0.07408249105018938   -0.09315925438123464   0.020934608448648955
0.07408249105018938   -0.09315925438123464   0.020934608448648955
0.07408249105018938   -0.09315925438123464   0.020934608448648955
0.6080407307130551   -0.10462342281105214   0.014365408239004354
0.6080407307130551   -0.10462342281105214   0.014365408239004354
0.6080407307130551   -0.10462342281105214   0.014365408239004354
0.6080407307130551   -0.10462342281105214   0.014365408239004354
0.32365613201696786   -0.09810128321158196   -0.03683171218473301
0.32365613201696786   -0.09810128321158196   -0.03683171218473301
0.32365613201696786   -0.09810128321158196   -0.03683171218473301
0.32365613201696786   -0.09810128321158196   -0.03683171218473301
0.6386499442529692   0.023437437662581426   0.039350615464949376
0.6386499442529692   0.023437437662581426   0.039350615464949376
0.6386499442529692   0.023437437662581426   0.039350615464949376
0.6386499442529692   0.023437437662581426   0.039350615464949376
0.05155637620053681   -0.21313701616460498   0.02828179598375835
0.05155637620053681   -0.21313701616460498   0.02828179598375835
0.05155637620053681   -0.21313701616460498   0.02828179598375835
0.05155637620053681   -0.21313701616460498   0.02828179598375835
0.091022558284256   -0.08035377349363149   0.015135852540485443
0.091022558284256   -0.08035377349363149   0.015135852540485443
0.091022558284256   -0.08035377349363149   0.015135852540485443
0.091022558284256   -0.08035377349363149   0.015135852540485443
0.6225527090417844   -0.09789077573424451   0.017729569736734244
0.6225527090417844   -0.09789077573424451   0.017729569736734244
0.6225527090417844   -0.09789077573424451   0.017729569736734244
0.6225527090417844   -0.09789077573424451   0.017729569736734244
0.338045799968392   -0.09317901406690665   -0.018419747123038205
0.338045799968392   -0.09317901406690665   -0.018419747123038205
0.338045799968392   -0.09317901406690665   -0.018419747123038205
0.338045799968392   -0.09317901406690665   -0.018419747123038205
0.6523254224105357   0.03551675082731383   0.03318561001893239
0.6523254224105357   0.03551675082731383   0.03318561001893239
0.6523254224105357   0.03551675082731383   0.03318561001893239
0.6523254224105357   0.03551675082731383   0.03318561001893239
0.06902385023824892   -0.20598729473244562   0.03077583354926411
0.06902385023824892   -0.20598729473244562   0.03077583354926411
0.06902385023824892   -0.20598729473244562   0.03077583354926411
0.06902385023824892   -0.20598729473244562   0.03077583354926411
0.11704206813126264   -0.06112658294543697   0.009989295699520999
0.11704206813126264   -0.06112658294543697   0.009989295699520999
0.11704206813126264   -0.06112658294543697   0.009989295699520999
0.11704206813126264   -0.06112658294543697   0.009989295699520999
0.6384206361595093   -0.08766849163618362   0.021699079440145708
0.6384206361595093   -0.08766849163618362   0.021699079440145708
0.6384206361595093   -0.08766849163618362   0.021699079440145708
0.6384206361595093   -0.08766849163618362   0.021699079440145708
0.36338356321203   -0.08128941072154276   0.0030189357757019336
0.36338356321203   -0.08128941072154276   0.0030189357757019336
0.36338356321203   -0.08128941072154276   0.0030189357757019336
0.36338356321203   -0.08128941072154276   0.0030189357757019336
0.06911285356258479   -0.04130324774860688   0.030311882277653208
0.06911285356258479   -0.04130324774860688   0.030311882277653208
0.06911285356258479   -0.04130324774860688   0.030311882277653208
0.06911285356258479   -0.04130324774860688   0.030311882277653208
-0.5318702185720364   -0.3766070905702006   0.03251402283251721
-0.5318702185720364   -0.3766070905702006   0.03251402283251721
-0.5318702185720364   -0.3766070905702006   0.03251402283251721
-0.5318702185720364   -0.3766070905702006   0.03251402283251721
-0.4652265006601981   -0.14708016821790193   0.002050831185479246
-0.4652265006601981   -0.14708016821790193   0.002050831185479246
-0.4652265006601981   -0.14708016821790193   0.002050831185479246
-0.4652265006601981   -0.14708016821790193   0.002050831185479246
0.036448372688343764   -0.27296095261696257   0.012565714875150708
0.036448372688343764   -0.27296095261696257   0.012565714875150708
0.036448372688343764   -0.27296095261696257   0.012565714875150708
0.036448372688343764   -0.27296095261696257   0.012565714875150708
-0.22977443547721008   -0.21097954675622374   -0.044187458224283084
-0.22977443547721008   -0.21097954675622374   -0.044187458224283084
-0.22977443547721008   -0.21097954675622374   -0.044187458224283084
-0.22977443547721008   -0.21097954675622374   -0.044187458224283084
0.08685187283506303   -0.032291839297990524   0.023914102289775044
0.08685187283506303   -0.032291839297990524   0.023914102289775044
0.08685187283506303   -0.032291839297990524   0.023914102289775044
0.08685187283506303   -0.032291839297990524   0.023914102289775044
-0.5039083684280107   -0.37602764915797166   0.037588973286490385
-0.5039083684280107   -0.37602764915797166   0.037588973286490385
-0.5039083684280107   -0.37602764915797166   0.037588973286490385
-0.5039083684280107   -0.37602764915797166   0.037588973286490385
-0.43951551904079167   -0.13195711710732289   -0.0001978422967670937
-0.43951551904079167   -0.13195711710732289   -0.0001978422967670937
-0.43951551904079167   -0.13195711710732289   -0.0001978422967670937
-0.43951551904079167   -0.13195711710732289   -0.0001978422967670937
0.054314652848590605   -0.2668485855648026   0.018091137433329588
0.054314652848590605   -0.2668485855648026   0.018091137433329588
0.054314652848590605   -0.2668485855648026   0.018091137433329588
0.054314652848590605   -0.2668485855648026   0.018091137433329588
-0.20371297153276158   -0.2036721024427079   -0.016414738290653597
-0.20371297153276158   -0.2036721024427079   -0.016414738290653597
-0.20371297153276158   -0.2036721024427079   -0.016414738290653597
-0.20371297153276158   -0.2036721024427079   -0.016414738290653597
0.10307120103391265   -0.020329288395000967   0.015354581190138196
0.10307120103391265   -0.020329288395000967   0.015354581190138196
0.10307120103391265   -0.020329288395000967   0.015354581190138196
0.10307120103391265   -0.020329288395000967   0.015354581190138196
-0.4777137662008764   -0.36791811325188095   0.04477191804737422
-0.4777137662008764   -0.36791811325188095   0.04477191804737422
-0.4777137662008764   -0.36791811325188095   0.04477191804737422
-0.4777137662008764   -0.36791811325188095   0.04477191804737422
-0.3970820815189852   -0.11454630171389195   -0.005080603463172292
-0.3970820815189852   -0.11454630171389195   -0.005080603463172292
-0.3970820815189852   -0.11454630171389195   -0.005080603463172292
-0.3970820815189852   -0.11454630171389195   -0.005080603463172292
0.08219779073262498   -0.24997229569477764   0.024613621455673307
0.08219779073262498   -0.24997229569477764   0.024613621455673307
0.08219779073262498   -0.24997229569477764   0.024613621455673307
0.08219779073262498   -0.24997229569477764   0.024613621455673307
-0.16991506754105054   -0.18746932390033777   0.012590340061589121
-0.16991506754105054   -0.18746932390033777   0.012590340061589121
-0.16991506754105054   -0.18746932390033777   0.012590340061589121
-0.16991506754105054   -0.18746932390033777   0.012590340061589121
-0.475181297422733   -0.07510363955643493   0.014455177565265674
-0.475181297422733   -0.07510363955643493   0.014455177565265674
-0.475181297422733   -0.07510363955643493   0.014455177565265674
-0.475181297422733   -0.07510363955643493   0.014455177565265674
-1.1813136662688528   -0.5856174175858389   -0.02711849561552454
-1.1813136662688528   -0.5856174175858389   -0.02711849561552454
-1.1813136662688528   -0.5856174175858389   -0.02711849561552454
-1.1813136662688528   -0.5856174175858389   -0.02711849561552454
-1.0714163775791674   -0.19137303490021426   -0.03253323450350463
-1.0714163775791674   -0.19137303490021426   -0.03253323450350463
-1.0714163775791674   -0.19137303490021426   -0.03253323450350463
-1.0714163775791674   -0.19137303490021426   -0.03253323450350463
-0.5319895471872216   -0.48888012074254955   0.010035551075009627
-0.5319895471872216   -0.48888012074254955   0.010035551075009627
-0.5319895471872216   -0.48888012074254955   0.010035551075009627
-0.5319895471872216   -0.48888012074254955   0.010035551075009627
-0.814072459857034   -0.3464280725298693   -0.046464934313202304
-0.814072459857034   -0.3464280725298693   -0.046464934313202304
-0.814072459857034   -0.3464280725298693   -0.046464934313202304
-0.814072459857034   -0.3464280725298693   -0.046464934313202304
-0.44482471126824397   -0.05679344395988243   0.013773053887230926
-0.44482471126824397   -0.05679344395988243   0.013773053887230926
-0.44482471126824397   -0.05679344395988243   0.013773053887230926
-0.44482471126824397   -0.05679344395988243   0.013773053887230926
-1.1558060980813947   -0.6206845962661256   -0.02517027564872837
-1.1558060980813947   -0.6206845962661256   -0.02517027564872837
-1.1558060980813947   -0.6206845962661256   -0.02517027564872837
-1.1558060980813947   -0.6206845962661256   -0.02517027564872837
-1.0371322541336205   -0.17326264828405274   -0.03317794356729856
-1.0371322541336205   -0.17326264828405274   -0.03317794356729856
-1.0371322541336205   -0.17326264828405274   -0.03317794356729856
-1.0371322541336205   -0.17326264828405274   -0.03317794356729856
-0.5070233273357548   -0.48488792684619914   0.015193925967295269
-0.5070233273357548   -0.48488792684619914   0.015193925967295269
-0.5070233273357548   -0.48488792684619914   0.015193925967295269
-0.5070233273357548   -0.48488792684619914   0.015193925967295269
-0.7780067896981931   -0.3368808188188366   -0.03234714178907942
-0.7780067896981931   -0.3368808188188366   -0.03234714178907942
-0.7780067896981931   -0.3368808188188366   -0.03234714178907942
-0.7780067896981931   -0.3368808188188366   -0.03234714178907942
-0.42063712338898923   -0.04240052470890176   0.004637543563824941
-0.42063712338898923   -0.04240052470890176   0.004637543563824941
-0.42063712338898923   -0.04240052470890176   0.004637543563824941
-0.42063712338898923   -0.04240052470890176   0.004637543563824941
-1.123377293613052   -0.6156088859540146   -0.022056903294485272
-1.123377293613052   -0.6156088859540146   -0.022056903294485272
-1.123377293613052   -0.6156088859540146   -0.022056903294485272
-1.123377293613052   -0.6156088859540146   -0.022056903294485272
-0.9835975252509442   -0.15383650726700165   -0.03761957381346978
-0.9835975252509442   -0.15383650726700165   -0.03761957381346978
-0.9835975252509442   -0.15383650726700165   -0.03761957381346978
-0.9835975252509442   -0.15383650726700165   -0.03761957381346978
-0.4530005888126603   -0.4354313481840226   0.03621190653858873
-0.4530005888126603   -0.4354313481840226   0.03621190653858873
-0.4530005888126603   -0.4354313481840226   0.03621190653858873
-0.4530005888126603   -0.4354313481840226   0.03621190653858873
-0.7378505943329781   -0.305028106167168   -0.017691264144498217
-0.7378505943329781   -0.305028106167168   -0.017691264144498217
-0.7378505943329781   -0.305028106167168   -0.017691264144498217
-0.7378505943329781   -0.305028106167168   -0.017691264144498217
-1.0731028075067766   -0.06423808823499813   -0.007443531155983209
-1.0731028075067766   -0.06423808823499813   -0.007443531155983209
-1.0731028075067766   -0.06423808823499813   -0.007443531155983209
-1.0731028075067766   -0.06423808823499813   -0.007443531155983209
-1.8913962908832844   -0.37441265769905424   0.019333002388013165
-1.8913962908832844   -0.37441265769905424   0.019333002388013165
-1.8913962908832844   -0.37441265769905424   0.019333002388013165
-1.8913962908832844   -0.37441265769905424   0.019333002388013165
-1.8172694970894487   -0.17951618556817794   -0.03958871791089108
-1.8172694970894487   -0.17951618556817794   -0.03958871791089108
-1.8172694970894487   -0.17951618556817794   -0.03958871791089108
-1.8172694970894487   -0.17951618556817794   -0.03958871791089108
-1.0500757704550765   -0.1945465007063913   0.07734326692311994
-1.0500757704550765   -0.1945465007063913   0.07734326692311994
-1.0500757704550765   -0.1945465007063913   0.07734326692311994
-1.0500757704550765   -0.1945465007063913   0.07734326692311994
-1.3989548967485255   -0.21697475357985063   0.019720904352920315
-1.3989548967485255   -0.21697475357985063   0.019720904352920315
-1.3989548967485255   -0.21697475357985063   0.019720904352920315
-1.3989548967485255   -0.21697475357985063   0.019720904352920315
-1.0293844445682123   -0.013975626959618237   0.0002290226106707871
-1.0293844445682123   -0.013975626959618237   0.0002290226106707871
-1.0293844445682123   -0.013975626959618237   0.0002290226106707871
-1.0293844445682123   -0.013975626959618237   0.0002290226106707871
-1.8449503089996382   -0.3670765453382783   0.009567582308246503
-1.8449503089996382   -0.3670765453382783   0.009567582308246503
-1.8449503089996382   -0.3670765453382783   0.009567582308246503
-1.8449503089996382   -0.3670765453382783   0.009567582308246503
-1.776649658296944   -0.1645219739092268   -0.05025902892519217
-1.776649658296944   -0.1645219739092268   -0.05025902892519217
-1.776649658296944   -0.1645219739092268   -0.05025902892519217
-1.776649658296944   -0.1645219739092268   -0.05025902892519217
-1.014791299953509   -0.18492118681738218   0.09018536586659787
-1.014791299953509   -0.18492118681738218   0.09018536586659787
-1.014791299953509   -0.18492118681738218   0.09018536586659787
-1.014791299953509   -0.18492118681738218   0.09018536586659787
-1.3776925464982062   -0.1787691644976016   0.019033417377443285
-1.3776925464982062   -0.1787691644976016   0.019033417377443285
-1.3776925464982062   -0.1787691644976016   0.019033417377443285
-1.3776925464982062   -0.1787691644976016   0.019033417377443285
-0.9979582074522483   -0.0007049580367931574   -0.009865400407688907
-0.9979582074522483   -0.0007049580367931574   -0.009865400407688907
-0.9979582074522483   -0.0007049580367931574   -0.009865400407688907
-0.9979582074522483   -0.0007049580367931574   -0.009865400407688907
-1.7959865154349934   -0.35124196732661245   0.03977667880193114
-1.7959865154349934   -0.35124196732661245   0.03977667880193114
-1.7959865154349934   -0.35124196732661245   0.03977667880193114
-1.7959865154349934   -0.35124196732661245   0.03977667880193114
-1.6922777465180818   -0.13350833070061602   -0.05628110364330591
-1.6922777465180818   -0.13350833070061602   -0.05628110364330591
-1.6922777465180818   -0.13350833070061602   -0.05628110364330591
-1.6922777465180818   -0.13350833070061602   -0.05628110364330591
-0.9598569176445773   -0.1721016601155343   0.09934861706690573
-0.9598569176445773   -0.1721016601155343   0.09934861706690573
-0.9598569176445773   -0.1721016601155343   0.09934861706690573
-0.9598569176445773   -0.1721016601155343   0.09934861706690573
-1.2957605300467492   -0.13671980859988928   0.03932291550105437
-1.2957605300467492   -0.13671980859988928   0.03932291550105437
-1.2957605300467492   -0.13671980859988928   0.03932291550105437
-1.2957605300467492   -0.13671980859988928   0.03932291550105437
1.359240653911474   0.044971088531692016   0.019037405802986754
1.359240653911474   0.044971088531692016   0.019037405802986754
1.359240653911474   0.044971088531692016   0.019037405802986754
1.359240653911474   0.044971088531692016   0.019037405802986754
0.6933796047608001   -0.03678860673550363   0.013834790878701153
0.6933796047608001   -0.03678860673550363   0.013834790878701153
0.6933796047608001   -0.03678860673550363   0.013834790878701153
0.6933796047608001   -0.03678860673550363   0.013834790878701153
0.6664905061670326   -0.09766957025970277   0.027446133840069747
0.6664905061670326   -0.09766957025970277   0.027446133840069747
0.6664905061670326   -0.09766957025970277   0.027446133840069747
0.6664905061670326   -0.09766957025970277   0.027446133840069747
1.3493997719246484   0.07599879170928564   0.009948867814845788
1.3493997719246484   0.07599879170928564   0.009948867814845788
1.3493997719246484   0.07599879170928564   0.009948867814845788
1.3493997719246484   0.07599879170928564   0.009948867814845788
0.9629228879199693   -0.013562674480342068   -0.03559548342837054
0.9629228879199693   -0.013562674480342068   -0.03559548342837054
0.9629228879199693   -0.013562674480342068   -0.03559548342837054
0.9629228879199693   -0.013562674480342068   -0.03559548342837054
1.3420936025526775   0.03487098731855626   0.014545825345719951
1.3420936025526775   0.03487098731855626   0.014545825345719951
1.3420936025526775   0.03487098731855626   0.014545825345719951
1.3420936025526775   0.03487098731855626   0.014545825345719951
0.6716078516021531   -0.05873058980582391   0.014093880561793296
0.6716078516021531   -0.05873058980582391   0.014093880561793296
0.6716078516021531   -0.05873058980582391   0.014093880561793296
0.6716078516021531   -0.05873058980582391   0.014093880561793296
0.6493103112449408   -0.09988663057781488   0.022681919208651438
0.6493103112449408   -0.09988663057781488   0.022681919208651438
0.6493103112449408   -0.09988663057781488   0.022681919208651438
0.6493103112449408   -0.09988663057781488   0.022681919208651438
1.3337263064236633   0.07275333273814472   0.017330679653906292
1.3337263064236633   0.07275333273814472   0.017330679653906292
1.3337263064236633   0.07275333273814472   0.017330679653906292
1.3337263064236633   0.07275333273814472   0.017330679653906292
0.9602005384643338   -0.018701380275681884   -0.04110757756489664
0.9602005384643338   -0.018701380275681884   -0.04110757756489664
0.9602005384643338   -0.018701380275681884   -0.04110757756489664
0.9602005384643338   -0.018701380275681884   -0.04110757756489664
1.3228064792117953   0.03114432870029965   0.004340547632400202
1.3228064792117953   0.03114432870029965   0.004340547632400202
1.3228064792117953   0.03114432870029965   0.004340547632400202
1.3228064792117953   0.03114432870029965   0.004340547632400202
0.6562847333911879   -0.062223031605597584   0.01989043096767021
0.6562847333911879   -0.062223031605597584   0.01989043096767021
0.6562847333911879   -0.062223031605597584   0.01989043096767021
0.6562847333911879   -0.062223031605597584   0.01989043096767021
0.6312043751572103   -0.09100688898910914   0.01958814776910041
0.6312043751572103   -0.09100688898910914   0.01958814776910041
0.6312043751572103   -0.09100688898910914   0.01958814776910041
0.6312043751572103   -0.09100688898910914   0.01958814776910041
1.3095957250618913   0.07370642405110606   0.02501396798048139
1.3095957250618913   0.07370642405110606   0.02501396798048139
1.3095957250618913   0.07370642405110606   0.02501396798048139
1.3095957250618913   0.07370642405110606   0.02501396798048139
0.924264682980626   -0.018793390044864133   -0.05541487973359325
0.924264682980626   -0.018793390044864133   -0.05541487973359325
0.924264682980626   -0.018793390044864133   -0.05541487973359325
0.924264682980626   -0.018793390044864133   -0.05541487973359325
0.6875600359160365   -0.08603801160202662   0.033986351521406125
0.6875600359160365   -0.08603801160202662   0.033986351521406125
0.6875600359160365   -0.08603801160202662   0.033986351521406125
0.6875600359160365   -0.08603801160202662   0.033986351521406125
0.13199746416861446   -0.08184749595385366   0.007087076238713574
0.13199746416861446   -0.08184749595385366   0.007087076238713574
0.13199746416861446   -0.08184749595385366   0.007087076238713574
0.13199746416861446   -0.08184749595385366   0.007087076238713574
0.0856107499914418   -0.20477544211598236   0.03603529243596637
0.0856107499914418   -0.20477544211598236   0.03603529243596637
0.0856107499914418   -0.20477544211598236   0.03603529243596637
0.0856107499914418   -0.20477544211598236   0.03603529243596637
0.6912168210527063   0.027206818770460356   0.026201319238275213
0.6912168210527063   0.027206818770460356   0.026201319238275213
0.6912168210527063   0.027206818770460356   0.026201319238275213
0.6912168210527063   0.027206818770460356   0.026201319238275213
0.39295485389064566   -0.08671313560013583   -0.001540469366205631
0.39295485389064566   -0.08671313560013583   -0.001540469366205631
0.39295485389064566   -0.08671313560013583   -0.001540469366205631
0.39295485389064566   -0.08671313560013583   -0.001540469366205631
0.6682870295215563   -0.08974617385546382   0.028505354208444758
0.6682870295215563   -0.08974617385546382   0.028505354208444758
0.6682870295215563   -0.08974617385546382   0.028505354208444758
0.6682870295215563   -0.08974617385546382   0.028505354208444758
0.1027457846700501   -0.09361720634260069   0.010552230055626222
0.1027457846700501   -0.09361720634260069   0.010552230055626222
0.1027457846700501   -0.09361720634260069   0.010552230055626222
0.1027457846700501   -0.09361720634260069   0.010552230055626222
0.06480796743347972   -0.20653514011520696   0.032252489440226545
0.06480796743347972   -0.20653514011520696   0.032252489440226545
0.06480796743347972   -0.20653514011520696   0.032252489440226545
0.06480796743347972   -0.20653514011520696   0.032252489440226545
0.6753762812619728   0.02210954521756245   0.031015593498434496
0.6753762812619728   0.02210954521756245   0.031015593498434496
0.6753762812619728   0.02210954521756245   0.031015593498434496
0.6753762812619728   0.02210954521756245   0.031015593498434496
0.3646774356609819   -0.09239582987825917   -0.018763054202339924
0.3646774356609819   -0.09239582987825917   -0.018763054202339924
0.3646774356609819   -0.09239582987825917   -0.018763054202339924
0.3646774356609819   -0.09239582987825917   -0.018763054202339924
0.6512795647557308   -0.09096917275153826   0.023610728936319075
0.6512795647557308   -0.09096917275153826   0.023610728936319075
0.6512795647557308   -0.09096917275153826   0.023610728936319075
0.6512795647557308   -0.09096917275153826   0.023610728936319075
0.08260408795157764   -0.09975701813425138   0.014454970049760527
0.08260408795157764   -0.09975701813425138   0.014454970049760527
0.08260408795157764   -0.09975701813425138   0.014454970049760527
0.08260408795157764   -0.09975701813425138   0.014454970049760527
0.04153706449564061   -0.2063435779036876   0.02520721976649444
0.04153706449564061   -0.2063435779036876   0.02520721976649444
0.04153706449564061   -0.2063435779036876   0.02520721976649444
0.04153706449564061   -0.2063435779036876   0.02520721976649444
0.6573985641198204   0.022495333465441858   0.037056870127604606
0.6573985641198204   0.022495333465441858   0.037056870127604606
0.6573985641198204   0.022495333465441858   0.037056870127604606
0.6573985641198204   0.022495333465441858   0.037056870127604606
0.3474547021384303   -0.09161049502050542   -0.033391606713961464
0.3474547021384303   -0.09161049502050542   -0.033391606713961464
0.3474547021384303   -0.09161049502050542   -0.033391606713961464
0.3474547021384303   -0.09161049502050542   -0.033391606713961464
0.10303626996809655   -0.2500348963101861   0.030468505592456577
0.10303626996809655   -0.2500348963101861   0.030468505592456577
0.10303626996809655   -0.2500348963101861   0.030468505592456577
0.10303626996809655   -0.2500348963101861   0.030468505592456577
-0.40779650761871006   -0.12678112819309417   0.0002924059777061113
-0.40779650761871006   -0.12678112819309417   0.0002924059777061113
-0.40779650761871006   -0.12678112819309417   0.0002924059777061113
-0.40779650761871006   -0.12678112819309417   0.0002924059777061113
-0.49171524237275854   -0.37284742850722574   0.041296950484967745
-0.49171524237275854   -0.37284742850722574   0.041296950484967745
-0.49171524237275854   -0.37284742850722574   0.041296950484967745
-0.49171524237275854   -0.37284742850722574   0.041296950484967745
0.11852921088464341   -0.02075897498891481   0.016611129774906752
0.11852921088464341   -0.02075897498891481   0.016611129774906752
0.11852921088464341   -0.02075897498891481   0.016611129774906752
0.11852921088464341   -0.02075897498891481   0.016611129774906752
-0.16724924477837214   -0.18988773731391034   0.007175220499769805
-0.16724924477837214   -0.18988773731391034   0.007175220499769805
-0.16724924477837214   -0.18988773731391034   0.007175220499769805
-0.16724924477837214   -0.18988773731391034   0.007175220499769805
0.07090813154352515   -0.2641939935040636   0.02194075158446432
0.07090813154352515   -0.2641939935040636   0.02194075158446432
0.07090813154352515   -0.2641939935040636   0.02194075158446432
0.07090813154352515   -0.2641939935040636   0.02194075158446432
-0.452217800247109   -0.1375360472075361   0.003472779813522002
-0.452217800247109   -0.1375360472075361   0.003472779813522002
-0.452217800247109   -0.1375360472075361   0.003472779813522002
-0.452217800247109   -0.1375360472075361   0.003472779813522002
-0.520666442913194   -0.3787233901662601   0.03369821018779602
-0.520666442913194   -0.3787233901662601   0.03369821018779602
-0.520666442913194   -0.3787233901662601   0.03369821018779602
-0.520666442913194   -0.3787233901662601   0.03369821018779602
0.0990317051635183   -0.02641401453968965   0.023250052514902066
0.0990317051635183   -0.02641401453968965   0.023250052514902066
0.0990317051635183   -0.02641401453968965   0.023250052514902066
0.0990317051635183   -0.02641401453968965   0.023250052514902066
-0.20343954720002932   -0.20136794919333456   -0.01698142934829739
-0.20343954720002932   -0.20136794919333456   -0.01698142934829739
-0.20343954720002932   -0.20136794919333456   -0.01698142934829739
-0.20343954720002932   -0.20136794919333456   -0.01698142934829739
0.04874910252800728   -0.268746098463373   0.014169123261030314
0.04874910252800728   -0.268746098463373   0.014169123261030314
0.04874910252800728   -0.268746098463373   0.014169123261030314
0.04874910252800728   -0.268746098463373   0.014169123261030314
-0.48006808252762545   -0.14607554849251955   0.004042170441896231
-0.48006808252762545   -0.14607554849251955   0.004042170441896231
-0.48006808252762545   -0.14607554849251955   0.004042170441896231
-0.48006808252762545   -0.14607554849251955   0.004042170441896231
-0.5520710511947332   -0.3760958037829043   0.028264922942398185
-0.5520710511947332   -0.3760958037829043   0.028264922942398185
-0.5520710511947332   -0.3760958037829043   0.028264922942398185
-0.5520710511947332   -0.3760958037829043   0.028264922942398185
0.07734492682796246   -0.029542989939559703   0.02744594346397583
0.07734492682796246   -0.029542989939559703   0.02744594346397583
0.07734492682796246   -0.029542989939559703   0.02744594346397583
0.07734492682796246   -0.029542989939559703   0.02744594346397583
-0.23282426017767402   -0.20570424097520357   -0.041157266350096804
-0.23282426017767402   -0.20570424097520357   -0.041157266350096804
-0.23282426017767402   -0.20570424097520357   -0.041157266350096804
-0.23282426017767402   -0.20570424097520357   -0.041157266350096804
-0.46103237590292545   -0.4288925609307006   0.036224497294239405
-0.46103237590292545   -0.4288925609307006   0.036224497294239405
-0.46103237590292545   -0.4288925609307006   0.036224497294239405
-0.46103237590292545   -0.4288925609307006   0.036224497294239405
-1.0207216333301907   -0.15777392909099203   -0.02352727648493586
-1.0207216333301907   -0.15777392909099203   -0.02352727648493586
-1.0207216333301907   -0.15777392909099203   -0.02352727648493586
-1.0207216333301907   -0.15777392909099203   -0.02352727648493586
-1.1674384789060017   -0.6243968877358945   -0.032099352172965445
-1.1674384789060017   -0.6243968877358945   -0.032099352172965445
-1.1674384789060017   -0.6243968877358945   -0.032099352172965445
-1.1674384789060017   -0.6243968877358945   -0.032099352172965445
-0.4294916188989389   -0.03478497501120219   0.014352614358038734
-0.4294916188989389   -0.03478497501120219   0.014352614358038734
-0.4294916188989389   -0.03478497501120219   0.014352614358038734
-0.4294916188989389   -0.03478497501120219   0.014352614358038734
-0.7622576286042219   -0.2992373586206438   -0.025454298914440295
-0.7622576286042219   -0.2992373586206438   -0.025454298914440295
-0.7622576286042219   -0.2992373586206438   -0.025454298914440295
-0.7622576286042219   -0.2992373586206438   -0.025454298914440295
-0.5201482588304562   -0.4860517377902846   0.012336177479538274
-0.5201482588304562   -0.4860517377902846   0.012336177479538274
-0.5201482588304562   -0.4860517377902846   0.012336177479538274
-0.5201482588304562   -0.4860517377902846   0.012336177479538274
-1.0745210410050194   -0.17086932698734625   -0.02103972341660117
-1.0745210410050194   -0.17086932698734625   -0.02103972341660117
-1.0745210410050194   -0.17086932698734625   -0.02103972341660117
-1.0745210410050194   -0.17086932698734625   -0.02103972341660117
-1.2019028055192014   -0.6343261950551671   -0.03711793689409802
-1.2019028055192014   -0.6343261950551671   -0.03711793689409802
-1.2019028055192014   -0.6343261950551671   -0.03711793689409802
-1.2019028055192014   -0.6343261950551671   -0.03711793689409802
-0.45620880652259893   -0.04409898835451839   0.02136199032902756
-0.45620880652259893   -0.04409898835451839   0.02136199032902756
-0.45620880652259893   -0.04409898835451839   0.02136199032902756
-0.45620880652259893   -0.04409898835451839   0.02136199032902756
-0.8044067887055566   -0.33167670431754326   -0.0363025637290487
-0.8044067887055566   -0.33167670431754326   -0.0363025637290487
-0.8044067887055566   -0.33167670431754326   -0.0363025637290487
-0.8044067887055566   -0.33167670431754326   -0.0363025637290487
-0.5497970500846061   -0.4955142497971121   0.004836033961581679
-0.5497970500846061   -0.4955142497971121   0.004836033961581679
-0.5497970500846061   -0.4955142497971121   0.004836033961581679
-0.5497970500846061   -0.4955142497971121   0.004836033961581679
-1.1085620742565323   -0.18315844591191374   -0.02158202972401587
-1.1085620742565323   -0.18315844591191374   -0.02158202972401587
-1.1085620742565323   -0.18315844591191374   -0.02158202972401587
-1.1085620742565323   -0.18315844591191374   -0.02158202972401587
-1.231263328096636   -0.6066966082798076   -0.04185165465636072
-1.231263328096636   -0.6066966082798076   -0.04185165465636072
-1.231263328096636   -0.6066966082798076   -0.04185165465636072
-1.231263328096636   -0.6066966082798076   -0.04185165465636072
-0.4899945943744255   -0.0572671454250138   0.01981854868603699
-0.4899945943744255   -0.0572671454250138   0.01981854868603699
-0.4899945943744255   -0.0572671454250138   0.01981854868603699
-0.4899945943744255   -0.0572671454250138   0.01981854868603699
-0.8432970043615114   -0.34268751405737174   -0.04672829094701944
-0.8432970043615114   -0.34268751405737174   -0.04672829094701944
-0.8432970043615114   -0.34268751405737174   -0.04672829094701944
-0.8432970043615114   -0.34268751405737174   -0.04672829094701944
-1.003216068806832   -0.18283157529433025   0.08905819233518064
-1.003216068806832   -0.18283157529433025   0.08905819233518064
-1.003216068806832   -0.18283157529433025   0.08905819233518064
-1.003216068806832   -0.18283157529433025   0.08905819233518064
-1.7635866432489224   -0.13161904482506498   -0.030996461162664884
-1.7635866432489224   -0.13161904482506498   -0.030996461162664884
-1.7635866432489224   -0.13161904482506498   -0.030996461162664884
-1.7635866432489224   -0.13161904482506498   -0.030996461162664884
-1.8710963374543477   -0.36933766934182005   0.024407990745247354
-1.8710963374543477   -0.36933766934182005   0.024407990745247354
-1.8710963374543477   -0.36933766934182005   0.024407990745247354
-1.8710963374543477   -0.36933766934182005   0.024407990745247354
-1.0313167153069878   0.015170070956915749   0.008942507129285862
-1.0313167153069878   0.015170070956915749   0.008942507129285862
-1.0313167153069878   0.015170070956915749   0.008942507129285862
-1.0313167153069878   0.015170070956915749   0.008942507129285862
-1.3498140202350848   -0.12971693721694705   0.02705824663356597
-1.3498140202350848   -0.12971693721694705   0.02705824663356597
-1.3498140202350848   -0.12971693721694705   0.02705824663356597
-1.3498140202350848   -0.12971693721694705   0.02705824663356597
-1.0595636279100369   -0.19611426880651428   0.07899228387746543
-1.0595636279100369   -0.19611426880651428   0.07899228387746543
-1.0595636279100369   -0.19611426880651428   0.07899228387746543
-1.0595636279100369   -0.19611426880651428   0.07899228387746543
-1.8382027777132794   -0.15340668244036915   -0.027055197450846877
-1.8382027777132794   -0.15340668244036915   -0.027055197450846877
-1.8382027777132794   -0.15340668244036915   -0.027055197450846877
-1.8382027777132794   -0.15340668244036915   -0.027055197450846877
-1.916523678666442   -0.38496988775497926   -0.008325760108454427
-1.916523678666442   -0.38496988775497926   -0.008325760108454427
-1.916523678666442   -0.38496988775497926   -0.008325760108454427
-1.916523678666442   -0.38496988775497926   -0.008325760108454427
-1.0634184746008537   0.004685722817302618   0.01629179982516138
-1.0634184746008537   0.004685722817302618   0.01629179982516138
-1.0634184746008537   0.004685722817302618   0.01629179982516138
-1.0634184746008537   0.004685722817302618   0.01629179982516138
-1.4301153154591435   -0.17114759346077413   0.011075821188426913
-1.4301153154591435   -0.17114759346077413   0.011075821188426913
-1.4301153154591435   -0.17114759346077413   0.011075821188426913
-1.4301153154591435   -0.17114759346077413   0.011075821188426913
-1.0957543288606828   -0.20607601291956074   0.06537426426287896
-1.0957543288606828   -0.20607601291956074   0.06537426426287896
-1.0957543288606828   -0.20607601291956074   0.06537426426287896
-1.0957543288606828   -0.20607601291956074   0.06537426426287896
-1.8747937895617302   -0.1648141171732332   -0.019832085166610322
-1.8747937895617302   -0.1648141171732332   -0.019832085166610322
-1.8747937895617302   -0.1648141171732332   -0.019832085166610322
-1.8747937895617302   -0.1648141171732332   -0.019832085166610322
-1.9558541998491417   -0.3912088884301495   -0.00019024230160591404
-1.9558541998491417   -0.3912088884301495   -0.00019024230160591404
-1.9558541998491417   -0.3912088884301495   -0.00019024230160591404
-1.9558541998491417   -0.3912088884301495   -0.00019024230160591404
-1.1085362779836678   -0.04163985923688948   0.0067268468655622485
-1.1085362779836678   -0.04163985923688948   0.0067268468655622485
-1.1085362779836678   -0.04163985923688948   0.0067268468655622485
-1.1085362779836678   -0.04163985923688948   0.0067268468655622485
-1.4472177597858227   -0.2066714086351479   0.017459832009020217
-1.4472177597858227   -0.2066714086351479   0.017459832009020217
-1.4472177597858227   -0.2066714086351479   0.017459832009020217
-1.4472177597858227   -0.2066714086351479   0.017459832009020217
1.1921965891888464   0.05507242349951788   -0.025677042374268176
1.1921965891888464   0.05507242349951788   -0.025677042374268176
1.1921965891888464   0.05507242349951788   -0.025677042374268176
1.1921965891888464   0.05507242349951788   -0.025677042374268176
0.5995954980931805   -0.012381060155611162   0.012545331043702687
0.5995954980931805   -0.012381060155611162   0.012545331043702687
0.5995954980931805   -0.012381060155611162   0.012545331043702687
0.5995954980931805   -0.012381060155611162   0.012545331043702687
0.5616905624098244   -0.08808529479742391   -0.022762355203878024
0.5616905624098244   -0.08808529479742391   -0.022762355203878024
0.5616905624098244   -0.08808529479742391   -0.022762355203878024
0.5616905624098244   -0.08808529479742391   -0.022762355203878024
1.1784588308295323   0.08594012875387008   0.014677838579021149
1.1784588308295323   0.08594012875387008   0.014677838579021149
1.1784588308295323   0.08594012875387008   0.014677838579021149
1.1784588308295323   0.08594012875387008   0.014677838579021149
0.8367022294041339   0.002058531210378356   -0.03231247525301646
0.8367022294041339   0.002058531210378356   -0.03231247525301646
0.8367022294041339   0.002058531210378356   -0.03231247525301646
0.8367022294041339   0.002058531210378356   -0.03231247525301646
1.1593068791763164   0.030801734508345613   -0.025943525441522494
1.1593068791763164   0.030801734508345613   -0.025943525441522494
1.1593068791763164   0.030801734508345613   -0.025943525441522494
1.1593068791763164   0.030801734508345613   -0.025943525441522494
0.5797858945010441   -0.03400352011389443   0.013632530568687046
0.5797858945010441   -0.03400352011389443   0.013632530568687046
0.5797858945010441   -0.03400352011389443   0.013632530568687046
0.5797858945010441   -0.03400352011389443   0.013632530568687046
0.5412709235127742   -0.09296808041020616   -0.018821003176958936
0.5412709235127742   -0.09296808041020616   -0.018821003176958936
0.5412709235127742   -0.09296808041020616   -0.018821003176958936
0.5412709235127742   -0.09296808041020616   -0.018821003176958936
1.1501135784345238   0.07900508875790374   0.02151095512383798
1.1501135784345238   0.07900508875790374   0.02151095512383798
1.1501135784345238   0.07900508875790374   0.02151095512383798
1.1501135784345238   0.07900508875790374   0.02151095512383798
0.8256642089818028   -0.008295920795375555   -0.038492884950223405
0.8256642089818028   -0.008295920795375555   -0.038492884950223405
0.8256642089818028   -0.008295920795375555   -0.038492884950223405
0.8256642089818028   -0.008295920795375555   -0.038492884950223405
1.130815820087004   0.024592124974050195   -0.02056487282990692
1.130815820087004   0.024592124974050195   -0.02056487282990692
1.130815820087004   0.024592124974050195   -0.02056487282990692
1.130815820087004   0.024592124974050195   -0.02056487282990692
0.5590944754232513   -0.04002932306339524   0.01735799902861561
0.5590944754232513   -0.04002932306339524   0.01735799902861561
0.5590944754232513   -0.04002932306339524   0.01735799902861561
0.5590944754232513   -0.04002932306339524   0.01735799902861561
0.5215100314271626   -0.0914973842632698   -0.01291937995666892
0.5215100314271626   -0.0914973842632698   -0.01291937995666892
0.5215100314271626   -0.0914973842632698   -0.01291937995666892
0.5215100314271626   -0.0914973842632698   -0.01291937995666892
1.115031720099131   0.07438716151079389   0.028040664634315315
1.115031720099131   0.07438716151079389   0.028040664634315315
1.115031720099131   0.07438716151079389   0.028040664634315315
1.115031720099131   0.07438716151079389   0.028040664634315315
0.7850144310287049   -0.01445369663089302   -0.05050796729462349
0.7850144310287049   -0.01445369663089302   -0.05050796729462349
0.7850144310287049   -0.01445369663089302   -0.05050796729462349
0.7850144310287049   -0.01445369663089302   -0.05050796729462349
0.6030841008057154   0.012061560846646613   0.005545723604113914
0.6030841008057154   0.012061560846646613   0.005545723604113914
0.6030841008057154   0.012061560846646613   0.005545723604113914
0.6030841008057154   0.012061560846646613   0.005545723604113914
0.057144584851439174   -0.03629612588370996   -0.001467425991345984
0.057144584851439174   -0.03629612588370996   -0.001467425991345984
0.057144584851439174   -0.03629612588370996   -0.001467425991345984
0.057144584851439174   -0.03629612588370996   -0.001467425991345984
0.02142390377576158   -0.11637880819000102   -0.021933898287086855
0.02142390377576158   -0.11637880819000102   -0.021933898287086855
0.02142390377576158   -0.11637880819000102   -0.021933898287086855
0.02142390377576158   -0.11637880819000102   -0.021933898287086855
0.6037579041672099   0.06969586207999263   0.029793196705629337
0.6037579041672099   0.06969586207999263   0.029793196705629337
0.6037579041672099   0.06969586207999263   0.029793196705629337
0.6037579041672099   0.06969586207999263   0.029793196705629337
0.3154570926314603   -0.01621496417685235   -0.01243831564576272
0.3154570926314603   -0.01621496417685235   -0.01243831564576272
0.3154570926314603   -0.01621496417685235   -0.01243831564576272
0.3154570926314603   -0.01621496417685235   -0.01243831564576272
0.5863005523764254   0.0028531342949079663   0.009349165536794136
0.5863005523764254   0.0028531342949079663   0.009349165536794136
0.5863005523764254   0.0028531342949079663   0.009349165536794136
0.5863005523764254   0.0028531342949079663   0.009349165536794136
0.039549339433255476   -0.04886799653820649   0.0011824683485881192
0.039549339433255476   -0.04886799653820649   0.0011824683485881192
0.039549339433255476   -0.04886799653820649   0.0011824683485881192
0.039549339433255476   -0.04886799653820649   0.0011824683485881192
0.0017346814354616547   -0.12188250344998007   -0.015303050012766967
0.0017346814354616547   -0.12188250344998007   -0.015303050012766967
0.0017346814354616547   -0.12188250344998007   -0.015303050012766967
0.0017346814354616547   -0.12188250344998007   -0.015303050012766967
0.5821462109086786   0.05973504626613632   0.03285230712622009
0.5821462109086786   0.05973504626613632   0.03285230712622009
0.5821462109086786   0.05973504626613632   0.03285230712622009
0.5821462109086786   0.05973504626613632   0.03285230712622009
0.29276891044505254   -0.02539644133528722   -0.017609696554653873
0.29276891044505254   -0.02539644133528722   -0.017609696554653873
0.29276891044505254   -0.02539644133528722   -0.017609696554653873
0.29276891044505254   -0.02539644133528722   -0.017609696554653873
0.56567339494357   -0.003324580027039392   0.01354785359385867
0.56567339494357   -0.003324580027039392   0.01354785359385867
0.56567339494357   -0.003324580027039392   0.01354785359385867
0.56567339494357   -0.003324580027039392   0.01354785359385867
0.018117525954359934   -0.05891284860301878   0.003641517734763129
0.018117525954359934   -0.05891284860301878   0.003641517734763129
0.018117525954359934   -0.05891284860301878   0.003641517734763129
0.018117525954359934   -0.05891284860301878   0.003641517734763129
-0.019393029623104623   -0.12236767632950953   -0.010466585104227169
-0.019393029623104623   -0.12236767632950953   -0.010466585104227169
-0.019393029623104623   -0.12236767632950953   -0.010466585104227169
-0.019393029623104623   -0.12236767632950953   -0.010466585104227169
0.5603402779911767   0.053434537037711186   0.036299931562421964
0.5603402779911767   0.053434537037711186   0.036299931562421964
0.5603402779911767   0.053434537037711186   0.036299931562421964
0.5603402779911767   0.053434537037711186   0.036299931562421964
0.27507104010664885   -0.029011113121106005   -0.022034153582671568
0.27507104010664885   -0.029011113121106005   -0.022034153582671568
0.27507104010664885   -0.029011113121106005   -0.022034153582671568
0.27507104010664885   -0.029011113121106005   -0.022034153582671568
0.05849054323240852   -0.0331574593437116   0.002123699373500418
0.05849054323240852   -0.0331574593437116   0.002123699373500418
0.05849054323240852   -0.0331574593437116   0.002123699373500418
0.05849054323240852   -0.0331574593437116   0.002123699373500418
-0.46729725132999345   -0.053948463597366283   -0.014686383886137643
-0.46729725132999345   -0.053948463597366283   -0.014686383886137643
-0.46729725132999345   -0.053948463597366283   -0.014686383886137643
-0.46729725132999345   -0.053948463597366283   -0.014686383886137643
-0.5070100515548212   -0.15419569673537747   -0.02503321651797278
-0.5070100515548212   -0.15419569673537747   -0.02503321651797278
-0.5070100515548212   -0.15419569673537747   -0.02503321651797278
-0.5070100515548212   -0.15419569673537747   -0.02503321651797278
0.06274097315564339   0.051134636313403606   0.01713800410891757
0.06274097315564339   0.051134636313403606   0.01713800410891757
0.06274097315564339   0.051134636313403606   0.01713800410891757
0.06274097315564339   0.051134636313403606   0.01713800410891757
-0.2138889167657852   -0.04526811091091876   -0.012325289766505744
-0.2138889167657852   -0.04526811091091876   -0.012325289766505744
-0.2138889167657852   -0.04526811091091876   -0.012325289766505744
-0.2138889167657852   -0.04526811091091876   -0.012325289766505744
0.04369034765389851   -0.03703755917276637   0.010057072086363146
0.04369034765389851   -0.03703755917276637   0.010057072086363146
0.04369034765389851   -0.03703755917276637   0.010057072086363146
0.04369034765389851   -0.03703755917276637   0.010057072086363146
-0.48649595279636304   -0.0645600279924994   -0.012098391468560309
-0.48649595279636304   -0.0645600279924994   -0.012098391468560309
-0.48649595279636304   -0.0645600279924994   -0.012098391468560309
-0.48649595279636304   -0.0645600279924994   -0.012098391468560309
-0.5300928318492765   -0.16021659985240613   -0.016638337035885513
-0.5300928318492765   -0.16021659985240613   -0.016638337035885513
-0.5300928318492765   -0.16021659985240613   -0.016638337035885513
-0.5300928318492765   -0.16021659985240613   -0.016638337035885513
0.04114082181390219   0.040475653580914074   0.019369494848541575
0.04114082181390219   0.040475653580914074   0.019369494848541575
0.04114082181390219   0.040475653580914074   0.019369494848541575
0.04114082181390219   0.040475653580914074   0.019369494848541575
-0.23299200982559112   -0.05159731819477108   -0.014777497973150892
-0.23299200982559112   -0.05159731819477108   -0.014777497973150892
-0.23299200982559112   -0.05159731819477108   -0.014777497973150892
-0.23299200982559112   -0.05159731819477108   -0.014777497973150892
0.02325065514526828   -0.043451143357552374   0.013845458443838455
0.02325065514526828   -0.043451143357552374   0.013845458443838455
0.02325065514526828   -0.043451143357552374   0.013845458443838455
0.02325065514526828   -0.043451143357552374   0.013845458443838455
-0.5118916916368245   -0.0759788293701224   -0.00987040645591415
-0.5118916916368245   -0.0759788293701224   -0.00987040645591415
-0.5118916916368245   -0.0759788293701224   -0.00987040645591415
-0.5118916916368245   -0.0759788293701224   -0.00987040645591415
-0.5556972807042196   -0.16459826253935536   -0.014788212002789757
-0.5556972807042196   -0.16459826253935536   -0.014788212002789757
-0.5556972807042196   -0.16459826253935536   -0.014788212002789757
-0.5556972807042196   -0.16459826253935536   -0.014788212002789757
0.017775912980452002   0.03137890560288394   0.021631545981162473
0.017775912980452002   0.03137890560288394   0.021631545981162473
0.017775912980452002   0.03137890560288394   0.021631545981162473
0.017775912980452002   0.03137890560288394   0.021631545981162473
-0.25780131160645625   -0.059174012478599526   -0.020694944807218847
-0.25780131160645625   -0.059174012478599526   -0.020694944807218847
-0.25780131160645625   -0.059174012478599526   -0.020694944807218847
-0.25780131160645625   -0.059174012478599526   -0.020694944807218847
-0.45999926147807363   -0.03946081589030323   0.007315917666391194
-0.45999926147807363   -0.03946081589030323   0.007315917666391194
-0.45999926147807363   -0.03946081589030323   0.007315917666391194
-0.45999926147807363   -0.03946081589030323   0.007315917666391194
-0.9794419607671111   -0.0631535958269421   -0.025822938166451155
-0.9794419607671111   -0.0631535958269421   -0.025822938166451155
-0.9794419607671111   -0.0631535958269421   -0.025822938166451155
-0.9794419607671111   -0.0631535958269421   -0.025822938166451155
-1.0245598170047117   -0.16168454477530497   -0.025077036356702626
-1.0245598170047117   -0.16168454477530497   -0.025077036356702626
-1.0245598170047117   -0.16168454477530497   -0.025077036356702626
-1.0245598170047117   -0.16168454477530497   -0.025077036356702626
-0.4623548923617081   0.03912925173767892   0.004917630974528471
-0.4623548923617081   0.03912925173767892   0.004917630974528471
-0.4623548923617081   0.03912925173767892   0.004917630974528471
-0.4623548923617081   0.03912925173767892   0.004917630974528471
-0.7255751364779427   -0.05368737182132684   -0.010313716011640443
-0.7255751364779427   -0.05368737182132684   -0.010313716011640443
-0.7255751364779427   -0.05368737182132684   -0.010313716011640443
-0.7255751364779427   -0.05368737182132684   -0.010313716011640443
-0.4763863056708812   -0.04354706000327442   0.017436876169619902
-0.4763863056708812   -0.04354706000327442   0.017436876169619902
-0.4763863056708812   -0.04354706000327442   0.017436876169619902
-0.4763863056708812   -0.04354706000327442   0.017436876169619902
-1.007669130729963   -0.07614896006878227   -0.026159189689491706
-1.007669130729963   -0.07614896006878227   -0.026159189689491706
-1.007669130729963   -0.07614896006878227   -0.026159189689491706
-1.007669130729963   -0.07614896006878227   -0.026159189689491706
-1.0564745509258693   -0.1719540076058733   -0.017647361524476567
-1.0564745509258693   -0.1719540076058733   -0.017647361524476567
-1.0564745509258693   -0.1719540076058733   -0.017647361524476567
-1.0564745509258693   -0.1719540076058733   -0.017647361524476567
-0.48803229941508386   0.027451150397059157   0.005996574885607238
-0.48803229941508386   0.027451150397059157   0.005996574885607238
-0.48803229941508386   0.027451150397059157   0.005996574885607238
-0.48803229941508386   0.027451150397059157   0.005996574885607238
-0.7457031036529885   -0.05934244052820779   -0.010323631849989062
-0.7457031036529885   -0.05934244052820779   -0.010323631849989062
-0.7457031036529885   -0.05934244052820779   -0.010323631849989062
-0.7457031036529885   -0.05934244052820779   -0.010323631849989062
-0.5018739184323188   -0.05388040230247454   0.018120032498966578
-0.5018739184323188   -0.05388040230247454   0.018120032498966578
-0.5018739184323188   -0.05388040230247454   0.018120032498966578
-0.5018739184323188   -0.05388040230247454   0.018120032498966578
-1.040714684367308   -0.08870420736501308   -0.022097828972529814
-1.040714684367308   -0.08870420736501308   -0.022097828972529814
-1.040714684367308   -0.08870420736501308   -0.022097828972529814
-1.040714684367308   -0.08870420736501308   -0.022097828972529814
-1.0925718792074144   -0.1855174712866403   -0.01885579578913721
-1.0925718792074144   -0.1855174712866403   -0.01885579578913721
-1.0925718792074144   -0.1855174712866403   -0.01885579578913721
-1.0925718792074144   -0.1855174712866403   -0.01885579578913721
-0.5157860042483298   0.013019509034571636   0.007150398702723222
-0.5157860042483298   0.013019509034571636   0.007150398702723222
-0.5157860042483298   0.013019509034571636   0.007150398702723222
-0.5157860042483298   0.013019509034571636   0.007150398702723222
-0.7815888763624571   -0.07328764335626571   -0.016836981383106814
-0.7815888763624571   -0.07328764335626571   -0.016836981383106814
-0.7815888763624571   -0.07328764335626571   -0.016836981383106814
-0.7815888763624571   -0.07328764335626571   -0.016836981383106814
-0.9464214455047733   0.04436541284995915   0.03176062946833745
-0.9464214455047733   0.04436541284995915   0.03176062946833745
-0.9464214455047733   0.04436541284995915   0.03176062946833745
-0.9464214455047733   0.04436541284995915   0.03176062946833745
-1.4671852702748358   -0.07307551660711667   -0.01954320723572999
-1.4671852702748358   -0.07307551660711667   -0.01954320723572999
-1.4671852702748358   -0.07307551660711667   -0.01954320723572999
-1.4671852702748358   -0.07307551660711667   -0.01954320723572999
-1.5029559137978392   -0.07443288690479033   0.0325669163116067
-1.5029559137978392   -0.07443288690479033   0.0325669163116067
-1.5029559137978392   -0.07443288690479033   0.0325669163116067
-1.5029559137978392   -0.07443288690479033   0.0325669163116067
-0.9826236248907139   0.030623276053129367   -0.0077038966151569965
-0.9826236248907139   0.030623276053129367   -0.0077038966151569965
-0.9826236248907139   0.030623276053129367   -0.0077038966151569965
-0.9826236248907139   0.030623276053129367   -0.0077038966151569965
-1.1676984369274013   0.0008082750796059024   0.029677452555508466
-1.1676984369274013   0.0008082750796059024   0.029677452555508466
-1.1676984369274013   0.0008082750796059024   0.029677452555508466
-1.1676984369274013   0.0008082750796059024   0.029677452555508466
-0.9725407612052508   0.033169583270385716   0.04016411459489856
-0.9725407612052508   0.033169583270385716   0.04016411459489856
-0.9725407612052508   0.033169583270385716   0.04016411459489856
-0.9725407612052508   0.033169583270385716   0.04016411459489856
-1.5123659728090506   -0.07630638944780072   -0.012609876201440204
-1.5123659728090506   -0.07630638944780072   -0.012609876201440204
-1.5123659728090506   -0.07630638944780072   -0.012609876201440204
-1.5123659728090506   -0.07630638944780072   -0.012609876201440204
-1.5480758999584499   -0.08663939510584429   0.04432363556702329
-1.5480758999584499   -0.08663939510584429   0.04432363556702329
-1.5480758999584499   -0.08663939510584429   0.04432363556702329
-1.5480758999584499   -0.08663939510584429   0.04432363556702329
-1.01570367759309   0.022324420484912233   -0.008071422951378207
-1.01570367759309   0.022324420484912233   -0.008071422951378207
-1.01570367759309   0.022324420484912233   -0.008071422951378207
-1.01570367759309   0.022324420484912233   -0.008071422951378207
-1.2260687508037054   -0.013460051884671476   0.016360772801046405
-1.2260687508037054   -0.013460051884671476   0.016360772801046405
-1.2260687508037054   -0.013460051884671476   0.016360772801046405
-1.2260687508037054   -0.013460051884671476   0.016360772801046405
-1.0064844378658537   0.020736674527678023   0.0396125216420386
-1.0064844378658537   0.020736674527678023   0.0396125216420386
-1.0064844378658537   0.020736674527678023   0.0396125216420386
-1.0064844378658537   0.020736674527678023   0.0396125216420386
-1.5590317073805096   -0.0867882168434384   -0.010306579805681254
-1.5590317073805096   -0.0867882168434384   -0.010306579805681254
-1.5590317073805096   -0.0867882168434384   -0.010306579805681254
-1.5590317073805096   -0.0867882168434384   -0.010306579805681254
-1.612261911514491   -0.13604472139653115   0.038428169598176805
-1.612261911514491   -0.13604472139653115   0.038428169598176805
-1.612261911514491   -0.13604472139653115   0.038428169598176805
-1.612261911514491   -0.13604472139653115   0.038428169598176805
-1.0538457171136715   -0.0031327187985684124   -0.007609737808513997
-1.0538457171136715   -0.0031327187985684124   -0.007609737808513997
-1.0538457171136715   -0.0031327187985684124   -0.007609737808513997
-1.0538457171136715   -0.0031327187985684124   -0.007609737808513997
-1.250664252775855   -0.03147105698375727   0.004713649536120433
-1.250664252775855   -0.03147105698375727   0.004713649536120433
-1.250664252775855   -0.03147105698375727   0.004713649536120433
-1.250664252775855   -0.03147105698375727   0.004713649536120433
0.9679250180953346   0.05192957051286917   -0.03423103561601902
0.9679250180953346   0.05192957051286917   -0.03423103561601902
0.9679250180953346   0.05192957051286917   -0.03423103561601902
0.9679250180953346   0.05192957051286917   -0.03423103561601902
0.47942049336608106   -0.0007879532616568014   0.012325716253277486
0.47942049336608106   -0.0007879532616568014   0.012325716253277486
0.47942049336608106   -0.0007879532616568014   0.012325716253277486
0.47942049336608106   -0.0007879532616568014   0.012325716253277486
0.4384691488532926   -0.07128554240813181   -0.03146083525477902
0.4384691488532926   -0.07128554240813181   -0.03146083525477902
0.4384691488532926   -0.07128554240813181   -0.03146083525477902
0.4384691488532926   -0.07128554240813181   -0.03146083525477902
0.9498432846024918   0.07812809356569653   0.015468001418564435
0.9498432846024918   0.07812809356569653   0.015468001418564435
0.9498432846024918   0.07812809356569653   0.015468001418564435
0.9498432846024918   0.07812809356569653   0.015468001418564435
0.6722643353008588   0.005924326666533336   -0.02213237678385243
0.6722643353008588   0.005924326666533336   -0.02213237678385243
0.6722643353008588   0.005924326666533336   -0.02213237678385243
0.6722643353008588   0.005924326666533336   -0.02213237678385243
0.9298600774944621   0.026684018549896688   -0.033003959105775374
0.9298600774944621   0.026684018549896688   -0.033003959105775374
0.9298600774944621   0.026684018549896688   -0.033003959105775374
0.9298600774944621   0.026684018549896688   -0.033003959105775374
0.4576016525026983   -0.020692170850961103   0.013608311435069777
0.4576016525026983   -0.020692170850961103   0.013608311435069777
0.4576016525026983   -0.020692170850961103   0.013608311435069777
0.4576016525026983   -0.020692170850961103   0.013608311435069777
0.4179900057767603   -0.07719479732197365   -0.02736490261778554
0.4179900057767603   -0.07719479732197365   -0.02736490261778554
0.4179900057767603   -0.07719479732197365   -0.02736490261778554
0.4179900057767603   -0.07719479732197365   -0.02736490261778554
0.9192206902400397   0.06999146796453573   0.0211917341724717
0.9192206902400397   0.06999146796453573   0.0211917341724717
0.9192206902400397   0.06999146796453573   0.0211917341724717
0.9192206902400397   0.06999146796453573   0.0211917341724717
0.6563516227738868   -0.004757965993611807   -0.02898264404679611
0.6563516227738868   -0.004757965993611807   -0.02898264404679611
0.6563516227738868   -0.004757965993611807   -0.02898264404679611
0.6563516227738868   -0.004757965993611807   -0.02898264404679611
0.899659241558082   0.019406018419407256   -0.026030059692171842
0.899659241558082   0.019406018419407256   -0.026030059692171842
0.899659241558082   0.019406018419407256   -0.026030059692171842
0.899659241558082   0.019406018419407256   -0.026030059692171842
0.43678306181983706   -0.027377740415729226   0.016783320691349628
0.43678306181983706   -0.027377740415729226   0.016783320691349628
0.43678306181983706   -0.027377740415729226   0.016783320691349628
0.43678306181983706   -0.027377740415729226   0.016783320691349628
0.3993044139181108   -0.07883881498356242   -0.022361911656445937
0.3993044139181108   -0.07883881498356242   -0.022361911656445937
0.3993044139181108   -0.07883881498356242   -0.022361911656445937
0.3993044139181108   -0.07883881498356242   -0.022361911656445937
0.8846989683277603   0.06294039687739011   0.02641314435943895
0.8846989683277603   0.06294039687739011   0.02641314435943895
0.8846989683277603   0.06294039687739011   0.02641314435943895
0.8846989683277603   0.06294039687739011   0.02641314435943895
0.6189038342884982   -0.01207934768958338   -0.039319584833046116
0.6189038342884982   -0.01207934768958338   -0.039319584833046116
0.6189038342884982   -0.01207934768958338   -0.039319584833046116
0.6189038342884982   -0.01207934768958338   -0.039319584833046116
0.4878118469087484   0.05069143155584887   0.002803099149108276
0.4878118469087484   0.05069143155584887   0.002803099149108276
0.4878118469087484   0.05069143155584887   0.002803099149108276
0.4878118469087484   0.05069143155584887   0.002803099149108276
0.016063631060422055   -0.01619665552117421   -0.0020696962442498155
0.016063631060422055   -0.01619665552117421   -0.0020696962442498155
0.016063631060422055   -0.01619665552117421   -0.0020696962442498155
0.016063631060422055   -0.01619665552117421   -0.0020696962442498155
-0.01480751234939304   -0.06426623397438316   -0.021451867049646686
-0.01480751234939304   -0.06426623397438316   -0.021451867049646686
-0.01480751234939304   -0.06426623397438316   -0.021451867049646686
-0.01480751234939304   -0.06426623397438316   -0.021451867049646686
0.47847148825362723   0.0708098445463625   0.026455474792390563
0.47847148825362723   0.0708098445463625   0.026455474792390563
0.47847148825362723   0.0708098445463625   0.026455474792390563
0.47847148825362723   0.0708098445463625   0.026455474792390563
0.2381132574711401   0.01009076011384067   -0.0026923682046419203
0.2381132574711401   0.01009076011384067   -0.0026923682046419203
0.2381132574711401   0.01009076011384067   -0.0026923682046419203
0.2381132574711401   0.01009076011384067   -0.0026923682046419203
0.46764872087227405   0.03762140213856456   0.005530080293424843
0.46764872087227405   0.03762140213856456   0.005530080293424843
0.46764872087227405   0.03762140213856456   0.005530080293424843
0.46764872087227405   0.03762140213856456   0.005530080293424843
-0.0037904437377648797   -0.030883490336309858   0.00025073237042081385
-0.0037904437377648797   -0.030883490336309858   0.00025073237042081385
-0.0037904437377648797   -0.030883490336309858   0.00025073237042081385
-0.0037904437377648797   -0.030883490336309858   0.00025073237042081385
-0.03420613308612636   -0.0738175930495814   -0.01855854545756361
-0.03420613308612636   -0.0738175930495814   -0.01855854545756361
-0.03420613308612636   -0.0738175930495814   -0.01855854545756361
-0.03420613308612636   -0.0738175930495814   -0.01855854545756361
0.456494591383273   0.05869824559285263   0.02926498249994746
0.456494591383273   0.05869824559285263   0.02926498249994746
0.456494591383273   0.05869824559285263   0.02926498249994746
0.456494591383273   0.05869824559285263   0.02926498249994746
0.21438972372292753   -0.001856184156241003   -0.009476721593805018
0.21438972372292753   -0.001856184156241003   -0.009476721593805018
0.21438972372292753   -0.001856184156241003   -0.009476721593805018
0.21438972372292753   -0.001856184156241003   -0.009476721593805018
0.4460800261874045   0.02760785693277998   0.008282545180681677
0.4460800261874045   0.02760785693277998   0.008282545180681677
0.4460800261874045   0.02760785693277998   0.008282545180681677
0.4460800261874045   0.02760785693277998   0.008282545180681677
-0.023773642778093365   -0.04270927927733845   0.0024955923103584434
-0.023773642778093365   -0.04270927927733845   0.0024955923103584434
-0.023773642778093365   -0.04270927927733845   0.0024955923103584434
-0.023773642778093365   -0.04270927927733845   0.0024955923103584434
-0.05340384476745859   -0.0795315741294724   -0.014786501514891297
-0.05340384476745859   -0.0795315741294724   -0.014786501514891297
-0.05340384476745859   -0.0795315741294724   -0.014786501514891297
-0.05340384476745859   -0.0795315741294724   -0.014786501514891297
0.4355914108216066   0.048511432752180575   0.0317228251252855
0.4355914108216066   0.048511432752180575   0.0317228251252855
0.4355914108216066   0.048511432752180575   0.0317228251252855
0.4355914108216066   0.048511432752180575   0.0317228251252855
0.19689367267931582   -0.009459186157056404   -0.014464267000795977
0.19689367267931582   -0.009459186157056404   -0.014464267000795977
0.19689367267931582   -0.009459186157056404   -0.014464267000795977
0.19689367267931582   -0.009459186157056404   -0.014464267000795977
0.03213298647638818   0.05107578817001544   0.01100463714438928
0.03213298647638818   0.05107578817001544   0.01100463714438928
0.03213298647638818   0.05107578817001544   0.01100463714438928
0.03213298647638818   0.05107578817001544   0.01100463714438928
-0.43300428043573014   -0.028179367786730206   -0.014877780371535875
-0.43300428043573014   -0.028179367786730206   -0.014877780371535875
-0.43300428043573014   -0.028179367786730206   -0.014877780371535875
-0.43300428043573014   -0.028179367786730206   -0.014877780371535875
-0.4570876638318425   -0.058989215249254094   -0.01365261671688501
-0.4570876638318425   -0.058989215249254094   -0.01365261671688501
-0.4570876638318425   -0.058989215249254094   -0.01365261671688501
-0.4570876638318425   -0.058989215249254094   -0.01365261671688501
0.016507312432270167   0.05799804312494295   0.01285797975934324
0.016507312432270167   0.05799804312494295   0.01285797975934324
0.016507312432270167   0.05799804312494295   0.01285797975934324
0.016507312432270167   0.05799804312494295   0.01285797975934324
-0.2100971988597025   0.006442486872023125   0.0008191001384526726
-0.2100971988597025   0.006442486872023125   0.0008191001384526726
-0.2100971988597025   0.006442486872023125   0.0008191001384526726
-0.2100971988597025   0.006442486872023125   0.0008191001384526726
0.01320818668103363   0.0405604641852657   0.013799929942837807
0.01320818668103363   0.0405604641852657   0.013799929942837807
0.01320818668103363   0.0405604641852657   0.013799929942837807
0.01320818668103363   0.0405604641852657   0.013799929942837807
-0.4532580639131408   -0.041021162142111635   -0.012472670230518753
-0.4532580639131408   -0.041021162142111635   -0.012472670230518753
-0.4532580639131408   -0.041021162142111635   -0.012472670230518753
-0.4532580639131408   -0.041021162142111635   -0.012472670230518753
-0.4779029944688006   -0.06947975779817123   -0.011363745764182183
-0.4779029944688006   -0.06947975779817123   -0.011363745764182183
-0.4779029944688006   -0.06947975779817123   -0.011363745764182183
-0.4779029944688006   -0.06947975779817123   -0.011363745764182183
-0.0035041304111569985   0.04554098480391615   0.015592890063787591
-0.0035041304111569985   0.04554098480391615   0.015592890063787591
-0.0035041304111569985   0.04554098480391615   0.015592890063787591
-0.0035041304111569985   0.04554098480391615   0.015592890063787591
-0.23004232044262288   -0.0038404403250312177   -0.004271656116105095
-0.23004232044262288   -0.0038404403250312177   -0.004271656116105095
-0.23004232044262288   -0.0038404403250312177   -0.004271656116105095
-0.23004232044262288   -0.0038404403250312177   -0.004271656116105095
-0.006319291396074787   0.03043445496486078   0.0166236149782521
-0.006319291396074787   0.03043445496486078   0.0166236149782521
-0.006319291396074787   0.03043445496486078   0.0166236149782521
-0.006319291396074787   0.03043445496486078   0.0166236149782521
-0.47463428550155706   -0.053919679976789814   -0.010580278749342122
-0.47463428550155706   -0.053919679976789814   -0.010580278749342122
-0.47463428550155706   -0.053919679976789814   -0.010580278749342122
-0.47463428550155706   -0.053919679976789814   -0.010580278749342122
-0.49857363224473367   -0.07772866497821478   -0.007556761699114849
-0.49857363224473367   -0.07772866497821478   -0.007556761699114849
-0.49857363224473367   -0.07772866497821478   -0.007556761699114849
-0.49857363224473367   -0.07772866497821478   -0.007556761699114849
-0.024237828560741248   0.03380616198327206   0.017705843405950966
-0.024237828560741248   0.03380616198327206   0.017705843405950966
-0.024237828560741248   0.03380616198327206   0.017705843405950966
-0.024237828560741248   0.03380616198327206   0.017705843405950966
-0.25150446244349245   -0.0142971043107794   -0.00983903094524134
-0.25150446244349245   -0.0142971043107794   -0.00983903094524134
-0.25150446244349245   -0.0142971043107794   -0.00983903094524134
-0.25150446244349245   -0.0142971043107794   -0.00983903094524134
-0.4083636833770025   0.060213178926204924   0.019932658209175176
-0.4083636833770025   0.060213178926204924   0.019932658209175176
-0.4083636833770025   0.060213178926204924   0.019932658209175176
-0.4083636833770025   0.060213178926204924   0.019932658209175176
-0.8674437568637262   -0.03870573688993134   -0.024345916441242232
-0.8674437568637262   -0.03870573688993134   -0.024345916441242232
-0.8674437568637262   -0.03870573688993134   -0.024345916441242232
-0.8674437568637262   -0.03870573688993134   -0.024345916441242232
-0.8862123998525895   -0.047432330540661094   -0.004032772926290208
-0.8862123998525895   -0.047432330540661094   -0.004032772926290208
-0.8862123998525895   -0.047432330540661094   -0.004032772926290208
-0.8862123998525895   -0.047432330540661094   -0.004032772926290208
-0.43390347806201984   0.04391736935202134   -0.0006382724690431191
-0.43390347806201984   0.04391736935202134   -0.0006382724690431191
-0.43390347806201984   0.04391736935202134   -0.0006382724690431191
-0.43390347806201984   0.04391736935202134   -0.0006382724690431191
-0.6442899151505137   0.006466991653121923   0.00471129487778317
-0.6442899151505137   0.006466991653121923   0.00471129487778317
-0.6442899151505137   0.006466991653121923   0.00471129487778317
-0.6442899151505137   0.006466991653121923   0.00471129487778317
-0.4281965780694821   0.049450089808626585   0.0223635070370407
-0.4281965780694821   0.049450089808626585   0.0223635070370407
-0.4281965780694821   0.049450089808626585   0.0223635070370407
-0.4281965780694821   0.049450089808626585   0.0223635070370407
-0.8912047227186427   -0.0522504738707778   -0.024176243926446808
-0.8912047227186427   -0.0522504738707778   -0.024176243926446808
-0.8912047227186427   -0.0522504738707778   -0.024176243926446808
-0.8912047227186427   -0.0522504738707778   -0.024176243926446808
-0.9118424175002764   -0.059232290836521234   -0.003610513197102143
-0.9118424175002764   -0.059232290836521234   -0.003610513197102143
-0.9118424175002764   -0.059232290836521234   -0.003610513197102143
-0.9118424175002764   -0.059232290836521234   -0.003610513197102143
-0.4549691873663189   0.03203016203565914   0.0017953699143997762
-0.4549691873663189   0.03203016203565914   0.0017953699143997762
-0.4549691873663189   0.03203016203565914   0.0017953699143997762
-0.4549691873663189   0.03203016203565914   0.0017953699143997762
-0.6621975482719958   -0.002917818348470852   0.0005390450808350905
-0.6621975482719958   -0.002917818348470852   0.0005390450808350905
-0.6621975482719958   -0.002917818348470852   0.0005390450808350905
-0.6621975482719958   -0.002917818348470852   0.0005390450808350905
-0.4487153283269143   0.039278495889156356   0.025816331257923632
-0.4487153283269143   0.039278495889156356   0.025816331257923632
-0.4487153283269143   0.039278495889156356   0.025816331257923632
-0.4487153283269143   0.039278495889156356   0.025816331257923632
-0.916636535114752   -0.06502088326509028   -0.021792508840914403
-0.916636535114752   -0.06502088326509028   -0.021792508840914403
-0.916636535114752   -0.06502088326509028   -0.021792508840914403
-0.916636535114752   -0.06502088326509028   -0.021792508840914403
-0.9354325907206817   -0.07187500182758091   0.0023244308642818637
-0.9354325907206817   -0.07187500182758091   0.0023244308642818637
-0.9354325907206817   -0.07187500182758091   0.0023244308642818637
-0.9354325907206817   -0.07187500182758091   0.0023244308642818637
-0.4772940410859817   0.01786735248942206   0.003245176627015324
-0.4772940410859817   0.01786735248942206   0.003245176627015324
-0.4772940410859817   0.01786735248942206   0.003245176627015324
-0.4772940410859817   0.01786735248942206   0.003245176627015324
-0.6902506072497164   -0.016138785186349536   -0.005088225517414904
-0.6902506072497164   -0.016138785186349536   -0.005088225517414904
-0.6902506072497164   -0.016138785186349536   -0.005088225517414904
-0.6902506072497164   -0.016138785186349536   -0.005088225517414904
-0.8367687090951661   0.062484295148577756   0.027839290363041856
-0.8367687090951661   0.062484295148577756   0.027839290363041856
-0.8367687090951661   0.062484295148577756   0.027839290363041856
-0.8367687090951661   0.062484295148577756   0.027839290363041856
-1.280725360238884   -0.05927895248041973   -0.022342909637973314
-1.280725360238884   -0.05927895248041973   -0.022342909637973314
-1.280725360238884   -0.05927895248041973   -0.022342909637973314
-1.280725360238884   -0.05927895248041973   -0.022342909637973314
-1.2981264231044665   -0.026208094961085948   0.0236420465275496
-1.2981264231044665   -0.026208094961085948   0.0236420465275496
-1.2981264231044665   -0.026208094961085948   0.0236420465275496
-1.2981264231044665   -0.026208094961085948   0.0236420465275496
-0.8731213924743791   0.026441858007906077   -0.012451924583805334
-0.8731213924743791   0.026441858007906077   -0.012451924583805334
-0.8731213924743791   0.026441858007906077   -0.012451924583805334
-0.8731213924743791   0.026441858007906077   -0.012451924583805334
-1.0247752188446786   0.01292978456500185   0.023616066810411583
-1.0247752188446786   0.01292978456500185   0.023616066810411583
-1.0247752188446786   0.01292978456500185   0.023616066810411583
-1.0247752188446786   0.01292978456500185   0.023616066810411583
-0.8567734188367289   0.06373338075785417   0.031996420854482066
-0.8567734188367289   0.06373338075785417   0.031996420854482066
-0.8567734188367289   0.06373338075785417   0.031996420854482066
-0.8567734188367289   0.06373338075785417   0.031996420854482066
-1.3135103046773506   -0.06253552564626239   -0.016949930651676097
-1.3135103046773506   -0.06253552564626239   -0.016949930651676097
-1.3135103046773506   -0.06253552564626239   -0.016949930651676097
-1.3135103046773506   -0.06253552564626239   -0.016949930651676097
-1.3299658580477856   -0.03238275634133614   0.032654873372105736
-1.3299658580477856   -0.03238275634133614   0.032654873372105736
-1.3299658580477856   -0.03238275634133614   0.032654873372105736
-1.3299658580477856   -0.03238275634133614   0.032654873372105736
-0.8975667469737548   0.019611752168581603   -0.011076203569596953
-0.8975667469737548   0.019611752168581603   -0.011076203569596953
-0.8975667469737548   0.019611752168581603   -0.011076203569596953
-0.8975667469737548   0.019611752168581603   -0.011076203569596953
-1.0687205422245338   0.006393343716296379   0.015255079681276325
-1.0687205422245338   0.006393343716296379   0.015255079681276325
-1.0687205422245338   0.006393343716296379   0.015255079681276325
-1.0687205422245338   0.006393343716296379   0.015255079681276325
-0.8795083435573535   0.05911940418210604   0.0397081614988849
-0.8795083435573535   0.05911940418210604   0.0397081614988849
-0.8795083435573535   0.05911940418210604   0.0397081614988849
-0.8795083435573535   0.05911940418210604   0.0397081614988849
-1.347089510344569   -0.0709556572352392   -0.01439048721788657
-1.347089510344569   -0.0709556572352392   -0.01439048721788657
-1.347089510344569   -0.0709556572352392   -0.01439048721788657
-1.347089510344569   -0.0709556572352392   -0.01439048721788657
-1.3731564264398537   -0.05898717619986932   0.03242868451116339
-1.3731564264398537   -0.05898717619986932   0.03242868451116339
-1.3731564264398537   -0.05898717619986932   0.03242868451116339
-1.3731564264398537   -0.05898717619986932   0.03242868451116339
-0.923798340162209   -0.0009655208112897551   -0.010413797359645344
-0.923798340162209   -0.0009655208112897551   -0.010413797359645344
-0.923798340162209   -0.0009655208112897551   -0.010413797359645344
-0.923798340162209   -0.0009655208112897551   -0.010413797359645344
-1.0813232940213497   -0.0030579157394051426   0.012526829446093339
-1.0813232940213497   -0.0030579157394051426   0.012526829446093339
-1.0813232940213497   -0.0030579157394051426   0.012526829446093339
-1.0813232940213497   -0.0030579157394051426   0.012526829446093339
0.7354330272332824   0.040980704695254846   -0.03484352782936559
0.7354330272332824   0.040980704695254846   -0.03484352782936559
0.7354330272332824   0.040980704695254846   -0.03484352782936559
0.7354330272332824   0.040980704695254846   -0.03484352782936559
0.3494552143452753   0.006759845883585899   0.013225344443533755
0.3494552143452753   0.006759845883585899   0.013225344443533755
0.3494552143452753   0.006759845883585899   0.013225344443533755
0.3494552143452753   0.006759845883585899   0.013225344443533755
0.310773278092863   -0.05940493255182193   -0.03312712265939897
0.310773278092863   -0.05940493255182193   -0.03312712265939897
0.310773278092863   -0.05940493255182193   -0.03312712265939897
0.310773278092863   -0.05940493255182193   -0.03312712265939897
0.7196543992544315   0.06746285114749098   0.01636274923630579
0.7196543992544315   0.06746285114749098   0.01636274923630579
0.7196543992544315   0.06746285114749098   0.01636274923630579
0.7196543992544315   0.06746285114749098   0.01636274923630579
0.5015171674042902   0.0067723316982800374   -0.014836907852987281
0.5015171674042902   0.0067723316982800374   -0.014836907852987281
0.5015171674042902   0.0067723316982800374   -0.014836907852987281
0.5015171674042902   0.0067723316982800374   -0.014836907852987281
0.6999922932232586   0.01847275754310282   -0.03295768731517094
0.6999922932232586   0.01847275754310282   -0.03295768731517094
0.6999922932232586   0.01847275754310282   -0.03295768731517094
0.6999922932232586   0.01847275754310282   -0.03295768731517094
0.33004991845272236   -0.010800304618747744   0.014651451206821396
0.33004991845272236   -0.010800304618747744   0.014651451206821396
0.33004991845272236   -0.010800304618747744   0.014651451206821396
0.33004991845272236   -0.010800304618747744   0.014651451206821396
0.29271410535419545   -0.06520244647085555   -0.02827125311860968
0.29271410535419545   -0.06520244647085555   -0.02827125311860968
0.29271410535419545   -0.06520244647085555   -0.02827125311860968
0.29271410535419545   -0.06520244647085555   -0.02827125311860968
0.6915709907030854   0.059168025952214126   0.021554915068487904
0.6915709907030854   0.059168025952214126   0.021554915068487904
0.6915709907030854   0.059168025952214126   0.021554915068487904
0.6915709907030854   0.059168025952214126   0.021554915068487904
0.4854345689254339   -0.0033027273450090405   -0.0207622775657813
0.4854345689254339   -0.0033027273450090405   -0.0207622775657813
0.4854345689254339   -0.0033027273450090405   -0.0207622775657813
0.4854345689254339   -0.0033027273450090405   -0.0207622775657813
0.672361073443392   0.011096557262628343   -0.02642320254038686
0.672361073443392   0.011096557262628343   -0.02642320254038686
0.672361073443392   0.011096557262628343   -0.02642320254038686
0.672361073443392   0.011096557262628343   -0.02642320254038686
0.3114323527750302   -0.017622647620127718   0.0177401851348337
0.3114323527750302   -0.017622647620127718   0.0177401851348337
0.3114323527750302   -0.017622647620127718   0.0177401851348337
0.3114323527750302   -0.017622647620127718   0.0177401851348337
0.27644981897399207   -0.06870168523352713   -0.023548116841378947
0.27644981897399207   -0.06870168523352713   -0.023548116841378947
0.27644981897399207   -0.06870168523352713   -0.023548116841378947
0.27644981897399207   -0.06870168523352713   -0.023548116841378947
0.6598917723024853   0.05023972578753377   0.025635248781238948
0.6598917723024853   0.05023972578753377   0.025635248781238948
0.6598917723024853   0.05023972578753377   0.025635248781238948
0.6598917723024853   0.05023972578753377   0.025635248781238948
0.4533886726109939   -0.010890636622973918   -0.029574044394206325
0.4533886726109939   -0.010890636622973918   -0.029574044394206325
0.4533886726109939   -0.010890636622973918   -0.029574044394206325
0.4533886726109939   -0.010890636622973918   -0.029574044394206325
0.35539901968538284   0.051687670715162136   -0.001983453687498178
0.35539901968538284   0.051687670715162136   -0.001983453687498178
0.35539901968538284   0.051687670715162136   -0.001983453687498178
0.35539901968538284   0.051687670715162136   -0.001983453687498178
-0.023486767670232733   -0.005220868073206141   -0.0002527987846218018
-0.023486767670232733   -0.005220868073206141   -0.0002527987846218018
-0.023486767670232733   -0.005220868073206141   -0.0002527987846218018
-0.023486767670232733   -0.005220868073206141   -0.0002527987846218018
-0.05073823178828846   -0.044543064544218906   -0.021099350618600857
-0.05073823178828846   -0.044543064544218906   -0.021099350618600857
-0.05073823178828846   -0.044543064544218906   -0.021099350618600857
-0.05073823178828846   -0.044543064544218906   -0.021099350618600857
0.3462516774357653   0.06135606134864472   0.023503880154643508
0.3462516774357653   0.06135606134864472   0.023503880154643508
0.3462516774357653   0.06135606134864472   0.023503880154643508
0.3462516774357653   0.06135606134864472   0.023503880154643508
0.1544355967226632   0.01510736194413553   0.00111997191082019
0.1544355967226632   0.01510736194413553   0.00111997191082019
0.1544355967226632   0.01510736194413553   0.00111997191082019
0.1544355967226632   0.01510736194413553   0.00111997191082019
0.3369915621061968   0.03744553110790693   0.0011138337475430794
0.3369915621061968   0.03744553110790693   0.0011138337475430794
0.3369915621061968   0.03744553110790693   0.0011138337475430794
0.3369915621061968   0.03744553110790693   0.0011138337475430794
-0.04132089539243751   -0.020475313237197958   0.0019195800536329264
-0.04132089539243751   -0.020475313237197958   0.0019195800536329264
-0.04132089539243751   -0.020475313237197958   0.0019195800536329264
-0.04132089539243751   -0.020475313237197958   0.0019195800536329264
-0.06774601580199449   -0.055495426186690615   -0.01746276921250126
-0.06774601580199449   -0.055495426186690615   -0.01746276921250126
-0.06774601580199449   -0.055495426186690615   -0.01746276921250126
-0.06774601580199449   -0.055495426186690615   -0.01746276921250126
0.3261971504143355   0.048250472656949026   0.025691053054283375
0.3261971504143355   0.048250472656949026   0.025691053054283375
0.3261971504143355   0.048250472656949026   0.025691053054283375
0.3261971504143355   0.048250472656949026   0.025691053054283375
0.13345038034492504   0.0021398135101011427   -0.0053875831322242945
0.13345038034492504   0.0021398135101011427   -0.0053875831322242945
0.13345038034492504   0.0021398135101011427   -0.0053875831322242945
0.13345038034492504   0.0021398135101011427   -0.0053875831322242945
0.3172455467541918   0.02569345137429186   0.003490056036224801
0.3172455467541918   0.02569345137429186   0.003490056036224801
0.3172455467541918   0.02569345137429186   0.003490056036224801
0.3172455467541918   0.02569345137429186   0.003490056036224801
-0.05892738800391122   -0.033071380766093415   0.004206324357317878
-0.05892738800391122   -0.033071380766093415   0.004206324357317878
-0.05892738800391122   -0.033071380766093415   0.004206324357317878
-0.05892738800391122   -0.033071380766093415   0.004206324357317878
-0.08452785367634175   -0.06466631664086553   -0.01404665734199665
-0.08452785367634175   -0.06466631664086553   -0.01404665734199665
-0.08452785367634175   -0.06466631664086553   -0.01404665734199665
-0.08452785367634175   -0.06466631664086553   -0.01404665734199665
0.30768075033648656   0.03615871713867905   0.027746137598886327
0.30768075033648656   0.03615871713867905   0.027746137598886327
0.30768075033648656   0.03615871713867905   0.027746137598886327
0.30768075033648656   0.03615871713867905   0.027746137598886327
0.11739283422196355   -0.0076550543011072   -0.010797422470765847
0.11739283422196355   -0.0076550543011072   -0.010797422470765847
0.11739283422196355   -0.0076550543011072   -0.010797422470765847
0.11739283422196355   -0.0076550543011072   -0.010797422470765847
-0.008392828936680325   0.06143140329113937   0.008564623518792808
-0.008392828936680325   0.06143140329113937   0.008564623518792808
-0.008392828936680325   0.06143140329113937   0.008564623518792808
-0.008392828936680325   0.06143140329113937   0.008564623518792808
-0.3885042560091324   -0.017029867311602498   -0.012883924909184802
-0.3885042560091324   -0.017029867311602498   -0.012883924909184802
-0.3885042560091324   -0.017029867311602498   -0.012883924909184802
-0.3885042560091324   -0.017029867311602498   -0.012883924909184802
-0.40606434324460006   -0.031102778997388024   -0.010074475175441416
-0.40606434324460006   -0.031102778997388024   -0.010074475175441416
-0.40606434324460006   -0.031102778997388024   -0.010074475175441416
-0.40606434324460006   -0.031102778997388024   -0.010074475175441416
-0.025646703208694353   0.04954653334401954   0.0102686943911312
-0.025646703208694353   0.04954653334401954   0.0102686943911312
-0.025646703208694353   0.04954653334401954   0.0102686943911312
-0.025646703208694353   0.04954653334401954   0.0102686943911312
-0.20665995101152596   0.015808130257569337   0.004050155393880407
-0.20665995101152596   0.015808130257569337   0.004050155393880407
-0.20665995101152596   0.015808130257569337   0.004050155393880407
-0.20665995101152596   0.015808130257569337   0.004050155393880407
-0.02531346976417833   0.049465474771108985   0.012015920186621893
-0.02531346976417833   0.049465474771108985   0.012015920186621893
-0.02531346976417833   0.049465474771108985   0.012015920186621893
-0.02531346976417833   0.049465474771108985   0.012015920186621893
-0.40607073587739734   -0.030694879612758748   -0.010514337724057203
-0.40607073587739734   -0.030694879612758748   -0.010514337724057203
-0.40607073587739734   -0.030694879612758748   -0.010514337724057203
-0.40607073587739734   -0.030694879612758748   -0.010514337724057203
-0.4234863554400543   -0.042955059829288184   -0.006905108073336767
-0.4234863554400543   -0.042955059829288184   -0.006905108073336767
-0.4234863554400543   -0.042955059829288184   -0.006905108073336767
-0.4234863554400543   -0.042955059829288184   -0.006905108073336767
-0.04338120412316272   0.03605273503336626   0.012813127961600727
-0.04338120412316272   0.03605273503336626   0.012813127961600727
-0.04338120412316272   0.03605273503336626   0.012813127961600727
-0.04338120412316272   0.03605273503336626   0.012813127961600727
-0.22426145165982406   0.004100311899092948   -0.0012233949463807854
-0.22426145165982406   0.004100311899092948   -0.0012233949463807854
-0.22426145165982406   0.004100311899092948   -0.0012233949463807854
-0.22426145165982406   0.004100311899092948   -0.0012233949463807854
-0.04269502702605268   0.037536314303569115   0.014760434176948093
-0.04269502702605268   0.037536314303569115   0.014760434176948093
-0.04269502702605268   0.037536314303569115   0.014760434176948093
-0.04269502702605268   0.037536314303569115   0.014760434176948093
-0.42407937148331587   -0.04434547804564259   -0.008479770073290293
-0.42407937148331587   -0.04434547804564259   -0.008479770073290293
-0.42407937148331587   -0.04434547804564259   -0.008479770073290293
-0.42407937148331587   -0.04434547804564259   -0.008479770073290293
-0.44069875779025647   -0.053780249985589564   -0.003765287208841948
-0.44069875779025647   -0.053780249985589564   -0.003765287208841948
-0.44069875779025647   -0.053780249985589564   -0.003765287208841948
-0.44069875779025647   -0.053780249985589564   -0.003765287208841948
-0.061191188276671214   0.023002093799588452   0.014968259215902063
-0.061191188276671214   0.023002093799588452   0.014968259215902063
-0.061191188276671214   0.023002093799588452   0.014968259215902063
-0.061191188276671214   0.023002093799588452   0.014968259215902063
-0.24267258755429988   -0.007704172504469552   -0.007098829109061124
-0.24267258755429988   -0.007704172504469552   -0.007098829109061124
-0.24267258755429988   -0.007704172504469552   -0.007098829109061124
-0.24267258755429988   -0.007704172504469552   -0.007098829109061124
-0.36474301200441017   0.07040173410895327   0.018490693693864815
-0.36474301200441017   0.07040173410895327   0.018490693693864815
-0.36474301200441017   0.07040173410895327   0.018490693693864815
-0.36474301200441017   0.07040173410895327   0.018490693693864815
-0.7453749557975895   -0.029107306642574465   -0.02318626229400532
-0.7453749557975895   -0.029107306642574465   -0.02318626229400532
-0.7453749557975895   -0.029107306642574465   -0.02318626229400532
-0.7453749557975895   -0.029107306642574465   -0.02318626229400532
-0.7549627303165815   -0.019779728495674748   0.001935490547038038
-0.7549627303165815   -0.019779728495674748   0.001935490547038038
-0.7549627303165815   -0.019779728495674748   0.001935490547038038
-0.7549627303165815   -0.019779728495674748   0.001935490547038038
-0.39128934353547   0.03561059443746198   -0.0029128500646394342
-0.39128934353547   0.03561059443746198   -0.0029128500646394342
-0.39128934353547   0.03561059443746198   -0.0029128500646394342
-0.39128934353547   0.03561059443746198   -0.0029128500646394342
-0.5604182291616899   0.01498362821379881   0.006859729900529216
-0.5604182291616899   0.01498362821379881   0.006859729900529216
-0.5604182291616899   0.01498362821379881   0.006859729900529216
-0.5604182291616899   0.01498362821379881   0.006859729900529216
-0.38169629866704574   0.05884921122318275   0.021813757491759123
-0.38169629866704574   0.05884921122318275   0.021813757491759123
-0.38169629866704574   0.05884921122318275   0.021813757491759123
-0.38169629866704574   0.05884921122318275   0.021813757491759123
-0.7644721062772962   -0.04293467637368123   -0.02245644137852939
-0.7644721062772962   -0.04293467637368123   -0.02245644137852939
-0.7644721062772962   -0.04293467637368123   -0.02245644137852939
-0.7644721062772962   -0.04293467637368123   -0.02245644137852939
-0.7752531564760762   -0.031763409322841524   0.0031114822316537574
-0.7752531564760762   -0.031763409322841524   0.0031114822316537574
-0.7752531564760762   -0.031763409322841524   0.0031114822316537574
-0.7752531564760762   -0.031763409322841524   0.0031114822316537574
-0.40895808323311245   0.023111687003945267   -0.00033049387185923526
-0.40895808323311245   0.023111687003945267   -0.00033049387185923526
-0.40895808323311245   0.023111687003945267   -0.00033049387185923526
-0.40895808323311245   0.023111687003945267   -0.00033049387185923526
-0.5752677064675341   0.004559749420876502   0.001955662714649295
-0.5752677064675341   0.004559749420876502   0.001955662714649295
-0.5752677064675341   0.004559749420876502   0.001955662714649295
-0.5752677064675341   0.004559749420876502   0.001955662714649295
-0.398961624323819   0.047854415164158184   0.024909072514395093
-0.398961624323819   0.047854415164158184   0.024909072514395093
-0.398961624323819   0.047854415164158184   0.024909072514395093
-0.398961624323819   0.047854415164158184   0.024909072514395093
-0.7847372818786829   -0.05599380397636765   -0.020078750127853425
-0.7847372818786829   -0.05599380397636765   -0.020078750127853425
-0.7847372818786829   -0.05599380397636765   -0.020078750127853425
-0.7847372818786829   -0.05599380397636765   -0.020078750127853425
-0.7936473879785231   -0.04467755496522843   0.006873986246304108
-0.7936473879785231   -0.04467755496522843   0.006873986246304108
-0.7936473879785231   -0.04467755496522843   0.006873986246304108
-0.7936473879785231   -0.04467755496522843   0.006873986246304108
-0.42712346059493617   0.008792034223881362   0.0015389145582906417
-0.42712346059493617   0.008792034223881362   0.0015389145582906417
-0.42712346059493617   0.008792034223881362   0.0015389145582906417
-0.42712346059493617   0.008792034223881362   0.0015389145582906417
-0.597979155643292   -0.00855574562532474   -0.004287525817706604
-0.597979155643292   -0.00855574562532474   -0.004287525817706604
-0.597979155643292   -0.00855574562532474   -0.004287525817706604
-0.597979155643292   -0.00855574562532474   -0.004287525817706604
-0.7170684122879594   0.0631407072997284   0.02609844131184271
-0.7170684122879594   0.0631407072997284   0.02609844131184271
-0.7170684122879594   0.0631407072997284   0.02609844131184271
-0.7170684122879594   0.0631407072997284   0.02609844131184271
-1.085165505507919   -0.05012372130725504   -0.025433909914542974
-1.085165505507919   -0.05012372130725504   -0.025433909914542974
-1.085165505507919   -0.05012372130725504   -0.025433909914542974
-1.085165505507919   -0.05012372130725504   -0.025433909914542974
-1.0970980419306995   -0.011057727148597513   0.02402679909002766
-1.0970980419306995   -0.011057727148597513   0.02402679909002766
-1.0970980419306995   -0.011057727148597513   0.02402679909002766
-1.0970980419306995   -0.011057727148597513   0.02402679909002766
-0.7507360607606084   0.01810510982443575   -0.01481599999320704
-0.7507360607606084   0.01810510982443575   -0.01481599999320704
-0.7507360607606084   0.01810510982443575   -0.01481599999320704
-0.7507360607606084   0.01810510982443575   -0.01481599999320704
-0.8721216825348052   0.014114456116281815   0.02141840519564446
-0.8721216825348052   0.014114456116281815   0.02141840519564446
-0.8721216825348052   0.014114456116281815   0.02141840519564446
-0.8721216825348052   0.014114456116281815   0.02141840519564446
-0.7326400594712313   0.06315194398409887   0.030617172294010793
-0.7326400594712313   0.06315194398409887   0.030617172294010793
-0.7326400594712313   0.06315194398409887   0.030617172294010793
-0.7326400594712313   0.06315194398409887   0.030617172294010793
-1.1148938269041215   -0.05580434499229947   -0.020205507933369976
-1.1148938269041215   -0.05580434499229947   -0.020205507933369976
-1.1148938269041215   -0.05580434499229947   -0.020205507933369976
-1.1148938269041215   -0.05580434499229947   -0.020205507933369976
-1.123672756180557   -0.017384658461957025   0.03004775248454289
-1.123672756180557   -0.017384658461957025   0.03004775248454289
-1.123672756180557   -0.017384658461957025   0.03004775248454289
-1.123672756180557   -0.017384658461957025   0.03004775248454289
-0.7698092520378395   0.01125377529658153   -0.012686180196585468
-0.7698092520378395   0.01125377529658153   -0.012686180196585468
-0.7698092520378395   0.01125377529658153   -0.012686180196585468
-0.7698092520378395   0.01125377529658153   -0.012686180196585468
-0.9093739368217121   0.0070637224412472555   0.013098196971974466
-0.9093739368217121   0.0070637224412472555   0.013098196971974466
-0.9093739368217121   0.0070637224412472555   0.013098196971974466
-0.9093739368217121   0.0070637224412472555   0.013098196971974466
-0.7506143797552912   0.05843821469061766   0.03610374182211971
-0.7506143797552912   0.05843821469061766   0.03610374182211971
-0.7506143797552912   0.05843821469061766   0.03610374182211971
-0.7506143797552912   0.05843821469061766   0.03610374182211971
-1.1423664022571083   -0.06406787164998914   -0.016737264710169987
-1.1423664022571083   -0.06406787164998914   -0.016737264710169987
-1.1423664022571083   -0.06406787164998914   -0.016737264710169987
-1.1423664022571083   -0.06406787164998914   -0.016737264710169987
-1.158750003821082   -0.039978526004545545   0.029472840332948835
-1.158750003821082   -0.039978526004545545   0.029472840332948835
-1.158750003821082   -0.039978526004545545   0.029472840332948835
-1.158750003821082   -0.039978526004545545   0.029472840332948835
-0.789962269014031   -0.007877489280678607   -0.01150048461578524
-0.789962269014031   -0.007877489280678607   -0.01150048461578524
-0.789962269014031   -0.007877489280678607   -0.01150048461578524
-0.789962269014031   -0.007877489280678607   -0.01150048461578524
-0.9188087752589177   -0.0017391542013591998   0.01035286112680791
-0.9188087752589177   -0.0017391542013591998   0.01035286112680791
-0.9188087752589177   -0.0017391542013591998   0.01035286112680791
-0.9188087752589177   -0.0017391542013591998   0.01035286112680791
0.5068033667193242   0.02879625205172126   -0.03394077708986905
0.5068033667193242   0.02879625205172126   -0.03394077708986905
0.5068033667193242   0.02879625205172126   -0.03394077708986905
0.5068033667193242   0.02879625205172126   -0.03394077708986905
0.2164621576915442   0.013576690030712171   0.014513661468826556
0.2164621576915442   0.013576690030712171   0.014513661468826556
0.2164621576915442   0.013576690030712171   0.014513661468826556
0.2164621576915442   0.013576690030712171   0.014513661468826556
0.18151931403506968   -0.04977028823196611   -0.031667862441617775
0.18151931403506968   -0.04977028823196611   -0.031667862441617775
0.18151931403506968   -0.04977028823196611   -0.031667862441617775
0.18151931403506968   -0.04977028823196611   -0.031667862441617775
0.4950572257647401   0.057400004845359946   0.017640201225892972
0.4950572257647401   0.057400004845359946   0.017640201225892972
0.4950572257647401   0.057400004845359946   0.017640201225892972
0.4950572257647401   0.057400004845359946   0.017640201225892972
0.33143285607323014   0.0073350697694926775   -0.00905060367754439
0.33143285607323014   0.0073350697694926775   -0.00905060367754439
0.33143285607323014   0.0073350697694926775   -0.00905060367754439
0.33143285607323014   0.0073350697694926775   -0.00905060367754439
0.4755175753857608   0.009026106134810238   -0.031684151958457765
0.4755175753857608   0.009026106134810238   -0.031684151958457765
0.4755175753857608   0.009026106134810238   -0.031684151958457765
0.4755175753857608   0.009026106134810238   -0.031684151958457765
0.2006914283297326   -0.00176392560572778   0.016186346405461835
0.2006914283297326   -0.00176392560572778   0.016186346405461835
0.2006914283297326   -0.00176392560572778   0.016186346405461835
0.2006914283297326   -0.00176392560572778   0.016186346405461835
0.1666498451841839   -0.05552175694780316   -0.026972853912697194
0.1666498451841839   -0.05552175694780316   -0.026972853912697194
0.1666498451841839   -0.05552175694780316   -0.026972853912697194
0.1666498451841839   -0.05552175694780316   -0.026972853912697194
0.47058366491733866   0.04923610959838229   0.022765517104365467
0.47058366491733866   0.04923610959838229   0.022765517104365467
0.47058366491733866   0.04923610959838229   0.022765517104365467
0.47058366491733866   0.04923610959838229   0.022765517104365467
0.31612505182084705   -0.0021679147348673405   -0.014674326380665847
0.31612505182084705   -0.0021679147348673405   -0.014674326380665847
0.31612505182084705   -0.0021679147348673405   -0.014674326380665847
0.31612505182084705   -0.0021679147348673405   -0.014674326380665847
0.4513569867411929   0.0016565744254509046   -0.025788338603435892
0.4513569867411929   0.0016565744254509046   -0.025788338603435892
0.4513569867411929   0.0016565744254509046   -0.025788338603435892
0.4513569867411929   0.0016565744254509046   -0.025788338603435892
0.18533094801479735   -0.008487797120404428   0.019398700412973244
0.18533094801479735   -0.008487797120404428   0.019398700412973244
0.18533094801479735   -0.008487797120404428   0.019398700412973244
0.18533094801479735   -0.008487797120404428   0.019398700412973244
0.15336754192101487   -0.06068939536187174   -0.022486126584318165
0.15336754192101487   -0.06068939536187174   -0.022486126584318165
0.15336754192101487   -0.06068939536187174   -0.022486126584318165
0.15336754192101487   -0.06068939536187174   -0.022486126584318165
0.4419974139564577   0.03854245578207066   0.026008132518898372
0.4419974139564577   0.03854245578207066   0.026008132518898372
0.4419974139564577   0.03854245578207066   0.026008132518898372
0.4419974139564577   0.03854245578207066   0.026008132518898372
0.2900374542473695   -0.009942818608763733   -0.02242886229209947
0.2900374542473695   -0.009942818608763733   -0.02242886229209947
0.2900374542473695   -0.009942818608763733   -0.02242886229209947
0.2900374542473695   -0.009942818608763733   -0.02242886229209947
0.21802381310613378   0.04192627796124515   -0.006027649388762518
0.21802381310613378   0.04192627796124515   -0.006027649388762518
0.21802381310613378   0.04192627796124515   -0.006027649388762518
0.21802381310613378   0.04192627796124515   -0.006027649388762518
-0.0666263779000199   0.0034622671708019574   0.0019138583986646118
-0.0666263779000199   0.0034622671708019574   0.0019138583986646118
-0.0666263779000199   0.0034622671708019574   0.0019138583986646118
-0.0666263779000199   0.0034622671708019574   0.0019138583986646118
-0.09051588971919419   -0.03460533128044839   -0.019535515835862546
-0.09051588971919419   -0.03460533128044839   -0.019535515835862546
-0.09051588971919419   -0.03460533128044839   -0.019535515835862546
-0.09051588971919419   -0.03460533128044839   -0.019535515835862546
0.21208088116636312   0.05037301402103238   0.020996670961854383
0.21208088116636312   0.05037301402103238   0.020996670961854383
0.21208088116636312   0.05037301402103238   0.020996670961854383
0.21208088116636312   0.05037301402103238   0.020996670961854383
0.06674669533473536   0.014543306827761178   0.0025677394393932348
0.06674669533473536   0.014543306827761178   0.0025677394393932348
0.06674669533473536   0.014543306827761178   0.0025677394393932348
0.06674669533473536   0.014543306827761178   0.0025677394393932348
0.20262062637492465   0.027285631092233364   -0.003217220066541924
0.20262062637492465   0.027285631092233364   -0.003217220066541924
0.20262062637492465   0.027285631092233364   -0.003217220066541924
0.20262062637492465   0.027285631092233364   -0.003217220066541924
-0.08119833651841561   -0.011660649942314881   0.004107568829896855
-0.08119833651841561   -0.011660649942314881   0.004107568829896855
-0.08119833651841561   -0.011660649942314881   0.004107568829896855
-0.08119833651841561   -0.011660649942314881   0.004107568829896855
-0.10434247130714587   -0.046159996661018485   -0.01582167181407285
-0.10434247130714587   -0.046159996661018485   -0.01582167181407285
-0.10434247130714587   -0.046159996661018485   -0.01582167181407285
-0.10434247130714587   -0.046159996661018485   -0.01582167181407285
0.19511836694291546   0.03701956556992944   0.022828432363229848
0.19511836694291546   0.03701956556992944   0.022828432363229848
0.19511836694291546   0.03701956556992944   0.022828432363229848
0.19511836694291546   0.03701956556992944   0.022828432363229848
0.049676074757736485   0.0014486135362019766   -0.0037221861975042948
0.049676074757736485   0.0014486135362019766   -0.0037221861975042948
0.049676074757736485   0.0014486135362019766   -0.0037221861975042948
0.049676074757736485   0.0014486135362019766   -0.0037221861975042948
0.1859572626367265   0.01489398314251068   -0.0008515067402993593
0.1859572626367265   0.01489398314251068   -0.0008515067402993593
0.1859572626367265   0.01489398314251068   -0.0008515067402993593
0.1859572626367265   0.01489398314251068   -0.0008515067402993593
-0.09553909032729277   -0.024392137559935814   0.006427373984111778
-0.09553909032729277   -0.024392137559935814   0.006427373984111778
-0.09553909032729277   -0.024392137559935814   0.006427373984111778
-0.09553909032729277   -0.024392137559935814   0.006427373984111778
-0.11798262125580589   -0.057001327007838776   -0.012390711541410318
-0.11798262125580589   -0.057001327007838776   -0.012390711541410318
-0.11798262125580589   -0.057001327007838776   -0.012390711541410318
-0.11798262125580589   -0.057001327007838776   -0.012390711541410318
0.17981142112871623   0.024209599693735227   0.024834274398584953
0.17981142112871623   0.024209599693735227   0.024834274398584953
0.17981142112871623   0.024209599693735227   0.024834274398584953
0.17981142112871623   0.024209599693735227   0.024834274398584953
0.03600066851172126   -0.009391909200422967   -0.009269273981437422
0.03600066851172126   -0.009391909200422967   -0.009269273981437422
0.03600066851172126   -0.009391909200422967   -0.009269273981437422
0.03600066851172126   -0.009391909200422967   -0.009269273981437422
-0.05613053189431058   0.052993944677339345   0.004861410920671917
-0.05613053189431058   0.052993944677339345   0.004861410920671917
-0.05613053189431058   0.052993944677339345   0.004861410920671917
-0.05613053189431058   0.052993944677339345   0.004861410920671917
-0.34548632662478057   -0.00888708915723127   -0.010522549501258867
-0.34548632662478057   -0.00888708915723127   -0.010522549501258867
-0.34548632662478057   -0.00888708915723127   -0.010522549501258867
-0.34548632662478057   -0.00888708915723127   -0.010522549501258867
-0.35914001054147804   -0.020757174449406342   -0.007756537243214514
-0.35914001054147804   -0.020757174449406342   -0.007756537243214514
-0.35914001054147804   -0.020757174449406342   -0.007756537243214514
-0.35914001054147804   -0.020757174449406342   -0.007756537243214514
-0.07037722996144774   0.03840101426683401   0.008151437405585455
-0.07037722996144774   0.03840101426683401   0.008151437405585455
-0.07037722996144774   0.03840101426683401   0.008151437405585455
-0.07037722996144774   0.03840101426683401   0.008151437405585455
-0.2072748659138358   0.015190093117047637   0.004112680263272033
-0.2072748659138358   0.015190093117047637   0.004112680263272033
-0.2072748659138358   0.015190093117047637   0.004112680263272033
-0.2072748659138358   0.015190093117047637   0.004112680263272033
-0.06995831230462107   0.04029990053159908   0.008347139424955621
-0.06995831230462107   0.04029990053159908   0.008347139424955621
-0.06995831230462107   0.04029990053159908   0.008347139424955621
-0.06995831230462107   0.04029990053159908   0.008347139424955621
-0.3596013700325153   -0.022698502548386776   -0.008122006599420303
-0.3596013700325153   -0.022698502548386776   -0.008122006599420303
-0.3596013700325153   -0.022698502548386776   -0.008122006599420303
-0.3596013700325153   -0.022698502548386776   -0.008122006599420303
-0.37311156159877845   -0.0333465285867014   -0.004452832663121775
-0.37311156159877845   -0.0333465285867014   -0.004452832663121775
-0.37311156159877845   -0.0333465285867014   -0.004452832663121775
-0.37311156159877845   -0.0333465285867014   -0.004452832663121775
-0.0848875586560374   0.0246592003246781   0.010633694455770903
-0.0848875586560374   0.0246592003246781   0.010633694455770903
-0.0848875586560374   0.0246592003246781   0.010633694455770903
-0.0848875586560374   0.0246592003246781   0.010633694455770903
-0.22163823875681515   0.0029231174828767414   -0.001289784733733144
-0.22163823875681515   0.0029231174828767414   -0.001289784733733144
-0.22163823875681515   0.0029231174828767414   -0.001289784733733144
-0.22163823875681515   0.0029231174828767414   -0.001289784733733144
-0.08417003390875405   0.027590372656084793   0.011290145860784763
-0.08417003390875405   0.027590372656084793   0.011290145860784763
-0.08417003390875405   0.027590372656084793   0.011290145860784763
-0.08417003390875405   0.027590372656084793   0.011290145860784763
-0.37405724695954856   -0.03650586153159417   -0.006021926522079318
-0.37405724695954856   -0.03650586153159417   -0.006021926522079318
-0.37405724695954856   -0.03650586153159417   -0.006021926522079318
-0.37405724695954856   -0.03650586153159417   -0.006021926522079318
-0.38684342157565954   -0.04536948083324551   -0.0012373806492794095
-0.38684342157565954   -0.04536948083324551   -0.0012373806492794095
-0.38684342157565954   -0.04536948083324551   -0.0012373806492794095
-0.38684342157565954   -0.04536948083324551   -0.0012373806492794095
-0.0992787569826725   0.011307845542827485   0.012819437273588493
-0.0992787569826725   0.011307845542827485   0.012819437273588493
-0.0992787569826725   0.011307845542827485   0.012819437273588493
-0.0992787569826725   0.011307845542827485   0.012819437273588493
-0.23659709490973152   -0.009355962037972239   -0.00714806097276088
-0.23659709490973152   -0.009355962037972239   -0.00714806097276088
-0.23659709490973152   -0.009355962037972239   -0.00714806097276088
-0.23659709490973152   -0.009355962037972239   -0.00714806097276088
-0.32599715523378603   0.06251062465689805   0.015525593639584383
-0.32599715523378603   0.06251062465689805   0.015525593639584383
-0.32599715523378603   0.06251062465689805   0.015525593639584383
-0.32599715523378603   0.06251062465689805   0.015525593639584383
-0.6195728720583665   -0.021191770576727414   -0.021365696820888798
-0.6195728720583665   -0.021191770576727414   -0.021365696820888798
-0.6195728720583665   -0.021191770576727414   -0.021365696820888798
-0.6195728720583665   -0.021191770576727414   -0.021365696820888798
-0.6246920398651167   -0.009513560803477733   0.0048690700603086015
-0.6246920398651167   -0.009513560803477733   0.0048690700603086015
-0.6246920398651167   -0.009513560803477733   0.0048690700603086015
-0.6246920398651167   -0.009513560803477733   0.0048690700603086015
-0.3493299803826354   0.025041917935810246   -0.004505478834221532
-0.3493299803826354   0.025041917935810246   -0.004505478834221532
-0.3493299803826354   0.025041917935810246   -0.004505478834221532
-0.3493299803826354   0.025041917935810246   -0.004505478834221532
-0.47703671790618324   0.014345946190527425   0.005960983674474972
-0.47703671790618324   0.014345946190527425   0.005960983674474972
-0.47703671790618324   0.014345946190527425   0.005960983674474972
-0.47703671790618324   0.014345946190527425   0.005960983674474972
-0.33957201507787704   0.05033490272248772   0.018991362902896332
-0.33957201507787704   0.05033490272248772   0.018991362902896332
-0.33957201507787704   0.05033490272248772   0.018991362902896332
-0.33957201507787704   0.05033490272248772   0.018991362902896332
-0.6348818053600798   -0.03523834578035555   -0.020354972437636776
-0.6348818053600798   -0.03523834578035555   -0.020354972437636776
-0.6348818053600798   -0.03523834578035555   -0.020354972437636776
-0.6348818053600798   -0.03523834578035555   -0.020354972437636776
-0.6411681152470936   -0.02198537729586418   0.00639421664307455
-0.6411681152470936   -0.02198537729586418   0.00639421664307455
-0.6411681152470936   -0.02198537729586418   0.00639421664307455
-0.6411681152470936   -0.02198537729586418   0.00639421664307455
-0.363452358969871   0.012374296476603652   -0.0018776445818935589
-0.363452358969871   0.012374296476603652   -0.0018776445818935589
-0.363452358969871   0.012374296476603652   -0.0018776445818935589
-0.363452358969871   0.012374296476603652   -0.0018776445818935589
-0.48910306264949527   0.0032372607609578163   0.0005487372975253868
-0.48910306264949527   0.0032372607609578163   0.0005487372975253868
-0.48910306264949527   0.0032372607609578163   0.0005487372975253868
-0.48910306264949527   0.0032372607609578163   0.0005487372975253868
-0.3533422653160595   0.038758644495401715   0.022288475668370045
-0.3533422653160595   0.038758644495401715   0.022288475668370045
-0.3533422653160595   0.038758644495401715   0.022288475668370045
-0.3533422653160595   0.038758644495401715   0.022288475668370045
-0.6513187888800085   -0.04841030529377141   -0.017934223523600745
-0.6513187888800085   -0.04841030529377141   -0.017934223523600745
-0.6513187888800085   -0.04841030529377141   -0.017934223523600745
-0.6513187888800085   -0.04841030529377141   -0.017934223523600745
-0.6558277241029753   -0.035287725984241944   0.009844377025713228
-0.6558277241029753   -0.035287725984241944   0.009844377025713228
-0.6558277241029753   -0.035287725984241944   0.009844377025713228
-0.6558277241029753   -0.035287725984241944   0.009844377025713228
-0.37782369932671606   -0.0016951712905140526   0.0001869210527030117
-0.37782369932671606   -0.0016951712905140526   0.0001869210527030117
-0.37782369932671606   -0.0016951712905140526   0.0001869210527030117
-0.37782369932671606   -0.0016951712905140526   0.0001869210527030117
-0.507287294461871   -0.009691295607680034   -0.005746864301061919
-0.507287294461871   -0.009691295607680034   -0.005746864301061919
-0.507287294461871   -0.009691295607680034   -0.005746864301061919
-0.507287294461871   -0.009691295607680034   -0.005746864301061919
-0.5945942117622524   0.0579537385344816   0.024382095548473343
-0.5945942117622524   0.0579537385344816   0.024382095548473343
-0.5945942117622524   0.0579537385344816   0.024382095548473343
-0.5945942117622524   0.0579537385344816   0.024382095548473343
-0.8778027110842767   -0.04048524542091961   -0.02762938402964938
-0.8778027110842767   -0.04048524542091961   -0.02762938402964938
-0.8778027110842767   -0.04048524542091961   -0.02762938402964938
-0.8778027110842767   -0.04048524542091961   -0.02762938402964938
-0.8861786743215269   -0.0011901799711138694   0.02415016458996333
-0.8861786743215269   -0.0011901799711138694   0.02415016458996333
-0.8861786743215269   -0.0011901799711138694   0.02415016458996333
-0.8861786743215269   -0.0011901799711138694   0.02415016458996333
-0.6253357795306564   0.008680612607601695   -0.016543801678481143
-0.6253357795306564   0.008680612607601695   -0.016543801678481143
-0.6253357795306564   0.008680612607601695   -0.016543801678481143
-0.6253357795306564   0.008680612607601695   -0.016543801678481143
-0.7131264021580696   0.01336051358022533   0.018109219199703118
-0.7131264021580696   0.01336051358022533   0.018109219199703118
-0.7131264021580696   0.01336051358022533   0.018109219199703118
-0.7131264021580696   0.01336051358022533   0.018109219199703118
-0.606892258260851   0.055589961482216455   0.028764455795939198
-0.606892258260851   0.055589961482216455   0.028764455795939198
-0.606892258260851   0.055589961482216455   0.028764455795939198
-0.606892258260851   0.055589961482216455   0.028764455795939198
-0.9049926322531009   -0.04846996550749472   -0.0226398395315187
-0.9049926322531009   -0.04846996550749472   -0.0226398395315187
-0.9049926322531009   -0.04846996550749472   -0.0226398395315187
-0.9049926322531009   -0.04846996550749472   -0.0226398395315187
-0.9094743067037903   -0.008056402683604497   0.030427984568435255
-0.9094743067037903   -0.008056402683604497   0.030427984568435255
-0.9094743067037903   -0.008056402683604497   0.030427984568435255
-0.9094743067037903   -0.008056402683604497   0.030427984568435255
-0.6405204071564412   0.0017353362010818774   -0.01408795640062159
-0.6405204071564412   0.0017353362010818774   -0.01408795640062159
-0.6405204071564412   0.0017353362010818774   -0.01408795640062159
-0.6405204071564412   0.0017353362010818774   -0.01408795640062159
-0.7446468782113919   0.005478183945033105   0.00956187207082234
-0.7446468782113919   0.005478183945033105   0.00956187207082234
-0.7446468782113919   0.005478183945033105   0.00956187207082234
-0.7446468782113919   0.005478183945033105   0.00956187207082234
-0.6212164454665332   0.050285841916801965   0.03388134633321043
-0.6212164454665332   0.050285841916801965   0.03388134633321043
-0.6212164454665332   0.050285841916801965   0.03388134633321043
-0.6212164454665332   0.050285841916801965   0.03388134633321043
-0.9290450299304109   -0.05687366993603521   -0.01860836431223732
-0.9290450299304109   -0.05687366993603521   -0.01860836431223732
-0.9290450299304109   -0.05687366993603521   -0.01860836431223732
-0.9290450299304109   -0.05687366993603521   -0.01860836431223732
-0.9406383702827156   -0.029612738967003505   0.030499368221305487
-0.9406383702827156   -0.029612738967003505   0.030499368221305487
-0.9406383702827156   -0.029612738967003505   0.030499368221305487
-0.9406383702827156   -0.029612738967003505   0.030499368221305487
-0.6564176098342408   -0.015934042465979098   -0.012458735148888928
-0.6564176098342408   -0.015934042465979098   -0.012458735148888928
-0.6564176098342408   -0.015934042465979098   -0.012458735148888928
-0.6564176098342408   -0.015934042465979098   -0.012458735148888928
-0.7534221462515941   -0.003541944891568588   0.005522621929383215
-0.7534221462515941   -0.003541944891568588   0.005522621929383215
-0.7534221462515941   -0.003541944891568588   0.005522621929383215
-0.7534221462515941   -0.003541944891568588   0.005522621929383215
0.2808323571917469   0.016886503068158178   -0.03330747284414603
0.2808323571917469   0.016886503068158178   -0.03330747284414603
0.2808323571917469   0.016886503068158178   -0.03330747284414603
0.2808323571917469   0.016886503068158178   -0.03330747284414603
0.08226451214336428   0.019918930916899155   0.015882205146649016
0.08226451214336428   0.019918930916899155   0.015882205146649016
0.08226451214336428   0.019918930916899155   0.015882205146649016
0.08226451214336428   0.019918930916899155   0.015882205146649016
0.05128983349780399   -0.040759106383769464   -0.029387962652818005
0.05128983349780399   -0.040759106383769464   -0.029387962652818005
0.05128983349780399   -0.040759106383769464   -0.029387962652818005
0.05128983349780399   -0.040759106383769464   -0.029387962652818005
0.2732307204681632   0.04751722438894947   0.019107007564372253
0.2732307204681632   0.04751722438894947   0.019107007564372253
0.2732307204681632   0.04751722438894947   0.019107007564372253
0.2732307204681632   0.04751722438894947   0.019107007564372253
0.16188953970526532   0.007937470786816253   -0.003725902809539876
0.16188953970526532   0.007937470786816253   -0.003725902809539876
0.16188953970526532   0.007937470786816253   -0.003725902809539876
0.16188953970526532   0.007937470786816253   -0.003725902809539876
0.2536904383217922   -0.0005140238700961433   -0.030563154908439687
0.2536904383217922   -0.0005140238700961433   -0.030563154908439687
0.2536904383217922   -0.0005140238700961433   -0.030563154908439687
0.2536904383217922   -0.0005140238700961433   -0.030563154908439687
0.07022065732067859   0.00666268355177942   0.01784436652600662
0.07022065732067859   0.00666268355177942   0.01784436652600662
0.07022065732067859   0.00666268355177942   0.01784436652600662
0.07022065732067859   0.00666268355177942   0.01784436652600662
0.0396036518849484   -0.04650904289733843   -0.024980232341817135
0.0396036518849484   -0.04650904289733843   -0.024980232341817135
0.0396036518849484   -0.04650904289733843   -0.024980232341817135
0.0396036518849484   -0.04650904289733843   -0.024980232341817135
0.25222284474059375   0.03958565478592919   0.02457459011806081
0.25222284474059375   0.03958565478592919   0.02457459011806081
0.25222284474059375   0.03958565478592919   0.02457459011806081
0.25222284474059375   0.03958565478592919   0.02457459011806081
0.14728225279502863   -0.001055916727197962   -0.009543062676684083
0.14728225279502863   -0.001055916727197962   -0.009543062676684083
0.14728225279502863   -0.001055916727197962   -0.009543062676684083
0.14728225279502863   -0.001055916727197962   -0.009543062676684083
0.23278600411233852   -0.007901098025790393   -0.025122860211497768
0.23278600411233852   -0.007901098025790393   -0.025122860211497768
0.23278600411233852   -0.007901098025790393   -0.025122860211497768
0.23278600411233852   -0.007901098025790393   -0.025122860211497768
0.058221921097165466   0.000159138498347932   0.021442932323582818
0.058221921097165466   0.000159138498347932   0.021442932323582818
0.058221921097165466   0.000159138498347932   0.021442932323582818
0.058221921097165466   0.000159138498347932   0.021442932323582818
0.0291605984070627   -0.053389683175506845   -0.020815746719594172
0.0291605984070627   -0.053389683175506845   -0.020815746719594172
0.0291605984070627   -0.053389683175506845   -0.020815746719594172
0.0291605984070627   -0.053389683175506845   -0.020815746719594172
0.22619288824127812   0.026934562028275013   0.027307603680215453
0.22619288824127812   0.026934562028275013   0.027307603680215453
0.22619288824127812   0.026934562028275013   0.027307603680215453
0.22619288824127812   0.026934562028275013   0.027307603680215453
0.12694548252014226   -0.009041599029360047   -0.016680981740965634
0.12694548252014226   -0.009041599029360047   -0.016680981740965634
0.12694548252014226   -0.009041599029360047   -0.016680981740965634
0.12694548252014226   -0.009041599029360047   -0.016680981740965634
0.0792577229772392   0.030341461427582643   -0.009574271194660353
0.0792577229772392   0.030341461427582643   -0.009574271194660353
0.0792577229772392   0.030341461427582643   -0.009574271194660353
0.0792577229772392   0.030341461427582643   -0.009574271194660353
-0.11249160787586454   0.009616830931169905   0.00381575614432135
-0.11249160787586454   0.009616830931169905   0.00381575614432135
-0.11249160787586454   0.009616830931169905   0.00381575614432135
-0.11249160787586454   0.009616830931169905   0.00381575614432135
-0.13245069565477474   -0.026168049221730792   -0.017177068430792905
-0.13245069565477474   -0.026168049221730792   -0.017177068430792905
-0.13245069565477474   -0.026168049221730792   -0.017177068430792905
-0.13245069565477474   -0.026168049221730792   -0.017177068430792905
0.07650098258020055   0.037635802770632346   0.018272873604763484
0.07650098258020055   0.037635802770632346   0.018272873604763484
0.07650098258020055   0.037635802770632346   0.018272873604763484
0.07650098258020055   0.037635802770632346   0.018272873604763484
-0.022972177951724473   0.012310713173610661   0.0031627875349651835
-0.022972177951724473   0.012310713173610661   0.0031627875349651835
-0.022972177951724473   0.012310713173610661   0.0031627875349651835
-0.022972177951724473   0.012310713173610661   0.0031627875349651835
0.06706537185459324   0.0157639187631494   -0.007033296015790603
0.06706537185459324   0.0157639187631494   -0.007033296015790603
0.06706537185459324   0.0157639187631494   -0.007033296015790603
0.06706537185459324   0.0157639187631494   -0.007033296015790603
-0.12353746714020729   -0.004818547425280113   0.0060395723455937
-0.12353746714020729   -0.004818547425280113   0.0060395723455937
-0.12353746714020729   -0.004818547425280113   0.0060395723455937
-0.12353746714020729   -0.004818547425280113   0.0060395723455937
-0.14290251460848225   -0.03784429643013205   -0.013469996085679906
-0.14290251460848225   -0.03784429643013205   -0.013469996085679906
-0.14290251460848225   -0.03784429643013205   -0.013469996085679906
-0.14290251460848225   -0.03784429643013205   -0.013469996085679906
0.0627884886072852   0.02450792691629735   0.019926981456232007
0.0627884886072852   0.02450792691629735   0.019926981456232007
0.0627884886072852   0.02450792691629735   0.019926981456232007
0.0627884886072852   0.02450792691629735   0.019926981456232007
-0.035898756816673386   -0.00030761002446129913   -0.0028864808575154717
-0.035898756816673386   -0.00030761002446129913   -0.0028864808575154717
-0.035898756816673386   -0.00030761002446129913   -0.0028864808575154717
-0.035898756816673386   -0.00030761002446129913   -0.0028864808575154717
0.0536295287983109   0.0032367777782500735   -0.004596668450593146
0.0536295287983109   0.0032367777782500735   -0.004596668450593146
0.0536295287983109   0.0032367777782500735   -0.004596668450593146
0.0536295287983109   0.0032367777782500735   -0.004596668450593146
-0.13442008875222886   -0.017249681244803257   0.008347518010258357
-0.13442008875222886   -0.017249681244803257   0.008347518010258357
-0.13442008875222886   -0.017249681244803257   0.008347518010258357
-0.13442008875222886   -0.017249681244803257   0.008347518010258357
-0.1532729162037577   -0.04939824519616187   -0.010120612718426606
-0.1532729162037577   -0.04939824519616187   -0.010120612718426606
-0.1532729162037577   -0.04939824519616187   -0.010120612718426606
-0.1532729162037577   -0.04939824519616187   -0.010120612718426606
0.050781835750883596   0.011648057724455818   0.022252699099548596
0.050781835750883596   0.011648057724455818   0.022252699099548596
0.050781835750883596   0.011648057724455818   0.022252699099548596
0.050781835750883596   0.011648057724455818   0.022252699099548596
-0.04706172746901194   -0.011572902518392476   -0.008589894601669026
-0.04706172746901194   -0.011572902518392476   -0.008589894601669026
-0.04706172746901194   -0.011572902518392476   -0.008589894601669026
-0.04706172746901194   -0.011572902518392476   -0.008589894601669026
-0.10662531515315732   0.04128536097929218   0.0014786897097351752
-0.10662531515315732   0.04128536097929218   0.0014786897097351752
-0.10662531515315732   0.04128536097929218   0.0014786897097351752
-0.10662531515315732   0.04128536097929218   0.0014786897097351752
-0.30458756158690886   -0.0037856668055549214   -0.008409347331531886
-0.30458756158690886   -0.0037856668055549214   -0.008409347331531886
-0.30458756158690886   -0.0037856668055549214   -0.008409347331531886
-0.30458756158690886   -0.0037856668055549214   -0.008409347331531886
-0.3140119771996667   -0.012964869811338334   -0.005043235747057312
-0.3140119771996667   -0.012964869811338334   -0.005043235747057312
-0.3140119771996667   -0.012964869811338334   -0.005043235747057312
-0.3140119771996667   -0.012964869811338334   -0.005043235747057312
-0.11766141701604502   0.024785706175893124   0.005815569365229896
-0.11766141701604502   0.024785706175893124   0.005815569365229896
-0.11766141701604502   0.024785706175893124   0.005815569365229896
-0.11766141701604502   0.024785706175893124   0.005815569365229896
-0.2102176110569947   0.012062573436678478   0.0032673797026841426
-0.2102176110569947   0.012062573436678478   0.0032673797026841426
-0.2102176110569947   0.012062573436678478   0.0032673797026841426
-0.2102176110569947   0.012062573436678478   0.0032673797026841426
-0.1171114304436196   0.028411773641610787   0.004939434761641191
-0.1171114304436196   0.028411773641610787   0.004939434761641191
-0.1171114304436196   0.028411773641610787   0.004939434761641191
-0.1171114304436196   0.028411773641610787   0.004939434761641191
-0.31502048616490275   -0.01704945966986695   -0.006001190714712732
-0.31502048616490275   -0.01704945966986695   -0.006001190714712732
-0.31502048616490275   -0.01704945966986695   -0.006001190714712732
-0.31502048616490275   -0.01704945966986695   -0.006001190714712732
-0.3244204779182031   -0.025711820783630518   -0.0016884918236064299
-0.3244204779182031   -0.025711820783630518   -0.0016884918236064299
-0.3244204779182031   -0.025711820783630518   -0.0016884918236064299
-0.3244204779182031   -0.025711820783630518   -0.0016884918236064299
-0.12869206694863486   0.011471319928717374   0.008266625854707685
-0.12869206694863486   0.011471319928717374   0.008266625854707685
-0.12869206694863486   0.011471319928717374   0.008266625854707685
-0.12869206694863486   0.011471319928717374   0.008266625854707685
-0.2210746745463378   -5.0211620024935566e-05   -0.0021519303135849547
-0.2210746745463378   -5.0211620024935566e-05   -0.0021519303135849547
-0.2210746745463378   -5.0211620024935566e-05   -0.0021519303135849547
-0.2210746745463378   -5.0211620024935566e-05   -0.0021519303135849547
-0.1279541754708307   0.015503848920878676   0.00792355425156709
-0.1279541754708307   0.015503848920878676   0.00792355425156709
-0.1279541754708307   0.015503848920878676   0.00792355425156709
-0.1279541754708307   0.015503848920878676   0.00792355425156709
-0.3258097646643514   -0.03039574504413651   -0.003951001293845251
-0.3258097646643514   -0.03039574504413651   -0.003951001293845251
-0.3258097646643514   -0.03039574504413651   -0.003951001293845251
-0.3258097646643514   -0.03039574504413651   -0.003951001293845251
-0.33462540363932897   -0.03801275870163002   0.001563062707957431
-0.33462540363932897   -0.03801275870163002   0.001563062707957431
-0.33462540363932897   -0.03801275870163002   0.001563062707957431
-0.33462540363932897   -0.03801275870163002   0.001563062707957431
-0.13953850338077892   -0.0013504709443361296   0.010503677144641572
-0.13953850338077892   -0.0013504709443361296   0.010503677144641572
-0.13953850338077892   -0.0013504709443361296   0.010503677144641572
-0.13953850338077892   -0.0013504709443361296   0.010503677144641572
-0.23250140339231715   -0.01218981337833553   -0.00803770791746372
-0.23250140339231715   -0.01218981337833553   -0.00803770791746372
-0.23250140339231715   -0.01218981337833553   -0.00803770791746372
-0.23250140339231715   -0.01218981337833553   -0.00803770791746372
-0.2892350439399164   0.051718707692262916   0.0128488664056128
-0.2892350439399164   0.051718707692262916   0.0128488664056128
-0.2892350439399164   0.051718707692262916   0.0128488664056128
-0.2892350439399164   0.051718707692262916   0.0128488664056128
-0.4926327924081182   -0.014832218687082857   -0.019129039461915118
-0.4926327924081182   -0.014832218687082857   -0.019129039461915118
-0.4926327924081182   -0.014832218687082857   -0.019129039461915118
-0.4926327924081182   -0.014832218687082857   -0.019129039461915118
-0.49356008752339653   -0.001341630088757803   0.0078068881836993315
-0.49356008752339653   -0.001341630088757803   0.0078068881836993315
-0.49356008752339653   -0.001341630088757803   0.0078068881836993315
-0.49356008752339653   -0.001341630088757803   0.0078068881836993315
-0.30905650577645266   0.012762711971663884   -0.005993460413996881
-0.30905650577645266   0.012762711971663884   -0.005993460413996881
-0.30905650577645266   0.012762711971663884   -0.005993460413996881
-0.30905650577645266   0.012762711971663884   -0.005993460413996881
-0.394084243851089   0.01204628070986298   0.004280647230810623
-0.394084243851089   0.01204628070986298   0.004280647230810623
-0.394084243851089   0.01204628070986298   0.004280647230810623
-0.394084243851089   0.01204628070986298   0.004280647230810623
-0.29930401296000064   0.039212125262645434   0.016319590377289066
-0.29930401296000064   0.039212125262645434   0.016319590377289066
-0.29930401296000064   0.039212125262645434   0.016319590377289066
-0.29930401296000064   0.039212125262645434   0.016319590377289066
-0.5041910127376746   -0.0286694757775591   -0.018019892198889897
-0.5041910127376746   -0.0286694757775591   -0.018019892198889897
-0.5041910127376746   -0.0286694757775591   -0.018019892198889897
-0.5041910127376746   -0.0286694757775591   -0.018019892198889897
-0.5063782120716521   -0.013913189741822735   0.009610777427755499
-0.5063782120716521   -0.013913189741822735   0.009610777427755499
-0.5063782120716521   -0.013913189741822735   0.009610777427755499
-0.5063782120716521   -0.013913189741822735   0.009610777427755499
-0.31951970698779464   0.0004955708250963531   -0.0033920287802986365
-0.31951970698779464   0.0004955708250963531   -0.0033920287802986365
-0.31951970698779464   0.0004955708250963531   -0.0033920287802986365
-0.31951970698779464   0.0004955708250963531   -0.0033920287802986365
-0.40329287443592804   0.0007679908744701452   -0.0013979151693227117
-0.40329287443592804   0.0007679908744701452   -0.0013979151693227117
-0.40329287443592804   0.0007679908744701452   -0.0013979151693227117
-0.40329287443592804   0.0007679908744701452   -0.0013979151693227117
-0.3095085192288651   0.027475407924227924   0.019684072915221798
-0.3095085192288651   0.027475407924227924   0.019684072915221798
-0.3095085192288651   0.027475407924227924   0.019684072915221798
-0.3095085192288651   0.027475407924227924   0.019684072915221798
-0.5169376561465161   -0.041441283156889275   -0.015658349531505383
-0.5169376561465161   -0.041441283156889275   -0.015658349531505383
-0.5169376561465161   -0.041441283156889275   -0.015658349531505383
-0.5169376561465161   -0.041441283156889275   -0.015658349531505383
-0.5174412670071461   -0.027032709015822193   0.013116800106561764
-0.5174412670071461   -0.027032709015822193   0.013116800106561764
-0.5174412670071461   -0.027032709015822193   0.013116800106561764
-0.5174412670071461   -0.027032709015822193   0.013116800106561764
-0.33011615490393853   -0.012641934986493977   -0.001261517330234281
-0.33011615490393853   -0.012641934986493977   -0.001261517330234281
-0.33011615490393853   -0.012641934986493977   -0.001261517330234281
-0.33011615490393853   -0.012641934986493977   -0.001261517330234281
-0.4170429688354814   -0.011551431348401892   -0.0075986798624910964
-0.4170429688354814   -0.011551431348401892   -0.0075986798624910964
-0.4170429688354814   -0.011551431348401892   -0.0075986798624910964
-0.4170429688354814   -0.011551431348401892   -0.0075986798624910964
-0.4711038216125773   0.0509309403709159   0.022752655457798095
-0.4711038216125773   0.0509309403709159   0.022752655457798095
-0.4711038216125773   0.0509309403709159   0.022752655457798095
-0.4711038216125773   0.0509309403709159   0.022752655457798095
-0.6638718339740639   -0.030643299867909563   -0.028907422940371234
-0.6638718339740639   -0.030643299867909563   -0.028907422940371234
-0.6638718339740639   -0.030643299867909563   -0.028907422940371234
-0.6638718339740639   -0.030643299867909563   -0.028907422940371234
-0.6686832972466885   0.0081022697546895   0.023912001772990063
-0.6686832972466885   0.0081022697546895   0.023912001772990063
-0.6686832972466885   0.0081022697546895   0.023912001772990063
-0.6686832972466885   0.0081022697546895   0.023912001772990063
-0.4986484651630563   -0.001342416523232512   -0.017634213580132674
-0.4986484651630563   -0.001342416523232512   -0.017634213580132674
-0.4986484651630563   -0.001342416523232512   -0.017634213580132674
-0.4986484651630563   -0.001342416523232512   -0.017634213580132674
-0.550806215892433   0.012120700056316006   0.01340937760154444
-0.550806215892433   0.012120700056316006   0.01340937760154444
-0.550806215892433   0.012120700056316006   0.01340937760154444
-0.550806215892433   0.012120700056316006   0.01340937760154444
-0.4801908249804584   0.04640056501272441   0.02691100579690367
-0.4801908249804584   0.04640056501272441   0.02691100579690367
-0.4801908249804584   0.04640056501272441   0.02691100579690367
-0.4801908249804584   0.04640056501272441   0.02691100579690367
-0.6880774710815274   -0.04057724543350261   -0.02437935221301217
-0.6880774710815274   -0.04057724543350261   -0.02437935221301217
-0.6880774710815274   -0.04057724543350261   -0.02437935221301217
-0.6880774710815274   -0.04057724543350261   -0.02437935221301217
-0.6886645952938784   0.001029210464670527   0.030525603054758668
-0.6886645952938784   0.001029210464670527   0.030525603054758668
-0.6886645952938784   0.001029210464670527   0.030525603054758668
-0.6886645952938784   0.001029210464670527   0.030525603054758668
-0.5101793518410523   -0.008187038580851819   -0.015121072580223983
-0.5101793518410523   -0.008187038580851819   -0.015121072580223983
-0.5101793518410523   -0.008187038580851819   -0.015121072580223983
-0.5101793518410523   -0.008187038580851819   -0.015121072580223983
-0.5764196355129374   0.0037665278014822057   0.004930098652441282
-0.5764196355129374   0.0037665278014822057   0.004930098652441282
-0.5764196355129374   0.0037665278014822057   0.004930098652441282
-0.5764196355129374   0.0037665278014822057   0.004930098652441282
-0.4909450872810275   0.040867194820088576   0.03199601681896746
-0.4909450872810275   0.040867194820088576   0.03199601681896746
-0.4909450872810275   0.040867194820088576   0.03199601681896746
-0.4909450872810275   0.040867194820088576   0.03199601681896746
-0.7087820078543571   -0.04890817093671744   -0.020124078346247302
-0.7087820078543571   -0.04890817093671744   -0.020124078346247302
-0.7087820078543571   -0.04890817093671744   -0.020124078346247302
-0.7087820078543571   -0.04890817093671744   -0.020124078346247302
-0.7162812824610794   -0.019115839716466604   0.03149595122554271
-0.7162812824610794   -0.019115839716466604   0.03149595122554271
-0.7162812824610794   -0.019115839716466604   0.03149595122554271
-0.7162812824610794   -0.019115839716466604   0.03149595122554271
-0.5220835224083515   -0.02393993313566742   -0.013187252779628109
-0.5220835224083515   -0.02393993313566742   -0.013187252779628109
-0.5220835224083515   -0.02393993313566742   -0.013187252779628109
-0.5220835224083515   -0.02393993313566742   -0.013187252779628109
-0.5846581456042292   -0.005141959957633488   -8.896731845734265e-05
-0.5846581456042292   -0.005141959957633488   -8.896731845734265e-05
-0.5846581456042292   -0.005141959957633488   -8.896731845734265e-05
-0.5846581456042292   -0.005141959957633488   -8.896731845734265e-05
0.054089769110460824   0.004440224754163574   -0.03333658263412544
0.054089769110460824   0.004440224754163574   -0.03333658263412544
0.054089769110460824   0.004440224754163574   -0.03333658263412544
0.054089769110460824   0.004440224754163574   -0.03333658263412544
-0.052228660840694004   0.024911486623439477   0.016997586918520238
-0.052228660840694004   0.024911486623439477   0.016997586918520238
-0.052228660840694004   0.024911486623439477   0.016997586918520238
-0.052228660840694004   0.024911486623439477   0.016997586918520238
-0.07940173294696676   -0.03220586856032322   -0.026876003766861185
-0.07940173294696676   -0.03220586856032322   -0.026876003766861185
-0.07940173294696676   -0.03220586856032322   -0.026876003766861185
-0.07940173294696676   -0.03220586856032322   -0.026876003766861185
0.04997329800224564   0.035632242570940456   0.02084175286835712
0.04997329800224564   0.035632242570940456   0.02084175286835712
0.04997329800224564   0.035632242570940456   0.02084175286835712
0.04997329800224564   0.035632242570940456   0.02084175286835712
-0.008175763147869664   0.007825144249326545   0.0028761014703520926
-0.008175763147869664   0.007825144249326545   0.0028761014703520926
-0.008175763147869664   0.007825144249326545   0.0028761014703520926
-0.008175763147869664   0.007825144249326545   0.0028761014703520926
0.030549045736873073   -0.01080830437308005   -0.029838961514485222
0.030549045736873073   -0.01080830437308005   -0.029838961514485222
0.030549045736873073   -0.01080830437308005   -0.029838961514485222
0.030549045736873073   -0.01080830437308005   -0.029838961514485222
-0.061118035230584386   0.013094123834707108   0.019242492420020418
-0.061118035230584386   0.013094123834707108   0.019242492420020418
-0.061118035230584386   0.013094123834707108   0.019242492420020418
-0.061118035230584386   0.013094123834707108   0.019242492420020418
-0.08837291168566723   -0.03801019929172467   -0.022808923843962787
-0.08837291168566723   -0.03801019929172467   -0.022808923843962787
-0.08837291168566723   -0.03801019929172467   -0.022808923843962787
-0.08837291168566723   -0.03801019929172467   -0.022808923843962787
0.0315466592344848   0.027760732450199728   0.028618229661060583
0.0315466592344848   0.027760732450199728   0.028618229661060583
0.0315466592344848   0.027760732450199728   0.028618229661060583
0.0315466592344848   0.027760732450199728   0.028618229661060583
-0.022655970451998447   -0.0008754588232029103   -0.003813058793161882
-0.022655970451998447   -0.0008754588232029103   -0.003813058793161882
-0.022655970451998447   -0.0008754588232029103   -0.003813058793161882
-0.022655970451998447   -0.0008754588232029103   -0.003813058793161882
0.011664374635954738   -0.018372874529071423   -0.02465958635231856
0.011664374635954738   -0.018372874529071423   -0.02465958635231856
0.011664374635954738   -0.018372874529071423   -0.02465958635231856
0.011664374635954738   -0.018372874529071423   -0.02465958635231856
-0.07007685857352075   0.006537176201162757   0.02412396622388127
-0.07007685857352075   0.006537176201162757   0.02412396622388127
-0.07007685857352075   0.006537176201162757   0.02412396622388127
-0.07007685857352075   0.006537176201162757   0.02412396622388127
-0.0965876433089986   -0.046867944447177394   -0.018924397146754486
-0.0965876433089986   -0.046867944447177394   -0.018924397146754486
-0.0965876433089986   -0.046867944447177394   -0.018924397146754486
-0.0965876433089986   -0.046867944447177394   -0.018924397146754486
0.005954277766643253   0.011303907687092761   0.03265855379427849
0.005954277766643253   0.011303907687092761   0.03265855379427849
0.005954277766643253   0.011303907687092761   0.03265855379427849
0.005954277766643253   0.011303907687092761   0.03265855379427849
-0.038344346780559715   -0.00960849398188562   -0.011552557766101467
-0.038344346780559715   -0.00960849398188562   -0.011552557766101467
-0.038344346780559715   -0.00960849398188562   -0.011552557766101467
-0.038344346780559715   -0.00960849398188562   -0.011552557766101467
-0.05990121788451815   0.016734179470954805   -0.013187891148115858
-0.05990121788451815   0.016734179470954805   -0.013187891148115858
-0.05990121788451815   0.016734179470954805   -0.013187891148115858
-0.05990121788451815   0.016734179470954805   -0.013187891148115858
-0.15916686444567832   0.006709054648248079   0.004406380924652483
-0.15916686444567832   0.006709054648248079   0.004406380924652483
-0.15916686444567832   0.006709054648248079   0.004406380924652483
-0.15916686444567832   0.006709054648248079   0.004406380924652483
-0.17321992311671808   -0.01876417469553922   -0.014006108029191087
-0.17321992311671808   -0.01876417469553922   -0.014006108029191087
-0.17321992311671808   -0.01876417469553922   -0.014006108029191087
-0.17321992311671808   -0.01876417469553922   -0.014006108029191087
-0.06164302842883834   0.016316028489378548   0.013395621774079183
-0.06164302842883834   0.016316028489378548   0.013395621774079183
-0.06164302842883834   0.016316028489378548   0.013395621774079183
-0.06164302842883834   0.016316028489378548   0.013395621774079183
-0.1132638755264284   0.004915917973176358   0.0026427551994214447
-0.1132638755264284   0.004915917973176358   0.0026427551994214447
-0.1132638755264284   0.004915917973176358   0.0026427551994214447
-0.1132638755264284   0.004915917973176358   0.0026427551994214447
-0.0692201955669338   0.0026684627790433436   -0.0108426482060625
-0.0692201955669338   0.0026684627790433436   -0.0108426482060625
-0.0692201955669338   0.0026684627790433436   -0.0108426482060625
-0.0692201955669338   0.0026684627790433436   -0.0108426482060625
-0.16658446858918052   -0.006058321595761893   0.00646531150871917
-0.16658446858918052   -0.006058321595761893   0.00646531150871917
-0.16658446858918052   -0.006058321595761893   0.00646531150871917
-0.16658446858918052   -0.006058321595761893   0.00646531150871917
-0.18021226018586034   -0.03014995259299729   -0.010361667297080343
-0.18021226018586034   -0.03014995259299729   -0.010361667297080343
-0.18021226018586034   -0.03014995259299729   -0.010361667297080343
-0.18021226018586034   -0.03014995259299729   -0.010361667297080343
-0.07244197768292726   0.0037305564295008475   0.015104990448510592
-0.07244197768292726   0.0037305564295008475   0.015104990448510592
-0.07244197768292726   0.0037305564295008475   0.015104990448510592
-0.07244197768292726   0.0037305564295008475   0.015104990448510592
-0.1220951694223563   -0.006530466910230799   -0.0031078632554496534
-0.1220951694223563   -0.006530466910230799   -0.0031078632554496534
-0.1220951694223563   -0.006530466910230799   -0.0031078632554496534
-0.1220951694223563   -0.006530466910230799   -0.0031078632554496534
-0.07975133192390206   -0.009606398622134906   -0.00810482570472668
-0.07975133192390206   -0.009606398622134906   -0.00810482570472668
-0.07975133192390206   -0.009606398622134906   -0.00810482570472668
-0.07975133192390206   -0.009606398622134906   -0.00810482570472668
-0.17391495335100596   -0.01782504494748182   0.008799959231675963
-0.17391495335100596   -0.01782504494748182   0.008799959231675963
-0.17391495335100596   -0.01782504494748182   0.008799959231675963
-0.17391495335100596   -0.01782504494748182   0.008799959231675963
-0.18725064626719484   -0.04183615619564725   -0.007135888482903644
-0.18725064626719484   -0.04183615619564725   -0.007135888482903644
-0.18725064626719484   -0.04183615619564725   -0.007135888482903644
-0.18725064626719484   -0.04183615619564725   -0.007135888482903644
-0.0814782918785138   -0.008984857303465283   0.018739272861957052
-0.0814782918785138   -0.008984857303465283   0.018739272861957052
-0.0814782918785138   -0.008984857303465283   0.018739272861957052
-0.0814782918785138   -0.008984857303465283   0.018739272861957052
-0.13089503649163   -0.017814609948277355   -0.008946350607930087
-0.13089503649163   -0.017814609948277355   -0.008946350607930087
-0.13089503649163   -0.017814609948277355   -0.008946350607930087
-0.13089503649163   -0.017814609948277355   -0.008946350607930087
-0.15620982770267744   0.027293227745981988   -0.0013926084580788145
-0.15620982770267744   0.027293227745981988   -0.0013926084580788145
-0.15620982770267744   0.027293227745981988   -0.0013926084580788145
-0.15620982770267744   0.027293227745981988   -0.0013926084580788145
-0.2650022679314928   -0.009155158214792868   -0.00753492698287885
-0.2650022679314928   -0.009155158214792868   -0.00753492698287885
-0.2650022679314928   -0.009155158214792868   -0.00753492698287885
-0.2650022679314928   -0.009155158214792868   -0.00753492698287885
-0.26781652510196624   -0.006737531926069365   -0.0016455130586460476
-0.26781652510196624   -0.006737531926069365   -0.0016455130586460476
-0.26781652510196624   -0.006737531926069365   -0.0016455130586460476
-0.26781652510196624   -0.006737531926069365   -0.0016455130586460476
-0.16589691411017482   0.0017718352049019212   0.002072927103083955
-0.16589691411017482   0.0017718352049019212   0.002072927103083955
-0.16589691411017482   0.0017718352049019212   0.002072927103083955
-0.16589691411017482   0.0017718352049019212   0.002072927103083955
-0.21327960464124288   0.003076765744912932   0.0009423114270097829
-0.21327960464124288   0.003076765744912932   0.0009423114270097829
-0.21327960464124288   0.003076765744912932   0.0009423114270097829
-0.21327960464124288   0.003076765744912932   0.0009423114270097829
-0.16327717092287325   0.014906780975314338   0.002036697269179495
-0.16327717092287325   0.014906780975314338   0.002036697269179495
-0.16327717092287325   0.014906780975314338   0.002036697269179495
-0.16327717092287325   0.014906780975314338   0.002036697269179495
-0.2713440288210592   -0.020780238228273178   -0.0052403253519071585
-0.2713440288210592   -0.020780238228273178   -0.0052403253519071585
-0.2713440288210592   -0.020780238228273178   -0.0052403253519071585
-0.2713440288210592   -0.020780238228273178   -0.0052403253519071585
-0.27437728240009424   -0.01897039576882454   0.0017432628184574622
-0.27437728240009424   -0.01897039576882454   0.0017432628184574622
-0.27437728240009424   -0.01897039576882454   0.0017432628184574622
-0.27437728240009424   -0.01897039576882454   0.0017432628184574622
-0.17330537043096383   -0.01025830547925849   0.004281134363663187
-0.17330537043096383   -0.01025830547925849   0.004281134363663187
-0.17330537043096383   -0.01025830547925849   0.004281134363663187
-0.17330537043096383   -0.01025830547925849   0.004281134363663187
-0.2203855049396904   -0.008049023075225759   -0.00433799535393186
-0.2203855049396904   -0.008049023075225759   -0.00433799535393186
-0.2203855049396904   -0.008049023075225759   -0.00433799535393186
-0.2203855049396904   -0.008049023075225759   -0.00433799535393186
-0.17061162907616992   0.0024436578866197586   0.005047877771754644
-0.17061162907616992   0.0024436578866197586   0.005047877771754644
-0.17061162907616992   0.0024436578866197586   0.005047877771754644
-0.17061162907616992   0.0024436578866197586   0.005047877771754644
-0.2781660343369947   -0.03276736971681001   -0.0034035229180635843
-0.2781660343369947   -0.03276736971681001   -0.0034035229180635843
-0.2781660343369947   -0.03276736971681001   -0.0034035229180635843
-0.2781660343369947   -0.03276736971681001   -0.0034035229180635843
-0.28076494796654355   -0.03069695112448812   0.0049977208296462725
-0.28076494796654355   -0.03069695112448812   0.0049977208296462725
-0.28076494796654355   -0.03069695112448812   0.0049977208296462725
-0.28076494796654355   -0.03069695112448812   0.0049977208296462725
-0.18042714986535216   -0.02159757632303378   0.006743013653696332
-0.18042714986535216   -0.02159757632303378   0.006743013653696332
-0.18042714986535216   -0.02159757632303378   0.006743013653696332
-0.18042714986535216   -0.02159757632303378   0.006743013653696332
-0.22803186578815665   -0.019239713395053225   -0.010076424635384022
-0.22803186578815665   -0.019239713395053225   -0.010076424635384022
-0.22803186578815665   -0.019239713395053225   -0.010076424635384022
-0.22803186578815665   -0.019239713395053225   -0.010076424635384022
-0.25163098820387475   0.039356010611863695   0.010810302828558858
-0.25163098820387475   0.039356010611863695   0.010810302828558858
-0.25163098820387475   0.039356010611863695   0.010810302828558858
-0.25163098820387475   0.039356010611863695   0.010810302828558858
-0.36679796802136744   -0.015299771916053112   -0.016873399220044324
-0.36679796802136744   -0.015299771916053112   -0.016873399220044324
-0.36679796802136744   -0.015299771916053112   -0.016873399220044324
-0.36679796802136744   -0.015299771916053112   -0.016873399220044324
-0.36194498161301436   0.005602814764644221   0.011095529387451075
-0.36194498161301436   0.005602814764644221   0.011095529387451075
-0.36194498161301436   0.005602814764644221   0.011095529387451075
-0.36194498161301436   0.005602814764644221   0.011095529387451075
-0.2686680054779368   -0.005169503346132871   -0.007470943518435561
-0.2686680054779368   -0.005169503346132871   -0.007470943518435561
-0.2686680054779368   -0.005169503346132871   -0.007470943518435561
-0.2686680054779368   -0.005169503346132871   -0.007470943518435561
-0.311157678720283   0.006157733691791678   0.0015470310756240807
-0.311157678720283   0.006157733691791678   0.0015470310756240807
-0.311157678720283   0.006157733691791678   0.0015470310756240807
-0.311157678720283   0.006157733691791678   0.0015470310756240807
-0.2578817113216929   0.02704547310729044   0.014245550809360723
-0.2578817113216929   0.02704547310729044   0.014245550809360723
-0.2578817113216929   0.02704547310729044   0.014245550809360723
-0.2578817113216929   0.02704547310729044   0.014245550809360723
-0.37405752347130156   -0.027938409390823683   -0.0159259557485249
-0.37405752347130156   -0.027938409390823683   -0.0159259557485249
-0.37405752347130156   -0.027938409390823683   -0.0159259557485249
-0.37405752347130156   -0.027938409390823683   -0.0159259557485249
-0.3707296064683483   -0.006444527575889661   0.013117378695309632
-0.3707296064683483   -0.006444527575889661   0.013117378695309632
-0.3707296064683483   -0.006444527575889661   0.013117378695309632
-0.3707296064683483   -0.006444527575889661   0.013117378695309632
-0.2751712273310819   -0.016122616830873772   -0.00507424077443192
-0.2751712273310819   -0.016122616830873772   -0.00507424077443192
-0.2751712273310819   -0.016122616830873772   -0.00507424077443192
-0.2751712273310819   -0.016122616830873772   -0.00507424077443192
-0.3171194758332892   -0.004560387239459299   -0.004176198396908172
-0.3171194758332892   -0.004560387239459299   -0.004176198396908172
-0.3171194758332892   -0.004560387239459299   -0.004176198396908172
-0.3171194758332892   -0.004560387239459299   -0.004176198396908172
-0.26426650128153045   0.015741643542417957   0.017585129100029826
-0.26426650128153045   0.015741643542417957   0.017585129100029826
-0.26426650128153045   0.015741643542417957   0.017585129100029826
-0.26426650128153045   0.015741643542417957   0.017585129100029826
-0.3826816471701845   -0.039356102601469906   -0.013731249788294733
-0.3826816471701845   -0.039356102601469906   -0.013731249788294733
-0.3826816471701845   -0.039356102601469906   -0.013731249788294733
-0.3826816471701845   -0.039356102601469906   -0.013731249788294733
-0.3778681912669899   -0.01859508206031439   0.016724783663715014
-0.3778681912669899   -0.01859508206031439   0.016724783663715014
-0.3778681912669899   -0.01859508206031439   0.016724783663715014
-0.3778681912669899   -0.01859508206031439   0.016724783663715014
-0.28170111231517614   -0.027352489556392398   -0.0030275624816162444
-0.28170111231517614   -0.027352489556392398   -0.0030275624816162444
-0.28170111231517614   -0.027352489556392398   -0.0030275624816162444
-0.28170111231517614   -0.027352489556392398   -0.0030275624816162444
-0.32611298801784644   -0.015516861660026651   -0.010051362092046982
-0.32611298801784644   -0.015516861660026651   -0.010051362092046982
-0.32611298801784644   -0.015516861660026651   -0.010051362092046982
-0.32611298801784644   -0.015516861660026651   -0.010051362092046982
-0.34754911691791285   0.04268078750636091   0.021390296874814706
-0.34754911691791285   0.04268078750636091   0.021390296874814706
-0.34754911691791285   0.04268078750636091   0.021390296874814706
-0.34754911691791285   0.04268078750636091   0.021390296874814706
-0.4485280791934198   -0.02253022797852966   -0.028102532516315358
-0.4485280791934198   -0.02253022797852966   -0.028102532516315358
-0.4485280791934198   -0.02253022797852966   -0.028102532516315358
-0.4485280791934198   -0.02253022797852966   -0.028102532516315358
-0.44891900034566984   0.016846541570884555   0.02358111207306622
-0.44891900034566984   0.016846541570884555   0.02358111207306622
-0.44891900034566984   0.016846541570884555   0.02358111207306622
-0.44891900034566984   0.016846541570884555   0.02358111207306622
-0.3712120582703726   -0.012450646873387677   -0.017186392261312373
-0.3712120582703726   -0.012450646873387677   -0.017186392261312373
-0.3712120582703726   -0.012450646873387677   -0.017186392261312373
-0.3712120582703726   -0.012450646873387677   -0.017186392261312373
-0.38766419651765044   0.010032309152855634   0.00759045616345963
-0.38766419651765044   0.010032309152855634   0.00759045616345963
-0.38766419651765044   0.010032309152855634   0.00759045616345963
-0.38766419651765044   0.010032309152855634   0.00759045616345963
-0.35296452140115786   0.036367786656207046   0.025232858555166673
-0.35296452140115786   0.036367786656207046   0.025232858555166673
-0.35296452140115786   0.036367786656207046   0.025232858555166673
-0.35296452140115786   0.036367786656207046   0.025232858555166673
-0.4685477084323371   -0.03335306317616006   -0.02436282361320984
-0.4685477084323371   -0.03335306317616006   -0.02436282361320984
-0.4685477084323371   -0.03335306317616006   -0.02436282361320984
-0.4685477084323371   -0.03335306317616006   -0.02436282361320984
-0.4648928914849308   0.00996778183856123   0.030366569160719722
-0.4648928914849308   0.00996778183856123   0.030366569160719722
-0.4648928914849308   0.00996778183856123   0.030366569160719722
-0.4648928914849308   0.00996778183856123   0.030366569160719722
-0.3788224561102082   -0.018750113909784677   -0.015041283180098518
-0.3788224561102082   -0.018750113909784677   -0.015041283180098518
-0.3788224561102082   -0.018750113909784677   -0.015041283180098518
-0.3788224561102082   -0.018750113909784677   -0.015041283180098518
-0.406718654924084   0.0016798852965730915   -0.0003770284804917659
-0.406718654924084   0.0016798852965730915   -0.0003770284804917659
-0.406718654924084   0.0016798852965730915   -0.0003770284804917659
-0.406718654924084   0.0016798852965730915   -0.0003770284804917659
-0.35982395059343053   0.030957068569596055   0.030244061924408972
-0.35982395059343053   0.030957068569596055   0.030244061924408972
-0.35982395059343053   0.030957068569596055   0.030244061924408972
-0.35982395059343053   0.030957068569596055   0.030244061924408972
-0.48529428635498983   -0.041142289994100925   -0.020530333356898186
-0.48529428635498983   -0.041142289994100925   -0.020530333356898186
-0.48529428635498983   -0.041142289994100925   -0.020530333356898186
-0.48529428635498983   -0.041142289994100925   -0.020530333356898186
-0.48845355182990385   -0.008158165682137314   0.03209161390955937
-0.48845355182990385   -0.008158165682137314   0.03209161390955937
-0.48845355182990385   -0.008158165682137314   0.03209161390955937
-0.48845355182990385   -0.008158165682137314   0.03209161390955937
-0.38646690729649   -0.03187233104237153   -0.012991547501736058
-0.38646690729649   -0.03187233104237153   -0.012991547501736058
-0.38646690729649   -0.03187233104237153   -0.012991547501736058
-0.38646690729649   -0.03187233104237153   -0.012991547501736058
-0.41397269236918155   -0.0066147582289328155   -0.006011965510511572
-0.41397269236918155   -0.0066147582289328155   -0.006011965510511572
-0.41397269236918155   -0.0066147582289328155   -0.006011965510511572
-0.41397269236918155   -0.0066147582289328155   -0.006011965510511572
-0.18411531678283252   -0.011964422572147491   -0.0354953031172761
-0.18411531678283252   -0.011964422572147491   -0.0354953031172761
-0.18411531678283252   -0.011964422572147491   -0.0354953031172761
-0.18411531678283252   -0.011964422572147491   -0.0354953031172761
-0.1844894053415354   0.027034627207323268   0.015931370307292508
-0.1844894053415354   0.027034627207323268   0.015931370307292508
-0.1844894053415354   0.027034627207323268   0.015931370307292508
-0.1844894053415354   0.027034627207323268   0.015931370307292508
-0.20796911079052435   -0.02494911441719971   -0.024122623279573676
-0.20796911079052435   -0.02494911441719971   -0.024122623279573676
-0.20796911079052435   -0.02494911441719971   -0.024122623279573676
-0.20796911079052435   -0.02494911441719971   -0.024122623279573676
-0.18808523999354168   0.014533041189601255   0.023839279357660177
-0.18808523999354168   0.014533041189601255   0.023839279357660177
-0.18808523999354168   0.014533041189601255   0.023839279357660177
-0.18808523999354168   0.014533041189601255   0.023839279357660177
-0.18155767146433224   0.00465125117314652   0.016255848617763365
-0.18155767146433224   0.00465125117314652   0.016255848617763365
-0.18155767146433224   0.00465125117314652   0.016255848617763365
-0.18155767146433224   0.00465125117314652   0.016255848617763365
-0.20689245352528737   -0.02586833977544201   -0.02979540733602217
-0.20689245352528737   -0.02586833977544201   -0.02979540733602217
-0.20689245352528737   -0.02586833977544201   -0.02979540733602217
-0.20689245352528737   -0.02586833977544201   -0.02979540733602217
-0.1914736572299634   0.0131405065766593   0.020265023529372136
-0.1914736572299634   0.0131405065766593   0.020265023529372136
-0.1914736572299634   0.0131405065766593   0.020265023529372136
-0.1914736572299634   0.0131405065766593   0.020265023529372136
-0.21510008208829304   -0.03138209384402136   -0.020449160487267005
-0.21510008208829304   -0.03138209384402136   -0.020449160487267005
-0.21510008208829304   -0.03138209384402136   -0.020449160487267005
-0.21510008208829304   -0.03138209384402136   -0.020449160487267005
-0.20629578293500353   0.005800394563990993   0.044427310823489954
-0.20629578293500353   0.005800394563990993   0.044427310823489954
-0.20629578293500353   0.005800394563990993   0.044427310823489954
-0.20629578293500353   0.005800394563990993   0.044427310823489954
-0.1982774181982142   -0.006390523580281353   0.006542376372170096
-0.1982774181982142   -0.006390523580281353   0.006542376372170096
-0.1982774181982142   -0.006390523580281353   0.006542376372170096
-0.1982774181982142   -0.006390523580281353   0.006542376372170096
-0.2278973957431607   -0.034506496840168384   -0.023273861813134476
-0.2278973957431607   -0.034506496840168384   -0.023273861813134476
-0.2278973957431607   -0.034506496840168384   -0.023273861813134476
-0.2278973957431607   -0.034506496840168384   -0.023273861813134476
-0.1990053615154685   0.0034179053248057367   0.025224443208028646
-0.1990053615154685   0.0034179053248057367   0.025224443208028646
-0.1990053615154685   0.0034179053248057367   0.025224443208028646
-0.1990053615154685   0.0034179053248057367   0.025224443208028646
-0.22095164247468407   -0.04383403362431471   -0.016125232521446892
-0.22095164247468407   -0.04383403362431471   -0.016125232521446892
-0.22095164247468407   -0.04383403362431471   -0.016125232521446892
-0.22095164247468407   -0.04383403362431471   -0.016125232521446892
-0.23457086903344954   -0.023059838872271442   0.04155860489613949
-0.23457086903344954   -0.023059838872271442   0.04155860489613949
-0.23457086903344954   -0.023059838872271442   0.04155860489613949
-0.23457086903344954   -0.023059838872271442   0.04155860489613949
-0.21290585874382603   -0.01943039112095669   -0.008903691268685336
-0.21290585874382603   -0.01943039112095669   -0.008903691268685336
-0.21290585874382603   -0.01943039112095669   -0.008903691268685336
-0.21290585874382603   -0.01943039112095669   -0.008903691268685336
-0.19783562396205792   -0.005549160464631699   -0.018215935123366785
-0.19783562396205792   -0.005549160464631699   -0.018215935123366785
-0.19783562396205792   -0.005549160464631699   -0.018215935123366785
-0.19783562396205792   -0.005549160464631699   -0.018215935123366785
-0.2022070917988908   -0.02491235719007949   -0.0010705548404306812
-0.2022070917988908   -0.02491235719007949   -0.0010705548404306812
-0.2022070917988908   -0.02491235719007949   -0.0010705548404306812
-0.2022070917988908   -0.02491235719007949   -0.0010705548404306812
-0.20379968435516202   -0.016632110258414323   -0.009188416038576838
-0.20379968435516202   -0.016632110258414323   -0.009188416038576838
-0.20379968435516202   -0.016632110258414323   -0.009188416038576838
-0.20379968435516202   -0.016632110258414323   -0.009188416038576838
-0.20491947927857118   -0.03355167517952337   -0.00027190495748397525
-0.20491947927857118   -0.03355167517952337   -0.00027190495748397525
-0.20491947927857118   -0.03355167517952337   -0.00027190495748397525
-0.20491947927857118   -0.03355167517952337   -0.00027190495748397525
-0.20047760671837286   -0.02104026833737304   -0.0006125297036666689
-0.20047760671837286   -0.02104026833737304   -0.0006125297036666689
-0.20047760671837286   -0.02104026833737304   -0.0006125297036666689
-0.20047760671837286   -0.02104026833737304   -0.0006125297036666689
-0.20494618569031905   -0.01817929146406662   -0.015777820731681266
-0.20494618569031905   -0.01817929146406662   -0.015777820731681266
-0.20494618569031905   -0.01817929146406662   -0.015777820731681266
-0.20494618569031905   -0.01817929146406662   -0.015777820731681266
-0.20507171863553098   -0.033303234665988724   0.0011225369671490509
-0.20507171863553098   -0.033303234665988724   0.0011225369671490509
-0.20507171863553098   -0.033303234665988724   0.0011225369671490509
-0.20507171863553098   -0.033303234665988724   0.0011225369671490509
-0.2073222271705855   -0.0274589653493904   -0.005962368958287428
-0.2073222271705855   -0.0274589653493904   -0.005962368958287428
-0.2073222271705855   -0.0274589653493904   -0.005962368958287428
-0.2073222271705855   -0.0274589653493904   -0.005962368958287428
-0.21250973452371127   -0.043591019386391885   0.004711502878012325
-0.21250973452371127   -0.043591019386391885   0.004711502878012325
-0.21250973452371127   -0.043591019386391885   0.004711502878012325
-0.21250973452371127   -0.043591019386391885   0.004711502878012325
-0.20521768949514266   -0.02980523322288381   -0.005651272481935116
-0.20521768949514266   -0.02980523322288381   -0.005651272481935116
-0.20521768949514266   -0.02980523322288381   -0.005651272481935116
-0.20521768949514266   -0.02980523322288381   -0.005651272481935116
-0.21302929675372342   -0.029752809171707147   -0.011724518486733202
-0.21302929675372342   -0.029752809171707147   -0.011724518486733202
-0.21302929675372342   -0.029752809171707147   -0.011724518486733202
-0.21302929675372342   -0.029752809171707147   -0.011724518486733202
-0.20846204333832127   -0.04295655396182373   0.0038361388154630714
-0.20846204333832127   -0.04295655396182373   0.0038361388154630714
-0.20846204333832127   -0.04295655396182373   0.0038361388154630714
-0.20846204333832127   -0.04295655396182373   0.0038361388154630714
-0.21049930067668401   -0.03909093112945866   -0.0027700874698549627
-0.21049930067668401   -0.03909093112945866   -0.0027700874698549627
-0.21049930067668401   -0.03909093112945866   -0.0027700874698549627
-0.21049930067668401   -0.03909093112945866   -0.0027700874698549627
-0.21833374803592495   -0.056287482325785995   0.009417688373819007
-0.21833374803592495   -0.056287482325785995   0.009417688373819007
-0.21833374803592495   -0.056287482325785995   0.009417688373819007
-0.21833374803592495   -0.056287482325785995   0.009417688373819007
-0.2116799819708279   -0.040342983376461514   -0.01203816212373542
-0.2116799819708279   -0.040342983376461514   -0.01203816212373542
-0.2116799819708279   -0.040342983376461514   -0.01203816212373542
-0.2116799819708279   -0.040342983376461514   -0.01203816212373542
-0.1966088371997054   0.005360154601017519   -0.0033517936355989507
-0.1966088371997054   0.005360154601017519   -0.0033517936355989507
-0.1966088371997054   0.005360154601017519   -0.0033517936355989507
-0.1966088371997054   0.005360154601017519   -0.0033517936355989507
-0.2238659020570371   -0.04251862398583847   -0.010767645929065896
-0.2238659020570371   -0.04251862398583847   -0.010767645929065896
-0.2238659020570371   -0.04251862398583847   -0.010767645929065896
-0.2238659020570371   -0.04251862398583847   -0.010767645929065896
-0.21483560081810144   -0.007879791604946416   0.002753479761768903
-0.21483560081810144   -0.007879791604946416   0.002753479761768903
-0.21483560081810144   -0.007879791604946416   0.002753479761768903
-0.21483560081810144   -0.007879791604946416   0.002753479761768903
-0.2090890363044709   -0.04566901145000715   -0.00659827459353221
-0.2090890363044709   -0.04566901145000715   -0.00659827459353221
-0.2090890363044709   -0.04566901145000715   -0.00659827459353221
-0.2090890363044709   -0.04566901145000715   -0.00659827459353221
-0.2109513536399594   -0.023399212821874245   -0.004713629053474036
-0.2109513536399594   -0.023399212821874245   -0.004713629053474036
-0.2109513536399594   -0.023399212821874245   -0.004713629053474036
-0.2109513536399594   -0.023399212821874245   -0.004713629053474036
-0.19972550395306318   -0.005415327534659911   -3.4296751836864967e-05
-0.19972550395306318   -0.005415327534659911   -3.4296751836864967e-05
-0.19972550395306318   -0.005415327534659911   -3.4296751836864967e-05
-0.19972550395306318   -0.005415327534659911   -3.4296751836864967e-05
-0.22538060224372714   -0.04931494459451158   -0.00853637437679814
-0.22538060224372714   -0.04931494459451158   -0.00853637437679814
-0.22538060224372714   -0.04931494459451158   -0.00853637437679814
-0.22538060224372714   -0.04931494459451158   -0.00853637437679814
-0.21739679789333158   -0.018741441821464644   0.005956880115000165
-0.21739679789333158   -0.018741441821464644   0.005956880115000165
-0.21739679789333158   -0.018741441821464644   0.005956880115000165
-0.21739679789333158   -0.018741441821464644   0.005956880115000165
-0.21238700981138833   -0.05422114431405766   -0.004524103197636234
-0.21238700981138833   -0.05422114431405766   -0.004524103197636234
-0.21238700981138833   -0.05422114431405766   -0.004524103197636234
-0.21238700981138833   -0.05422114431405766   -0.004524103197636234
-0.21366073692568613   -0.0316640333683058   -0.009035114153497947
-0.21366073692568613   -0.0316640333683058   -0.009035114153497947
-0.21366073692568613   -0.0316640333683058   -0.009035114153497947
-0.21366073692568613   -0.0316640333683058   -0.009035114153497947
-0.20329370572517344   -0.01647328735579713   0.00319456027517955
-0.20329370572517344   -0.01647328735579713   0.00319456027517955
-0.20329370572517344   -0.01647328735579713   0.00319456027517955
-0.20329370572517344   -0.01647328735579713   0.00319456027517955
-0.22781002638228665   -0.057809223182465654   -0.007041480968777899
-0.22781002638228665   -0.057809223182465654   -0.007041480968777899
-0.22781002638228665   -0.057809223182465654   -0.007041480968777899
-0.22781002638228665   -0.057809223182465654   -0.007041480968777899
-0.2195001983299007   -0.028941838647231596   0.009094750497271105
-0.2195001983299007   -0.028941838647231596   0.009094750497271105
-0.2195001983299007   -0.028941838647231596   0.009094750497271105
-0.2195001983299007   -0.028941838647231596   0.009094750497271105
-0.21487432007034432   -0.062400924857532084   -0.0013351907100831702
-0.21487432007034432   -0.062400924857532084   -0.0013351907100831702
-0.21487432007034432   -0.062400924857532084   -0.0013351907100831702
-0.21487432007034432   -0.062400924857532084   -0.0013351907100831702
-0.21687590395702244   -0.04030292032924783   -0.013781788876886667
-0.21687590395702244   -0.04030292032924783   -0.013781788876886667
-0.21687590395702244   -0.04030292032924783   -0.013781788876886667
-0.21687590395702244   -0.04030292032924783   -0.013781788876886667
-0.2066954256993381   0.022173865639233098   0.010392246234357371
-0.2066954256993381   0.022173865639233098   0.010392246234357371
-0.2066954256993381   0.022173865639233098   0.010392246234357371
-0.2066954256993381   0.022173865639233098   0.010392246234357371
-0.2455441044526501   -0.031887570667877715   -0.01506063643375775
-0.2455441044526501   -0.031887570667877715   -0.01506063643375775
-0.2455441044526501   -0.031887570667877715   -0.01506063643375775
-0.2455441044526501   -0.031887570667877715   -0.01506063643375775
-0.23247206852584937   0.006431478917113313   0.014338030845692578
-0.23247206852584937   0.006431478917113313   0.014338030845692578
-0.23247206852584937   0.006431478917113313   0.014338030845692578
-0.23247206852584937   0.006431478917113313   0.014338030845692578
-0.22268149334124512   -0.0352739458917966   -0.009081828567099227
-0.22268149334124512   -0.0352739458917966   -0.009081828567099227
-0.22268149334124512   -0.0352739458917966   -0.009081828567099227
-0.22268149334124512   -0.0352739458917966   -0.009081828567099227
-0.22680829773717057   -0.009406338887647275   -0.002813569796137779
-0.22680829773717057   -0.009406338887647275   -0.002813569796137779
-0.22680829773717057   -0.009406338887647275   -0.002813569796137779
-0.22680829773717057   -0.009406338887647275   -0.002813569796137779
-0.2088884831352119   0.011002037616961023   0.01360723895430904
-0.2088884831352119   0.011002037616961023   0.01360723895430904
-0.2088884831352119   0.011002037616961023   0.01360723895430904
-0.2088884831352119   0.011002037616961023   0.01360723895430904
-0.2478370025763018   -0.04141642843606611   -0.014638732053390077
-0.2478370025763018   -0.04141642843606611   -0.014638732053390077
-0.2478370025763018   -0.04141642843606611   -0.014638732053390077
-0.2478370025763018   -0.04141642843606611   -0.014638732053390077
-0.23684416354993232   -0.004189037809348643   0.016266590552044054
-0.23684416354993232   -0.004189037809348643   0.016266590552044054
-0.23684416354993232   -0.004189037809348643   0.016266590552044054
-0.23684416354993232   -0.004189037809348643   0.016266590552044054
-0.22492321819611366   -0.04319562881000458   -0.007221034410374046
-0.22492321819611366   -0.04319562881000458   -0.007221034410374046
-0.22492321819611366   -0.04319562881000458   -0.007221034410374046
-0.22492321819611366   -0.04319562881000458   -0.007221034410374046
-0.2290506550295287   -0.018373732903606645   -0.00788498297775437
-0.2290506550295287   -0.018373732903606645   -0.00788498297775437
-0.2290506550295287   -0.018373732903606645   -0.00788498297775437
-0.2290506550295287   -0.018373732903606645   -0.00788498297775437
-0.2112916409792301   0.0010136609726564688   0.016727561891382737
-0.2112916409792301   0.0010136609726564688   0.016727561891382737
-0.2112916409792301   0.0010136609726564688   0.016727561891382737
-0.2112916409792301   0.0010136609726564688   0.016727561891382737
-0.2518372494628025   -0.049759836287998856   -0.013128040533656609
-0.2518372494628025   -0.049759836287998856   -0.013128040533656609
-0.2518372494628025   -0.049759836287998856   -0.013128040533656609
-0.2518372494628025   -0.049759836287998856   -0.013128040533656609
-0.2397614168398172   -0.014389827713937209   0.019846051255285456
-0.2397614168398172   -0.014389827713937209   0.019846051255285456
-0.2397614168398172   -0.014389827713937209   0.019846051255285456
-0.2397614168398172   -0.014389827713937209   0.019846051255285456
-0.2268668274795608   -0.05115769778876793   -0.005522536109493187
-0.2268668274795608   -0.05115769778876793   -0.005522536109493187
-0.2268668274795608   -0.05115769778876793   -0.005522536109493187
-0.2268668274795608   -0.05115769778876793   -0.005522536109493187
-0.23293137545017195   -0.02684574460747527   -0.012806245055430942
-0.23293137545017195   -0.02684574460747527   -0.012806245055430942
-0.23293137545017195   -0.02684574460747527   -0.012806245055430942
-0.23293137545017195   -0.02684574460747527   -0.012806245055430942
-0.22563216916623102   0.0318264619968853   0.020785007333570645
-0.22563216916623102   0.0318264619968853   0.020785007333570645
-0.22563216916623102   0.0318264619968853   0.020785007333570645
-0.22563216916623102   0.0318264619968853   0.020785007333570645
-0.2426538253185693   -0.019396634775148074   -0.021776513838938128
-0.2426538253185693   -0.019396634775148074   -0.021776513838938128
-0.2426538253185693   -0.019396634775148074   -0.021776513838938128
-0.2426538253185693   -0.019396634775148074   -0.021776513838938128
-0.23738317368651563   0.02237386180395881   0.023107266541562987
-0.23738317368651563   0.02237386180395881   0.023107266541562987
-0.23738317368651563   0.02237386180395881   0.023107266541562987
-0.23738317368651563   0.02237386180395881   0.023107266541562987
-0.24419037804327168   -0.024508050671669272   -0.013313987152640377
-0.24419037804327168   -0.024508050671669272   -0.013313987152640377
-0.24419037804327168   -0.024508050671669272   -0.013313987152640377
-0.24419037804327168   -0.024508050671669272   -0.013313987152640377
-0.2293407411658524   0.005600219675103865   0.0010090345253486125
-0.2293407411658524   0.005600219675103865   0.0010090345253486125
-0.2293407411658524   0.005600219675103865   0.0010090345253486125
-0.2293407411658524   0.005600219675103865   0.0010090345253486125
-0.22688933551577578   0.02465650924369081   0.024026665569483154
-0.22688933551577578   0.02465650924369081   0.024026665569483154
-0.22688933551577578   0.02465650924369081   0.024026665569483154
-0.22688933551577578   0.02465650924369081   0.024026665569483154
-0.25597212596818136   -0.028078607865570447   -0.019385025197236574
-0.25597212596818136   -0.028078607865570447   -0.019385025197236574
-0.25597212596818136   -0.028078607865570447   -0.019385025197236574
-0.25597212596818136   -0.028078607865570447   -0.019385025197236574
-0.24783365939179994   0.016402106079106846   0.029731020045950882
-0.24783365939179994   0.016402106079106846   0.029731020045950882
-0.24783365939179994   0.016402106079106846   0.029731020045950882
-0.24783365939179994   0.016402106079106846   0.029731020045950882
-0.24752149955477037   -0.02918065126635676   -0.012128476015142026
-0.24752149955477037   -0.02918065126635676   -0.012128476015142026
-0.24752149955477037   -0.02918065126635676   -0.012128476015142026
-0.24752149955477037   -0.02918065126635676   -0.012128476015142026
-0.24061475220616005   -0.0016247600814507449   -0.005009001191528004
-0.24061475220616005   -0.0016247600814507449   -0.005009001191528004
-0.24061475220616005   -0.0016247600814507449   -0.005009001191528004
-0.24061475220616005   -0.0016247600814507449   -0.005009001191528004
-0.22953882285543514   0.01986310051685361   0.02874115569831984
-0.22953882285543514   0.01986310051685361   0.02874115569831984
-0.22953882285543514   0.01986310051685361   0.02874115569831984
-0.22953882285543514   0.01986310051685361   0.02874115569831984
-0.2674857195013641   -0.03431102911433441   -0.017816145308436483
-0.2674857195013641   -0.03431102911433441   -0.017816145308436483
-0.2674857195013641   -0.03431102911433441   -0.017816145308436483
-0.2674857195013641   -0.03431102911433441   -0.017816145308436483
-0.26614187501912334   0.0011424023909041986   0.03175708738727594
-0.26614187501912334   0.0011424023909041986   0.03175708738727594
-0.26614187501912334   0.0011424023909041986   0.03175708738727594
-0.26614187501912334   0.0011424023909041986   0.03175708738727594
-0.25057136317878814   -0.03805884344521039   -0.010534664708296046
-0.25057136317878814   -0.03805884344521039   -0.010534664708296046
-0.25057136317878814   -0.03805884344521039   -0.010534664708296046
-0.25057136317878814   -0.03805884344521039   -0.010534664708296046
-0.2459526230506608   -0.008292482635296076   -0.010415010009614034
-0.2459526230506608   -0.008292482635296076   -0.010415010009614034
-0.2459526230506608   -0.008292482635296076   -0.010415010009614034
-0.2459526230506608   -0.008292482635296076   -0.010415010009614034
-0.47637526246649875   -0.04361863016051898   -0.045449059406955344
-0.47637526246649875   -0.04361863016051898   -0.045449059406955344
-0.47637526246649875   -0.04361863016051898   -0.045449059406955344
-0.47637526246649875   -0.04361863016051898   -0.045449059406955344
-0.30327813004185616   0.025480844859437315   0.010680221952434257
-0.30327813004185616   0.025480844859437315   0.010680221952434257
-0.30327813004185616   0.025480844859437315   0.010680221952434257
-0.30327813004185616   0.025480844859437315   0.010680221952434257
-0.31858307925755563   -0.020409625539800857   -0.020376215025336375
-0.31858307925755563   -0.020409625539800857   -0.020376215025336375
-0.31858307925755563   -0.020409625539800857   -0.020376215025336375
-0.31858307925755563   -0.020409625539800857   -0.020376215025336375
-0.5070221198929583   -0.05768901917332549   0.0506911417050766
-0.5070221198929583   -0.05768901917332549   0.0506911417050766
-0.5070221198929583   -0.05768901917332549   0.0506911417050766
-0.5070221198929583   -0.05768901917332549   0.0506911417050766
-0.3688006298134239   -0.014230489198174968   0.0492861141188293
-0.3688006298134239   -0.014230489198174968   0.0492861141188293
-0.3688006298134239   -0.014230489198174968   0.0492861141188293
-0.3688006298134239   -0.014230489198174968   0.0492861141188293
-0.525161543272991   -0.06432422850958519   -0.033370765858822676
-0.525161543272991   -0.06432422850958519   -0.033370765858822676
-0.525161543272991   -0.06432422850958519   -0.033370765858822676
-0.525161543272991   -0.06432422850958519   -0.033370765858822676
-0.31321656939194364   -0.026547329717961046   0.012594038480884123
-0.31321656939194364   -0.026547329717961046   0.012594038480884123
-0.31321656939194364   -0.026547329717961046   0.012594038480884123
-0.31321656939194364   -0.026547329717961046   0.012594038480884123
-0.32366274660498984   -0.02949858277801795   -0.014700612216568484
-0.32366274660498984   -0.02949858277801795   -0.014700612216568484
-0.32366274660498984   -0.02949858277801795   -0.014700612216568484
-0.32366274660498984   -0.02949858277801795   -0.014700612216568484
-0.5234355887819251   -0.08053294820360955   0.0011015576230751266
-0.5234355887819251   -0.08053294820360955   0.0011015576230751266
-0.5234355887819251   -0.08053294820360955   0.0011015576230751266
-0.5234355887819251   -0.08053294820360955   0.0011015576230751266
-0.4087118223234254   -0.04858790425866358   0.011441148278775737
-0.4087118223234254   -0.04858790425866358   0.011441148278775737
-0.4087118223234254   -0.04858790425866358   0.011441148278775737
-0.4087118223234254   -0.04858790425866358   0.011441148278775737
-0.5274828908888054   -0.07271339117871131   -0.02695450993621962
-0.5274828908888054   -0.07271339117871131   -0.02695450993621962
-0.5274828908888054   -0.07271339117871131   -0.02695450993621962
-0.5274828908888054   -0.07271339117871131   -0.02695450993621962
-0.3234658443796728   -0.041168539684479186   -0.0020461441835253292
-0.3234658443796728   -0.041168539684479186   -0.0020461441835253292
-0.3234658443796728   -0.041168539684479186   -0.0020461441835253292
-0.3234658443796728   -0.041168539684479186   -0.0020461441835253292
-0.32405677337333316   -0.05141940079705951   -0.010753300387917239
-0.32405677337333316   -0.05141940079705951   -0.010753300387917239
-0.32405677337333316   -0.05141940079705951   -0.010753300387917239
-0.32405677337333316   -0.05141940079705951   -0.010753300387917239
-0.5362995433719139   -0.12286124561228734   0.007845135774881565
-0.5362995433719139   -0.12286124561228734   0.007845135774881565
-0.5362995433719139   -0.12286124561228734   0.007845135774881565
-0.5362995433719139   -0.12286124561228734   0.007845135774881565
-0.40848688098282615   -0.06674538778475941   0.000923920054863179
-0.40848688098282615   -0.06674538778475941   0.000923920054863179
-0.40848688098282615   -0.06674538778475941   0.000923920054863179
-0.40848688098282615   -0.06674538778475941   0.000923920054863179
-0.32746552098472337   -0.05558759136637688   -0.029188296536085036
-0.32746552098472337   -0.05558759136637688   -0.029188296536085036
-0.32746552098472337   -0.05558759136637688   -0.029188296536085036
-0.32746552098472337   -0.05558759136637688   -0.029188296536085036
-0.22587093282257037   -0.14698414778771846   -0.02750880981164819
-0.22587093282257037   -0.14698414778771846   -0.02750880981164819
-0.22587093282257037   -0.14698414778771846   -0.02750880981164819
-0.22587093282257037   -0.14698414778771846   -0.02750880981164819
-0.19833800692092116   -0.032545680210271606   -0.0018234024688751536
-0.19833800692092116   -0.032545680210271606   -0.0018234024688751536
-0.19833800692092116   -0.032545680210271606   -0.0018234024688751536
-0.19833800692092116   -0.032545680210271606   -0.0018234024688751536
-0.3484675637041626   -0.1556286908718812   -0.03457957192629074
-0.3484675637041626   -0.1556286908718812   -0.03457957192629074
-0.3484675637041626   -0.1556286908718812   -0.03457957192629074
-0.3484675637041626   -0.1556286908718812   -0.03457957192629074
-0.2718660168733361   -0.1036204202712211   -0.007951275681226758
-0.2718660168733361   -0.1036204202712211   -0.007951275681226758
-0.2718660168733361   -0.1036204202712211   -0.007951275681226758
-0.2718660168733361   -0.1036204202712211   -0.007951275681226758
-0.32730149701399813   -0.062374403003818   -0.02200352634353016
-0.32730149701399813   -0.062374403003818   -0.02200352634353016
-0.32730149701399813   -0.062374403003818   -0.02200352634353016
-0.32730149701399813   -0.062374403003818   -0.02200352634353016
-0.22082625774911055   -0.12712215221636014   -0.019688184603737457
-0.22082625774911055   -0.12712215221636014   -0.019688184603737457
-0.22082625774911055   -0.12712215221636014   -0.019688184603737457
-0.22082625774911055   -0.12712215221636014   -0.019688184603737457
-0.2007495797498229   -0.04213725694970729   0.00022016028754692437
-0.2007495797498229   -0.04213725694970729   0.00022016028754692437
-0.2007495797498229   -0.04213725694970729   0.00022016028754692437
-0.2007495797498229   -0.04213725694970729   0.00022016028754692437
-0.34986180230539543   -0.15480744278200295   -0.020387030714614625
-0.34986180230539543   -0.15480744278200295   -0.020387030714614625
-0.34986180230539543   -0.15480744278200295   -0.020387030714614625
-0.34986180230539543   -0.15480744278200295   -0.020387030714614625
-0.2689527041766338   -0.0971253878882364   -0.008449538113735243
-0.2689527041766338   -0.0971253878882364   -0.008449538113735243
-0.2689527041766338   -0.0971253878882364   -0.008449538113735243
-0.2689527041766338   -0.0971253878882364   -0.008449538113735243
-0.3324947413987169   -0.07183512927469989   -0.01652403968852206
-0.3324947413987169   -0.07183512927469989   -0.01652403968852206
-0.3324947413987169   -0.07183512927469989   -0.01652403968852206
-0.3324947413987169   -0.07183512927469989   -0.01652403968852206
-0.22087009948560513   -0.12786302928611387   -0.01465666605495955
-0.22087009948560513   -0.12786302928611387   -0.01465666605495955
-0.22087009948560513   -0.12786302928611387   -0.01465666605495955
-0.22087009948560513   -0.12786302928611387   -0.01465666605495955
-0.20084930234838486   -0.05404597010612369   0.0031408037845904015
-0.20084930234838486   -0.05404597010612369   0.0031408037845904015
-0.20084930234838486   -0.05404597010612369   0.0031408037845904015
-0.20084930234838486   -0.05404597010612369   0.0031408037845904015
-0.349152566773742   -0.15725157288465152   -0.03040009530237365
-0.349152566773742   -0.15725157288465152   -0.03040009530237365
-0.349152566773742   -0.15725157288465152   -0.03040009530237365
-0.349152566773742   -0.15725157288465152   -0.03040009530237365
-0.27318034713933964   -0.10443599040234867   -0.0157134131014851
-0.27318034713933964   -0.10443599040234867   -0.0157134131014851
-0.27318034713933964   -0.10443599040234867   -0.0157134131014851
-0.27318034713933964   -0.10443599040234867   -0.0157134131014851
-0.1986466512894563   -0.035829628861056964   -0.002541921072739154
-0.1986466512894563   -0.035829628861056964   -0.002541921072739154
-0.1986466512894563   -0.035829628861056964   -0.002541921072739154
-0.1986466512894563   -0.035829628861056964   -0.002541921072739154
-0.16749250178730812   -0.11264006855036382   -0.01944255909115016
-0.16749250178730812   -0.11264006855036382   -0.01944255909115016
-0.16749250178730812   -0.11264006855036382   -0.01944255909115016
-0.16749250178730812   -0.11264006855036382   -0.01944255909115016
-0.1443831549098494   -0.029876723534238075   0.007657283590691622
-0.1443831549098494   -0.029876723534238075   0.007657283590691622
-0.1443831549098494   -0.029876723534238075   0.007657283590691622
-0.1443831549098494   -0.029876723534238075   0.007657283590691622
-0.22019516121588514   -0.12223169018433569   -0.021423163969634704
-0.22019516121588514   -0.12223169018433569   -0.021423163969634704
-0.22019516121588514   -0.12223169018433569   -0.021423163969634704
-0.22019516121588514   -0.12223169018433569   -0.021423163969634704
-0.18188621803546542   -0.07616426548524996   -0.008954445732583529
-0.18188621803546542   -0.07616426548524996   -0.008954445732583529
-0.18188621803546542   -0.07616426548524996   -0.008954445732583529
-0.18188621803546542   -0.07616426548524996   -0.008954445732583529
-0.1998863286620327   -0.042442461066462274   0.000331769681753969
-0.1998863286620327   -0.042442461066462274   0.000331769681753969
-0.1998863286620327   -0.042442461066462274   0.000331769681753969
-0.1998863286620327   -0.042442461066462274   0.000331769681753969
-0.1658701990005842   -0.11084416418899518   -0.018810496208225353
-0.1658701990005842   -0.11084416418899518   -0.018810496208225353
-0.1658701990005842   -0.11084416418899518   -0.018810496208225353
-0.1658701990005842   -0.11084416418899518   -0.018810496208225353
-0.14457220014813776   -0.0377663570308707   0.009935023555048004
-0.14457220014813776   -0.0377663570308707   0.009935023555048004
-0.14457220014813776   -0.0377663570308707   0.009935023555048004
-0.14457220014813776   -0.0377663570308707   0.009935023555048004
-0.22102692205741012   -0.12416660098164424   -0.019137207218454237
-0.22102692205741012   -0.12416660098164424   -0.019137207218454237
-0.22102692205741012   -0.12416660098164424   -0.019137207218454237
-0.22102692205741012   -0.12416660098164424   -0.019137207218454237
-0.1816790813517528   -0.07911280074007046   -0.011623506213192678
-0.1816790813517528   -0.07911280074007046   -0.011623506213192678
-0.1816790813517528   -0.07911280074007046   -0.011623506213192678
-0.1816790813517528   -0.07911280074007046   -0.011623506213192678
-0.20171769586286734   -0.05044499694191925   0.003687319714534809
-0.20171769586286734   -0.05044499694191925   0.003687319714534809
-0.20171769586286734   -0.05044499694191925   0.003687319714534809
-0.20171769586286734   -0.05044499694191925   0.003687319714534809
-0.1645315030364955   -0.11213803776440998   -0.01548981015319753
-0.1645315030364955   -0.11213803776440998   -0.01548981015319753
-0.1645315030364955   -0.11213803776440998   -0.01548981015319753
-0.1645315030364955   -0.11213803776440998   -0.01548981015319753
-0.14302588360961363   -0.04527995935303938   0.012421200351641959
-0.14302588360961363   -0.04527995935303938   0.012421200351641959
-0.14302588360961363   -0.04527995935303938   0.012421200351641959
-0.14302588360961363   -0.04527995935303938   0.012421200351641959
-0.2185609297022935   -0.12570089737500328   -0.013762405716075152
-0.2185609297022935   -0.12570089737500328   -0.013762405716075152
-0.2185609297022935   -0.12570089737500328   -0.013762405716075152
-0.2185609297022935   -0.12570089737500328   -0.013762405716075152
-0.1812893268924716   -0.08302118030544031   -0.013497369283275768
-0.1812893268924716   -0.08302118030544031   -0.013497369283275768
-0.1812893268924716   -0.08302118030544031   -0.013497369283275768
-0.1812893268924716   -0.08302118030544031   -0.013497369283275768
-0.13932257451308477   -0.004898113039411088   0.013665121769010042
-0.13932257451308477   -0.004898113039411088   0.013665121769010042
-0.13932257451308477   -0.004898113039411088   0.013665121769010042
-0.13932257451308477   -0.004898113039411088   0.013665121769010042
-0.13260586290938348   -0.059802192775404286   -0.011718839791920052
-0.13260586290938348   -0.059802192775404286   -0.011718839791920052
-0.13260586290938348   -0.059802192775404286   -0.011718839791920052
-0.13260586290938348   -0.059802192775404286   -0.011718839791920052
-0.11447449611922768   -0.008656271729867519   0.015799545020528775
-0.11447449611922768   -0.008656271729867519   0.015799545020528775
-0.11447449611922768   -0.008656271729867519   0.015799545020528775
-0.11447449611922768   -0.008656271729867519   0.015799545020528775
-0.15537040860256932   -0.06888798471918035   -0.008267723687965823
-0.15537040860256932   -0.06888798471918035   -0.008267723687965823
-0.15537040860256932   -0.06888798471918035   -0.008267723687965823
-0.15537040860256932   -0.06888798471918035   -0.008267723687965823
-0.13588841516134623   -0.03521828308403979   -0.00486639883417874
-0.13588841516134623   -0.03521828308403979   -0.00486639883417874
-0.13588841516134623   -0.03521828308403979   -0.00486639883417874
-0.13588841516134623   -0.03521828308403979   -0.00486639883417874
-0.1395210039455107   -0.013672682769667066   0.01576399764781405
-0.1395210039455107   -0.013672682769667066   0.01576399764781405
-0.1395210039455107   -0.013672682769667066   0.01576399764781405
-0.1395210039455107   -0.013672682769667066   0.01576399764781405
-0.13158658864930822   -0.0651342615524027   -0.01328292780733874
-0.13158658864930822   -0.0651342615524027   -0.01328292780733874
-0.13158658864930822   -0.0651342615524027   -0.01328292780733874
-0.13158658864930822   -0.0651342615524027   -0.01328292780733874
-0.1147713908770365   -0.016322417988936588   0.016993192375888786
-0.1147713908770365   -0.016322417988936588   0.016993192375888786
-0.1147713908770365   -0.016322417988936588   0.016993192375888786
-0.1147713908770365   -0.016322417988936588   0.016993192375888786
-0.15546111792508804   -0.07309672933770583   -0.009179193022868326
-0.15546111792508804   -0.07309672933770583   -0.009179193022868326
-0.15546111792508804   -0.07309672933770583   -0.009179193022868326
-0.15546111792508804   -0.07309672933770583   -0.009179193022868326
-0.13541534505174047   -0.04136150667727686   -0.00827326770234446
-0.13541534505174047   -0.04136150667727686   -0.00827326770234446
-0.13541534505174047   -0.04136150667727686   -0.00827326770234446
-0.13541534505174047   -0.04136150667727686   -0.00827326770234446
-0.13964115087678539   -0.021108521573230232   0.01793243445416944
-0.13964115087678539   -0.021108521573230232   0.01793243445416944
-0.13964115087678539   -0.021108521573230232   0.01793243445416944
-0.13964115087678539   -0.021108521573230232   0.01793243445416944
-0.13135666340131338   -0.0690759312293864   -0.013179657005045876
-0.13135666340131338   -0.0690759312293864   -0.013179657005045876
-0.13135666340131338   -0.0690759312293864   -0.013179657005045876
-0.13135666340131338   -0.0690759312293864   -0.013179657005045876
-0.11393260986975298   -0.023526433454581927   0.019699567951636677
-0.11393260986975298   -0.023526433454581927   0.019699567951636677
-0.11393260986975298   -0.023526433454581927   0.019699567951636677
-0.11393260986975298   -0.023526433454581927   0.019699567951636677
-0.1531623163918712   -0.0772937980344121   -0.006247124878273242
-0.1531623163918712   -0.0772937980344121   -0.006247124878273242
-0.1531623163918712   -0.0772937980344121   -0.006247124878273242
-0.1531623163918712   -0.0772937980344121   -0.006247124878273242
-0.13515877064501344   -0.0466708131128529   -0.010661363964867972
-0.13515877064501344   -0.0466708131128529   -0.010661363964867972
-0.13515877064501344   -0.0466708131128529   -0.010661363964867972
-0.13515877064501344   -0.0466708131128529   -0.010661363964867972
-0.11091430387138144   0.015578270672178568   0.02135849195050724
-0.11091430387138144   0.015578270672178568   0.02135849195050724
-0.11091430387138144   0.015578270672178568   0.02135849195050724
-0.11091430387138144   0.015578270672178568   0.02135849195050724
-0.07488394958532256   -0.019797850632232168   -0.007266028925691662
-0.07488394958532256   -0.019797850632232168   -0.007266028925691662
-0.07488394958532256   -0.019797850632232168   -0.007266028925691662
-0.07488394958532256   -0.019797850632232168   -0.007266028925691662
-0.06569150184445914   0.018076643292504184   0.02111060646941435
-0.06569150184445914   0.018076643292504184   0.02111060646941435
-0.06569150184445914   0.018076643292504184   0.02111060646941435
-0.06569150184445914   0.018076643292504184   0.02111060646941435
-0.12266245763295776   -0.030022345080362486   -0.003774189197626647
-0.12266245763295776   -0.030022345080362486   -0.003774189197626647
-0.12266245763295776   -0.030022345080362486   -0.003774189197626647
-0.12266245763295776   -0.030022345080362486   -0.003774189197626647
-0.09220529662134998   -0.001959906351352108   -0.003790011429180504
-0.09220529662134998   -0.001959906351352108   -0.003790011429180504
-0.09220529662134998   -0.001959906351352108   -0.003790011429180504
-0.09220529662134998   -0.001959906351352108   -0.003790011429180504
-0.10927995183134533   0.00980002578938223   0.02331596894069078
-0.10927995183134533   0.00980002578938223   0.02331596894069078
-0.10927995183134533   0.00980002578938223   0.02331596894069078
-0.10927995183134533   0.00980002578938223   0.02331596894069078
-0.07921340985150774   -0.02188512978267734   -0.006537160490654768
-0.07921340985150774   -0.02188512978267734   -0.006537160490654768
-0.07921340985150774   -0.02188512978267734   -0.006537160490654768
-0.07921340985150774   -0.02188512978267734   -0.006537160490654768
-0.06870478526996693   0.014317937184100434   0.02654775195234049
-0.06870478526996693   0.014317937184100434   0.02654775195234049
-0.06870478526996693   0.014317937184100434   0.02654775195234049
-0.06870478526996693   0.014317937184100434   0.02654775195234049
-0.12225934680691018   -0.031981981778364636   -0.0047870234840515615
-0.12225934680691018   -0.031981981778364636   -0.0047870234840515615
-0.12225934680691018   -0.031981981778364636   -0.0047870234840515615
-0.12225934680691018   -0.031981981778364636   -0.0047870234840515615
-0.09510945943878726   -0.006060424743847843   -0.005441871640955611
-0.09510945943878726   -0.006060424743847843   -0.005441871640955611
-0.09510945943878726   -0.006060424743847843   -0.005441871640955611
-0.09510945943878726   -0.006060424743847843   -0.005441871640955611
-0.10824485070932734   0.006467557292383224   0.026835917933114836
-0.10824485070932734   0.006467557292383224   0.026835917933114836
-0.10824485070932734   0.006467557292383224   0.026835917933114836
-0.10824485070932734   0.006467557292383224   0.026835917933114836
-0.08367893475137013   -0.025091255270467766   -0.008913803000107289
-0.08367893475137013   -0.025091255270467766   -0.008913803000107289
-0.08367893475137013   -0.025091255270467766   -0.008913803000107289
-0.08367893475137013   -0.025091255270467766   -0.008913803000107289
-0.07855365616905781   0.003977214098513768   0.02762791600059442
-0.07855365616905781   0.003977214098513768   0.02762791600059442
-0.07855365616905781   0.003977214098513768   0.02762791600059442
-0.07855365616905781   0.003977214098513768   0.02762791600059442
-0.12072477760655057   -0.033791342155597565   -0.003996362031335689
-0.12072477760655057   -0.033791342155597565   -0.003996362031335689
-0.12072477760655057   -0.033791342155597565   -0.003996362031335689
-0.12072477760655057   -0.033791342155597565   -0.003996362031335689
-0.09656826605843777   -0.00905714927565178   -0.008060353962123143
-0.09656826605843777   -0.00905714927565178   -0.008060353962123143
-0.09656826605843777   -0.00905714927565178   -0.008060353962123143
-0.09656826605843777   -0.00905714927565178   -0.008060353962123143
-1.1304373274600714   -0.1610186023014874   -0.09465781643397785
-1.1304373274600714   -0.1610186023014874   -0.09465781643397785
-1.1304373274600714   -0.1610186023014874   -0.09465781643397785
-1.1304373274600714   -0.1610186023014874   -0.09465781643397785
-0.39345595949662826   -0.6280923668063982   -0.07391554119627483
-0.39345595949662826   -0.6280923668063982   -0.07391554119627483
-0.39345595949662826   -0.6280923668063982   -0.07391554119627483
-0.39345595949662826   -0.6280923668063982   -0.07391554119627483
-0.30281207442691777   -0.026926860000442733   0.00029189210344597767
-0.30281207442691777   -0.026926860000442733   0.00029189210344597767
-0.30281207442691777   -0.026926860000442733   0.00029189210344597767
-0.30281207442691777   -0.026926860000442733   0.00029189210344597767
-1.2094607949672076   -0.7363455281419864   -0.38916126462183875
-1.2094607949672076   -0.7363455281419864   -0.38916126462183875
-1.2094607949672076   -0.7363455281419864   -0.38916126462183875
-1.2094607949672076   -0.7363455281419864   -0.38916126462183875
-0.7400226251495123   -0.3660454761488076   -0.053373283718594074
-0.7400226251495123   -0.3660454761488076   -0.053373283718594074
-0.7400226251495123   -0.3660454761488076   -0.053373283718594074
-0.7400226251495123   -0.3660454761488076   -0.053373283718594074
-1.0505459178259247   -0.2022654070936811   -0.12866699996373887
-1.0505459178259247   -0.2022654070936811   -0.12866699996373887
-1.0505459178259247   -0.2022654070936811   -0.12866699996373887
-1.0505459178259247   -0.2022654070936811   -0.12866699996373887
-0.42526408835366925   -0.5245441178342177   -0.11435091969653376
-0.42526408835366925   -0.5245441178342177   -0.11435091969653376
-0.42526408835366925   -0.5245441178342177   -0.11435091969653376
-0.42526408835366925   -0.5245441178342177   -0.11435091969653376
-0.3092483292276315   -0.03560039304780971   0.011577073847776866
-0.3092483292276315   -0.03560039304780971   0.011577073847776866
-0.3092483292276315   -0.03560039304780971   0.011577073847776866
-0.3092483292276315   -0.03560039304780971   0.011577073847776866
-1.1319986089006089   -0.657904864546033   -0.3579806946893284
-1.1319986089006089   -0.657904864546033   -0.3579806946893284
-1.1319986089006089   -0.657904864546033   -0.3579806946893284
-1.1319986089006089   -0.657904864546033   -0.3579806946893284
-0.697190542779792   -0.3304217000447439   0.027951041762316595
-0.697190542779792   -0.3304217000447439   0.027951041762316595
-0.697190542779792   -0.3304217000447439   0.027951041762316595
-0.697190542779792   -0.3304217000447439   0.027951041762316595
-0.9865763435039604   -0.19261354760254673   -0.09616068464957939
-0.9865763435039604   -0.19261354760254673   -0.09616068464957939
-0.9865763435039604   -0.19261354760254673   -0.09616068464957939
-0.9865763435039604   -0.19261354760254673   -0.09616068464957939
-0.41411943054919054   -0.46034054591620727   -0.08803827989161792
-0.41411943054919054   -0.46034054591620727   -0.08803827989161792
-0.41411943054919054   -0.46034054591620727   -0.08803827989161792
-0.41411943054919054   -0.46034054591620727   -0.08803827989161792
-0.35614412261016065   -0.09215500728485332   -0.018779093349697677
-0.35614412261016065   -0.09215500728485332   -0.018779093349697677
-0.35614412261016065   -0.09215500728485332   -0.018779093349697677
-0.35614412261016065   -0.09215500728485332   -0.018779093349697677
-1.0318653580802821   -0.554323086920181   -0.31723768900009264
-1.0318653580802821   -0.554323086920181   -0.31723768900009264
-1.0318653580802821   -0.554323086920181   -0.31723768900009264
-1.0318653580802821   -0.554323086920181   -0.31723768900009264
-0.6460140662598644   -0.2867260335081662   0.11991756570877694
-0.6460140662598644   -0.2867260335081662   0.11991756570877694
-0.6460140662598644   -0.2867260335081662   0.11991756570877694
-0.6460140662598644   -0.2867260335081662   0.11991756570877694
-0.28952389773786913   -0.15890208220852053   -0.023445517000359864
-0.28952389773786913   -0.15890208220852053   -0.023445517000359864
-0.28952389773786913   -0.15890208220852053   -0.023445517000359864
-0.28952389773786913   -0.15890208220852053   -0.023445517000359864
-0.13490332678797431   -0.20138031115724309   -0.03338156670415511
-0.13490332678797431   -0.20138031115724309   -0.03338156670415511
-0.13490332678797431   -0.20138031115724309   -0.03338156670415511
-0.13490332678797431   -0.20138031115724309   -0.03338156670415511
-0.11834689878069415   -0.10209383144903669   0.002974060264463327
-0.11834689878069415   -0.10209383144903669   0.002974060264463327
-0.11834689878069415   -0.10209383144903669   0.002974060264463327
-0.11834689878069415   -0.10209383144903669   0.002974060264463327
-0.35585714540144375   -0.29256918146138783   0.0007088586917641179
-0.35585714540144375   -0.29256918146138783   0.0007088586917641179
-0.35585714540144375   -0.29256918146138783   0.0007088586917641179
-0.35585714540144375   -0.29256918146138783   0.0007088586917641179
-0.1906715861948372   -0.14161200143183447   0.06146013385349787
-0.1906715861948372   -0.14161200143183447   0.06146013385349787
-0.1906715861948372   -0.14161200143183447   0.06146013385349787
-0.1906715861948372   -0.14161200143183447   0.06146013385349787
-0.3301146580091661   -0.1480598104243931   -0.015088075383846735
-0.3301146580091661   -0.1480598104243931   -0.015088075383846735
-0.3301146580091661   -0.1480598104243931   -0.015088075383846735
-0.3301146580091661   -0.1480598104243931   -0.015088075383846735
-0.15424804205434206   -0.25676185836740245   -0.021863629185410495
-0.15424804205434206   -0.25676185836740245   -0.021863629185410495
-0.15424804205434206   -0.25676185836740245   -0.021863629185410495
-0.15424804205434206   -0.25676185836740245   -0.021863629185410495
-0.12812832923191178   -0.10575851637061376   0.0031241282688515594
-0.12812832923191178   -0.10575851637061376   0.0031241282688515594
-0.12812832923191178   -0.10575851637061376   0.0031241282688515594
-0.12812832923191178   -0.10575851637061376   0.0031241282688515594
-0.3736776565353828   -0.28920428831062794   -0.05696566742815841
-0.3736776565353828   -0.28920428831062794   -0.05696566742815841
-0.3736776565353828   -0.28920428831062794   -0.05696566742815841
-0.3736776565353828   -0.28920428831062794   -0.05696566742815841
-0.2279433578954215   -0.18131017303283853   0.027780564606712112
-0.2279433578954215   -0.18131017303283853   0.027780564606712112
-0.2279433578954215   -0.18131017303283853   0.027780564606712112
-0.2279433578954215   -0.18131017303283853   0.027780564606712112
-0.34101433474977677   -0.15460934374175742   -0.028244003069001725
-0.34101433474977677   -0.15460934374175742   -0.028244003069001725
-0.34101433474977677   -0.15460934374175742   -0.028244003069001725
-0.34101433474977677   -0.15460934374175742   -0.028244003069001725
-0.15985967611495877   -0.23942148603692542   -0.021869636480069857
-0.15985967611495877   -0.23942148603692542   -0.021869636480069857
-0.15985967611495877   -0.23942148603692542   -0.021869636480069857
-0.15985967611495877   -0.23942148603692542   -0.021869636480069857
-0.1433084297247211   -0.10908028298279644   0.004612217157880856
-0.1433084297247211   -0.10908028298279644   0.004612217157880856
-0.1433084297247211   -0.10908028298279644   0.004612217157880856
-0.1433084297247211   -0.10908028298279644   0.004612217157880856
-0.400098981836621   -0.2812852631674915   -0.04942313359936068
-0.400098981836621   -0.2812852631674915   -0.04942313359936068
-0.400098981836621   -0.2812852631674915   -0.04942313359936068
-0.400098981836621   -0.2812852631674915   -0.04942313359936068
-0.23890820124756193   -0.17095053202359822   0.029337078962738024
-0.23890820124756193   -0.17095053202359822   0.029337078962738024
-0.23890820124756193   -0.17095053202359822   0.029337078962738024
-0.23890820124756193   -0.17095053202359822   0.029337078962738024
-0.10555407081306703   -0.09497249177888159   0.006956893792019855
-0.10555407081306703   -0.09497249177888159   0.006956893792019855
-0.10555407081306703   -0.09497249177888159   0.006956893792019855
-0.10555407081306703   -0.09497249177888159   0.006956893792019855
-0.06533272704678944   -0.06432691786821532   -0.016372921648570564
-0.06533272704678944   -0.06432691786821532   -0.016372921648570564
-0.06533272704678944   -0.06432691786821532   -0.016372921648570564
-0.06533272704678944   -0.06432691786821532   -0.016372921648570564
-0.06306375966786705   -0.0851318088252547   0.0069448412777598605
-0.06306375966786705   -0.0851318088252547   0.0069448412777598605
-0.06306375966786705   -0.0851318088252547   0.0069448412777598605
-0.06306375966786705   -0.0851318088252547   0.0069448412777598605
-0.11740498286748527   -0.08733696327493354   -0.007073228343595337
-0.11740498286748527   -0.08733696327493354   -0.007073228343595337
-0.11740498286748527   -0.08733696327493354   -0.007073228343595337
-0.11740498286748527   -0.08733696327493354   -0.007073228343595337
-0.07408054456244159   -0.06988433656917147   0.030886869541373894
-0.07408054456244159   -0.06988433656917147   0.030886869541373894
-0.07408054456244159   -0.06988433656917147   0.030886869541373894
-0.07408054456244159   -0.06988433656917147   0.030886869541373894
-0.11613841831472052   -0.09562598548426468   0.007548616629559548
-0.11613841831472052   -0.09562598548426468   0.007548616629559548
-0.11613841831472052   -0.09562598548426468   0.007548616629559548
-0.11613841831472052   -0.09562598548426468   0.007548616629559548
-0.06540883987181398   -0.07792130226710511   -0.011991066300124432
-0.06540883987181398   -0.07792130226710511   -0.011991066300124432
-0.06540883987181398   -0.07792130226710511   -0.011991066300124432
-0.06540883987181398   -0.07792130226710511   -0.011991066300124432
-0.06395497071776143   -0.08768384667999583   0.006204612950139091
-0.06395497071776143   -0.08768384667999583   0.006204612950139091
-0.06395497071776143   -0.08768384667999583   0.006204612950139091
-0.06395497071776143   -0.08768384667999583   0.006204612950139091
-0.12494746439120781   -0.1017324349324478   0.015002371034207387
-0.12494746439120781   -0.1017324349324478   0.015002371034207387
-0.12494746439120781   -0.1017324349324478   0.015002371034207387
-0.12494746439120781   -0.1017324349324478   0.015002371034207387
-0.08086021653706083   -0.07793071185446904   0.025980331917262317
-0.08086021653706083   -0.07793071185446904   0.025980331917262317
-0.08086021653706083   -0.07793071185446904   0.025980331917262317
-0.08086021653706083   -0.07793071185446904   0.025980331917262317
-0.12540267274259015   -0.09917960900501682   0.010173503349862875
-0.12540267274259015   -0.09917960900501682   0.010173503349862875
-0.12540267274259015   -0.09917960900501682   0.010173503349862875
-0.12540267274259015   -0.09917960900501682   0.010173503349862875
-0.06897652414656952   -0.09571343438761756   -0.0108735664862797
-0.06897652414656952   -0.09571343438761756   -0.0108735664862797
-0.06897652414656952   -0.09571343438761756   -0.0108735664862797
-0.06897652414656952   -0.09571343438761756   -0.0108735664862797
-0.06500842019452877   -0.0904889911839789   0.008744615731281987
-0.06500842019452877   -0.0904889911839789   0.008744615731281987
-0.06500842019452877   -0.0904889911839789   0.008744615731281987
-0.06500842019452877   -0.0904889911839789   0.008744615731281987
-0.14662122811964834   -0.12474534010494102   0.0037132823053891983
-0.14662122811964834   -0.12474534010494102   0.0037132823053891983
-0.14662122811964834   -0.12474534010494102   0.0037132823053891983
-0.14662122811964834   -0.12474534010494102   0.0037132823053891983
-0.09061456901997877   -0.08869600613936467   0.012018231359356164
-0.09061456901997877   -0.08869600613936467   0.012018231359356164
-0.09061456901997877   -0.08869600613936467   0.012018231359356164
-0.09061456901997877   -0.08869600613936467   0.012018231359356164
-0.05309009273124679   -0.03787717030767289   0.018390502368600244
-0.05309009273124679   -0.03787717030767289   0.018390502368600244
-0.05309009273124679   -0.03787717030767289   0.018390502368600244
-0.05309009273124679   -0.03787717030767289   0.018390502368600244
-0.03783017765801772   -0.0013386122759580137   -0.0037146864870200155
-0.03783017765801772   -0.0013386122759580137   -0.0037146864870200155
-0.03783017765801772   -0.0013386122759580137   -0.0037146864870200155
-0.03783017765801772   -0.0013386122759580137   -0.0037146864870200155
-0.035858257811409965   -0.04105602694458773   0.011379914393837913
-0.035858257811409965   -0.04105602694458773   0.011379914393837913
-0.035858257811409965   -0.04105602694458773   0.011379914393837913
-0.035858257811409965   -0.04105602694458773   0.011379914393837913
-0.04957174664422448   -0.008642967029056262   -0.002083935400225737
-0.04957174664422448   -0.008642967029056262   -0.002083935400225737
-0.04957174664422448   -0.008642967029056262   -0.002083935400225737
-0.04957174664422448   -0.008642967029056262   -0.002083935400225737
-0.04073438370963963   -0.021246318720394952   0.009118971879791368
-0.04073438370963963   -0.021246318720394952   0.009118971879791368
-0.04073438370963963   -0.021246318720394952   0.009118971879791368
-0.04073438370963963   -0.021246318720394952   0.009118971879791368
-0.05259262401801531   -0.04320428410360301   0.01737299480536686
-0.05259262401801531   -0.04320428410360301   0.01737299480536686
-0.05259262401801531   -0.04320428410360301   0.01737299480536686
-0.05259262401801531   -0.04320428410360301   0.01737299480536686
-0.031941767060991395   -0.005599096493413237   -0.004494562305243698
-0.031941767060991395   -0.005599096493413237   -0.004494562305243698
-0.031941767060991395   -0.005599096493413237   -0.004494562305243698
-0.031941767060991395   -0.005599096493413237   -0.004494562305243698
-0.033024430391685844   -0.044669043745331746   0.010522547405599882
-0.033024430391685844   -0.044669043745331746   0.010522547405599882
-0.033024430391685844   -0.044669043745331746   0.010522547405599882
-0.033024430391685844   -0.044669043745331746   0.010522547405599882
-0.05014591438090901   -0.015899776080893557   0.0034658240352988864
-0.05014591438090901   -0.015899776080893557   0.0034658240352988864
-0.05014591438090901   -0.015899776080893557   0.0034658240352988864
-0.05014591438090901   -0.015899776080893557   0.0034658240352988864
-0.03757789315289497   -0.02439843339092425   0.01073195113496441
-0.03757789315289497   -0.02439843339092425   0.01073195113496441
-0.03757789315289497   -0.02439843339092425   0.01073195113496441
-0.03757789315289497   -0.02439843339092425   0.01073195113496441
-0.053044740285636494   -0.04680269293257355   0.019874611363341482
-0.053044740285636494   -0.04680269293257355   0.019874611363341482
-0.053044740285636494   -0.04680269293257355   0.019874611363341482
-0.053044740285636494   -0.04680269293257355   0.019874611363341482
-0.030453963687287186   -0.01409448609398057   -0.007199676723757998
-0.030453963687287186   -0.01409448609398057   -0.007199676723757998
-0.030453963687287186   -0.01409448609398057   -0.007199676723757998
-0.030453963687287186   -0.01409448609398057   -0.007199676723757998
-0.02790151809644898   -0.048673855978450156   0.01159178710611421
-0.02790151809644898   -0.048673855978450156   0.01159178710611421
-0.02790151809644898   -0.048673855978450156   0.01159178710611421
-0.02790151809644898   -0.048673855978450156   0.01159178710611421
-0.05442598389585503   -0.03334285200059583   0.004510658041267569
-0.05442598389585503   -0.03334285200059583   0.004510658041267569
-0.05442598389585503   -0.03334285200059583   0.004510658041267569
-0.05442598389585503   -0.03334285200059583   0.004510658041267569
-0.03640372633741945   -0.030709169441980322   0.009113590727256444
-0.03640372633741945   -0.030709169441980322   0.009113590727256444
-0.03640372633741945   -0.030709169441980322   0.009113590727256444
-0.03640372633741945   -0.030709169441980322   0.009113590727256444
-0.03441198755741098   -0.006535601744583014   0.0185732534846387
-0.03441198755741098   -0.006535601744583014   0.0185732534846387
-0.03441198755741098   -0.006535601744583014   0.0185732534846387
-0.03441198755741098   -0.006535601744583014   0.0185732534846387
-0.006473522162119757   0.003779460192885457   -0.0003754440971530835
-0.006473522162119757   0.003779460192885457   -0.0003754440971530835
-0.006473522162119757   0.003779460192885457   -0.0003754440971530835
-0.006473522162119757   0.003779460192885457   -0.0003754440971530835
0.0014893669913407601   -0.002128647304958301   0.011542475055095773
0.0014893669913407601   -0.002128647304958301   0.011542475055095773
0.0014893669913407601   -0.002128647304958301   0.011542475055095773
0.0014893669913407601   -0.002128647304958301   0.011542475055095773
-0.029642563994345766   0.0026764981947210113   -0.0012741416601498184
-0.029642563994345766   0.0026764981947210113   -0.0012741416601498184
-0.029642563994345766   0.0026764981947210113   -0.0012741416601498184
-0.029642563994345766   0.0026764981947210113   -0.0012741416601498184
-0.01752618971815276   -0.001365886577210209   -0.0013920166548085059
-0.01752618971815276   -0.001365886577210209   -0.0013920166548085059
-0.01752618971815276   -0.001365886577210209   -0.0013920166548085059
-0.01752618971815276   -0.001365886577210209   -0.0013920166548085059
-0.027323865190633723   -0.006333848868121088   0.019329699421252487
-0.027323865190633723   -0.006333848868121088   0.019329699421252487
-0.027323865190633723   -0.006333848868121088   0.019329699421252487
-0.027323865190633723   -0.006333848868121088   0.019329699421252487
0.0001878710342852006   0.00789890260454092   -0.0049925546396812435
0.0001878710342852006   0.00789890260454092   -0.0049925546396812435
0.0001878710342852006   0.00789890260454092   -0.0049925546396812435
0.0001878710342852006   0.00789890260454092   -0.0049925546396812435
0.005407182693939661   -0.0026442441524907115   0.014235135144472034
0.005407182693939661   -0.0026442441524907115   0.014235135144472034
0.005407182693939661   -0.0026442441524907115   0.014235135144472034
0.005407182693939661   -0.0026442441524907115   0.014235135144472034
-0.026199511441842533   0.0018369919101799753   -0.0018588935006952846
-0.026199511441842533   0.0018369919101799753   -0.0018588935006952846
-0.026199511441842533   0.0018369919101799753   -0.0018588935006952846
-0.026199511441842533   0.0018369919101799753   -0.0018588935006952846
-0.011736075260814128   -0.00042224252908607007   0.0017857001702652844
-0.011736075260814128   -0.00042224252908607007   0.0017857001702652844
-0.011736075260814128   -0.00042224252908607007   0.0017857001702652844
-0.011736075260814128   -0.00042224252908607007   0.0017857001702652844
-0.0234573250816767   -0.0071053055787040475   0.020794335789017886
-0.0234573250816767   -0.0071053055787040475   0.020794335789017886
-0.0234573250816767   -0.0071053055787040475   0.020794335789017886
-0.0234573250816767   -0.0071053055787040475   0.020794335789017886
0.0035614290834817563   0.0071944860861018756   -0.0048323631464100725
0.0035614290834817563   0.0071944860861018756   -0.0048323631464100725
0.0035614290834817563   0.0071944860861018756   -0.0048323631464100725
0.0035614290834817563   0.0071944860861018756   -0.0048323631464100725
0.009313031799385413   -0.004212437078453915   0.01386035394844659
0.009313031799385413   -0.004212437078453915   0.01386035394844659
0.009313031799385413   -0.004212437078453915   0.01386035394844659
0.009313031799385413   -0.004212437078453915   0.01386035394844659
-0.020584848201196007   0.0015901975097271336   -0.0020889169057982226
-0.020584848201196007   0.0015901975097271336   -0.0020889169057982226
-0.020584848201196007   0.0015901975097271336   -0.0020889169057982226
-0.020584848201196007   0.0015901975097271336   -0.0020889169057982226
-0.006602319902243315   9.837993813708592e-05   0.00453015468489796
-0.006602319902243315   9.837993813708592e-05   0.00453015468489796
-0.006602319902243315   9.837993813708592e-05   0.00453015468489796
-0.006602319902243315   9.837993813708592e-05   0.00453015468489796
              </DataArray>   
             <DataArray type="Float64" NumberOfComponents="3" Name="Displacements" format="ascii">   
0.0   0.0   0.0
-0.003154016405956149   -0.002074344014332461   -0.0010568747920602928
0.0   0.0   0.0
0.0   0.0   0.0
-0.003154016405956149   -0.002074344014332461   -0.0010568747920602928
-0.002006530711482292   -0.0018650482074582756   -0.0007765500593145215
0.0   0.0   0.0
-0.0019665555776177345   -0.0019583454163238975   -0.000650680989944758
0.0   0.0   0.0
0.0   0.0   0.0
-0.0019665555776177345   -0.0019583454163238975   -0.000650680989944758
0.0   0.0   0.0
0.0   0.0   0.0
-0.0019665555776177345   -0.0019583454163238975   -0.000650680989944758
-0.0033004657924073175   -0.002209676563314642   -0.0008486705985897529
-0.003154016405956149   -0.002074344014332461   -0.0010568747920602928
0.0   0.0   0.0
-0.0019665555776177345   -0.0019583454163238975   -0.000650680989944758
-0.003154016405956149   -0.002074344014332461   -0.0010568747920602928
0.0   0.0   0.0
0.0   0.0   0.0
-0.0033004657924073175   -0.002209676563314642   -0.0008486705985897529
0.0   0.0   0.0
0.0   0.0   0.0
-0.0033004657924073175   -0.002209676563314642   -0.0008486705985897529
-0.0019665555776177345   -0.0019583454163238975   -0.000650680989944758
0.0   0.0   0.0
-0.001971785378098554   -0.0020061937130749236   -0.0005250292869007137
0.0   0.0   0.0
0.0   0.0   0.0
-0.001971785378098554   -0.0020061937130749236   -0.0005250292869007137
0.0   0.0   0.0
0.0   0.0   0.0
-0.001971785378098554   -0.0020061937130749236   -0.0005250292869007137
-0.003403170584704301   -0.002275502231324905   -0.0006492470407498076
-0.0033004657924073175   -0.002209676563314642   -0.0008486705985897529
0.0   0.0   0.0
-0.001971785378098554   -0.0020061937130749236   -0.0005250292869007137
-0.0033004657924073175   -0.002209676563314642   -0.0008486705985897529
0.0   0.0   0.0
0.0   0.0   0.0
-0.003403170584704301   -0.002275502231324905   -0.0006492470407498076
0.0   0.0   0.0
0.0   0.0   0.0
-0.003403170584704301   -0.002275502231324905   -0.0006492470407498076
-0.001971785378098554   -0.0020061937130749236   -0.0005250292869007137
0.0   0.0   0.0
-0.00197039247984167   -0.0020185386838446964   -0.0003951487210062297
0.0   0.0   0.0
0.0   0.0   0.0
-0.00197039247984167   -0.0020185386838446964   -0.0003951487210062297
0.0   0.0   0.0
0.0   0.0   0.0
-0.00197039247984167   -0.0020185386838446964   -0.0003951487210062297
-0.003624738829665154   -0.002325477035355802   -0.00041793186702655994
-0.003403170584704301   -0.002275502231324905   -0.0006492470407498076
0.0   0.0   0.0
-0.00197039247984167   -0.0020185386838446964   -0.0003951487210062297
-0.003403170584704301   -0.002275502231324905   -0.0006492470407498076
0.0   0.0   0.0
0.0   0.0   0.0
-0.002006530711482292   -0.0018650482074582756   -0.0007765500593145215
0.0   0.0   0.0
0.0   0.0   0.0
-0.002006530711482292   -0.0018650482074582756   -0.0007765500593145215
-0.0009141506383383272   -0.0017883536700187964   -0.0005907956209697207
0.0   0.0   0.0
-0.0008789089372207271   -0.001849041869659681   -0.0005313359826863554
0.0   0.0   0.0
0.0   0.0   0.0
-0.0008789089372207271   -0.001849041869659681   -0.0005313359826863554
0.0   0.0   0.0
0.0   0.0   0.0
-0.0008789089372207271   -0.001849041869659681   -0.0005313359826863554
-0.0019665555776177345   -0.0019583454163238975   -0.000650680989944758
-0.002006530711482292   -0.0018650482074582756   -0.0007765500593145215
0.0   0.0   0.0
-0.0008789089372207271   -0.001849041869659681   -0.0005313359826863554
-0.002006530711482292   -0.0018650482074582756   -0.0007765500593145215
0.0   0.0   0.0
0.0   0.0   0.0
-0.0019665555776177345   -0.0019583454163238975   -0.000650680989944758
0.0   0.0   0.0
0.0   0.0   0.0
-0.0019665555776177345   -0.0019583454163238975   -0.000650680989944758
-0.0008789089372207271   -0.001849041869659681   -0.0005313359826863554
0.0   0.0   0.0
-0.0008589868441895737   -0.0018721869358371576   -0.0004734646183057118
0.0   0.0   0.0
0.0   0.0   0.0
-0.0008589868441895737   -0.0018721869358371576   -0.0004734646183057118
0.0   0.0   0.0
0.0   0.0   0.0
-0.0008589868441895737   -0.0018721869358371576   -0.0004734646183057118
-0.001971785378098554   -0.0020061937130749236   -0.0005250292869007137
-0.0019665555776177345   -0.0019583454163238975   -0.000650680989944758
0.0   0.0   0.0
-0.0008589868441895737   -0.0018721869358371576   -0.0004734646183057118
-0.0019665555776177345   -0.0019583454163238975   -0.000650680989944758
0.0   0.0   0.0
0.0   0.0   0.0
-0.001971785378098554   -0.0020061937130749236   -0.0005250292869007137
0.0   0.0   0.0
0.0   0.0   0.0
-0.001971785378098554   -0.0020061937130749236   -0.0005250292869007137
-0.0008589868441895737   -0.0018721869358371576   -0.0004734646183057118
0.0   0.0   0.0
-0.0008407939779048954   -0.0018625611523144403   -0.00041367317327542356
0.0   0.0   0.0
0.0   0.0   0.0
-0.0008407939779048954   -0.0018625611523144403   -0.00041367317327542356
0.0   0.0   0.0
0.0   0.0   0.0
-0.0008407939779048954   -0.0018625611523144403   -0.00041367317327542356
-0.00197039247984167   -0.0020185386838446964   -0.0003951487210062297
-0.001971785378098554   -0.0020061937130749236   -0.0005250292869007137
0.0   0.0   0.0
-0.0008407939779048954   -0.0018625611523144403   -0.00041367317327542356
-0.001971785378098554   -0.0020061937130749236   -0.0005250292869007137
0.0   0.0   0.0
0.0   0.0   0.0
-0.0009141506383383272   -0.0017883536700187964   -0.0005907956209697207
0.0   0.0   0.0
0.0   0.0   0.0
-0.0009141506383383272   -0.0017883536700187964   -0.0005907956209697207
0.00011767305670601064   -0.0017982297455755756   -0.0004725255797902228
0.0   0.0   0.0
0.00014031436866850336   -0.001829641796191231   -0.0004806617414586721
0.0   0.0   0.0
0.0   0.0   0.0
0.00014031436866850336   -0.001829641796191231   -0.0004806617414586721
0.0   0.0   0.0
0.0   0.0   0.0
0.00014031436866850336   -0.001829641796191231   -0.0004806617414586721
-0.0008789089372207271   -0.001849041869659681   -0.0005313359826863554
-0.0009141506383383272   -0.0017883536700187964   -0.0005907956209697207
0.0   0.0   0.0
0.00014031436866850336   -0.001829641796191231   -0.0004806617414586721
-0.0009141506383383272   -0.0017883536700187964   -0.0005907956209697207
0.0   0.0   0.0
0.0   0.0   0.0
-0.0008789089372207271   -0.001849041869659681   -0.0005313359826863554
0.0   0.0   0.0
0.0   0.0   0.0
-0.0008789089372207271   -0.001849041869659681   -0.0005313359826863554
0.00014031436866850336   -0.001829641796191231   -0.0004806617414586721
0.0   0.0   0.0
0.00015822612531364336   -0.0018269999329611473   -0.0004880417068454139
0.0   0.0   0.0
0.0   0.0   0.0
0.00015822612531364336   -0.0018269999329611473   -0.0004880417068454139
0.0   0.0   0.0
0.0   0.0   0.0
0.00015822612531364336   -0.0018269999329611473   -0.0004880417068454139
-0.0008589868441895737   -0.0018721869358371576   -0.0004734646183057118
-0.0008789089372207271   -0.001849041869659681   -0.0005313359826863554
0.0   0.0   0.0
0.00015822612531364336   -0.0018269999329611473   -0.0004880417068454139
-0.0008789089372207271   -0.001849041869659681   -0.0005313359826863554
0.0   0.0   0.0
0.0   0.0   0.0
-0.0008589868441895737   -0.0018721869358371576   -0.0004734646183057118
0.0   0.0   0.0
0.0   0.0   0.0
-0.0008589868441895737   -0.0018721869358371576   -0.0004734646183057118
0.00015822612531364336   -0.0018269999329611473   -0.0004880417068454139
0.0   0.0   0.0
0.00018222150357073537   -0.0017875175944019673   -0.0004956636792108309
0.0   0.0   0.0
0.0   0.0   0.0
0.00018222150357073537   -0.0017875175944019673   -0.0004956636792108309
0.0   0.0   0.0
0.0   0.0   0.0
0.00018222150357073537   -0.0017875175944019673   -0.0004956636792108309
-0.0008407939779048954   -0.0018625611523144403   -0.00041367317327542356
-0.0008589868441895737   -0.0018721869358371576   -0.0004734646183057118
0.0   0.0   0.0
0.00018222150357073537   -0.0017875175944019673   -0.0004956636792108309
-0.0008589868441895737   -0.0018721869358371576   -0.0004734646183057118
0.0   0.0   0.0
0.0   0.0   0.0
0.00011767305670601064   -0.0017982297455755756   -0.0004725255797902228
0.0   0.0   0.0
0.0   0.0   0.0
0.00011767305670601064   -0.0017982297455755756   -0.0004725255797902228
0.0012379711096366741   -0.0018853515651708708   -0.0004141663337128708
0.0   0.0   0.0
0.0012405507618526816   -0.001895266636787179   -0.0004934312923752873
0.0   0.0   0.0
0.0   0.0   0.0
0.0012405507618526816   -0.001895266636787179   -0.0004934312923752873
0.0   0.0   0.0
0.0   0.0   0.0
0.0012405507618526816   -0.001895266636787179   -0.0004934312923752873
0.00014031436866850336   -0.001829641796191231   -0.0004806617414586721
0.00011767305670601064   -0.0017982297455755756   -0.0004725255797902228
0.0   0.0   0.0
0.0012405507618526816   -0.001895266636787179   -0.0004934312923752873
0.00011767305670601064   -0.0017982297455755756   -0.0004725255797902228
0.0   0.0   0.0
0.0   0.0   0.0
0.00014031436866850336   -0.001829641796191231   -0.0004806617414586721
0.0   0.0   0.0
0.0   0.0   0.0
0.00014031436866850336   -0.001829641796191231   -0.0004806617414586721
0.0012405507618526816   -0.001895266636787179   -0.0004934312923752873
0.0   0.0   0.0
0.0012355637015819484   -0.0018682056552209033   -0.0005695186178293178
0.0   0.0   0.0
0.0   0.0   0.0
0.0012355637015819484   -0.0018682056552209033   -0.0005695186178293178
0.0   0.0   0.0
0.0   0.0   0.0
0.0012355637015819484   -0.0018682056552209033   -0.0005695186178293178
0.00015822612531364336   -0.0018269999329611473   -0.0004880417068454139
0.00014031436866850336   -0.001829641796191231   -0.0004806617414586721
0.0   0.0   0.0
0.0012355637015819484   -0.0018682056552209033   -0.0005695186178293178
0.00014031436866850336   -0.001829641796191231   -0.0004806617414586721
0.0   0.0   0.0
0.0   0.0   0.0
0.00015822612531364336   -0.0018269999329611473   -0.0004880417068454139
0.0   0.0   0.0
0.0   0.0   0.0
0.00015822612531364336   -0.0018269999329611473   -0.0004880417068454139
0.0012355637015819484   -0.0018682056552209033   -0.0005695186178293178
0.0   0.0   0.0
0.0012598061325455683   -0.0017959213949197807   -0.0006441942473678664
0.0   0.0   0.0
0.0   0.0   0.0
0.0012598061325455683   -0.0017959213949197807   -0.0006441942473678664
0.0   0.0   0.0
0.0   0.0   0.0
0.0012598061325455683   -0.0017959213949197807   -0.0006441942473678664
0.00018222150357073537   -0.0017875175944019673   -0.0004956636792108309
0.00015822612531364336   -0.0018269999329611473   -0.0004880417068454139
0.0   0.0   0.0
0.0012598061325455683   -0.0017959213949197807   -0.0006441942473678664
0.00015822612531364336   -0.0018269999329611473   -0.0004880417068454139
0.0   0.0   0.0
0.0   0.0   0.0
0.0012379711096366741   -0.0018853515651708708   -0.0004141663337128708
0.0   0.0   0.0
0.0   0.0   0.0
0.0012379711096366741   -0.0018853515651708708   -0.0004141663337128708
0.0027968969438167315   -0.0021063576864824877   -0.000391121566515086
0.0   0.0   0.0
0.0026272290143129263   -0.0020831877831598857   -0.0005709620043625036
0.0   0.0   0.0
0.0   0.0   0.0
0.0026272290143129263   -0.0020831877831598857   -0.0005709620043625036
0.0   0.0   0.0
0.0   0.0   0.0
0.0026272290143129263   -0.0020831877831598857   -0.0005709620043625036
0.0012405507618526816   -0.001895266636787179   -0.0004934312923752873
0.0012379711096366741   -0.0018853515651708708   -0.0004141663337128708
0.0   0.0   0.0
0.0026272290143129263   -0.0020831877831598857   -0.0005709620043625036
0.0012379711096366741   -0.0018853515651708708   -0.0004141663337128708
0.0   0.0   0.0
0.0   0.0   0.0
0.0012405507618526816   -0.001895266636787179   -0.0004934312923752873
0.0   0.0   0.0
0.0   0.0   0.0
0.0012405507618526816   -0.001895266636787179   -0.0004934312923752873
0.0026272290143129263   -0.0020831877831598857   -0.0005709620043625036
0.0   0.0   0.0
0.0025491356163238553   -0.002039880743140295   -0.000723077346548113
0.0   0.0   0.0
0.0   0.0   0.0
0.0025491356163238553   -0.002039880743140295   -0.000723077346548113
0.0   0.0   0.0
0.0   0.0   0.0
0.0025491356163238553   -0.002039880743140295   -0.000723077346548113
0.0012355637015819484   -0.0018682056552209033   -0.0005695186178293178
0.0012405507618526816   -0.001895266636787179   -0.0004934312923752873
0.0   0.0   0.0
0.0025491356163238553   -0.002039880743140295   -0.000723077346548113
0.0012405507618526816   -0.001895266636787179   -0.0004934312923752873
0.0   0.0   0.0
0.0   0.0   0.0
0.0012355637015819484   -0.0018682056552209033   -0.0005695186178293178
0.0   0.0   0.0
0.0   0.0   0.0
0.0012355637015819484   -0.0018682056552209033   -0.0005695186178293178
0.0025491356163238553   -0.002039880743140295   -0.000723077346548113
0.0   0.0   0.0
0.002432648630192243   -0.0019292104861685574   -0.0008841306878726058
0.0   0.0   0.0
0.0   0.0   0.0
0.002432648630192243   -0.0019292104861685574   -0.0008841306878726058
0.0   0.0   0.0
0.0   0.0   0.0
0.002432648630192243   -0.0019292104861685574   -0.0008841306878726058
0.0012598061325455683   -0.0017959213949197807   -0.0006441942473678664
0.0012355637015819484   -0.0018682056552209033   -0.0005695186178293178
0.0   0.0   0.0
0.002432648630192243   -0.0019292104861685574   -0.0008841306878726058
0.0012355637015819484   -0.0018682056552209033   -0.0005695186178293178
0.0   0.0   0.0
-0.003154016405956149   -0.002074344014332461   -0.0010568747920602928
-0.005887348035789684   -0.0057831367188631135   -0.0014240677240510422
-0.002006530711482292   -0.0018650482074582756   -0.0007765500593145215
-0.0033004657924073175   -0.002209676563314642   -0.0008486705985897529
-0.005887348035789684   -0.0057831367188631135   -0.0014240677240510422
-0.0037574973801438104   -0.005595037774400552   -0.0011725530196706468
-0.002006530711482292   -0.0018650482074582756   -0.0007765500593145215
-0.003761412835886647   -0.005690421522987502   -0.0010562347749999523
-0.0033004657924073175   -0.002209676563314642   -0.0008486705985897529
-0.0019665555776177345   -0.0019583454163238975   -0.000650680989944758
-0.003761412835886647   -0.005690421522987502   -0.0010562347749999523
-0.002006530711482292   -0.0018650482074582756   -0.0007765500593145215
-0.0033004657924073175   -0.002209676563314642   -0.0008486705985897529
-0.003761412835886647   -0.005690421522987502   -0.0010562347749999523
-0.006063041570393121   -0.005916289645182187   -0.001235264401573875
-0.005887348035789684   -0.0057831367188631135   -0.0014240677240510422
-0.0033004657924073175   -0.002209676563314642   -0.0008486705985897529
-0.003761412835886647   -0.005690421522987502   -0.0010562347749999523
-0.005887348035789684   -0.0057831367188631135   -0.0014240677240510422
-0.002006530711482292   -0.0018650482074582756   -0.0007765500593145215
-0.0033004657924073175   -0.002209676563314642   -0.0008486705985897529
-0.006063041570393121   -0.005916289645182187   -0.001235264401573875
-0.0019665555776177345   -0.0019583454163238975   -0.000650680989944758
-0.003403170584704301   -0.002275502231324905   -0.0006492470407498076
-0.006063041570393121   -0.005916289645182187   -0.001235264401573875
-0.003761412835886647   -0.005690421522987502   -0.0010562347749999523
-0.0019665555776177345   -0.0019583454163238975   -0.000650680989944758
-0.0037756639290897924   -0.005748616540064473   -0.0009444919002910015
-0.003403170584704301   -0.002275502231324905   -0.0006492470407498076
-0.001971785378098554   -0.0020061937130749236   -0.0005250292869007137
-0.0037756639290897924   -0.005748616540064473   -0.0009444919002910015
-0.0019665555776177345   -0.0019583454163238975   -0.000650680989944758
-0.003403170584704301   -0.002275502231324905   -0.0006492470407498076
-0.0037756639290897924   -0.005748616540064473   -0.0009444919002910015
-0.006184891070834696   -0.005991535053489342   -0.0010504409289702964
-0.006063041570393121   -0.005916289645182187   -0.001235264401573875
-0.003403170584704301   -0.002275502231324905   -0.0006492470407498076
-0.0037756639290897924   -0.005748616540064473   -0.0009444919002910015
-0.006063041570393121   -0.005916289645182187   -0.001235264401573875
-0.0019665555776177345   -0.0019583454163238975   -0.000650680989944758
-0.003403170584704301   -0.002275502231324905   -0.0006492470407498076
-0.006184891070834696   -0.005991535053489342   -0.0010504409289702964
-0.001971785378098554   -0.0020061937130749236   -0.0005250292869007137
-0.003624738829665154   -0.002325477035355802   -0.00041793186702655994
-0.006184891070834696   -0.005991535053489342   -0.0010504409289702964
-0.0037756639290897924   -0.005748616540064473   -0.0009444919002910015
-0.001971785378098554   -0.0020061937130749236   -0.0005250292869007137
-0.003763831312173352   -0.005778896166514256   -0.0008399309114270846
-0.003624738829665154   -0.002325477035355802   -0.00041793186702655994
-0.00197039247984167   -0.0020185386838446964   -0.0003951487210062297
-0.003763831312173352   -0.005778896166514256   -0.0008399309114270846
-0.001971785378098554   -0.0020061937130749236   -0.0005250292869007137
-0.003624738829665154   -0.002325477035355802   -0.00041793186702655994
-0.003763831312173352   -0.005778896166514256   -0.0008399309114270846
-0.006328888330984692   -0.006035429881788813   -0.0008823617894258202
-0.006184891070834696   -0.005991535053489342   -0.0010504409289702964
-0.003624738829665154   -0.002325477035355802   -0.00041793186702655994
-0.003763831312173352   -0.005778896166514256   -0.0008399309114270846
-0.006184891070834696   -0.005991535053489342   -0.0010504409289702964
-0.001971785378098554   -0.0020061937130749236   -0.0005250292869007137
-0.002006530711482292   -0.0018650482074582756   -0.0007765500593145215
-0.0037574973801438104   -0.005595037774400552   -0.0011725530196706468
-0.0009141506383383272   -0.0017883536700187964   -0.0005907956209697207
-0.0019665555776177345   -0.0019583454163238975   -0.000650680989944758
-0.0037574973801438104   -0.005595037774400552   -0.0011725530196706468
-0.001744375560727646   -0.005507508760877553   -0.0010009115185983886
-0.0009141506383383272   -0.0017883536700187964   -0.0005907956209697207
-0.0017287943186547951   -0.005568163806045241   -0.000941255283920914
-0.0019665555776177345   -0.0019583454163238975   -0.000650680989944758
-0.0008789089372207271   -0.001849041869659681   -0.0005313359826863554
-0.0017287943186547951   -0.005568163806045241   -0.000941255283920914
-0.0009141506383383272   -0.0017883536700187964   -0.0005907956209697207
-0.0019665555776177345   -0.0019583454163238975   -0.000650680989944758
-0.0017287943186547951   -0.005568163806045241   -0.000941255283920914
-0.003761412835886647   -0.005690421522987502   -0.0010562347749999523
-0.0037574973801438104   -0.005595037774400552   -0.0011725530196706468
-0.0019665555776177345   -0.0019583454163238975   -0.000650680989944758
-0.0017287943186547951   -0.005568163806045241   -0.000941255283920914
-0.0037574973801438104   -0.005595037774400552   -0.0011725530196706468
-0.0009141506383383272   -0.0017883536700187964   -0.0005907956209697207
-0.0019665555776177345   -0.0019583454163238975   -0.000650680989944758
-0.003761412835886647   -0.005690421522987502   -0.0010562347749999523
-0.0008789089372207271   -0.001849041869659681   -0.0005313359826863554
-0.001971785378098554   -0.0020061937130749236   -0.0005250292869007137
-0.003761412835886647   -0.005690421522987502   -0.0010562347749999523
-0.0017287943186547951   -0.005568163806045241   -0.000941255283920914
-0.0008789089372207271   -0.001849041869659681   -0.0005313359826863554
-0.0017149269063342968   -0.005597599890003164   -0.0008871986947767556
-0.001971785378098554   -0.0020061937130749236   -0.0005250292869007137
-0.0008589868441895737   -0.0018721869358371576   -0.0004734646183057118
-0.0017149269063342968   -0.005597599890003164   -0.0008871986947767556
-0.0008789089372207271   -0.001849041869659681   -0.0005313359826863554
-0.001971785378098554   -0.0020061937130749236   -0.0005250292869007137
-0.0017149269063342968   -0.005597599890003164   -0.0008871986947767556
-0.0037756639290897924   -0.005748616540064473   -0.0009444919002910015
-0.003761412835886647   -0.005690421522987502   -0.0010562347749999523
-0.001971785378098554   -0.0020061937130749236   -0.0005250292869007137
-0.0017149269063342968   -0.005597599890003164   -0.0008871986947767556
-0.003761412835886647   -0.005690421522987502   -0.0010562347749999523
-0.0008789089372207271   -0.001849041869659681   -0.0005313359826863554
-0.001971785378098554   -0.0020061937130749236   -0.0005250292869007137
-0.0037756639290897924   -0.005748616540064473   -0.0009444919002910015
-0.0008589868441895737   -0.0018721869358371576   -0.0004734646183057118
-0.00197039247984167   -0.0020185386838446964   -0.0003951487210062297
-0.0037756639290897924   -0.005748616540064473   -0.0009444919002910015
-0.0017149269063342968   -0.005597599890003164   -0.0008871986947767556
-0.0008589868441895737   -0.0018721869358371576   -0.0004734646183057118
-0.0016944807343512987   -0.005596925239135233   -0.0008401632746970824
-0.00197039247984167   -0.0020185386838446964   -0.0003951487210062297
-0.0008407939779048954   -0.0018625611523144403   -0.00041367317327542356
-0.0016944807343512987   -0.005596925239135233   -0.0008401632746970824
-0.0008589868441895737   -0.0018721869358371576   -0.0004734646183057118
-0.00197039247984167   -0.0020185386838446964   -0.0003951487210062297
-0.0016944807343512987   -0.005596925239135233   -0.0008401632746970824
-0.003763831312173352   -0.005778896166514256   -0.0008399309114270846
-0.0037756639290897924   -0.005748616540064473   -0.0009444919002910015
-0.00197039247984167   -0.0020185386838446964   -0.0003951487210062297
-0.0016944807343512987   -0.005596925239135233   -0.0008401632746970824
-0.0037756639290897924   -0.005748616540064473   -0.0009444919002910015
-0.0008589868441895737   -0.0018721869358371576   -0.0004734646183057118
-0.0009141506383383272   -0.0017883536700187964   -0.0005907956209697207
-0.001744375560727646   -0.005507508760877553   -0.0010009115185983886
0.00011767305670601064   -0.0017982297455755756   -0.0004725255797902228
-0.0008789089372207271   -0.001849041869659681   -0.0005313359826863554
-0.001744375560727646   -0.005507508760877553   -0.0010009115185983886
0.00019654535517717083   -0.005510146744135875   -0.0008925236544944617
0.00011767305670601064   -0.0017982297455755756   -0.0004725255797902228
0.00021560438063449578   -0.005538798378007174   -0.0008884751401534626
-0.0008789089372207271   -0.001849041869659681   -0.0005313359826863554
0.00014031436866850336   -0.001829641796191231   -0.0004806617414586721
0.00021560438063449578   -0.005538798378007174   -0.0008884751401534626
0.00011767305670601064   -0.0017982297455755756   -0.0004725255797902228
-0.0008789089372207271   -0.001849041869659681   -0.0005313359826863554
0.00021560438063449578   -0.005538798378007174   -0.0008884751401534626
-0.0017287943186547951   -0.005568163806045241   -0.000941255283920914
-0.001744375560727646   -0.005507508760877553   -0.0010009115185983886
-0.0008789089372207271   -0.001849041869659681   -0.0005313359826863554
0.00021560438063449578   -0.005538798378007174   -0.0008884751401534626
-0.001744375560727646   -0.005507508760877553   -0.0010009115185983886
0.00011767305670601064   -0.0017982297455755756   -0.0004725255797902228
-0.0008789089372207271   -0.001849041869659681   -0.0005313359826863554
-0.0017287943186547951   -0.005568163806045241   -0.000941255283920914
0.00014031436866850336   -0.001829641796191231   -0.0004806617414586721
-0.0008589868441895737   -0.0018721869358371576   -0.0004734646183057118
-0.0017287943186547951   -0.005568163806045241   -0.000941255283920914
0.00021560438063449578   -0.005538798378007174   -0.0008884751401534626
0.00014031436866850336   -0.001829641796191231   -0.0004806617414586721
0.00022859720625731606   -0.005536961027863499   -0.0008907801080647095
-0.0008589868441895737   -0.0018721869358371576   -0.0004734646183057118
0.00015822612531364336   -0.0018269999329611473   -0.0004880417068454139
0.00022859720625731606   -0.005536961027863499   -0.0008907801080647095
0.00014031436866850336   -0.001829641796191231   -0.0004806617414586721
-0.0008589868441895737   -0.0018721869358371576   -0.0004734646183057118
0.00022859720625731606   -0.005536961027863499   -0.0008907801080647095
-0.0017149269063342968   -0.005597599890003164   -0.0008871986947767556
-0.0017287943186547951   -0.005568163806045241   -0.000941255283920914
-0.0008589868441895737   -0.0018721869358371576   -0.0004734646183057118
0.00022859720625731606   -0.005536961027863499   -0.0008907801080647095
-0.0017287943186547951   -0.005568163806045241   -0.000941255283920914
0.00014031436866850336   -0.001829641796191231   -0.0004806617414586721
-0.0008589868441895737   -0.0018721869358371576   -0.0004734646183057118
-0.0017149269063342968   -0.005597599890003164   -0.0008871986947767556
0.00015822612531364336   -0.0018269999329611473   -0.0004880417068454139
-0.0008407939779048954   -0.0018625611523144403   -0.00041367317327542356
-0.0017149269063342968   -0.005597599890003164   -0.0008871986947767556
0.00022859720625731606   -0.005536961027863499   -0.0008907801080647095
0.00015822612531364336   -0.0018269999329611473   -0.0004880417068454139
0.00024249693399771338   -0.005503706908539187   -0.000899538350369484
-0.0008407939779048954   -0.0018625611523144403   -0.00041367317327542356
0.00018222150357073537   -0.0017875175944019673   -0.0004956636792108309
0.00024249693399771338   -0.005503706908539187   -0.000899538350369484
0.00015822612531364336   -0.0018269999329611473   -0.0004880417068454139
-0.0008407939779048954   -0.0018625611523144403   -0.00041367317327542356
0.00024249693399771338   -0.005503706908539187   -0.000899538350369484
-0.0016944807343512987   -0.005596925239135233   -0.0008401632746970824
-0.0017149269063342968   -0.005597599890003164   -0.0008871986947767556
-0.0008407939779048954   -0.0018625611523144403   -0.00041367317327542356
0.00024249693399771338   -0.005503706908539187   -0.000899538350369484
-0.0017149269063342968   -0.005597599890003164   -0.0008871986947767556
0.00015822612531364336   -0.0018269999329611473   -0.0004880417068454139
0.00011767305670601064   -0.0017982297455755756   -0.0004725255797902228
0.00019654535517717083   -0.005510146744135875   -0.0008925236544944617
0.0012379711096366741   -0.0018853515651708708   -0.0004141663337128708
0.00014031436866850336   -0.001829641796191231   -0.0004806617414586721
0.00019654535517717083   -0.005510146744135875   -0.0008925236544944617
0.0022536736330744083   -0.005599707464487907   -0.0008421697179670144
0.0012379711096366741   -0.0018853515651708708   -0.0004141663337128708
0.0022647700525585336   -0.005599258867708492   -0.0008955284868666675
0.00014031436866850336   -0.001829641796191231   -0.0004806617414586721
0.0012405507618526816   -0.001895266636787179   -0.0004934312923752873
0.0022647700525585336   -0.005599258867708492   -0.0008955284868666675
0.0012379711096366741   -0.0018853515651708708   -0.0004141663337128708
0.00014031436866850336   -0.001829641796191231   -0.0004806617414586721
0.0022647700525585336   -0.005599258867708492   -0.0008955284868666675
0.00021560438063449578   -0.005538798378007174   -0.0008884751401534626
0.00019654535517717083   -0.005510146744135875   -0.0008925236544944617
0.00014031436866850336   -0.001829641796191231   -0.0004806617414586721
0.0022647700525585336   -0.005599258867708492   -0.0008955284868666675
0.00019654535517717083   -0.005510146744135875   -0.0008925236544944617
0.0012379711096366741   -0.0018853515651708708   -0.0004141663337128708
0.00014031436866850336   -0.001829641796191231   -0.0004806617414586721
0.00021560438063449578   -0.005538798378007174   -0.0008884751401534626
0.0012405507618526816   -0.001895266636787179   -0.0004934312923752873
0.00015822612531364336   -0.0018269999329611473   -0.0004880417068454139
0.00021560438063449578   -0.005538798378007174   -0.0008884751401534626
0.0022647700525585336   -0.005599258867708492   -0.0008955284868666675
0.0012405507618526816   -0.001895266636787179   -0.0004934312923752873
0.0022549205424385386   -0.005568930137557727   -0.0009560750681138411
0.00015822612531364336   -0.0018269999329611473   -0.0004880417068454139
0.0012355637015819484   -0.0018682056552209033   -0.0005695186178293178
0.0022549205424385386   -0.005568930137557727   -0.0009560750681138411
0.0012405507618526816   -0.001895266636787179   -0.0004934312923752873
0.00015822612531364336   -0.0018269999329611473   -0.0004880417068454139
0.0022549205424385386   -0.005568930137557727   -0.0009560750681138411
0.00022859720625731606   -0.005536961027863499   -0.0008907801080647095
0.00021560438063449578   -0.005538798378007174   -0.0008884751401534626
0.00015822612531364336   -0.0018269999329611473   -0.0004880417068454139
0.0022549205424385386   -0.005568930137557727   -0.0009560750681138411
0.00021560438063449578   -0.005538798378007174   -0.0008884751401534626
0.0012405507618526816   -0.001895266636787179   -0.0004934312923752873
0.00015822612531364336   -0.0018269999329611473   -0.0004880417068454139
0.00022859720625731606   -0.005536961027863499   -0.0008907801080647095
0.0012355637015819484   -0.0018682056552209033   -0.0005695186178293178
0.00018222150357073537   -0.0017875175944019673   -0.0004956636792108309
0.00022859720625731606   -0.005536961027863499   -0.0008907801080647095
0.0022549205424385386   -0.005568930137557727   -0.0009560750681138411
0.0012355637015819484   -0.0018682056552209033   -0.0005695186178293178
0.002249499578847657   -0.005500452837636587   -0.0010215672295285955
0.00018222150357073537   -0.0017875175944019673   -0.0004956636792108309
0.0012598061325455683   -0.0017959213949197807   -0.0006441942473678664
0.002249499578847657   -0.005500452837636587   -0.0010215672295285955
0.0012355637015819484   -0.0018682056552209033   -0.0005695186178293178
0.00018222150357073537   -0.0017875175944019673   -0.0004956636792108309
0.002249499578847657   -0.005500452837636587   -0.0010215672295285955
0.00024249693399771338   -0.005503706908539187   -0.000899538350369484
0.00022859720625731606   -0.005536961027863499   -0.0008907801080647095
0.00018222150357073537   -0.0017875175944019673   -0.0004956636792108309
0.002249499578847657   -0.005500452837636587   -0.0010215672295285955
0.00022859720625731606   -0.005536961027863499   -0.0008907801080647095
0.0012355637015819484   -0.0018682056552209033   -0.0005695186178293178
0.0012379711096366741   -0.0018853515651708708   -0.0004141663337128708
0.0022536736330744083   -0.005599707464487907   -0.0008421697179670144
0.0027968969438167315   -0.0021063576864824877   -0.000391121566515086
0.0012405507618526816   -0.001895266636787179   -0.0004934312923752873
0.0022536736330744083   -0.005599707464487907   -0.0008421697179670144
0.004736840485961541   -0.005766069544417634   -0.0008290487772049136
0.0027968969438167315   -0.0021063576864824877   -0.000391121566515086
0.0046413896098587626   -0.005750082109110127   -0.0009491759015588584
0.0012405507618526816   -0.001895266636787179   -0.0004934312923752873
0.0026272290143129263   -0.0020831877831598857   -0.0005709620043625036
0.0046413896098587626   -0.005750082109110127   -0.0009491759015588584
0.0027968969438167315   -0.0021063576864824877   -0.000391121566515086
0.0012405507618526816   -0.001895266636787179   -0.0004934312923752873
0.0046413896098587626   -0.005750082109110127   -0.0009491759015588584
0.0022647700525585336   -0.005599258867708492   -0.0008955284868666675
0.0022536736330744083   -0.005599707464487907   -0.0008421697179670144
0.0012405507618526816   -0.001895266636787179   -0.0004934312923752873
0.0046413896098587626   -0.005750082109110127   -0.0009491759015588584
0.0022536736330744083   -0.005599707464487907   -0.0008421697179670144
0.0027968969438167315   -0.0021063576864824877   -0.000391121566515086
0.0012405507618526816   -0.001895266636787179   -0.0004934312923752873
0.0022647700525585336   -0.005599258867708492   -0.0008955284868666675
0.0026272290143129263   -0.0020831877831598857   -0.0005709620043625036
0.0012355637015819484   -0.0018682056552209033   -0.0005695186178293178
0.0022647700525585336   -0.005599258867708492   -0.0008955284868666675
0.0046413896098587626   -0.005750082109110127   -0.0009491759015588584
0.0026272290143129263   -0.0020831877831598857   -0.0005709620043625036
0.004556008453716765   -0.005703360065714833   -0.0010844192746971835
0.0012355637015819484   -0.0018682056552209033   -0.0005695186178293178
0.0025491356163238553   -0.002039880743140295   -0.000723077346548113
0.004556008453716765   -0.005703360065714833   -0.0010844192746971835
0.0026272290143129263   -0.0020831877831598857   -0.0005709620043625036
0.0012355637015819484   -0.0018682056552209033   -0.0005695186178293178
0.004556008453716765   -0.005703360065714833   -0.0010844192746971835
0.0022549205424385386   -0.005568930137557727   -0.0009560750681138411
0.0022647700525585336   -0.005599258867708492   -0.0008955284868666675
0.0012355637015819484   -0.0018682056552209033   -0.0005695186178293178
0.004556008453716765   -0.005703360065714833   -0.0010844192746971835
0.0022647700525585336   -0.005599258867708492   -0.0008955284868666675
0.0026272290143129263   -0.0020831877831598857   -0.0005709620043625036
0.0012355637015819484   -0.0018682056552209033   -0.0005695186178293178
0.0022549205424385386   -0.005568930137557727   -0.0009560750681138411
0.0025491356163238553   -0.002039880743140295   -0.000723077346548113
0.0012598061325455683   -0.0017959213949197807   -0.0006441942473678664
0.0022549205424385386   -0.005568930137557727   -0.0009560750681138411
0.004556008453716765   -0.005703360065714833   -0.0010844192746971835
0.0025491356163238553   -0.002039880743140295   -0.000723077346548113
0.0044276771136972665   -0.00559961410330465   -0.0012252652765136715
0.0012598061325455683   -0.0017959213949197807   -0.0006441942473678664
0.002432648630192243   -0.0019292104861685574   -0.0008841306878726058
0.0044276771136972665   -0.00559961410330465   -0.0012252652765136715
0.0025491356163238553   -0.002039880743140295   -0.000723077346548113
0.0012598061325455683   -0.0017959213949197807   -0.0006441942473678664
0.0044276771136972665   -0.00559961410330465   -0.0012252652765136715
0.002249499578847657   -0.005500452837636587   -0.0010215672295285955
0.0022549205424385386   -0.005568930137557727   -0.0009560750681138411
0.0012598061325455683   -0.0017959213949197807   -0.0006441942473678664
0.0044276771136972665   -0.00559961410330465   -0.0012252652765136715
0.0022549205424385386   -0.005568930137557727   -0.0009560750681138411
0.0025491356163238553   -0.002039880743140295   -0.000723077346548113
-0.005887348035789684   -0.0057831367188631135   -0.0014240677240510422
-0.008062040762471401   -0.010835925596963777   -0.001622556264834855
-0.0037574973801438104   -0.005595037774400552   -0.0011725530196706468
-0.006063041570393121   -0.005916289645182187   -0.001235264401573875
-0.008062040762471401   -0.010835925596963777   -0.001622556264834855
-0.005183848005277831   -0.010692337344313949   -0.0014188501511594918
-0.0037574973801438104   -0.005595037774400552   -0.0011725530196706468
-0.005194566321483826   -0.010774564544355807   -0.0013287001706394149
-0.006063041570393121   -0.005916289645182187   -0.001235264401573875
-0.003761412835886647   -0.005690421522987502   -0.0010562347749999523
-0.005194566321483826   -0.010774564544355807   -0.0013287001706394149
-0.0037574973801438104   -0.005595037774400552   -0.0011725530196706468
-0.006063041570393121   -0.005916289645182187   -0.001235264401573875
-0.005194566321483826   -0.010774564544355807   -0.0013287001706394149
-0.008204510748118532   -0.010948340093736419   -0.0014819675210004575
-0.008062040762471401   -0.010835925596963777   -0.001622556264834855
-0.006063041570393121   -0.005916289645182187   -0.001235264401573875
-0.005194566321483826   -0.010774564544355807   -0.0013287001706394149
-0.008062040762471401   -0.010835925596963777   -0.001622556264834855
-0.0037574973801438104   -0.005595037774400552   -0.0011725530196706468
-0.006063041570393121   -0.005916289645182187   -0.001235264401573875
-0.008204510748118532   -0.010948340093736419   -0.0014819675210004575
-0.003761412835886647   -0.005690421522987502   -0.0010562347749999523
-0.006184891070834696   -0.005991535053489342   -0.0010504409289702964
-0.008204510748118532   -0.010948340093736419   -0.0014819675210004575
-0.005194566321483826   -0.010774564544355807   -0.0013287001706394149
-0.003761412835886647   -0.005690421522987502   -0.0010562347749999523
-0.005207266967079571   -0.010831843414943155   -0.001245098039637962
-0.006184891070834696   -0.005991535053489342   -0.0010504409289702964
-0.0037756639290897924   -0.005748616540064473   -0.0009444919002910015
-0.005207266967079571   -0.010831843414943155   -0.001245098039637962
-0.003761412835886647   -0.005690421522987502   -0.0010562347749999523
-0.006184891070834696   -0.005991535053489342   -0.0010504409289702964
-0.005207266967079571   -0.010831843414943155   -0.001245098039637962
-0.008294028420957295   -0.011018895123080071   -0.0013509746909625283
-0.008204510748118532   -0.010948340093736419   -0.0014819675210004575
-0.006184891070834696   -0.005991535053489342   -0.0010504409289702964
-0.005207266967079571   -0.010831843414943155   -0.001245098039637962
-0.008204510748118532   -0.010948340093736419   -0.0014819675210004575
-0.003761412835886647   -0.005690421522987502   -0.0010562347749999523
-0.006184891070834696   -0.005991535053489342   -0.0010504409289702964
-0.008294028420957295   -0.011018895123080071   -0.0013509746909625283
-0.0037756639290897924   -0.005748616540064473   -0.0009444919002910015
-0.006328888330984692   -0.006035429881788813   -0.0008823617894258202
-0.008294028420957295   -0.011018895123080071   -0.0013509746909625283
-0.005207266967079571   -0.010831843414943155   -0.001245098039637962
-0.0037756639290897924   -0.005748616540064473   -0.0009444919002910015
-0.005196820642001638   -0.010869613420295292   -0.0011666471590688276
-0.006328888330984692   -0.006035429881788813   -0.0008823617894258202
-0.003763831312173352   -0.005778896166514256   -0.0008399309114270846
-0.005196820642001638   -0.010869613420295292   -0.0011666471590688276
-0.0037756639290897924   -0.005748616540064473   -0.0009444919002910015
-0.006328888330984692   -0.006035429881788813   -0.0008823617894258202
-0.005196820642001638   -0.010869613420295292   -0.0011666471590688276
-0.008395880873269597   -0.011069776070187408   -0.001230475748001178
-0.008294028420957295   -0.011018895123080071   -0.0013509746909625283
-0.006328888330984692   -0.006035429881788813   -0.0008823617894258202
-0.005196820642001638   -0.010869613420295292   -0.0011666471590688276
-0.008294028420957295   -0.011018895123080071   -0.0013509746909625283
-0.0037756639290897924   -0.005748616540064473   -0.0009444919002910015
-0.0037574973801438104   -0.005595037774400552   -0.0011725530196706468
-0.005183848005277831   -0.010692337344313949   -0.0014188501511594918
-0.001744375560727646   -0.005507508760877553   -0.0010009115185983886
-0.003761412835886647   -0.005690421522987502   -0.0010562347749999523
-0.005183848005277831   -0.010692337344313949   -0.0014188501511594918
-0.002471033383709614   -0.010620687481324673   -0.0012773541105776801
-0.001744375560727646   -0.005507508760877553   -0.0010009115185983886
-0.0024642032697148176   -0.010673214561656147   -0.0012263411827952422
-0.003761412835886647   -0.005690421522987502   -0.0010562347749999523
-0.0017287943186547951   -0.005568163806045241   -0.000941255283920914
-0.0024642032697148176   -0.010673214561656147   -0.0012263411827952422
-0.001744375560727646   -0.005507508760877553   -0.0010009115185983886
-0.003761412835886647   -0.005690421522987502   -0.0010562347749999523
-0.0024642032697148176   -0.010673214561656147   -0.0012263411827952422
-0.005194566321483826   -0.010774564544355807   -0.0013287001706394149
-0.005183848005277831   -0.010692337344313949   -0.0014188501511594918
-0.003761412835886647   -0.005690421522987502   -0.0010562347749999523
-0.0024642032697148176   -0.010673214561656147   -0.0012263411827952422
-0.005183848005277831   -0.010692337344313949   -0.0014188501511594918
-0.001744375560727646   -0.005507508760877553   -0.0010009115185983886
-0.003761412835886647   -0.005690421522987502   -0.0010562347749999523
-0.005194566321483826   -0.010774564544355807   -0.0013287001706394149
-0.0017287943186547951   -0.005568163806045241   -0.000941255283920914
-0.0037756639290897924   -0.005748616540064473   -0.0009444919002910015
-0.005194566321483826   -0.010774564544355807   -0.0013287001706394149
-0.0024642032697148176   -0.010673214561656147   -0.0012263411827952422
-0.0017287943186547951   -0.005568163806045241   -0.000941255283920914
-0.002455985037241895   -0.010704090666896914   -0.0011815592464926553
-0.0037756639290897924   -0.005748616540064473   -0.0009444919002910015
-0.0017149269063342968   -0.005597599890003164   -0.0008871986947767556
-0.002455985037241895   -0.010704090666896914   -0.0011815592464926553
-0.0017287943186547951   -0.005568163806045241   -0.000941255283920914
-0.0037756639290897924   -0.005748616540064473   -0.0009444919002910015
-0.002455985037241895   -0.010704090666896914   -0.0011815592464926553
-0.005207266967079571   -0.010831843414943155   -0.001245098039637962
-0.005194566321483826   -0.010774564544355807   -0.0013287001706394149
-0.0037756639290897924   -0.005748616540064473   -0.0009444919002910015
-0.002455985037241895   -0.010704090666896914   -0.0011815592464926553
-0.005194566321483826   -0.010774564544355807   -0.0013287001706394149
-0.0017287943186547951   -0.005568163806045241   -0.000941255283920914
-0.0037756639290897924   -0.005748616540064473   -0.0009444919002910015
-0.005207266967079571   -0.010831843414943155   -0.001245098039637962
-0.0017149269063342968   -0.005597599890003164   -0.0008871986947767556
-0.003763831312173352   -0.005778896166514256   -0.0008399309114270846
-0.005207266967079571   -0.010831843414943155   -0.001245098039637962
-0.002455985037241895   -0.010704090666896914   -0.0011815592464926553
-0.0017149269063342968   -0.005597599890003164   -0.0008871986947767556
-0.002442876540427207   -0.010713757060645717   -0.0011429916378475895
-0.003763831312173352   -0.005778896166514256   -0.0008399309114270846
-0.0016944807343512987   -0.005596925239135233   -0.0008401632746970824
-0.002442876540427207   -0.010713757060645717   -0.0011429916378475895
-0.0017149269063342968   -0.005597599890003164   -0.0008871986947767556
-0.003763831312173352   -0.005778896166514256   -0.0008399309114270846
-0.002442876540427207   -0.010713757060645717   -0.0011429916378475895
-0.005196820642001638   -0.010869613420295292   -0.0011666471590688276
-0.005207266967079571   -0.010831843414943155   -0.001245098039637962
-0.003763831312173352   -0.005778896166514256   -0.0008399309114270846
-0.002442876540427207   -0.010713757060645717   -0.0011429916378475895
-0.005207266967079571   -0.010831843414943155   -0.001245098039637962
-0.0017149269063342968   -0.005597599890003164   -0.0008871986947767556
-0.001744375560727646   -0.005507508760877553   -0.0010009115185983886
-0.002471033383709614   -0.010620687481324673   -0.0012773541105776801
0.00019654535517717083   -0.005510146744135875   -0.0008925236544944617
-0.0017287943186547951   -0.005568163806045241   -0.000941255283920914
-0.002471033383709614   -0.010620687481324673   -0.0012773541105776801
0.0001618330553878135   -0.010616862568488459   -0.001189763884336205
0.00019654535517717083   -0.005510146744135875   -0.0008925236544944617
0.00017387990209447295   -0.010640138874289082   -0.0011776825261548857
-0.0017287943186547951   -0.005568163806045241   -0.000941255283920914
0.00021560438063449578   -0.005538798378007174   -0.0008884751401534626
0.00017387990209447295   -0.010640138874289082   -0.0011776825261548857
0.00019654535517717083   -0.005510146744135875   -0.0008925236544944617
-0.0017287943186547951   -0.005568163806045241   -0.000941255283920914
0.00017387990209447295   -0.010640138874289082   -0.0011776825261548857
-0.0024642032697148176   -0.010673214561656147   -0.0012263411827952422
-0.002471033383709614   -0.010620687481324673   -0.0012773541105776801
-0.0017287943186547951   -0.005568163806045241   -0.000941255283920914
0.00017387990209447295   -0.010640138874289082   -0.0011776825261548857
-0.002471033383709614   -0.010620687481324673   -0.0012773541105776801
0.00019654535517717083   -0.005510146744135875   -0.0008925236544944617
-0.0017287943186547951   -0.005568163806045241   -0.000941255283920914
-0.0024642032697148176   -0.010673214561656147   -0.0012263411827952422
0.00021560438063449578   -0.005538798378007174   -0.0008884751401534626
-0.0017149269063342968   -0.005597599890003164   -0.0008871986947767556
-0.0024642032697148176   -0.010673214561656147   -0.0012263411827952422
0.00017387990209447295   -0.010640138874289082   -0.0011776825261548857
0.00021560438063449578   -0.005538798378007174   -0.0008884751401534626
0.0001818318143283817   -0.010641849807103022   -0.0011716716071881106
-0.0017149269063342968   -0.005597599890003164   -0.0008871986947767556
0.00022859720625731606   -0.005536961027863499   -0.0008907801080647095
0.0001818318143283817   -0.010641849807103022   -0.0011716716071881106
0.00021560438063449578   -0.005538798378007174   -0.0008884751401534626
-0.0017149269063342968   -0.005597599890003164   -0.0008871986947767556
0.0001818318143283817   -0.010641849807103022   -0.0011716716071881106
-0.002455985037241895   -0.010704090666896914   -0.0011815592464926553
-0.0024642032697148176   -0.010673214561656147   -0.0012263411827952422
-0.0017149269063342968   -0.005597599890003164   -0.0008871986947767556
0.0001818318143283817   -0.010641849807103022   -0.0011716716071881106
-0.0024642032697148176   -0.010673214561656147   -0.0012263411827952422
0.00021560438063449578   -0.005538798378007174   -0.0008884751401534626
-0.0017149269063342968   -0.005597599890003164   -0.0008871986947767556
-0.002455985037241895   -0.010704090666896914   -0.0011815592464926553
0.00022859720625731606   -0.005536961027863499   -0.0008907801080647095
-0.0016944807343512987   -0.005596925239135233   -0.0008401632746970824
-0.002455985037241895   -0.010704090666896914   -0.0011815592464926553
0.0001818318143283817   -0.010641849807103022   -0.0011716716071881106
0.00022859720625731606   -0.005536961027863499   -0.0008907801080647095
0.00018776869714853928   -0.010621674731461311   -0.0011720975595030186
-0.0016944807343512987   -0.005596925239135233   -0.0008401632746970824
0.00024249693399771338   -0.005503706908539187   -0.000899538350369484
0.00018776869714853928   -0.010621674731461311   -0.0011720975595030186
0.00022859720625731606   -0.005536961027863499   -0.0008907801080647095
-0.0016944807343512987   -0.005596925239135233   -0.0008401632746970824
0.00018776869714853928   -0.010621674731461311   -0.0011720975595030186
-0.002442876540427207   -0.010713757060645717   -0.0011429916378475895
-0.002455985037241895   -0.010704090666896914   -0.0011815592464926553
-0.0016944807343512987   -0.005596925239135233   -0.0008401632746970824
0.00018776869714853928   -0.010621674731461311   -0.0011720975595030186
-0.002455985037241895   -0.010704090666896914   -0.0011815592464926553
0.00022859720625731606   -0.005536961027863499   -0.0008907801080647095
0.00019654535517717083   -0.005510146744135875   -0.0008925236544944617
0.0001618330553878135   -0.010616862568488459   -0.001189763884336205
0.0022536736330744083   -0.005599707464487907   -0.0008421697179670144
0.00021560438063449578   -0.005538798378007174   -0.0008884751401534626
0.0001618330553878135   -0.010616862568488459   -0.001189763884336205
0.0029072548763134703   -0.010676825104643252   -0.0011546020478531902
0.0022536736330744083   -0.005599707464487907   -0.0008421697179670144
0.002917924055709662   -0.01067326740253108   -0.001182255470889732
0.00021560438063449578   -0.005538798378007174   -0.0008884751401534626
0.0022647700525585336   -0.005599258867708492   -0.0008955284868666675
0.002917924055709662   -0.01067326740253108   -0.001182255470889732
0.0022536736330744083   -0.005599707464487907   -0.0008421697179670144
0.00021560438063449578   -0.005538798378007174   -0.0008884751401534626
0.002917924055709662   -0.01067326740253108   -0.001182255470889732
0.00017387990209447295   -0.010640138874289082   -0.0011776825261548857
0.0001618330553878135   -0.010616862568488459   -0.001189763884336205
0.00021560438063449578   -0.005538798378007174   -0.0008884751401534626
0.002917924055709662   -0.01067326740253108   -0.001182255470889732
0.0001618330553878135   -0.010616862568488459   -0.001189763884336205
0.0022536736330744083   -0.005599707464487907   -0.0008421697179670144
0.00021560438063449578   -0.005538798378007174   -0.0008884751401534626
0.00017387990209447295   -0.010640138874289082   -0.0011776825261548857
0.0022647700525585336   -0.005599258867708492   -0.0008955284868666675
0.00022859720625731606   -0.005536961027863499   -0.0008907801080647095
0.00017387990209447295   -0.010640138874289082   -0.0011776825261548857
0.002917924055709662   -0.01067326740253108   -0.001182255470889732
0.0022647700525585336   -0.005599258867708492   -0.0008955284868666675
0.0029112756434759163   -0.010648629291349958   -0.0012155332900484093
0.00022859720625731606   -0.005536961027863499   -0.0008907801080647095
0.0022549205424385386   -0.005568930137557727   -0.0009560750681138411
0.0029112756434759163   -0.010648629291349958   -0.0012155332900484093
0.0022647700525585336   -0.005599258867708492   -0.0008955284868666675
0.00022859720625731606   -0.005536961027863499   -0.0008907801080647095
0.0029112756434759163   -0.010648629291349958   -0.0012155332900484093
0.0001818318143283817   -0.010641849807103022   -0.0011716716071881106
0.00017387990209447295   -0.010640138874289082   -0.0011776825261548857
0.00022859720625731606   -0.005536961027863499   -0.0008907801080647095
0.0029112756434759163   -0.010648629291349958   -0.0012155332900484093
0.00017387990209447295   -0.010640138874289082   -0.0011776825261548857
0.0022647700525585336   -0.005599258867708492   -0.0008955284868666675
0.00022859720625731606   -0.005536961027863499   -0.0008907801080647095
0.0001818318143283817   -0.010641849807103022   -0.0011716716071881106
0.0022549205424385386   -0.005568930137557727   -0.0009560750681138411
0.00024249693399771338   -0.005503706908539187   -0.000899538350369484
0.0001818318143283817   -0.010641849807103022   -0.0011716716071881106
0.0029112756434759163   -0.010648629291349958   -0.0012155332900484093
0.0022549205424385386   -0.005568930137557727   -0.0009560750681138411
0.0029009006588706027   -0.010597665915972897   -0.0012551038655392753
0.00024249693399771338   -0.005503706908539187   -0.000899538350369484
0.002249499578847657   -0.005500452837636587   -0.0010215672295285955
0.0029009006588706027   -0.010597665915972897   -0.0012551038655392753
0.0022549205424385386   -0.005568930137557727   -0.0009560750681138411
0.00024249693399771338   -0.005503706908539187   -0.000899538350369484
0.0029009006588706027   -0.010597665915972897   -0.0012551038655392753
0.00018776869714853928   -0.010621674731461311   -0.0011720975595030186
0.0001818318143283817   -0.010641849807103022   -0.0011716716071881106
0.00024249693399771338   -0.005503706908539187   -0.000899538350369484
0.0029009006588706027   -0.010597665915972897   -0.0012551038655392753
0.0001818318143283817   -0.010641849807103022   -0.0011716716071881106
0.0022549205424385386   -0.005568930137557727   -0.0009560750681138411
0.0022536736330744083   -0.005599707464487907   -0.0008421697179670144
0.0029072548763134703   -0.010676825104643252   -0.0011546020478531902
0.004736840485961541   -0.005766069544417634   -0.0008290487772049136
0.0022647700525585336   -0.005599258867708492   -0.0008955284868666675
0.0029072548763134703   -0.010676825104643252   -0.0011546020478531902
0.006034264230131369   -0.010785436405809387   -0.0011558567922764944
0.004736840485961541   -0.005766069544417634   -0.0008290487772049136
0.005982872501088328   -0.01076638056894119   -0.001228285829568727
0.0022647700525585336   -0.005599258867708492   -0.0008955284868666675
0.0046413896098587626   -0.005750082109110127   -0.0009491759015588584
0.005982872501088328   -0.01076638056894119   -0.001228285829568727
0.004736840485961541   -0.005766069544417634   -0.0008290487772049136
0.0022647700525585336   -0.005599258867708492   -0.0008955284868666675
0.005982872501088328   -0.01076638056894119   -0.001228285829568727
0.002917924055709662   -0.01067326740253108   -0.001182255470889732
0.0029072548763134703   -0.010676825104643252   -0.0011546020478531902
0.0022647700525585336   -0.005599258867708492   -0.0008955284868666675
0.005982872501088328   -0.01076638056894119   -0.001228285829568727
0.0029072548763134703   -0.010676825104643252   -0.0011546020478531902
0.004736840485961541   -0.005766069544417634   -0.0008290487772049136
0.0022647700525585336   -0.005599258867708492   -0.0008955284868666675
0.002917924055709662   -0.01067326740253108   -0.001182255470889732
0.0046413896098587626   -0.005750082109110127   -0.0009491759015588584
0.0022549205424385386   -0.005568930137557727   -0.0009560750681138411
0.002917924055709662   -0.01067326740253108   -0.001182255470889732
0.005982872501088328   -0.01076638056894119   -0.001228285829568727
0.0046413896098587626   -0.005750082109110127   -0.0009491759015588584
0.005931417891443446   -0.010728490801826914   -0.0013108576406738776
0.0022549205424385386   -0.005568930137557727   -0.0009560750681138411
0.004556008453716765   -0.005703360065714833   -0.0010844192746971835
0.005931417891443446   -0.010728490801826914   -0.0013108576406738776
0.0046413896098587626   -0.005750082109110127   -0.0009491759015588584
0.0022549205424385386   -0.005568930137557727   -0.0009560750681138411
0.005931417891443446   -0.010728490801826914   -0.0013108576406738776
0.0029112756434759163   -0.010648629291349958   -0.0012155332900484093
0.002917924055709662   -0.01067326740253108   -0.001182255470889732
0.0022549205424385386   -0.005568930137557727   -0.0009560750681138411
0.005931417891443446   -0.010728490801826914   -0.0013108576406738776
0.002917924055709662   -0.01067326740253108   -0.001182255470889732
0.0046413896098587626   -0.005750082109110127   -0.0009491759015588584
0.0022549205424385386   -0.005568930137557727   -0.0009560750681138411
0.0029112756434759163   -0.010648629291349958   -0.0012155332900484093
0.004556008453716765   -0.005703360065714833   -0.0010844192746971835
0.002249499578847657   -0.005500452837636587   -0.0010215672295285955
0.0029112756434759163   -0.010648629291349958   -0.0012155332900484093
0.005931417891443446   -0.010728490801826914   -0.0013108576406738776
0.004556008453716765   -0.005703360065714833   -0.0010844192746971835
0.005839292837629032   -0.010649252423590381   -0.001403583283059823
0.002249499578847657   -0.005500452837636587   -0.0010215672295285955
0.0044276771136972665   -0.00559961410330465   -0.0012252652765136715
0.005839292837629032   -0.010649252423590381   -0.001403583283059823
0.004556008453716765   -0.005703360065714833   -0.0010844192746971835
0.002249499578847657   -0.005500452837636587   -0.0010215672295285955
0.005839292837629032   -0.010649252423590381   -0.001403583283059823
0.0029009006588706027   -0.010597665915972897   -0.0012551038655392753
0.0029112756434759163   -0.010648629291349958   -0.0012155332900484093
0.002249499578847657   -0.005500452837636587   -0.0010215672295285955
0.005839292837629032   -0.010649252423590381   -0.001403583283059823
0.0029112756434759163   -0.010648629291349958   -0.0012155332900484093
0.004556008453716765   -0.005703360065714833   -0.0010844192746971835
-0.008062040762471401   -0.010835925596963777   -0.001622556264834855
-0.009622501107475452   -0.01682160328643538   -0.0017311739096419567
-0.005183848005277831   -0.010692337344313949   -0.0014188501511594918
-0.008204510748118532   -0.010948340093736419   -0.0014819675210004575
-0.009622501107475452   -0.01682160328643538   -0.0017311739096419567
-0.006247266532959794   -0.01673039397936117   -0.0015653455015118155
-0.005183848005277831   -0.010692337344313949   -0.0014188501511594918
-0.00625409611921508   -0.016801023172453796   -0.0015008937230655502
-0.008204510748118532   -0.010948340093736419   -0.0014819675210004575
-0.005194566321483826   -0.010774564544355807   -0.0013287001706394149
-0.00625409611921508   -0.016801023172453796   -0.0015008937230655502
-0.005183848005277831   -0.010692337344313949   -0.0014188501511594918
-0.008204510748118532   -0.010948340093736419   -0.0014819675210004575
-0.00625409611921508   -0.016801023172453796   -0.0015008937230655502
-0.009718081823411733   -0.01691718948847699   -0.0016380006514466416
-0.009622501107475452   -0.01682160328643538   -0.0017311739096419567
-0.008204510748118532   -0.010948340093736419   -0.0014819675210004575
-0.00625409611921508   -0.016801023172453796   -0.0015008937230655502
-0.009622501107475452   -0.01682160328643538   -0.0017311739096419567
-0.005183848005277831   -0.010692337344313949   -0.0014188501511594918
-0.008204510748118532   -0.010948340093736419   -0.0014819675210004575
-0.009718081823411733   -0.01691718948847699   -0.0016380006514466416
-0.005194566321483826   -0.010774564544355807   -0.0013287001706394149
-0.008294028420957295   -0.011018895123080071   -0.0013509746909625283
-0.009718081823411733   -0.01691718948847699   -0.0016380006514466416
-0.00625409611921508   -0.016801023172453796   -0.0015008937230655502
-0.005194566321483826   -0.010774564544355807   -0.0013287001706394149
-0.006258749492667655   -0.01685707741505206   -0.0014428766690756224
-0.008294028420957295   -0.011018895123080071   -0.0013509746909625283
-0.005207266967079571   -0.010831843414943155   -0.001245098039637962
-0.006258749492667655   -0.01685707741505206   -0.0014428766690756224
-0.005194566321483826   -0.010774564544355807   -0.0013287001706394149
-0.008294028420957295   -0.011018895123080071   -0.0013509746909625283
-0.006258749492667655   -0.01685707741505206   -0.0014428766690756224
-0.009772586860098971   -0.016984891063903378   -0.0015537974463379711
-0.009718081823411733   -0.01691718948847699   -0.0016380006514466416
-0.008294028420957295   -0.011018895123080071   -0.0013509746909625283
-0.006258749492667655   -0.01685707741505206   -0.0014428766690756224
-0.009718081823411733   -0.01691718948847699   -0.0016380006514466416
-0.005194566321483826   -0.010774564544355807   -0.0013287001706394149
-0.008294028420957295   -0.011018895123080071   -0.0013509746909625283
-0.009772586860098971   -0.016984891063903378   -0.0015537974463379711
-0.005207266967079571   -0.010831843414943155   -0.001245098039637962
-0.008395880873269597   -0.011069776070187408   -0.001230475748001178
-0.009772586860098971   -0.016984891063903378   -0.0015537974463379711
-0.006258749492667655   -0.01685707741505206   -0.0014428766690756224
-0.005207266967079571   -0.010831843414943155   -0.001245098039637962
-0.006245106865782152   -0.016903211835686386   -0.001390434619731686
-0.008395880873269597   -0.011069776070187408   -0.001230475748001178
-0.005196820642001638   -0.010869613420295292   -0.0011666471590688276
-0.006245106865782152   -0.016903211835686386   -0.001390434619731686
-0.005207266967079571   -0.010831843414943155   -0.001245098039637962
-0.008395880873269597   -0.011069776070187408   -0.001230475748001178
-0.006245106865782152   -0.016903211835686386   -0.001390434619731686
-0.009828672766230078   -0.01704570134025708   -0.0014796345245470229
-0.009772586860098971   -0.016984891063903378   -0.0015537974463379711
-0.008395880873269597   -0.011069776070187408   -0.001230475748001178
-0.006245106865782152   -0.016903211835686386   -0.001390434619731686
-0.009772586860098971   -0.016984891063903378   -0.0015537974463379711
-0.005207266967079571   -0.010831843414943155   -0.001245098039637962
-0.005183848005277831   -0.010692337344313949   -0.0014188501511594918
-0.006247266532959794   -0.01673039397936117   -0.0015653455015118155
-0.002471033383709614   -0.010620687481324673   -0.0012773541105776801
-0.005194566321483826   -0.010774564544355807   -0.0013287001706394149
-0.006247266532959794   -0.01673039397936117   -0.0015653455015118155
-0.0030836475422499937   -0.01668314885422697   -0.0014505408763859846
-0.002471033383709614   -0.010620687481324673   -0.0012773541105776801
-0.0030771237591552536   -0.01672741702667097   -0.0014079085060491028
-0.005194566321483826   -0.010774564544355807   -0.0013287001706394149
-0.0024642032697148176   -0.010673214561656147   -0.0012263411827952422
-0.0030771237591552536   -0.01672741702667097   -0.0014079085060491028
-0.002471033383709614   -0.010620687481324673   -0.0012773541105776801
-0.005194566321483826   -0.010774564544355807   -0.0013287001706394149
-0.0030771237591552536   -0.01672741702667097   -0.0014079085060491028
-0.00625409611921508   -0.016801023172453796   -0.0015008937230655502
-0.006247266532959794   -0.01673039397936117   -0.0015653455015118155
-0.005194566321483826   -0.010774564544355807   -0.0013287001706394149
-0.0030771237591552536   -0.01672741702667097   -0.0014079085060491028
-0.006247266532959794   -0.01673039397936117   -0.0015653455015118155
-0.002471033383709614   -0.010620687481324673   -0.0012773541105776801
-0.005194566321483826   -0.010774564544355807   -0.0013287001706394149
-0.00625409611921508   -0.016801023172453796   -0.0015008937230655502
-0.0024642032697148176   -0.010673214561656147   -0.0012263411827952422
-0.005207266967079571   -0.010831843414943155   -0.001245098039637962
-0.00625409611921508   -0.016801023172453796   -0.0015008937230655502
-0.0030771237591552536   -0.01672741702667097   -0.0014079085060491028
-0.0024642032697148176   -0.010673214561656147   -0.0012263411827952422
-0.0030684647093030142   -0.01675946530350574   -0.0013716106539566541
-0.005207266967079571   -0.010831843414943155   -0.001245098039637962
-0.002455985037241895   -0.010704090666896914   -0.0011815592464926553
-0.0030684647093030142   -0.01675946530350574   -0.0013716106539566541
-0.0024642032697148176   -0.010673214561656147   -0.0012263411827952422
-0.005207266967079571   -0.010831843414943155   -0.001245098039637962
-0.0030684647093030142   -0.01675946530350574   -0.0013716106539566541
-0.006258749492667655   -0.01685707741505206   -0.0014428766690756224
-0.00625409611921508   -0.016801023172453796   -0.0015008937230655502
-0.005207266967079571   -0.010831843414943155   -0.001245098039637962
-0.0030684647093030142   -0.01675946530350574   -0.0013716106539566541
-0.00625409611921508   -0.016801023172453796   -0.0015008937230655502
-0.0024642032697148176   -0.010673214561656147   -0.0012263411827952422
-0.005207266967079571   -0.010831843414943155   -0.001245098039637962
-0.006258749492667655   -0.01685707741505206   -0.0014428766690756224
-0.002455985037241895   -0.010704090666896914   -0.0011815592464926553
-0.005196820642001638   -0.010869613420295292   -0.0011666471590688276
-0.006258749492667655   -0.01685707741505206   -0.0014428766690756224
-0.0030684647093030142   -0.01675946530350574   -0.0013716106539566541
-0.002455985037241895   -0.010704090666896914   -0.0011815592464926553
-0.003055864497752951   -0.01677950449584319   -0.0013417548213934738
-0.005196820642001638   -0.010869613420295292   -0.0011666471590688276
-0.002442876540427207   -0.010713757060645717   -0.0011429916378475895
-0.003055864497752951   -0.01677950449584319   -0.0013417548213934738
-0.002455985037241895   -0.010704090666896914   -0.0011815592464926553
-0.005196820642001638   -0.010869613420295292   -0.0011666471590688276
-0.003055864497752951   -0.01677950449584319   -0.0013417548213934738
-0.006245106865782152   -0.016903211835686386   -0.001390434619731686
-0.006258749492667655   -0.01685707741505206   -0.0014428766690756224
-0.005196820642001638   -0.010869613420295292   -0.0011666471590688276
-0.003055864497752951   -0.01677950449584319   -0.0013417548213934738
-0.006258749492667655   -0.01685707741505206   -0.0014428766690756224
-0.002455985037241895   -0.010704090666896914   -0.0011815592464926553
-0.002471033383709614   -0.010620687481324673   -0.0012773541105776801
-0.0030836475422499937   -0.01668314885422697   -0.0014505408763859846
0.0001618330553878135   -0.010616862568488459   -0.001189763884336205
-0.0024642032697148176   -0.010673214561656147   -0.0012263411827952422
-0.0030836475422499937   -0.01668314885422697   -0.0014505408763859846
-6.103256244326691e-06   -0.016674959045300416   -0.001383826723275125
0.0001618330553878135   -0.010616862568488459   -0.001189763884336205
5.609990540415241e-06   -0.01669270308113092   -0.00136319159442085
-0.0024642032697148176   -0.010673214561656147   -0.0012263411827952422
0.00017387990209447295   -0.010640138874289082   -0.0011776825261548857
5.609990540415241e-06   -0.01669270308113092   -0.00136319159442085
0.0001618330553878135   -0.010616862568488459   -0.001189763884336205
-0.0024642032697148176   -0.010673214561656147   -0.0012263411827952422
5.609990540415241e-06   -0.01669270308113092   -0.00136319159442085
-0.0030771237591552536   -0.01672741702667097   -0.0014079085060491028
-0.0030836475422499937   -0.01668314885422697   -0.0014505408763859846
-0.0024642032697148176   -0.010673214561656147   -0.0012263411827952422
5.609990540415241e-06   -0.01669270308113092   -0.00136319159442085
-0.0030836475422499937   -0.01668314885422697   -0.0014505408763859846
0.0001618330553878135   -0.010616862568488459   -0.001189763884336205
-0.0024642032697148176   -0.010673214561656147   -0.0012263411827952422
-0.0030771237591552536   -0.01672741702667097   -0.0014079085060491028
0.00017387990209447295   -0.010640138874289082   -0.0011776825261548857
-0.002455985037241895   -0.010704090666896914   -0.0011815592464926553
-0.0030771237591552536   -0.01672741702667097   -0.0014079085060491028
5.609990540415241e-06   -0.01669270308113092   -0.00136319159442085
0.00017387990209447295   -0.010640138874289082   -0.0011776825261548857
1.4138309429956002e-05   -0.01669814211122151   -0.0013488131240542611
-0.002455985037241895   -0.010704090666896914   -0.0011815592464926553
0.0001818318143283817   -0.010641849807103022   -0.0011716716071881106
1.4138309429956002e-05   -0.01669814211122151   -0.0013488131240542611
0.00017387990209447295   -0.010640138874289082   -0.0011776825261548857
-0.002455985037241895   -0.010704090666896914   -0.0011815592464926553
1.4138309429956002e-05   -0.01669814211122151   -0.0013488131240542611
-0.0030684647093030142   -0.01675946530350574   -0.0013716106539566541
-0.0030771237591552536   -0.01672741702667097   -0.0014079085060491028
-0.002455985037241895   -0.010704090666896914   -0.0011815592464926553
1.4138309429956002e-05   -0.01669814211122151   -0.0013488131240542611
-0.0030771237591552536   -0.01672741702667097   -0.0014079085060491028
0.00017387990209447295   -0.010640138874289082   -0.0011776825261548857
-0.002455985037241895   -0.010704090666896914   -0.0011815592464926553
-0.0030684647093030142   -0.01675946530350574   -0.0013716106539566541
0.0001818318143283817   -0.010641849807103022   -0.0011716716071881106
-0.002442876540427207   -0.010713757060645717   -0.0011429916378475895
-0.0030684647093030142   -0.01675946530350574   -0.0013716106539566541
1.4138309429956002e-05   -0.01669814211122151   -0.0013488131240542611
0.0001818318143283817   -0.010641849807103022   -0.0011716716071881106
1.9807051825168172e-05   -0.016691106832015506   -0.0013409661348544614
-0.002442876540427207   -0.010713757060645717   -0.0011429916378475895
0.00018776869714853928   -0.010621674731461311   -0.0011720975595030186
1.9807051825168172e-05   -0.016691106832015506   -0.0013409661348544614
0.0001818318143283817   -0.010641849807103022   -0.0011716716071881106
-0.002442876540427207   -0.010713757060645717   -0.0011429916378475895
1.9807051825168172e-05   -0.016691106832015506   -0.0013409661348544614
-0.003055864497752951   -0.01677950449584319   -0.0013417548213934738
-0.0030684647093030142   -0.01675946530350574   -0.0013716106539566541
-0.002442876540427207   -0.010713757060645717   -0.0011429916378475895
1.9807051825168172e-05   -0.016691106832015506   -0.0013409661348544614
-0.0030684647093030142   -0.01675946530350574   -0.0013716106539566541
0.0001818318143283817   -0.010641849807103022   -0.0011716716071881106
0.0001618330553878135   -0.010616862568488459   -0.001189763884336205
-6.103256244326691e-06   -0.016674959045300416   -0.001383826723275125
0.0029072548763134703   -0.010676825104643252   -0.0011546020478531902
0.00017387990209447295   -0.010640138874289082   -0.0011776825261548857
-6.103256244326691e-06   -0.016674959045300416   -0.001383826723275125
0.003177310803133494   -0.016702471407585257   -0.001364959164840298
0.0029072548763134703   -0.010676825104643252   -0.0011546020478531902
0.003191548476426387   -0.016695212100694138   -0.0013667795596689599
0.00017387990209447295   -0.010640138874289082   -0.0011776825261548857
0.002917924055709662   -0.01067326740253108   -0.001182255470889732
0.003191548476426387   -0.016695212100694138   -0.0013667795596689599
0.0029072548763134703   -0.010676825104643252   -0.0011546020478531902
0.00017387990209447295   -0.010640138874289082   -0.0011776825261548857
0.003191548476426387   -0.016695212100694138   -0.0013667795596689599
5.609990540415241e-06   -0.01669270308113092   -0.00136319159442085
-6.103256244326691e-06   -0.016674959045300416   -0.001383826723275125
0.00017387990209447295   -0.010640138874289082   -0.0011776825261548857
0.003191548476426387   -0.016695212100694138   -0.0013667795596689599
-6.103256244326691e-06   -0.016674959045300416   -0.001383826723275125
0.0029072548763134703   -0.010676825104643252   -0.0011546020478531902
0.00017387990209447295   -0.010640138874289082   -0.0011776825261548857
5.609990540415241e-06   -0.01669270308113092   -0.00136319159442085
0.002917924055709662   -0.01067326740253108   -0.001182255470889732
0.0001818318143283817   -0.010641849807103022   -0.0011716716071881106
5.609990540415241e-06   -0.01669270308113092   -0.00136319159442085
0.003191548476426387   -0.016695212100694138   -0.0013667795596689599
0.002917924055709662   -0.01067326740253108   -0.001182255470889732
0.0031933645223110384   -0.016676615780169296   -0.0013745179909630768
0.0001818318143283817   -0.010641849807103022   -0.0011716716071881106
0.0029112756434759163   -0.010648629291349958   -0.0012155332900484093
0.0031933645223110384   -0.016676615780169296   -0.0013745179909630768
0.002917924055709662   -0.01067326740253108   -0.001182255470889732
0.0001818318143283817   -0.010641849807103022   -0.0011716716071881106
0.0031933645223110384   -0.016676615780169296   -0.0013745179909630768
1.4138309429956002e-05   -0.01669814211122151   -0.0013488131240542611
5.609990540415241e-06   -0.01669270308113092   -0.00136319159442085
0.0001818318143283817   -0.010641849807103022   -0.0011716716071881106
0.0031933645223110384   -0.016676615780169296   -0.0013745179909630768
5.609990540415241e-06   -0.01669270308113092   -0.00136319159442085
0.002917924055709662   -0.01067326740253108   -0.001182255470889732
0.0001818318143283817   -0.010641849807103022   -0.0011716716071881106
1.4138309429956002e-05   -0.01669814211122151   -0.0013488131240542611
0.0029112756434759163   -0.010648629291349958   -0.0012155332900484093
0.00018776869714853928   -0.010621674731461311   -0.0011720975595030186
1.4138309429956002e-05   -0.01669814211122151   -0.0013488131240542611
0.0031933645223110384   -0.016676615780169296   -0.0013745179909630768
0.0029112756434759163   -0.010648629291349958   -0.0012155332900484093
0.0031871459595450412   -0.016642053594376777   -0.0013884022313277514
0.00018776869714853928   -0.010621674731461311   -0.0011720975595030186
0.0029009006588706027   -0.010597665915972897   -0.0012551038655392753
0.0031871459595450412   -0.016642053594376777   -0.0013884022313277514
0.0029112756434759163   -0.010648629291349958   -0.0012155332900484093
0.00018776869714853928   -0.010621674731461311   -0.0011720975595030186
0.0031871459595450412   -0.016642053594376777   -0.0013884022313277514
1.9807051825168172e-05   -0.016691106832015506   -0.0013409661348544614
1.4138309429956002e-05   -0.01669814211122151   -0.0013488131240542611
0.00018776869714853928   -0.010621674731461311   -0.0011720975595030186
0.0031871459595450412   -0.016642053594376777   -0.0013884022313277514
1.4138309429956002e-05   -0.01669814211122151   -0.0013488131240542611
0.0029112756434759163   -0.010648629291349958   -0.0012155332900484093
0.0029072548763134703   -0.010676825104643252   -0.0011546020478531902
0.003177310803133494   -0.016702471407585257   -0.001364959164840298
0.006034264230131369   -0.010785436405809387   -0.0011558567922764944
0.002917924055709662   -0.01067326740253108   -0.001182255470889732
0.003177310803133494   -0.016702471407585257   -0.001364959164840298
0.0066925123075375625   -0.01675291134218175   -0.0013836128857686078
0.006034264230131369   -0.010785436405809387   -0.0011558567922764944
0.006687515947573105   -0.0167286905425615   -0.0014095837910087356
0.002917924055709662   -0.01067326740253108   -0.001182255470889732
0.005982872501088328   -0.01076638056894119   -0.001228285829568727
0.006687515947573105   -0.0167286905425615   -0.0014095837910087356
0.006034264230131369   -0.010785436405809387   -0.0011558567922764944
0.002917924055709662   -0.01067326740253108   -0.001182255470889732
0.006687515947573105   -0.0167286905425615   -0.0014095837910087356
0.003191548476426387   -0.016695212100694138   -0.0013667795596689599
0.003177310803133494   -0.016702471407585257   -0.001364959164840298
0.002917924055709662   -0.01067326740253108   -0.001182255470889732
0.006687515947573105   -0.0167286905425615   -0.0014095837910087356
0.003177310803133494   -0.016702471407585257   -0.001364959164840298
0.006034264230131369   -0.010785436405809387   -0.0011558567922764944
0.002917924055709662   -0.01067326740253108   -0.001182255470889732
0.003191548476426387   -0.016695212100694138   -0.0013667795596689599
0.005982872501088328   -0.01076638056894119   -0.001228285829568727
0.0029112756434759163   -0.010648629291349958   -0.0012155332900484093
0.003191548476426387   -0.016695212100694138   -0.0013667795596689599
0.006687515947573105   -0.0167286905425615   -0.0014095837910087356
0.005982872501088328   -0.01076638056894119   -0.001228285829568727
0.006671808248751091   -0.016698407886923283   -0.0014451612150038905
0.0029112756434759163   -0.010648629291349958   -0.0012155332900484093
0.005931417891443446   -0.010728490801826914   -0.0013108576406738776
0.006671808248751091   -0.016698407886923283   -0.0014451612150038905
0.005982872501088328   -0.01076638056894119   -0.001228285829568727
0.0029112756434759163   -0.010648629291349958   -0.0012155332900484093
0.006671808248751091   -0.016698407886923283   -0.0014451612150038905
0.0031933645223110384   -0.016676615780169296   -0.0013745179909630768
0.003191548476426387   -0.016695212100694138   -0.0013667795596689599
0.0029112756434759163   -0.010648629291349958   -0.0012155332900484093
0.006671808248751091   -0.016698407886923283   -0.0014451612150038905
0.003191548476426387   -0.016695212100694138   -0.0013667795596689599
0.005982872501088328   -0.01076638056894119   -0.001228285829568727
0.0029112756434759163   -0.010648629291349958   -0.0012155332900484093
0.0031933645223110384   -0.016676615780169296   -0.0013745179909630768
0.005931417891443446   -0.010728490801826914   -0.0013108576406738776
0.0029009006588706027   -0.010597665915972897   -0.0012551038655392753
0.0031933645223110384   -0.016676615780169296   -0.0013745179909630768
0.006671808248751091   -0.016698407886923283   -0.0014451612150038905
0.005931417891443446   -0.010728490801826914   -0.0013108576406738776
0.006627239447021877   -0.016640916334073396   -0.0014902753953658385
0.0029009006588706027   -0.010597665915972897   -0.0012551038655392753
0.005839292837629032   -0.010649252423590381   -0.001403583283059823
0.006627239447021877   -0.016640916334073396   -0.0014902753953658385
0.005931417891443446   -0.010728490801826914   -0.0013108576406738776
0.0029009006588706027   -0.010597665915972897   -0.0012551038655392753
0.006627239447021877   -0.016640916334073396   -0.0014902753953658385
0.0031871459595450412   -0.016642053594376777   -0.0013884022313277514
0.0031933645223110384   -0.016676615780169296   -0.0013745179909630768
0.0029009006588706027   -0.010597665915972897   -0.0012551038655392753
0.006627239447021877   -0.016640916334073396   -0.0014902753953658385
0.0031933645223110384   -0.016676615780169296   -0.0013745179909630768
0.005931417891443446   -0.010728490801826914   -0.0013108576406738776
-0.009622501107475452   -0.01682160328643538   -0.0017311739096419567
-0.010565002543394025   -0.023331669410340018   -0.001763713166124932
-0.006247266532959794   -0.01673039397936117   -0.0015653455015118155
-0.009718081823411733   -0.01691718948847699   -0.0016380006514466416
-0.010565002543394025   -0.023331669410340018   -0.001763713166124932
-0.006944457590400786   -0.02329463481993513   -0.0016318544390902638
-0.006247266532959794   -0.01673039397936117   -0.0015653455015118155
-0.006941103279747424   -0.023354784253340127   -0.001592375814142891
-0.009718081823411733   -0.01691718948847699   -0.0016380006514466416
-0.00625409611921508   -0.016801023172453796   -0.0015008937230655502
-0.006941103279747424   -0.023354784253340127   -0.001592375814142891
-0.006247266532959794   -0.01673039397936117   -0.0015653455015118155
-0.009718081823411733   -0.01691718948847699   -0.0016380006514466416
-0.006941103279747424   -0.023354784253340127   -0.001592375814142891
-0.010609214039841369   -0.02341255844465539   -0.0017158317320285638
-0.010565002543394025   -0.023331669410340018   -0.001763713166124932
-0.009718081823411733   -0.01691718948847699   -0.0016380006514466416
-0.006941103279747424   -0.023354784253340127   -0.001592375814142891
-0.010565002543394025   -0.023331669410340018   -0.001763713166124932
-0.006247266532959794   -0.01673039397936117   -0.0015653455015118155
-0.009718081823411733   -0.01691718948847699   -0.0016380006514466416
-0.010609214039841369   -0.02341255844465539   -0.0017158317320285638
-0.00625409611921508   -0.016801023172453796   -0.0015008937230655502
-0.009772586860098971   -0.016984891063903378   -0.0015537974463379711
-0.010609214039841369   -0.02341255844465539   -0.0017158317320285638
-0.006941103279747424   -0.023354784253340127   -0.001592375814142891
-0.00625409611921508   -0.016801023172453796   -0.0015008937230655502
-0.006931200222729135   -0.0234103442887475   -0.0015594547235136644
-0.009772586860098971   -0.016984891063903378   -0.0015537974463379711
-0.006258749492667655   -0.01685707741505206   -0.0014428766690756224
-0.006931200222729135   -0.0234103442887475   -0.0015594547235136644
-0.00625409611921508   -0.016801023172453796   -0.0015008937230655502
-0.009772586860098971   -0.016984891063903378   -0.0015537974463379711
-0.006931200222729135   -0.0234103442887475   -0.0015594547235136644
-0.010622806842326457   -0.02347862111276613   -0.0016773865626894305
-0.010609214039841369   -0.02341255844465539   -0.0017158317320285638
-0.009772586860098971   -0.016984891063903378   -0.0015537974463379711
-0.006931200222729135   -0.0234103442887475   -0.0015594547235136644
-0.010609214039841369   -0.02341255844465539   -0.0017158317320285638
-0.00625409611921508   -0.016801023172453796   -0.0015008937230655502
-0.009772586860098971   -0.016984891063903378   -0.0015537974463379711
-0.010622806842326457   -0.02347862111276613   -0.0016773865626894305
-0.006258749492667655   -0.01685707741505206   -0.0014428766690756224
-0.009828672766230078   -0.01704570134025708   -0.0014796345245470229
-0.010622806842326457   -0.02347862111276613   -0.0016773865626894305
-0.006931200222729135   -0.0234103442887475   -0.0015594547235136644
-0.006258749492667655   -0.01685707741505206   -0.0014428766690756224
-0.006907697239410315   -0.023465556826519136   -0.001532625499441202
-0.009828672766230078   -0.01704570134025708   -0.0014796345245470229
-0.006245106865782152   -0.016903211835686386   -0.001390434619731686
-0.006907697239410315   -0.023465556826519136   -0.001532625499441202
-0.006258749492667655   -0.01685707741505206   -0.0014428766690756224
-0.009828672766230078   -0.01704570134025708   -0.0014796345245470229
-0.006907697239410315   -0.023465556826519136   -0.001532625499441202
-0.010626812300858558   -0.023550482074435292   -0.0016491950608499369
-0.010622806842326457   -0.02347862111276613   -0.0016773865626894305
-0.009828672766230078   -0.01704570134025708   -0.0014796345245470229
-0.006907697239410315   -0.023465556826519136   -0.001532625499441202
-0.010622806842326457   -0.02347862111276613   -0.0016773865626894305
-0.006258749492667655   -0.01685707741505206   -0.0014428766690756224
-0.006247266532959794   -0.01673039397936117   -0.0015653455015118155
-0.006944457590400786   -0.02329463481993513   -0.0016318544390902638
-0.0030836475422499937   -0.01668314885422697   -0.0014505408763859846
-0.00625409611921508   -0.016801023172453796   -0.0015008937230655502
-0.006944457590400786   -0.02329463481993513   -0.0016318544390902638
-0.003581364457837748   -0.023273243441530495   -0.0015421069729192932
-0.0030836475422499937   -0.01668314885422697   -0.0014505408763859846
-0.003568221250427322   -0.023309598614891895   -0.0015075895899516376
-0.00625409611921508   -0.016801023172453796   -0.0015008937230655502
-0.0030771237591552536   -0.01672741702667097   -0.0014079085060491028
-0.003568221250427322   -0.023309598614891895   -0.0015075895899516376
-0.0030836475422499937   -0.01668314885422697   -0.0014505408763859846
-0.00625409611921508   -0.016801023172453796   -0.0015008937230655502
-0.003568221250427322   -0.023309598614891895   -0.0015075895899516376
-0.006941103279747424   -0.023354784253340127   -0.001592375814142891
-0.006944457590400786   -0.02329463481993513   -0.0016318544390902638
-0.00625409611921508   -0.016801023172453796   -0.0015008937230655502
-0.003568221250427322   -0.023309598614891895   -0.0015075895899516376
-0.006944457590400786   -0.02329463481993513   -0.0016318544390902638
-0.0030836475422499937   -0.01668314885422697   -0.0014505408763859846
-0.00625409611921508   -0.016801023172453796   -0.0015008937230655502
-0.006941103279747424   -0.023354784253340127   -0.001592375814142891
-0.0030771237591552536   -0.01672741702667097   -0.0014079085060491028
-0.006258749492667655   -0.01685707741505206   -0.0014428766690756224
-0.006941103279747424   -0.023354784253340127   -0.001592375814142891
-0.003568221250427322   -0.023309598614891895   -0.0015075895899516376
-0.0030771237591552536   -0.01672741702667097   -0.0014079085060491028
-0.0035522450035713033   -0.02334301361836524   -0.0014796318845609255
-0.006258749492667655   -0.01685707741505206   -0.0014428766690756224
-0.0030684647093030142   -0.01675946530350574   -0.0013716106539566541
-0.0035522450035713033   -0.02334301361836524   -0.0014796318845609255
-0.0030771237591552536   -0.01672741702667097   -0.0014079085060491028
-0.006258749492667655   -0.01685707741505206   -0.0014428766690756224
-0.0035522450035713033   -0.02334301361836524   -0.0014796318845609255
-0.006931200222729135   -0.0234103442887475   -0.0015594547235136644
-0.006941103279747424   -0.023354784253340127   -0.001592375814142891
-0.006258749492667655   -0.01685707741505206   -0.0014428766690756224
-0.0035522450035713033   -0.02334301361836524   -0.0014796318845609255
-0.006941103279747424   -0.023354784253340127   -0.001592375814142891
-0.0030771237591552536   -0.01672741702667097   -0.0014079085060491028
-0.006258749492667655   -0.01685707741505206   -0.0014428766690756224
-0.006931200222729135   -0.0234103442887475   -0.0015594547235136644
-0.0030684647093030142   -0.01675946530350574   -0.0013716106539566541
-0.006245106865782152   -0.016903211835686386   -0.001390434619731686
-0.006931200222729135   -0.0234103442887475   -0.0015594547235136644
-0.0035522450035713033   -0.02334301361836524   -0.0014796318845609255
-0.0030684647093030142   -0.01675946530350574   -0.0013716106539566541
-0.0035331564282181068   -0.023373599537094756   -0.001458394665617013
-0.006245106865782152   -0.016903211835686386   -0.001390434619731686
-0.003055864497752951   -0.01677950449584319   -0.0013417548213934738
-0.0035331564282181068   -0.023373599537094756   -0.001458394665617013
-0.0030684647093030142   -0.01675946530350574   -0.0013716106539566541
-0.006245106865782152   -0.016903211835686386   -0.001390434619731686
-0.0035331564282181068   -0.023373599537094756   -0.001458394665617013
-0.006907697239410315   -0.023465556826519136   -0.001532625499441202
-0.006931200222729135   -0.0234103442887475   -0.0015594547235136644
-0.006245106865782152   -0.016903211835686386   -0.001390434619731686
-0.0035331564282181068   -0.023373599537094756   -0.001458394665617013
-0.006931200222729135   -0.0234103442887475   -0.0015594547235136644
-0.0030684647093030142   -0.01675946530350574   -0.0013716106539566541
-0.0030836475422499937   -0.01668314885422697   -0.0014505408763859846
-0.003581364457837748   -0.023273243441530495   -0.0015421069729192932
-6.103256244326691e-06   -0.016674959045300416   -0.001383826723275125
-0.0030771237591552536   -0.01672741702667097   -0.0014079085060491028
-0.003581364457837748   -0.023273243441530495   -0.0015421069729192932
-0.0003093091349883442   -0.023260897944391252   -0.001495849364943966
-6.103256244326691e-06   -0.016674959045300416   -0.001383826723275125
-0.00029115643141425685   -0.023272995660347597   -0.0014666454860410973
-0.0030771237591552536   -0.01672741702667097   -0.0014079085060491028
5.609990540415241e-06   -0.01669270308113092   -0.00136319159442085
-0.00029115643141425685   -0.023272995660347597   -0.0014666454860410973
-6.103256244326691e-06   -0.016674959045300416   -0.001383826723275125
-0.0030771237591552536   -0.01672741702667097   -0.0014079085060491028
-0.00029115643141425685   -0.023272995660347597   -0.0014666454860410973
-0.003568221250427322   -0.023309598614891895   -0.0015075895899516376
-0.003581364457837748   -0.023273243441530495   -0.0015421069729192932
-0.0030771237591552536   -0.01672741702667097   -0.0014079085060491028
-0.00029115643141425685   -0.023272995660347597   -0.0014666454860410973
-0.003581364457837748   -0.023273243441530495   -0.0015421069729192932
-6.103256244326691e-06   -0.016674959045300416   -0.001383826723275125
-0.0030771237591552536   -0.01672741702667097   -0.0014079085060491028
-0.003568221250427322   -0.023309598614891895   -0.0015075895899516376
5.609990540415241e-06   -0.01669270308113092   -0.00136319159442085
-0.0030684647093030142   -0.01675946530350574   -0.0013716106539566541
-0.003568221250427322   -0.023309598614891895   -0.0015075895899516376
-0.00029115643141425685   -0.023272995660347597   -0.0014666454860410973
5.609990540415241e-06   -0.01669270308113092   -0.00136319159442085
-0.0002753619170722662   -0.023281941732794877   -0.0014439473700426629
-0.0030684647093030142   -0.01675946530350574   -0.0013716106539566541
1.4138309429956002e-05   -0.01669814211122151   -0.0013488131240542611
-0.0002753619170722662   -0.023281941732794877   -0.0014439473700426629
5.609990540415241e-06   -0.01669270308113092   -0.00136319159442085
-0.0030684647093030142   -0.01675946530350574   -0.0013716106539566541
-0.0002753619170722662   -0.023281941732794877   -0.0014439473700426629
-0.0035522450035713033   -0.02334301361836524   -0.0014796318845609255
-0.003568221250427322   -0.023309598614891895   -0.0015075895899516376
-0.0030684647093030142   -0.01675946530350574   -0.0013716106539566541
-0.0002753619170722662   -0.023281941732794877   -0.0014439473700426629
-0.003568221250427322   -0.023309598614891895   -0.0015075895899516376
5.609990540415241e-06   -0.01669270308113092   -0.00136319159442085
-0.0030684647093030142   -0.01675946530350574   -0.0013716106539566541
-0.0035522450035713033   -0.02334301361836524   -0.0014796318845609255
1.4138309429956002e-05   -0.01669814211122151   -0.0013488131240542611
-0.003055864497752951   -0.01677950449584319   -0.0013417548213934738
-0.0035522450035713033   -0.02334301361836524   -0.0014796318845609255
-0.0002753619170722662   -0.023281941732794877   -0.0014439473700426629
1.4138309429956002e-05   -0.01669814211122151   -0.0013488131240542611
-0.00026317119821942165   -0.023287688247367443   -0.0014279905128543183
-0.003055864497752951   -0.01677950449584319   -0.0013417548213934738
1.9807051825168172e-05   -0.016691106832015506   -0.0013409661348544614
-0.00026317119821942165   -0.023287688247367443   -0.0014279905128543183
1.4138309429956002e-05   -0.01669814211122151   -0.0013488131240542611
-0.003055864497752951   -0.01677950449584319   -0.0013417548213934738
-0.00026317119821942165   -0.023287688247367443   -0.0014279905128543183
-0.0035331564282181068   -0.023373599537094756   -0.001458394665617013
-0.0035522450035713033   -0.02334301361836524   -0.0014796318845609255
-0.003055864497752951   -0.01677950449584319   -0.0013417548213934738
-0.00026317119821942165   -0.023287688247367443   -0.0014279905128543183
-0.0035522450035713033   -0.02334301361836524   -0.0014796318845609255
1.4138309429956002e-05   -0.01669814211122151   -0.0013488131240542611
-6.103256244326691e-06   -0.016674959045300416   -0.001383826723275125
-0.0003093091349883442   -0.023260897944391252   -0.001495849364943966
0.003177310803133494   -0.016702471407585257   -0.001364959164840298
5.609990540415241e-06   -0.01669270308113092   -0.00136319159442085
-0.0003093091349883442   -0.023260897944391252   -0.001495849364943966
0.0030624820423874283   -0.023255466774294735   -0.0014935147019972815
0.003177310803133494   -0.016702471407585257   -0.001364959164840298
0.0030863923403180505   -0.0232440497276102   -0.0014698877204895207
5.609990540415241e-06   -0.01669270308113092   -0.00136319159442085
0.003191548476426387   -0.016695212100694138   -0.0013667795596689599
0.0030863923403180505   -0.0232440497276102   -0.0014698877204895207
0.003177310803133494   -0.016702471407585257   -0.001364959164840298
5.609990540415241e-06   -0.01669270308113092   -0.00136319159442085
0.0030863923403180505   -0.0232440497276102   -0.0014698877204895207
-0.00029115643141425685   -0.023272995660347597   -0.0014666454860410973
-0.0003093091349883442   -0.023260897944391252   -0.001495849364943966
5.609990540415241e-06   -0.01669270308113092   -0.00136319159442085
0.0030863923403180505   -0.0232440497276102   -0.0014698877204895207
-0.0003093091349883442   -0.023260897944391252   -0.001495849364943966
0.003177310803133494   -0.016702471407585257   -0.001364959164840298
5.609990540415241e-06   -0.01669270308113092   -0.00136319159442085
-0.00029115643141425685   -0.023272995660347597   -0.0014666454860410973
0.003191548476426387   -0.016695212100694138   -0.0013667795596689599
1.4138309429956002e-05   -0.01669814211122151   -0.0013488131240542611
-0.00029115643141425685   -0.023272995660347597   -0.0014666454860410973
0.0030863923403180505   -0.0232440497276102   -0.0014698877204895207
0.003191548476426387   -0.016695212100694138   -0.0013667795596689599
0.0031026526065109934   -0.023230853928633364   -0.0014525779466778663
1.4138309429956002e-05   -0.01669814211122151   -0.0013488131240542611
0.0031933645223110384   -0.016676615780169296   -0.0013745179909630768
0.0031026526065109934   -0.023230853928633364   -0.0014525779466778663
0.003191548476426387   -0.016695212100694138   -0.0013667795596689599
1.4138309429956002e-05   -0.01669814211122151   -0.0013488131240542611
0.0031026526065109934   -0.023230853928633364   -0.0014525779466778663
-0.0002753619170722662   -0.023281941732794877   -0.0014439473700426629
-0.00029115643141425685   -0.023272995660347597   -0.0014666454860410973
1.4138309429956002e-05   -0.01669814211122151   -0.0013488131240542611
0.0031026526065109934   -0.023230853928633364   -0.0014525779466778663
-0.00029115643141425685   -0.023272995660347597   -0.0014666454860410973
0.003191548476426387   -0.016695212100694138   -0.0013667795596689599
1.4138309429956002e-05   -0.01669814211122151   -0.0013488131240542611
-0.0002753619170722662   -0.023281941732794877   -0.0014439473700426629
0.0031933645223110384   -0.016676615780169296   -0.0013745179909630768
1.9807051825168172e-05   -0.016691106832015506   -0.0013409661348544614
-0.0002753619170722662   -0.023281941732794877   -0.0014439473700426629
0.0031026526065109934   -0.023230853928633364   -0.0014525779466778663
0.0031933645223110384   -0.016676615780169296   -0.0013745179909630768
0.0031065048653044006   -0.02321158586816868   -0.001441457383684169
1.9807051825168172e-05   -0.016691106832015506   -0.0013409661348544614
0.0031871459595450412   -0.016642053594376777   -0.0013884022313277514
0.0031065048653044006   -0.02321158586816868   -0.001441457383684169
0.0031933645223110384   -0.016676615780169296   -0.0013745179909630768
1.9807051825168172e-05   -0.016691106832015506   -0.0013409661348544614
0.0031065048653044006   -0.02321158586816868   -0.001441457383684169
-0.00026317119821942165   -0.023287688247367443   -0.0014279905128543183
-0.0002753619170722662   -0.023281941732794877   -0.0014439473700426629
1.9807051825168172e-05   -0.016691106832015506   -0.0013409661348544614
0.0031065048653044006   -0.02321158586816868   -0.001441457383684169
-0.0002753619170722662   -0.023281941732794877   -0.0014439473700426629
0.0031933645223110384   -0.016676615780169296   -0.0013745179909630768
0.003177310803133494   -0.016702471407585257   -0.001364959164840298
0.0030624820423874283   -0.023255466774294735   -0.0014935147019972815
0.0066925123075375625   -0.01675291134218175   -0.0013836128857686078
0.003191548476426387   -0.016695212100694138   -0.0013667795596689599
0.0030624820423874283   -0.023255466774294735   -0.0014935147019972815
0.00671595674950164   -0.023247763203270294   -0.0015308034556701558
0.0066925123075375625   -0.01675291134218175   -0.0013836128857686078
0.006762537213041798   -0.02321773865460572   -0.001511203075692368
0.003191548476426387   -0.016695212100694138   -0.0013667795596689599
0.006687515947573105   -0.0167286905425615   -0.0014095837910087356
0.006762537213041798   -0.02321773865460572   -0.001511203075692368
0.0066925123075375625   -0.01675291134218175   -0.0013836128857686078
0.003191548476426387   -0.016695212100694138   -0.0013667795596689599
0.006762537213041798   -0.02321773865460572   -0.001511203075692368
0.0030863923403180505   -0.0232440497276102   -0.0014698877204895207
0.0030624820423874283   -0.023255466774294735   -0.0014935147019972815
0.003191548476426387   -0.016695212100694138   -0.0013667795596689599
0.006762537213041798   -0.02321773865460572   -0.001511203075692368
0.0030624820423874283   -0.023255466774294735   -0.0014935147019972815
0.0066925123075375625   -0.01675291134218175   -0.0013836128857686078
0.003191548476426387   -0.016695212100694138   -0.0013667795596689599
0.0030863923403180505   -0.0232440497276102   -0.0014698877204895207
0.006687515947573105   -0.0167286905425615   -0.0014095837910087356
0.0031933645223110384   -0.016676615780169296   -0.0013745179909630768
0.0030863923403180505   -0.0232440497276102   -0.0014698877204895207
0.006762537213041798   -0.02321773865460572   -0.001511203075692368
0.006687515947573105   -0.0167286905425615   -0.0014095837910087356
0.006787566873248708   -0.02319408916768475   -0.0015012086057555009
0.0031933645223110384   -0.016676615780169296   -0.0013745179909630768
0.006671808248751091   -0.016698407886923283   -0.0014451612150038905
0.006787566873248708   -0.02319408916768475   -0.0015012086057555009
0.006687515947573105   -0.0167286905425615   -0.0014095837910087356
0.0031933645223110384   -0.016676615780169296   -0.0013745179909630768
0.006787566873248708   -0.02319408916768475   -0.0015012086057555009
0.0031026526065109934   -0.023230853928633364   -0.0014525779466778663
0.0030863923403180505   -0.0232440497276102   -0.0014698877204895207
0.0031933645223110384   -0.016676615780169296   -0.0013745179909630768
0.006787566873248708   -0.02319408916768475   -0.0015012086057555009
0.0030863923403180505   -0.0232440497276102   -0.0014698877204895207
0.006687515947573105   -0.0167286905425615   -0.0014095837910087356
0.0031933645223110384   -0.016676615780169296   -0.0013745179909630768
0.0031026526065109934   -0.023230853928633364   -0.0014525779466778663
0.006671808248751091   -0.016698407886923283   -0.0014451612150038905
0.0031871459595450412   -0.016642053594376777   -0.0013884022313277514
0.0031026526065109934   -0.023230853928633364   -0.0014525779466778663
0.006787566873248708   -0.02319408916768475   -0.0015012086057555009
0.006671808248751091   -0.016698407886923283   -0.0014451612150038905
0.006794476471989192   -0.023156334799983195   -0.0015009840494931688
0.0031871459595450412   -0.016642053594376777   -0.0013884022313277514
0.006627239447021877   -0.016640916334073396   -0.0014902753953658385
0.006794476471989192   -0.023156334799983195   -0.0015009840494931688
0.006671808248751091   -0.016698407886923283   -0.0014451612150038905
0.0031871459595450412   -0.016642053594376777   -0.0013884022313277514
0.006794476471989192   -0.023156334799983195   -0.0015009840494931688
0.0031065048653044006   -0.02321158586816868   -0.001441457383684169
0.0031026526065109934   -0.023230853928633364   -0.0014525779466778663
0.0031871459595450412   -0.016642053594376777   -0.0013884022313277514
0.006794476471989192   -0.023156334799983195   -0.0015009840494931688
0.0031026526065109934   -0.023230853928633364   -0.0014525779466778663
0.006671808248751091   -0.016698407886923283   -0.0014451612150038905
-0.010565002543394025   -0.023331669410340018   -0.001763713166124932
-0.010891074823581608   -0.029953854740090838   -0.0017347234582374138
-0.006944457590400786   -0.02329463481993513   -0.0016318544390902638
-0.010609214039841369   -0.02341255844465539   -0.0017158317320285638
-0.010891074823581608   -0.029953854740090838   -0.0017347234582374138
-0.007277105521579194   -0.02997127952920427   -0.0016374231242277074
-0.006944457590400786   -0.02329463481993513   -0.0016318544390902638
-0.007257217069844272   -0.030020772060542718   -0.001622485677989883
-0.010609214039841369   -0.02341255844465539   -0.0017158317320285638
-0.006941103279747424   -0.023354784253340127   -0.001592375814142891
-0.007257217069844272   -0.030020772060542718   -0.001622485677989883
-0.006944457590400786   -0.02329463481993513   -0.0016318544390902638
-0.010609214039841369   -0.02341255844465539   -0.0017158317320285638
-0.007257217069844272   -0.030020772060542718   -0.001622485677989883
-0.010877936591189255   -0.030020098926322732   -0.0017318431440072305
-0.010891074823581608   -0.029953854740090838   -0.0017347234582374138
-0.010609214039841369   -0.02341255844465539   -0.0017158317320285638
-0.007257217069844272   -0.030020772060542718   -0.001622485677989883
-0.010891074823581608   -0.029953854740090838   -0.0017347234582374138
-0.006944457590400786   -0.02329463481993513   -0.0016318544390902638
-0.010609214039841369   -0.02341255844465539   -0.0017158317320285638
-0.010877936591189255   -0.030020098926322732   -0.0017318431440072305
-0.006941103279747424   -0.023354784253340127   -0.001592375814142891
-0.010622806842326457   -0.02347862111276613   -0.0016773865626894305
-0.010877936591189255   -0.030020098926322732   -0.0017318431440072305
-0.007257217069844272   -0.030020772060542718   -0.001622485677989883
-0.006941103279747424   -0.023354784253340127   -0.001592375814142891
-0.007226430647202906   -0.03007569800696677   -0.0016142887648376407
-0.010622806842326457   -0.02347862111276613   -0.0016773865626894305
-0.006931200222729135   -0.0234103442887475   -0.0015594547235136644
-0.007226430647202906   -0.03007569800696677   -0.0016142887648376407
-0.006941103279747424   -0.023354784253340127   -0.001592375814142891
-0.010622806842326457   -0.02347862111276613   -0.0016773865626894305
-0.007226430647202906   -0.03007569800696677   -0.0016142887648376407
-0.010844178418682794   -0.03008452865638836   -0.0017390335886199367
-0.010877936591189255   -0.030020098926322732   -0.0017318431440072305
-0.010622806842326457   -0.02347862111276613   -0.0016773865626894305
-0.007226430647202906   -0.03007569800696677   -0.0016142887648376407
-0.010877936591189255   -0.030020098926322732   -0.0017318431440072305
-0.006941103279747424   -0.023354784253340127   -0.001592375814142891
-0.010622806842326457   -0.02347862111276613   -0.0016773865626894305
-0.010844178418682794   -0.03008452865638836   -0.0017390335886199367
-0.006931200222729135   -0.0234103442887475   -0.0015594547235136644
-0.010626812300858558   -0.023550482074435292   -0.0016491950608499369
-0.010844178418682794   -0.03008452865638836   -0.0017390335886199367
-0.007226430647202906   -0.03007569800696677   -0.0016142887648376407
-0.006931200222729135   -0.0234103442887475   -0.0015594547235136644
-0.007186700934561504   -0.03013984566240874   -0.0016127165247259278
-0.010626812300858558   -0.023550482074435292   -0.0016491950608499369
-0.006907697239410315   -0.023465556826519136   -0.001532625499441202
-0.007186700934561504   -0.03013984566240874   -0.0016127165247259278
-0.006931200222729135   -0.0234103442887475   -0.0015594547235136644
-0.010626812300858558   -0.023550482074435292   -0.0016491950608499369
-0.007186700934561504   -0.03013984566240874   -0.0016127165247259278
-0.010789720530982342   -0.030167621414680535   -0.001756812207706028
-0.010844178418682794   -0.03008452865638836   -0.0017390335886199367
-0.010626812300858558   -0.023550482074435292   -0.0016491950608499369
-0.007186700934561504   -0.03013984566240874   -0.0016127165247259278
-0.010844178418682794   -0.03008452865638836   -0.0017390335886199367
-0.006931200222729135   -0.0234103442887475   -0.0015594547235136644
-0.006944457590400786   -0.02329463481993513   -0.0016318544390902638
-0.007277105521579194   -0.02997127952920427   -0.0016374231242277074
-0.003581364457837748   -0.023273243441530495   -0.0015421069729192932
-0.006941103279747424   -0.023354784253340127   -0.001592375814142891
-0.007277105521579194   -0.02997127952920427   -0.0016374231242277074
-0.003966341104075884   -0.02997496405657266   -0.0015727756526440807
-0.003581364457837748   -0.023273243441530495   -0.0015421069729192932
-0.003939887946046905   -0.030003302285186224   -0.0015461214560899366
-0.006941103279747424   -0.023354784253340127   -0.001592375814142891
-0.003568221250427322   -0.023309598614891895   -0.0015075895899516376
-0.003939887946046905   -0.030003302285186224   -0.0015461214560899366
-0.003581364457837748   -0.023273243441530495   -0.0015421069729192932
-0.006941103279747424   -0.023354784253340127   -0.001592375814142891
-0.003939887946046905   -0.030003302285186224   -0.0015461214560899366
-0.007257217069844272   -0.030020772060542718   -0.001622485677989883
-0.007277105521579194   -0.02997127952920427   -0.0016374231242277074
-0.006941103279747424   -0.023354784253340127   -0.001592375814142891
-0.003939887946046905   -0.030003302285186224   -0.0015461214560899366
-0.007277105521579194   -0.02997127952920427   -0.0016374231242277074
-0.003581364457837748   -0.023273243441530495   -0.0015421069729192932
-0.006941103279747424   -0.023354784253340127   -0.001592375814142891
-0.007257217069844272   -0.030020772060542718   -0.001622485677989883
-0.003568221250427322   -0.023309598614891895   -0.0015075895899516376
-0.006931200222729135   -0.0234103442887475   -0.0015594547235136644
-0.007257217069844272   -0.030020772060542718   -0.001622485677989883
-0.003939887946046905   -0.030003302285186224   -0.0015461214560899366
-0.003568221250427322   -0.023309598614891895   -0.0015075895899516376
-0.003910064397497984   -0.030037843163188527   -0.0015262307866657507
-0.006931200222729135   -0.0234103442887475   -0.0015594547235136644
-0.0035522450035713033   -0.02334301361836524   -0.0014796318845609255
-0.003910064397497984   -0.030037843163188527   -0.0015262307866657507
-0.003568221250427322   -0.023309598614891895   -0.0015075895899516376
-0.006931200222729135   -0.0234103442887475   -0.0015594547235136644
-0.003910064397497984   -0.030037843163188527   -0.0015262307866657507
-0.007226430647202906   -0.03007569800696677   -0.0016142887648376407
-0.007257217069844272   -0.030020772060542718   -0.001622485677989883
-0.006931200222729135   -0.0234103442887475   -0.0015594547235136644
-0.003910064397497984   -0.030037843163188527   -0.0015262307866657507
-0.007257217069844272   -0.030020772060542718   -0.001622485677989883
-0.003568221250427322   -0.023309598614891895   -0.0015075895899516376
-0.006931200222729135   -0.0234103442887475   -0.0015594547235136644
-0.007226430647202906   -0.03007569800696677   -0.0016142887648376407
-0.0035522450035713033   -0.02334301361836524   -0.0014796318845609255
-0.006907697239410315   -0.023465556826519136   -0.001532625499441202
-0.007226430647202906   -0.03007569800696677   -0.0016142887648376407
-0.003910064397497984   -0.030037843163188527   -0.0015262307866657507
-0.0035522450035713033   -0.02334301361836524   -0.0014796318845609255
-0.0038779513974117976   -0.030078694567677717   -0.001513326438520483
-0.006907697239410315   -0.023465556826519136   -0.001532625499441202
-0.0035331564282181068   -0.023373599537094756   -0.001458394665617013
-0.0038779513974117976   -0.030078694567677717   -0.001513326438520483
-0.0035522450035713033   -0.02334301361836524   -0.0014796318845609255
-0.006907697239410315   -0.023465556826519136   -0.001532625499441202
-0.0038779513974117976   -0.030078694567677717   -0.001513326438520483
-0.007186700934561504   -0.03013984566240874   -0.0016127165247259278
-0.007226430647202906   -0.03007569800696677   -0.0016142887648376407
-0.006907697239410315   -0.023465556826519136   -0.001532625499441202
-0.0038779513974117976   -0.030078694567677717   -0.001513326438520483
-0.007226430647202906   -0.03007569800696677   -0.0016142887648376407
-0.0035522450035713033   -0.02334301361836524   -0.0014796318845609255
-0.003581364457837748   -0.023273243441530495   -0.0015421069729192932
-0.003966341104075884   -0.02997496405657266   -0.0015727756526440807
-0.0003093091349883442   -0.023260897944391252   -0.001495849364943966
-0.003568221250427322   -0.023309598614891895   -0.0015075895899516376
-0.003966341104075884   -0.02997496405657266   -0.0015727756526440807
-0.000749156720643629   -0.029957296000538345   -0.0015465391581235876
-0.0003093091349883442   -0.023260897944391252   -0.001495849364943966
-0.0007179351653254454   -0.02996374602671418   -0.0015087526018512348
-0.003568221250427322   -0.023309598614891895   -0.0015075895899516376
-0.00029115643141425685   -0.023272995660347597   -0.0014666454860410973
-0.0007179351653254454   -0.02996374602671418   -0.0015087526018512348
-0.0003093091349883442   -0.023260897944391252   -0.001495849364943966
-0.003568221250427322   -0.023309598614891895   -0.0015075895899516376
-0.0007179351653254454   -0.02996374602671418   -0.0015087526018512348
-0.003939887946046905   -0.030003302285186224   -0.0015461214560899366
-0.003966341104075884   -0.02997496405657266   -0.0015727756526440807
-0.003568221250427322   -0.023309598614891895   -0.0015075895899516376
-0.0007179351653254454   -0.02996374602671418   -0.0015087526018512348
-0.003966341104075884   -0.02997496405657266   -0.0015727756526440807
-0.0003093091349883442   -0.023260897944391252   -0.001495849364943966
-0.003568221250427322   -0.023309598614891895   -0.0015075895899516376
-0.003939887946046905   -0.030003302285186224   -0.0015461214560899366
-0.00029115643141425685   -0.023272995660347597   -0.0014666454860410973
-0.0035522450035713033   -0.02334301361836524   -0.0014796318845609255
-0.003939887946046905   -0.030003302285186224   -0.0015461214560899366
-0.0007179351653254454   -0.02996374602671418   -0.0015087526018512348
-0.00029115643141425685   -0.023272995660347597   -0.0014666454860410973
-0.0006883775127706195   -0.02997592125342273   -0.0014776846130825974
-0.0035522450035713033   -0.02334301361836524   -0.0014796318845609255
-0.0002753619170722662   -0.023281941732794877   -0.0014439473700426629
-0.0006883775127706195   -0.02997592125342273   -0.0014776846130825974
-0.00029115643141425685   -0.023272995660347597   -0.0014666454860410973
-0.0035522450035713033   -0.02334301361836524   -0.0014796318845609255
-0.0006883775127706195   -0.02997592125342273   -0.0014776846130825974
-0.003910064397497984   -0.030037843163188527   -0.0015262307866657507
-0.003939887946046905   -0.030003302285186224   -0.0015461214560899366
-0.0035522450035713033   -0.02334301361836524   -0.0014796318845609255
-0.0006883775127706195   -0.02997592125342273   -0.0014776846130825974
-0.003939887946046905   -0.030003302285186224   -0.0015461214560899366
-0.00029115643141425685   -0.023272995660347597   -0.0014666454860410973
-0.0035522450035713033   -0.02334301361836524   -0.0014796318845609255
-0.003910064397497984   -0.030037843163188527   -0.0015262307866657507
-0.0002753619170722662   -0.023281941732794877   -0.0014439473700426629
-0.0035331564282181068   -0.023373599537094756   -0.001458394665617013
-0.003910064397497984   -0.030037843163188527   -0.0015262307866657507
-0.0006883775127706195   -0.02997592125342273   -0.0014776846130825974
-0.0002753619170722662   -0.023281941732794877   -0.0014439473700426629
-0.0006632108964800853   -0.029994095670753465   -0.0014535682789223574
-0.0035331564282181068   -0.023373599537094756   -0.001458394665617013
-0.00026317119821942165   -0.023287688247367443   -0.0014279905128543183
-0.0006632108964800853   -0.029994095670753465   -0.0014535682789223574
-0.0002753619170722662   -0.023281941732794877   -0.0014439473700426629
-0.0035331564282181068   -0.023373599537094756   -0.001458394665617013
-0.0006632108964800853   -0.029994095670753465   -0.0014535682789223574
-0.0038779513974117976   -0.030078694567677717   -0.001513326438520483
-0.003910064397497984   -0.030037843163188527   -0.0015262307866657507
-0.0035331564282181068   -0.023373599537094756   -0.001458394665617013
-0.0006632108964800853   -0.029994095670753465   -0.0014535682789223574
-0.003910064397497984   -0.030037843163188527   -0.0015262307866657507
-0.0002753619170722662   -0.023281941732794877   -0.0014439473700426629
-0.0003093091349883442   -0.023260897944391252   -0.001495849364943966
-0.000749156720643629   -0.029957296000538345   -0.0015465391581235876
0.0030624820423874283   -0.023255466774294735   -0.0014935147019972815
-0.00029115643141425685   -0.023272995660347597   -0.0014666454860410973
-0.000749156720643629   -0.029957296000538345   -0.0015465391581235876
0.0025645300638312512   -0.02991807678646512   -0.0015599967693206737
0.0030624820423874283   -0.023255466774294735   -0.0014935147019972815
0.002604288043187191   -0.029902552298504498   -0.001511263812261518
-0.00029115643141425685   -0.023272995660347597   -0.0014666454860410973
0.0030863923403180505   -0.0232440497276102   -0.0014698877204895207
0.002604288043187191   -0.029902552298504498   -0.001511263812261518
0.0030624820423874283   -0.023255466774294735   -0.0014935147019972815
-0.00029115643141425685   -0.023272995660347597   -0.0014666454860410973
0.002604288043187191   -0.029902552298504498   -0.001511263812261518
-0.0007179351653254454   -0.02996374602671418   -0.0015087526018512348
-0.000749156720643629   -0.029957296000538345   -0.0015465391581235876
-0.00029115643141425685   -0.023272995660347597   -0.0014666454860410973
0.002604288043187191   -0.029902552298504498   -0.001511263812261518
-0.000749156720643629   -0.029957296000538345   -0.0015465391581235876
0.0030624820423874283   -0.023255466774294735   -0.0014935147019972815
-0.00029115643141425685   -0.023272995660347597   -0.0014666454860410973
-0.0007179351653254454   -0.02996374602671418   -0.0015087526018512348
0.0030863923403180505   -0.0232440497276102   -0.0014698877204895207
-0.0002753619170722662   -0.023281941732794877   -0.0014439473700426629
-0.0007179351653254454   -0.02996374602671418   -0.0015087526018512348
0.002604288043187191   -0.029902552298504498   -0.001511263812261518
0.0030863923403180505   -0.0232440497276102   -0.0014698877204895207
0.0026411080248233   -0.029894470711190127   -0.0014692274802147322
-0.0002753619170722662   -0.023281941732794877   -0.0014439473700426629
0.0031026526065109934   -0.023230853928633364   -0.0014525779466778663
0.0026411080248233   -0.029894470711190127   -0.0014692274802147322
0.0030863923403180505   -0.0232440497276102   -0.0014698877204895207
-0.0002753619170722662   -0.023281941732794877   -0.0014439473700426629
0.0026411080248233   -0.029894470711190127   -0.0014692274802147322
-0.0006883775127706195   -0.02997592125342273   -0.0014776846130825974
-0.0007179351653254454   -0.02996374602671418   -0.0015087526018512348
-0.0002753619170722662   -0.023281941732794877   -0.0014439473700426629
0.0026411080248233   -0.029894470711190127   -0.0014692274802147322
-0.0007179351653254454   -0.02996374602671418   -0.0015087526018512348
0.0030863923403180505   -0.0232440497276102   -0.0014698877204895207
-0.0002753619170722662   -0.023281941732794877   -0.0014439473700426629
-0.0006883775127706195   -0.02997592125342273   -0.0014776846130825974
0.0031026526065109934   -0.023230853928633364   -0.0014525779466778663
-0.00026317119821942165   -0.023287688247367443   -0.0014279905128543183
-0.0006883775127706195   -0.02997592125342273   -0.0014776846130825974
0.0026411080248233   -0.029894470711190127   -0.0014692274802147322
0.0031026526065109934   -0.023230853928633364   -0.0014525779466778663
0.00266109167246529   -0.029889967079650196   -0.0014334505477051481
-0.00026317119821942165   -0.023287688247367443   -0.0014279905128543183
0.0031065048653044006   -0.02321158586816868   -0.001441457383684169
0.00266109167246529   -0.029889967079650196   -0.0014334505477051481
0.0031026526065109934   -0.023230853928633364   -0.0014525779466778663
-0.00026317119821942165   -0.023287688247367443   -0.0014279905128543183
0.00266109167246529   -0.029889967079650196   -0.0014334505477051481
-0.0006632108964800853   -0.029994095670753465   -0.0014535682789223574
-0.0006883775127706195   -0.02997592125342273   -0.0014776846130825974
-0.00026317119821942165   -0.023287688247367443   -0.0014279905128543183
0.00266109167246529   -0.029889967079650196   -0.0014334505477051481
-0.0006883775127706195   -0.02997592125342273   -0.0014776846130825974
0.0031026526065109934   -0.023230853928633364   -0.0014525779466778663
0.0030624820423874283   -0.023255466774294735   -0.0014935147019972815
0.0025645300638312512   -0.02991807678646512   -0.0015599967693206737
0.00671595674950164   -0.023247763203270294   -0.0015308034556701558
0.0030863923403180505   -0.0232440497276102   -0.0014698877204895207
0.0025645300638312512   -0.02991807678646512   -0.0015599967693206737
0.006111399571054291   -0.029852078897521457   -0.0016153011021861584
0.00671595674950164   -0.023247763203270294   -0.0015308034556701558
0.0062147787156990614   -0.029816611629880124   -0.0015512230992984313
0.0030863923403180505   -0.0232440497276102   -0.0014698877204895207
0.006762537213041798   -0.02321773865460572   -0.001511203075692368
0.0062147787156990614   -0.029816611629880124   -0.0015512230992984313
0.00671595674950164   -0.023247763203270294   -0.0015308034556701558
0.0030863923403180505   -0.0232440497276102   -0.0014698877204895207
0.0062147787156990614   -0.029816611629880124   -0.0015512230992984313
0.002604288043187191   -0.029902552298504498   -0.001511263812261518
0.0025645300638312512   -0.02991807678646512   -0.0015599967693206737
0.0030863923403180505   -0.0232440497276102   -0.0014698877204895207
0.0062147787156990614   -0.029816611629880124   -0.0015512230992984313
0.0025645300638312512   -0.02991807678646512   -0.0015599967693206737
0.00671595674950164   -0.023247763203270294   -0.0015308034556701558
0.0030863923403180505   -0.0232440497276102   -0.0014698877204895207
0.002604288043187191   -0.029902552298504498   -0.001511263812261518
0.006762537213041798   -0.02321773865460572   -0.001511203075692368
0.0031026526065109934   -0.023230853928633364   -0.0014525779466778663
0.002604288043187191   -0.029902552298504498   -0.001511263812261518
0.0062147787156990614   -0.029816611629880124   -0.0015512230992984313
0.006762537213041798   -0.02321773865460572   -0.001511203075692368
0.006286006101176697   -0.029799400718111522   -0.0014966899807866084
0.0031026526065109934   -0.023230853928633364   -0.0014525779466778663
0.006787566873248708   -0.02319408916768475   -0.0015012086057555009
0.006286006101176697   -0.029799400718111522   -0.0014966899807866084
0.006762537213041798   -0.02321773865460572   -0.001511203075692368
0.0031026526065109934   -0.023230853928633364   -0.0014525779466778663
0.006286006101176697   -0.029799400718111522   -0.0014966899807866084
0.0026411080248233   -0.029894470711190127   -0.0014692274802147322
0.002604288043187191   -0.029902552298504498   -0.001511263812261518
0.0031026526065109934   -0.023230853928633364   -0.0014525779466778663
0.006286006101176697   -0.029799400718111522   -0.0014966899807866084
0.002604288043187191   -0.029902552298504498   -0.001511263812261518
0.006762537213041798   -0.02321773865460572   -0.001511203075692368
0.0031026526065109934   -0.023230853928633364   -0.0014525779466778663
0.0026411080248233   -0.029894470711190127   -0.0014692274802147322
0.006787566873248708   -0.02319408916768475   -0.0015012086057555009
0.0031065048653044006   -0.02321158586816868   -0.001441457383684169
0.0026411080248233   -0.029894470711190127   -0.0014692274802147322
0.006286006101176697   -0.029799400718111522   -0.0014966899807866084
0.006787566873248708   -0.02319408916768475   -0.0015012086057555009
0.006349504436334708   -0.029780808708335788   -0.0014520999646852831
0.0031065048653044006   -0.02321158586816868   -0.001441457383684169
0.006794476471989192   -0.023156334799983195   -0.0015009840494931688
0.006349504436334708   -0.029780808708335788   -0.0014520999646852831
0.006787566873248708   -0.02319408916768475   -0.0015012086057555009
0.0031065048653044006   -0.02321158586816868   -0.001441457383684169
0.006349504436334708   -0.029780808708335788   -0.0014520999646852831
0.00266109167246529   -0.029889967079650196   -0.0014334505477051481
0.0026411080248233   -0.029894470711190127   -0.0014692274802147322
0.0031065048653044006   -0.02321158586816868   -0.001441457383684169
0.006349504436334708   -0.029780808708335788   -0.0014520999646852831
0.0026411080248233   -0.029894470711190127   -0.0014692274802147322
0.006787566873248708   -0.02319408916768475   -0.0015012086057555009
-0.010891074823581608   -0.029953854740090838   -0.0017347234582374138
-0.010597053183575247   -0.036272784005134416   -0.0016592277992367795
-0.007277105521579194   -0.02997127952920427   -0.0016374231242277074
-0.010877936591189255   -0.030020098926322732   -0.0017318431440072305
-0.010597053183575247   -0.036272784005134416   -0.0016592277992367795
-0.007246533416419434   -0.036345517247475624   -0.0016007734843224261
-0.007277105521579194   -0.02997127952920427   -0.0016374231242277074
-0.00720400751535163   -0.03638241321130181   -0.0016096796230284309
-0.010877936591189255   -0.030020098926322732   -0.0017318431440072305
-0.007257217069844272   -0.030020772060542718   -0.001622485677989883
-0.00720400751535163   -0.03638241321130181   -0.0016096796230284309
-0.007277105521579194   -0.02997127952920427   -0.0016374231242277074
-0.010877936591189255   -0.030020098926322732   -0.0017318431440072305
-0.00720400751535163   -0.03638241321130181   -0.0016096796230284309
-0.010520257554164003   -0.03632260971617455   -0.0017013437870093192
-0.010597053183575247   -0.036272784005134416   -0.0016592277992367795
-0.010877936591189255   -0.030020098926322732   -0.0017318431440072305
-0.00720400751535163   -0.03638241321130181   -0.0016096796230284309
-0.010597053183575247   -0.036272784005134416   -0.0016592277992367795
-0.007277105521579194   -0.02997127952920427   -0.0016374231242277074
-0.010877936591189255   -0.030020098926322732   -0.0017318431440072305
-0.010520257554164003   -0.03632260971617455   -0.0017013437870093192
-0.007257217069844272   -0.030020772060542718   -0.001622485677989883
-0.010844178418682794   -0.03008452865638836   -0.0017390335886199367
-0.010520257554164003   -0.03632260971617455   -0.0017013437870093192
-0.00720400751535163   -0.03638241321130181   -0.0016096796230284309
-0.007257217069844272   -0.030020772060542718   -0.001622485677989883
-0.007146511752919123   -0.036435053121969804   -0.001625480126080673
-0.010844178418682794   -0.03008452865638836   -0.0017390335886199367
-0.007226430647202906   -0.03007569800696677   -0.0016142887648376407
-0.007146511752919123   -0.036435053121969804   -0.001625480126080673
-0.007257217069844272   -0.030020772060542718   -0.001622485677989883
-0.010844178418682794   -0.03008452865638836   -0.0017390335886199367
-0.007146511752919123   -0.036435053121969804   -0.001625480126080673
-0.01043277091452758   -0.03638390154869078   -0.0017542997439627896
-0.010520257554164003   -0.03632260971617455   -0.0017013437870093192
-0.010844178418682794   -0.03008452865638836   -0.0017390335886199367
-0.007146511752919123   -0.036435053121969804   -0.001625480126080673
-0.010520257554164003   -0.03632260971617455   -0.0017013437870093192
-0.007257217069844272   -0.030020772060542718   -0.001622485677989883
-0.010844178418682794   -0.03008452865638836   -0.0017390335886199367
-0.01043277091452758   -0.03638390154869078   -0.0017542997439627896
-0.007226430647202906   -0.03007569800696677   -0.0016142887648376407
-0.010789720530982342   -0.030167621414680535   -0.001756812207706028
-0.01043277091452758   -0.03638390154869078   -0.0017542997439627896
-0.007146511752919123   -0.036435053121969804   -0.001625480126080673
-0.007226430647202906   -0.03007569800696677   -0.0016142887648376407
-0.0070848556165858745   -0.036506653505390965   -0.001648372698699241
-0.010789720530982342   -0.030167621414680535   -0.001756812207706028
-0.007186700934561504   -0.03013984566240874   -0.0016127165247259278
-0.0070848556165858745   -0.036506653505390965   -0.001648372698699241
-0.007226430647202906   -0.03007569800696677   -0.0016142887648376407
-0.010789720530982342   -0.030167621414680535   -0.001756812207706028
-0.0070848556165858745   -0.036506653505390965   -0.001648372698699241
-0.010313764839436468   -0.036477271490211106   -0.0018183043859850755
-0.01043277091452758   -0.03638390154869078   -0.0017542997439627896
-0.010789720530982342   -0.030167621414680535   -0.001756812207706028
-0.0070848556165858745   -0.036506653505390965   -0.001648372698699241
-0.01043277091452758   -0.03638390154869078   -0.0017542997439627896
-0.007226430647202906   -0.03007569800696677   -0.0016142887648376407
-0.007277105521579194   -0.02997127952920427   -0.0016374231242277074
-0.007246533416419434   -0.036345517247475624   -0.0016007734843224261
-0.003966341104075884   -0.02997496405657266   -0.0015727756526440807
-0.007257217069844272   -0.030020772060542718   -0.001622485677989883
-0.007246533416419434   -0.036345517247475624   -0.0016007734843224261
-0.00424223052447541   -0.036374155737412824   -0.0015633949616940188
-0.003966341104075884   -0.02997496405657266   -0.0015727756526440807
-0.004195966028808169   -0.03639328990349235   -0.0015439803715152566
-0.007257217069844272   -0.030020772060542718   -0.001622485677989883
-0.003939887946046905   -0.030003302285186224   -0.0015461214560899366
-0.004195966028808169   -0.03639328990349235   -0.0015439803715152566
-0.003966341104075884   -0.02997496405657266   -0.0015727756526440807
-0.007257217069844272   -0.030020772060542718   -0.001622485677989883
-0.004195966028808169   -0.03639328990349235   -0.0015439803715152566
-0.00720400751535163   -0.03638241321130181   -0.0016096796230284309
-0.007246533416419434   -0.036345517247475624   -0.0016007734843224261
-0.007257217069844272   -0.030020772060542718   -0.001622485677989883
-0.004195966028808169   -0.03639328990349235   -0.0015439803715152566
-0.007246533416419434   -0.036345517247475624   -0.0016007734843224261
-0.003966341104075884   -0.02997496405657266   -0.0015727756526440807
-0.007257217069844272   -0.030020772060542718   -0.001622485677989883
-0.00720400751535163   -0.03638241321130181   -0.0016096796230284309
-0.003939887946046905   -0.030003302285186224   -0.0015461214560899366
-0.007226430647202906   -0.03007569800696677   -0.0016142887648376407
-0.00720400751535163   -0.03638241321130181   -0.0016096796230284309
-0.004195966028808169   -0.03639328990349235   -0.0015439803715152566
-0.003939887946046905   -0.030003302285186224   -0.0015461214560899366
-0.004146216228835413   -0.03642755251496214   -0.0015313750838309656
-0.007226430647202906   -0.03007569800696677   -0.0016142887648376407
-0.003910064397497984   -0.030037843163188527   -0.0015262307866657507
-0.004146216228835413   -0.03642755251496214   -0.0015313750838309656
-0.003939887946046905   -0.030003302285186224   -0.0015461214560899366
-0.007226430647202906   -0.03007569800696677   -0.0016142887648376407
-0.004146216228835413   -0.03642755251496214   -0.0015313750838309656
-0.007146511752919123   -0.036435053121969804   -0.001625480126080673
-0.00720400751535163   -0.03638241321130181   -0.0016096796230284309
-0.007226430647202906   -0.03007569800696677   -0.0016142887648376407
-0.004146216228835413   -0.03642755251496214   -0.0015313750838309656
-0.00720400751535163   -0.03638241321130181   -0.0016096796230284309
-0.003939887946046905   -0.030003302285186224   -0.0015461214560899366
-0.007226430647202906   -0.03007569800696677   -0.0016142887648376407
-0.007146511752919123   -0.036435053121969804   -0.001625480126080673
-0.003910064397497984   -0.030037843163188527   -0.0015262307866657507
-0.007186700934561504   -0.03013984566240874   -0.0016127165247259278
-0.007146511752919123   -0.036435053121969804   -0.001625480126080673
-0.004146216228835413   -0.03642755251496214   -0.0015313750838309656
-0.003910064397497984   -0.030037843163188527   -0.0015262307866657507
-0.004095080258913421   -0.036477372274351244   -0.0015259157174601007
-0.007186700934561504   -0.03013984566240874   -0.0016127165247259278
-0.0038779513974117976   -0.030078694567677717   -0.001513326438520483
-0.004095080258913421   -0.036477372274351244   -0.0015259157174601007
-0.003910064397497984   -0.030037843163188527   -0.0015262307866657507
-0.007186700934561504   -0.03013984566240874   -0.0016127165247259278
-0.004095080258913421   -0.036477372274351244   -0.0015259157174601007
-0.0070848556165858745   -0.036506653505390965   -0.001648372698699241
-0.007146511752919123   -0.036435053121969804   -0.001625480126080673
-0.007186700934561504   -0.03013984566240874   -0.0016127165247259278
-0.004095080258913421   -0.036477372274351244   -0.0015259157174601007
-0.007146511752919123   -0.036435053121969804   -0.001625480126080673
-0.003910064397497984   -0.030037843163188527   -0.0015262307866657507
-0.003966341104075884   -0.02997496405657266   -0.0015727756526440807
-0.00424223052447541   -0.036374155737412824   -0.0015633949616940188
-0.000749156720643629   -0.029957296000538345   -0.0015465391581235876
-0.003939887946046905   -0.030003302285186224   -0.0015461214560899366
-0.00424223052447541   -0.036374155737412824   -0.0015633949616940188
-0.001328762327690118   -0.036351891871748886   -0.0015574521791881287
-0.000749156720643629   -0.029957296000538345   -0.0015465391581235876
-0.0012775989598131274   -0.03635221126529733   -0.001510688273559692
-0.003939887946046905   -0.030003302285186224   -0.0015461214560899366
-0.0007179351653254454   -0.02996374602671418   -0.0015087526018512348
-0.0012775989598131274   -0.03635221126529733   -0.001510688273559692
-0.000749156720643629   -0.029957296000538345   -0.0015465391581235876
-0.003939887946046905   -0.030003302285186224   -0.0015461214560899366
-0.0012775989598131274   -0.03635221126529733   -0.001510688273559692
-0.004195966028808169   -0.03639328990349235   -0.0015439803715152566
-0.00424223052447541   -0.036374155737412824   -0.0015633949616940188
-0.003939887946046905   -0.030003302285186224   -0.0015461214560899366
-0.0012775989598131274   -0.03635221126529733   -0.001510688273559692
-0.00424223052447541   -0.036374155737412824   -0.0015633949616940188
-0.000749156720643629   -0.029957296000538345   -0.0015465391581235876
-0.003939887946046905   -0.030003302285186224   -0.0015461214560899366
-0.004195966028808169   -0.03639328990349235   -0.0015439803715152566
-0.0007179351653254454   -0.02996374602671418   -0.0015087526018512348
-0.003910064397497984   -0.030037843163188527   -0.0015262307866657507
-0.004195966028808169   -0.03639328990349235   -0.0015439803715152566
-0.0012775989598131274   -0.03635221126529733   -0.001510688273559692
-0.0007179351653254454   -0.02996374602671418   -0.0015087526018512348
-0.0012277644279578474   -0.03636656444252955   -0.0014707529521236237
-0.003910064397497984   -0.030037843163188527   -0.0015262307866657507
-0.0006883775127706195   -0.02997592125342273   -0.0014776846130825974
-0.0012277644279578474   -0.03636656444252955   -0.0014707529521236237
-0.0007179351653254454   -0.02996374602671418   -0.0015087526018512348
-0.003910064397497984   -0.030037843163188527   -0.0015262307866657507
-0.0012277644279578474   -0.03636656444252955   -0.0014707529521236237
-0.004146216228835413   -0.03642755251496214   -0.0015313750838309656
-0.004195966028808169   -0.03639328990349235   -0.0015439803715152566
-0.003910064397497984   -0.030037843163188527   -0.0015262307866657507
-0.0012277644279578474   -0.03636656444252955   -0.0014707529521236237
-0.004195966028808169   -0.03639328990349235   -0.0015439803715152566
-0.0007179351653254454   -0.02996374602671418   -0.0015087526018512348
-0.003910064397497984   -0.030037843163188527   -0.0015262307866657507
-0.004146216228835413   -0.03642755251496214   -0.0015313750838309656
-0.0006883775127706195   -0.02997592125342273   -0.0014776846130825974
-0.0038779513974117976   -0.030078694567677717   -0.001513326438520483
-0.004146216228835413   -0.03642755251496214   -0.0015313750838309656
-0.0012277644279578474   -0.03636656444252955   -0.0014707529521236237
-0.0006883775127706195   -0.02997592125342273   -0.0014776846130825974
-0.0011832653926031594   -0.036396129496131545   -0.0014378825010651372
-0.0038779513974117976   -0.030078694567677717   -0.001513326438520483
-0.0006632108964800853   -0.029994095670753465   -0.0014535682789223574
-0.0011832653926031594   -0.036396129496131545   -0.0014378825010651372
-0.0006883775127706195   -0.02997592125342273   -0.0014776846130825974
-0.0038779513974117976   -0.030078694567677717   -0.001513326438520483
-0.0011832653926031594   -0.036396129496131545   -0.0014378825010651372
-0.004095080258913421   -0.036477372274351244   -0.0015259157174601007
-0.004146216228835413   -0.03642755251496214   -0.0015313750838309656
-0.0038779513974117976   -0.030078694567677717   -0.001513326438520483
-0.0011832653926031594   -0.036396129496131545   -0.0014378825010651372
-0.004146216228835413   -0.03642755251496214   -0.0015313750838309656
-0.0006883775127706195   -0.02997592125342273   -0.0014776846130825974
-0.000749156720643629   -0.029957296000538345   -0.0015465391581235876
-0.001328762327690118   -0.036351891871748886   -0.0015574521791881287
0.0025645300638312512   -0.02991807678646512   -0.0015599967693206737
-0.0007179351653254454   -0.02996374602671418   -0.0015087526018512348
-0.001328762327690118   -0.036351891871748886   -0.0015574521791881287
0.0016844952799877596   -0.03628016575677612   -0.001585408213777956
0.0025645300638312512   -0.02991807678646512   -0.0015599967693206737
0.001747064551097168   -0.036260400416518845   -0.0015115401847098124
-0.0007179351653254454   -0.02996374602671418   -0.0015087526018512348
0.002604288043187191   -0.029902552298504498   -0.001511263812261518
0.001747064551097168   -0.036260400416518845   -0.0015115401847098124
0.0025645300638312512   -0.02991807678646512   -0.0015599967693206737
-0.0007179351653254454   -0.02996374602671418   -0.0015087526018512348
0.001747064551097168   -0.036260400416518845   -0.0015115401847098124
-0.0012775989598131274   -0.03635221126529733   -0.001510688273559692
-0.001328762327690118   -0.036351891871748886   -0.0015574521791881287
-0.0007179351653254454   -0.02996374602671418   -0.0015087526018512348
0.001747064551097168   -0.036260400416518845   -0.0015115401847098124
-0.001328762327690118   -0.036351891871748886   -0.0015574521791881287
0.0025645300638312512   -0.02991807678646512   -0.0015599967693206737
-0.0007179351653254454   -0.02996374602671418   -0.0015087526018512348
-0.0012775989598131274   -0.03635221126529733   -0.001510688273559692
0.002604288043187191   -0.029902552298504498   -0.001511263812261518
-0.0006883775127706195   -0.02997592125342273   -0.0014776846130825974
-0.0012775989598131274   -0.03635221126529733   -0.001510688273559692
0.001747064551097168   -0.036260400416518845   -0.0015115401847098124
0.002604288043187191   -0.029902552298504498   -0.001511263812261518
0.0018112689205851175   -0.0362566742316198   -0.0014449348096084976
-0.0006883775127706195   -0.02997592125342273   -0.0014776846130825974
0.0026411080248233   -0.029894470711190127   -0.0014692274802147322
0.0018112689205851175   -0.0362566742316198   -0.0014449348096084976
0.002604288043187191   -0.029902552298504498   -0.001511263812261518
-0.0006883775127706195   -0.02997592125342273   -0.0014776846130825974
0.0018112689205851175   -0.0362566742316198   -0.0014449348096084976
-0.0012277644279578474   -0.03636656444252955   -0.0014707529521236237
-0.0012775989598131274   -0.03635221126529733   -0.001510688273559692
-0.0006883775127706195   -0.02997592125342273   -0.0014776846130825974
0.0018112689205851175   -0.0362566742316198   -0.0014449348096084976
-0.0012775989598131274   -0.03635221126529733   -0.001510688273559692
0.002604288043187191   -0.029902552298504498   -0.001511263812261518
-0.0006883775127706195   -0.02997592125342273   -0.0014776846130825974
-0.0012277644279578474   -0.03636656444252955   -0.0014707529521236237
0.0026411080248233   -0.029894470711190127   -0.0014692274802147322
-0.0006632108964800853   -0.029994095670753465   -0.0014535682789223574
-0.0012277644279578474   -0.03636656444252955   -0.0014707529521236237
0.0018112689205851175   -0.0362566742316198   -0.0014449348096084976
0.0026411080248233   -0.029894470711190127   -0.0014692274802147322
0.0018540486266434178   -0.036266037568702114   -0.0013846333195336442
-0.0006632108964800853   -0.029994095670753465   -0.0014535682789223574
0.00266109167246529   -0.029889967079650196   -0.0014334505477051481
0.0018540486266434178   -0.036266037568702114   -0.0013846333195336442
0.0026411080248233   -0.029894470711190127   -0.0014692274802147322
-0.0006632108964800853   -0.029994095670753465   -0.0014535682789223574
0.0018540486266434178   -0.036266037568702114   -0.0013846333195336442
-0.0011832653926031594   -0.036396129496131545   -0.0014378825010651372
-0.0012277644279578474   -0.03636656444252955   -0.0014707529521236237
-0.0006632108964800853   -0.029994095670753465   -0.0014535682789223574
0.0018540486266434178   -0.036266037568702114   -0.0013846333195336442
-0.0012277644279578474   -0.03636656444252955   -0.0014707529521236237
0.0026411080248233   -0.029894470711190127   -0.0014692274802147322
0.0025645300638312512   -0.02991807678646512   -0.0015599967693206737
0.0016844952799877596   -0.03628016575677612   -0.001585408213777956
0.006111399571054291   -0.029852078897521457   -0.0016153011021861584
0.002604288043187191   -0.029902552298504498   -0.001511263812261518
0.0016844952799877596   -0.03628016575677612   -0.001585408213777956
0.004888609148168241   -0.03615681353654042   -0.001657129874628322
0.006111399571054291   -0.029852078897521457   -0.0016153011021861584
0.005055128591701566   -0.03611617449382474   -0.0015495748957679177
0.002604288043187191   -0.029902552298504498   -0.001511263812261518
0.0062147787156990614   -0.029816611629880124   -0.0015512230992984313
0.005055128591701566   -0.03611617449382474   -0.0015495748957679177
0.006111399571054291   -0.029852078897521457   -0.0016153011021861584
0.002604288043187191   -0.029902552298504498   -0.001511263812261518
0.005055128591701566   -0.03611617449382474   -0.0015495748957679177
0.001747064551097168   -0.036260400416518845   -0.0015115401847098124
0.0016844952799877596   -0.03628016575677612   -0.001585408213777956
0.002604288043187191   -0.029902552298504498   -0.001511263812261518
0.005055128591701566   -0.03611617449382474   -0.0015495748957679177
0.0016844952799877596   -0.03628016575677612   -0.001585408213777956
0.006111399571054291   -0.029852078897521457   -0.0016153011021861584
0.002604288043187191   -0.029902552298504498   -0.001511263812261518
0.001747064551097168   -0.036260400416518845   -0.0015115401847098124
0.0062147787156990614   -0.029816611629880124   -0.0015512230992984313
0.0026411080248233   -0.029894470711190127   -0.0014692274802147322
0.001747064551097168   -0.036260400416518845   -0.0015115401847098124
0.005055128591701566   -0.03611617449382474   -0.0015495748957679177
0.0062147787156990614   -0.029816611629880124   -0.0015512230992984313
0.005178538991021937   -0.03610496196221068   -0.001451685304075668
0.0026411080248233   -0.029894470711190127   -0.0014692274802147322
0.006286006101176697   -0.029799400718111522   -0.0014966899807866084
0.005178538991021937   -0.03610496196221068   -0.001451685304075668
0.0062147787156990614   -0.029816611629880124   -0.0015512230992984313
0.0026411080248233   -0.029894470711190127   -0.0014692274802147322
0.005178538991021937   -0.03610496196221068   -0.001451685304075668
0.0018112689205851175   -0.0362566742316198   -0.0014449348096084976
0.001747064551097168   -0.036260400416518845   -0.0015115401847098124
0.0026411080248233   -0.029894470711190127   -0.0014692274802147322
0.005178538991021937   -0.03610496196221068   -0.001451685304075668
0.001747064551097168   -0.036260400416518845   -0.0015115401847098124
0.0062147787156990614   -0.029816611629880124   -0.0015512230992984313
0.0026411080248233   -0.029894470711190127   -0.0014692274802147322
0.0018112689205851175   -0.0362566742316198   -0.0014449348096084976
0.006286006101176697   -0.029799400718111522   -0.0014966899807866084
0.00266109167246529   -0.029889967079650196   -0.0014334505477051481
0.0018112689205851175   -0.0362566742316198   -0.0014449348096084976
0.005178538991021937   -0.03610496196221068   -0.001451685304075668
0.006286006101176697   -0.029799400718111522   -0.0014966899807866084
0.005303842767180042   -0.03610489359067337   -0.0013639066957711599
0.00266109167246529   -0.029889967079650196   -0.0014334505477051481
0.006349504436334708   -0.029780808708335788   -0.0014520999646852831
0.005303842767180042   -0.03610489359067337   -0.0013639066957711599
0.006286006101176697   -0.029799400718111522   -0.0014966899807866084
0.00266109167246529   -0.029889967079650196   -0.0014334505477051481
0.005303842767180042   -0.03610489359067337   -0.0013639066957711599
0.0018540486266434178   -0.036266037568702114   -0.0013846333195336442
0.0018112689205851175   -0.0362566742316198   -0.0014449348096084976
0.00266109167246529   -0.029889967079650196   -0.0014334505477051481
0.005303842767180042   -0.03610489359067337   -0.0013639066957711599
0.0018112689205851175   -0.0362566742316198   -0.0014449348096084976
0.006286006101176697   -0.029799400718111522   -0.0014966899807866084
-0.010597053183575247   -0.036272784005134416   -0.0016592277992367795
-0.009671828192827803   -0.041860502912184204   -0.0015477962763784515
-0.007246533416419434   -0.036345517247475624   -0.0016007734843224261
-0.010520257554164003   -0.03632260971617455   -0.0017013437870093192
-0.009671828192827803   -0.041860502912184204   -0.0015477962763784515
-0.0068528231507055375   -0.04199142821440083   -0.0015384760427278128
-0.007246533416419434   -0.036345517247475624   -0.0016007734843224261
-0.006782708906772559   -0.042010345924645705   -0.0015694767058731089
-0.010520257554164003   -0.03632260971617455   -0.0017013437870093192
-0.00720400751535163   -0.03638241321130181   -0.0016096796230284309
-0.006782708906772559   -0.042010345924645705   -0.0015694767058731089
-0.007246533416419434   -0.036345517247475624   -0.0016007734843224261
-0.010520257554164003   -0.03632260971617455   -0.0017013437870093192
-0.006782708906772559   -0.042010345924645705   -0.0015694767058731089
-0.009525574916495718   -0.04188855315156764   -0.0016346828919050647
-0.009671828192827803   -0.041860502912184204   -0.0015477962763784515
-0.010520257554164003   -0.03632260971617455   -0.0017013437870093192
-0.006782708906772559   -0.042010345924645705   -0.0015694767058731089
-0.009671828192827803   -0.041860502912184204   -0.0015477962763784515
-0.007246533416419434   -0.036345517247475624   -0.0016007734843224261
-0.010520257554164003   -0.03632260971617455   -0.0017013437870093192
-0.009525574916495718   -0.04188855315156764   -0.0016346828919050647
-0.00720400751535163   -0.03638241321130181   -0.0016096796230284309
-0.01043277091452758   -0.03638390154869078   -0.0017542997439627896
-0.009525574916495718   -0.04188855315156764   -0.0016346828919050647
-0.006782708906772559   -0.042010345924645705   -0.0015694767058731089
-0.00720400751535163   -0.03638241321130181   -0.0016096796230284309
-0.006694634524404828   -0.0420557650173171   -0.0016074581483642328
-0.01043277091452758   -0.03638390154869078   -0.0017542997439627896
-0.007146511752919123   -0.036435053121969804   -0.001625480126080673
-0.006694634524404828   -0.0420557650173171   -0.0016074581483642328
-0.00720400751535163   -0.03638241321130181   -0.0016096796230284309
-0.01043277091452758   -0.03638390154869078   -0.0017542997439627896
-0.006694634524404828   -0.0420557650173171   -0.0016074581483642328
-0.009379807295145605   -0.0419418598758758   -0.0017329348575374532
-0.009525574916495718   -0.04188855315156764   -0.0016346828919050647
-0.01043277091452758   -0.03638390154869078   -0.0017542997439627896
-0.006694634524404828   -0.0420557650173171   -0.0016074581483642328
-0.009525574916495718   -0.04188855315156764   -0.0016346828919050647
-0.00720400751535163   -0.03638241321130181   -0.0016096796230284309
-0.01043277091452758   -0.03638390154869078   -0.0017542997439627896
-0.009379807295145605   -0.0419418598758758   -0.0017329348575374532
-0.007146511752919123   -0.036435053121969804   -0.001625480126080673
-0.010313764839436468   -0.036477271490211106   -0.0018183043859850755
-0.009379807295145605   -0.0419418598758758   -0.0017329348575374532
-0.006694634524404828   -0.0420557650173171   -0.0016074581483642328
-0.007146511752919123   -0.036435053121969804   -0.001625480126080673
-0.0066077549090763415   -0.04213026720372346   -0.0016523544838821663
-0.010313764839436468   -0.036477271490211106   -0.0018183043859850755
-0.0070848556165858745   -0.036506653505390965   -0.001648372698699241
-0.0066077549090763415   -0.04213026720372346   -0.0016523544838821663
-0.007146511752919123   -0.036435053121969804   -0.001625480126080673
-0.010313764839436468   -0.036477271490211106   -0.0018183043859850755
-0.0066077549090763415   -0.04213026720372346   -0.0016523544838821663
-0.009193120909612398   -0.04204126211715237   -0.0018423517553423025
-0.009379807295145605   -0.0419418598758758   -0.0017329348575374532
-0.010313764839436468   -0.036477271490211106   -0.0018183043859850755
-0.0066077549090763415   -0.04213026720372346   -0.0016523544838821663
-0.009379807295145605   -0.0419418598758758   -0.0017329348575374532
-0.007146511752919123   -0.036435053121969804   -0.001625480126080673
-0.007246533416419434   -0.036345517247475624   -0.0016007734843224261
-0.0068528231507055375   -0.04199142821440083   -0.0015384760427278128
-0.00424223052447541   -0.036374155737412824   -0.0015633949616940188
-0.00720400751535163   -0.03638241321130181   -0.0016096796230284309
-0.0068528231507055375   -0.04199142821440083   -0.0015384760427278128
-0.004410509882162419   -0.042052538691718974   -0.0015348442395308852
-0.00424223052447541   -0.036374155737412824   -0.0015633949616940188
-0.0043386143521801845   -0.042058708682593225   -0.0015209182324824732
-0.00720400751535163   -0.03638241321130181   -0.0016096796230284309
-0.004195966028808169   -0.03639328990349235   -0.0015439803715152566
-0.0043386143521801845   -0.042058708682593225   -0.0015209182324824732
-0.00424223052447541   -0.036374155737412824   -0.0015633949616940188
-0.00720400751535163   -0.03638241321130181   -0.0016096796230284309
-0.0043386143521801845   -0.042058708682593225   -0.0015209182324824732
-0.006782708906772559   -0.042010345924645705   -0.0015694767058731089
-0.0068528231507055375   -0.04199142821440083   -0.0015384760427278128
-0.00720400751535163   -0.03638241321130181   -0.0016096796230284309
-0.0043386143521801845   -0.042058708682593225   -0.0015209182324824732
-0.0068528231507055375   -0.04199142821440083   -0.0015384760427278128
-0.00424223052447541   -0.036374155737412824   -0.0015633949616940188
-0.00720400751535163   -0.03638241321130181   -0.0016096796230284309
-0.006782708906772559   -0.042010345924645705   -0.0015694767058731089
-0.004195966028808169   -0.03639328990349235   -0.0015439803715152566
-0.007146511752919123   -0.036435053121969804   -0.001625480126080673
-0.006782708906772559   -0.042010345924645705   -0.0015694767058731089
-0.0043386143521801845   -0.042058708682593225   -0.0015209182324824732
-0.004195966028808169   -0.03639328990349235   -0.0015439803715152566
-0.0042643935736897945   -0.04208855130985874   -0.001513766094989957
-0.007146511752919123   -0.036435053121969804   -0.001625480126080673
-0.004146216228835413   -0.03642755251496214   -0.0015313750838309656
-0.0042643935736897945   -0.04208855130985874   -0.001513766094989957
-0.004195966028808169   -0.03639328990349235   -0.0015439803715152566
-0.007146511752919123   -0.036435053121969804   -0.001625480126080673
-0.0042643935736897945   -0.04208855130985874   -0.001513766094989957
-0.006694634524404828   -0.0420557650173171   -0.0016074581483642328
-0.006782708906772559   -0.042010345924645705   -0.0015694767058731089
-0.007146511752919123   -0.036435053121969804   -0.001625480126080673
-0.0042643935736897945   -0.04208855130985874   -0.001513766094989957
-0.006782708906772559   -0.042010345924645705   -0.0015694767058731089
-0.004195966028808169   -0.03639328990349235   -0.0015439803715152566
-0.007146511752919123   -0.036435053121969804   -0.001625480126080673
-0.006694634524404828   -0.0420557650173171   -0.0016074581483642328
-0.004146216228835413   -0.03642755251496214   -0.0015313750838309656
-0.0070848556165858745   -0.036506653505390965   -0.001648372698699241
-0.006694634524404828   -0.0420557650173171   -0.0016074581483642328
-0.0042643935736897945   -0.04208855130985874   -0.001513766094989957
-0.004146216228835413   -0.03642755251496214   -0.0015313750838309656
-0.00419028565061067   -0.04214344118020537   -0.0015133075410296325
-0.0070848556165858745   -0.036506653505390965   -0.001648372698699241
-0.004095080258913421   -0.036477372274351244   -0.0015259157174601007
-0.00419028565061067   -0.04214344118020537   -0.0015133075410296325
-0.004146216228835413   -0.03642755251496214   -0.0015313750838309656
-0.0070848556165858745   -0.036506653505390965   -0.001648372698699241
-0.00419028565061067   -0.04214344118020537   -0.0015133075410296325
-0.0066077549090763415   -0.04213026720372346   -0.0016523544838821663
-0.006694634524404828   -0.0420557650173171   -0.0016074581483642328
-0.0070848556165858745   -0.036506653505390965   -0.001648372698699241
-0.00419028565061067   -0.04214344118020537   -0.0015133075410296325
-0.006694634524404828   -0.0420557650173171   -0.0016074581483642328
-0.004146216228835413   -0.03642755251496214   -0.0015313750838309656
-0.00424223052447541   -0.036374155737412824   -0.0015633949616940188
-0.004410509882162419   -0.042052538691718974   -0.0015348442395308852
-0.001328762327690118   -0.036351891871748886   -0.0015574521791881287
-0.004195966028808169   -0.03639328990349235   -0.0015439803715152566
-0.004410509882162419   -0.042052538691718974   -0.0015348442395308852
-0.002049129929862059   -0.042041015173430014   -0.0015525359351292616
-0.001328762327690118   -0.036351891871748886   -0.0015574521791881287
-0.001970383534622042   -0.042032852043598336   -0.0014952551679073783
-0.004195966028808169   -0.03639328990349235   -0.0015439803715152566
-0.0012775989598131274   -0.03635221126529733   -0.001510688273559692
-0.001970383534622042   -0.042032852043598336   -0.0014952551679073783
-0.001328762327690118   -0.036351891871748886   -0.0015574521791881287
-0.004195966028808169   -0.03639328990349235   -0.0015439803715152566
-0.001970383534622042   -0.042032852043598336   -0.0014952551679073783
-0.0043386143521801845   -0.042058708682593225   -0.0015209182324824732
-0.004410509882162419   -0.042052538691718974   -0.0015348442395308852
-0.004195966028808169   -0.03639328990349235   -0.0015439803715152566
-0.001970383534622042   -0.042032852043598336   -0.0014952551679073783
-0.004410509882162419   -0.042052538691718974   -0.0015348442395308852
-0.001328762327690118   -0.036351891871748886   -0.0015574521791881287
-0.004195966028808169   -0.03639328990349235   -0.0015439803715152566
-0.0043386143521801845   -0.042058708682593225   -0.0015209182324824732
-0.0012775989598131274   -0.03635221126529733   -0.001510688273559692
-0.004146216228835413   -0.03642755251496214   -0.0015313750838309656
-0.0043386143521801845   -0.042058708682593225   -0.0015209182324824732
-0.001970383534622042   -0.042032852043598336   -0.0014952551679073783
-0.0012775989598131274   -0.03635221126529733   -0.001510688273559692
-0.0018939357537326891   -0.04204611928555557   -0.0014451959636739287
-0.004146216228835413   -0.03642755251496214   -0.0015313750838309656
-0.0012277644279578474   -0.03636656444252955   -0.0014707529521236237
-0.0018939357537326891   -0.04204611928555557   -0.0014451959636739287
-0.0012775989598131274   -0.03635221126529733   -0.001510688273559692
-0.004146216228835413   -0.03642755251496214   -0.0015313750838309656
-0.0018939357537326891   -0.04204611928555557   -0.0014451959636739287
-0.0042643935736897945   -0.04208855130985874   -0.001513766094989957
-0.0043386143521801845   -0.042058708682593225   -0.0015209182324824732
-0.004146216228835413   -0.03642755251496214   -0.0015313750838309656
-0.0018939357537326891   -0.04204611928555557   -0.0014451959636739287
-0.0043386143521801845   -0.042058708682593225   -0.0015209182324824732
-0.0012775989598131274   -0.03635221126529733   -0.001510688273559692
-0.004146216228835413   -0.03642755251496214   -0.0015313750838309656
-0.0042643935736897945   -0.04208855130985874   -0.001513766094989957
-0.0012277644279578474   -0.03636656444252955   -0.0014707529521236237
-0.004095080258913421   -0.036477372274351244   -0.0015259157174601007
-0.0042643935736897945   -0.04208855130985874   -0.001513766094989957
-0.0018939357537326891   -0.04204611928555557   -0.0014451959636739287
-0.0012277644279578474   -0.03636656444252955   -0.0014707529521236237
-0.0018248461733946148   -0.04208388333453369   -0.0014017363942211477
-0.004095080258913421   -0.036477372274351244   -0.0015259157174601007
-0.0011832653926031594   -0.036396129496131545   -0.0014378825010651372
-0.0018248461733946148   -0.04208388333453369   -0.0014017363942211477
-0.0012277644279578474   -0.03636656444252955   -0.0014707529521236237
-0.004095080258913421   -0.036477372274351244   -0.0015259157174601007
-0.0018248461733946148   -0.04208388333453369   -0.0014017363942211477
-0.00419028565061067   -0.04214344118020537   -0.0015133075410296325
-0.0042643935736897945   -0.04208855130985874   -0.001513766094989957
-0.004095080258913421   -0.036477372274351244   -0.0015259157174601007
-0.0018248461733946148   -0.04208388333453369   -0.0014017363942211477
-0.0042643935736897945   -0.04208855130985874   -0.001513766094989957
-0.0012277644279578474   -0.03636656444252955   -0.0014707529521236237
-0.001328762327690118   -0.036351891871748886   -0.0015574521791881287
-0.002049129929862059   -0.042041015173430014   -0.0015525359351292616
0.0016844952799877596   -0.03628016575677612   -0.001585408213777956
-0.0012775989598131274   -0.03635221126529733   -0.001510688273559692
-0.002049129929862059   -0.042041015173430014   -0.0015525359351292616
0.00042187926682521655   -0.041954250669860214   -0.0015953680792117916
0.0016844952799877596   -0.03628016575677612   -0.001585408213777956
0.0005177192006827286   -0.04192791445848101   -0.0014948686416567302
-0.0012775989598131274   -0.03635221126529733   -0.001510688273559692
0.001747064551097168   -0.036260400416518845   -0.0015115401847098124
0.0005177192006827286   -0.04192791445848101   -0.0014948686416567302
0.0016844952799877596   -0.03628016575677612   -0.001585408213777956
-0.0012775989598131274   -0.03635221126529733   -0.001510688273559692
0.0005177192006827286   -0.04192791445848101   -0.0014948686416567302
-0.001970383534622042   -0.042032852043598336   -0.0014952551679073783
-0.002049129929862059   -0.042041015173430014   -0.0015525359351292616
-0.0012775989598131274   -0.03635221126529733   -0.001510688273559692
0.0005177192006827286   -0.04192791445848101   -0.0014948686416567302
-0.002049129929862059   -0.042041015173430014   -0.0015525359351292616
0.0016844952799877596   -0.03628016575677612   -0.001585408213777956
-0.0012775989598131274   -0.03635221126529733   -0.001510688273559692
-0.001970383534622042   -0.042032852043598336   -0.0014952551679073783
0.001747064551097168   -0.036260400416518845   -0.0015115401847098124
-0.0012277644279578474   -0.03636656444252955   -0.0014707529521236237
-0.001970383534622042   -0.042032852043598336   -0.0014952551679073783
0.0005177192006827286   -0.04192791445848101   -0.0014948686416567302
0.001747064551097168   -0.036260400416518845   -0.0015115401847098124
0.0006187931206803733   -0.04192553537102718   -0.0014035174002620596
-0.0012277644279578474   -0.03636656444252955   -0.0014707529521236237
0.0018112689205851175   -0.0362566742316198   -0.0014449348096084976
0.0006187931206803733   -0.04192553537102718   -0.0014035174002620596
0.001747064551097168   -0.036260400416518845   -0.0015115401847098124
-0.0012277644279578474   -0.03636656444252955   -0.0014707529521236237
0.0006187931206803733   -0.04192553537102718   -0.0014035174002620596
-0.0018939357537326891   -0.04204611928555557   -0.0014451959636739287
-0.001970383534622042   -0.042032852043598336   -0.0014952551679073783
-0.0012277644279578474   -0.03636656444252955   -0.0014707529521236237
0.0006187931206803733   -0.04192553537102718   -0.0014035174002620596
-0.001970383534622042   -0.042032852043598336   -0.0014952551679073783
0.001747064551097168   -0.036260400416518845   -0.0015115401847098124
-0.0012277644279578474   -0.03636656444252955   -0.0014707529521236237
-0.0018939357537326891   -0.04204611928555557   -0.0014451959636739287
0.0018112689205851175   -0.0362566742316198   -0.0014449348096084976
-0.0011832653926031594   -0.036396129496131545   -0.0014378825010651372
-0.0018939357537326891   -0.04204611928555557   -0.0014451959636739287
0.0006187931206803733   -0.04192553537102718   -0.0014035174002620596
0.0018112689205851175   -0.0362566742316198   -0.0014449348096084976
0.0006927133311659736   -0.041946012624626175   -0.001318462354696694
-0.0011832653926031594   -0.036396129496131545   -0.0014378825010651372
0.0018540486266434178   -0.036266037568702114   -0.0013846333195336442
0.0006927133311659736   -0.041946012624626175   -0.001318462354696694
0.0018112689205851175   -0.0362566742316198   -0.0014449348096084976
-0.0011832653926031594   -0.036396129496131545   -0.0014378825010651372
0.0006927133311659736   -0.041946012624626175   -0.001318462354696694
-0.0018248461733946148   -0.04208388333453369   -0.0014017363942211477
-0.0018939357537326891   -0.04204611928555557   -0.0014451959636739287
-0.0011832653926031594   -0.036396129496131545   -0.0014378825010651372
0.0006927133311659736   -0.041946012624626175   -0.001318462354696694
-0.0018939357537326891   -0.04204611928555557   -0.0014451959636739287
0.0018112689205851175   -0.0362566742316198   -0.0014449348096084976
0.0016844952799877596   -0.03628016575677612   -0.001585408213777956
0.00042187926682521655   -0.041954250669860214   -0.0015953680792117916
0.004888609148168241   -0.03615681353654042   -0.001657129874628322
0.001747064551097168   -0.036260400416518845   -0.0015115401847098124
0.00042187926682521655   -0.041954250669860214   -0.0015953680792117916
0.003054303543256772   -0.04178404955272555   -0.0016865931196864434
0.004888609148168241   -0.03615681353654042   -0.001657129874628322
0.003297619444577332   -0.04173356293233589   -0.0015327486633751194
0.001747064551097168   -0.036260400416518845   -0.0015115401847098124
0.005055128591701566   -0.03611617449382474   -0.0015495748957679177
0.003297619444577332   -0.04173356293233589   -0.0015327486633751194
0.004888609148168241   -0.03615681353654042   -0.001657129874628322
0.001747064551097168   -0.036260400416518845   -0.0015115401847098124
0.003297619444577332   -0.04173356293233589   -0.0015327486633751194
0.0005177192006827286   -0.04192791445848101   -0.0014948686416567302
0.00042187926682521655   -0.041954250669860214   -0.0015953680792117916
0.001747064551097168   -0.036260400416518845   -0.0015115401847098124
0.003297619444577332   -0.04173356293233589   -0.0015327486633751194
0.00042187926682521655   -0.041954250669860214   -0.0015953680792117916
0.004888609148168241   -0.03615681353654042   -0.001657129874628322
0.001747064551097168   -0.036260400416518845   -0.0015115401847098124
0.0005177192006827286   -0.04192791445848101   -0.0014948686416567302
0.005055128591701566   -0.03611617449382474   -0.0015495748957679177
0.0018112689205851175   -0.0362566742316198   -0.0014449348096084976
0.0005177192006827286   -0.04192791445848101   -0.0014948686416567302
0.003297619444577332   -0.04173356293233589   -0.0015327486633751194
0.005055128591701566   -0.03611617449382474   -0.0015495748957679177
0.0034842173936802338   -0.04172481861021318   -0.0013902512071143236
0.0018112689205851175   -0.0362566742316198   -0.0014449348096084976
0.005178538991021937   -0.03610496196221068   -0.001451685304075668
0.0034842173936802338   -0.04172481861021318   -0.0013902512071143236
0.005055128591701566   -0.03611617449382474   -0.0015495748957679177
0.0018112689205851175   -0.0362566742316198   -0.0014449348096084976
0.0034842173936802338   -0.04172481861021318   -0.0013902512071143236
0.0006187931206803733   -0.04192553537102718   -0.0014035174002620596
0.0005177192006827286   -0.04192791445848101   -0.0014948686416567302
0.0018112689205851175   -0.0362566742316198   -0.0014449348096084976
0.0034842173936802338   -0.04172481861021318   -0.0013902512071143236
0.0005177192006827286   -0.04192791445848101   -0.0014948686416567302
0.005055128591701566   -0.03611617449382474   -0.0015495748957679177
0.0018112689205851175   -0.0362566742316198   -0.0014449348096084976
0.0006187931206803733   -0.04192553537102718   -0.0014035174002620596
0.005178538991021937   -0.03610496196221068   -0.001451685304075668
0.0018540486266434178   -0.036266037568702114   -0.0013846333195336442
0.0006187931206803733   -0.04192553537102718   -0.0014035174002620596
0.0034842173936802338   -0.04172481861021318   -0.0013902512071143236
0.005178538991021937   -0.03610496196221068   -0.001451685304075668
0.0036777857466648678   -0.0417398820409652   -0.0012602605864803257
0.0018540486266434178   -0.036266037568702114   -0.0013846333195336442
0.005303842767180042   -0.03610489359067337   -0.0013639066957711599
0.0036777857466648678   -0.0417398820409652   -0.0012602605864803257
0.005178538991021937   -0.03610496196221068   -0.001451685304075668
0.0018540486266434178   -0.036266037568702114   -0.0013846333195336442
0.0036777857466648678   -0.0417398820409652   -0.0012602605864803257
0.0006927133311659736   -0.041946012624626175   -0.001318462354696694
0.0006187931206803733   -0.04192553537102718   -0.0014035174002620596
0.0018540486266434178   -0.036266037568702114   -0.0013846333195336442
0.0036777857466648678   -0.0417398820409652   -0.0012602605864803257
0.0006187931206803733   -0.04192553537102718   -0.0014035174002620596
0.005178538991021937   -0.03610496196221068   -0.001451685304075668
-0.009671828192827803   -0.041860502912184204   -0.0015477962763784515
-0.008105538612341175   -0.04624493275988869   -0.0014047135389769212
-0.0068528231507055375   -0.04199142821440083   -0.0015384760427278128
-0.009525574916495718   -0.04188855315156764   -0.0016346828919050647
-0.008105538612341175   -0.04624493275988869   -0.0014047135389769212
-0.006098762359764485   -0.046438487705013486   -0.0014627019546222463
-0.0068528231507055375   -0.04199142821440083   -0.0015384760427278128
-0.005998094125469502   -0.04642862647746589   -0.001510393661116209
-0.009525574916495718   -0.04188855315156764   -0.0016346828919050647
-0.006782708906772559   -0.042010345924645705   -0.0015694767058731089
-0.005998094125469502   -0.04642862647746589   -0.001510393661116209
-0.0068528231507055375   -0.04199142821440083   -0.0015384760427278128
-0.009525574916495718   -0.04188855315156764   -0.0016346828919050647
-0.005998094125469502   -0.04642862647746589   -0.001510393661116209
-0.00788805297313851   -0.04623955556654805   -0.0015332814583236421
-0.008105538612341175   -0.04624493275988869   -0.0014047135389769212
-0.009525574916495718   -0.04188855315156764   -0.0016346828919050647
-0.005998094125469502   -0.04642862647746589   -0.001510393661116209
-0.008105538612341175   -0.04624493275988869   -0.0014047135389769212
-0.0068528231507055375   -0.04199142821440083   -0.0015384760427278128
-0.009525574916495718   -0.04188855315156764   -0.0016346828919050647
-0.00788805297313851   -0.04623955556654805   -0.0015332814583236421
-0.006782708906772559   -0.042010345924645705   -0.0015694767058731089
-0.009379807295145605   -0.0419418598758758   -0.0017329348575374532
-0.00788805297313851   -0.04623955556654805   -0.0015332814583236421
-0.005998094125469502   -0.04642862647746589   -0.001510393661116209
-0.006782708906772559   -0.042010345924645705   -0.0015694767058731089
-0.005879617008204089   -0.04645667613513364   -0.0015652033554143013
-0.009379807295145605   -0.0419418598758758   -0.0017329348575374532
-0.006694634524404828   -0.0420557650173171   -0.0016074581483642328
-0.005879617008204089   -0.04645667613513364   -0.0015652033554143013
-0.006782708906772559   -0.042010345924645705   -0.0015694767058731089
-0.009379807295145605   -0.0419418598758758   -0.0017329348575374532
-0.005879617008204089   -0.04645667613513364   -0.0015652033554143013
-0.007687654879282091   -0.04627418140388898   -0.00167187964060382
-0.00788805297313851   -0.04623955556654805   -0.0015332814583236421
-0.009379807295145605   -0.0419418598758758   -0.0017329348575374532
-0.005879617008204089   -0.04645667613513364   -0.0015652033554143013
-0.00788805297313851   -0.04623955556654805   -0.0015332814583236421
-0.006782708906772559   -0.042010345924645705   -0.0015694767058731089
-0.009379807295145605   -0.0419418598758758   -0.0017329348575374532
-0.007687654879282091   -0.04627418140388898   -0.00167187964060382
-0.006694634524404828   -0.0420557650173171   -0.0016074581483642328
-0.009193120909612398   -0.04204126211715237   -0.0018423517553423025
-0.007687654879282091   -0.04627418140388898   -0.00167187964060382
-0.005879617008204089   -0.04645667613513364   -0.0015652033554143013
-0.006694634524404828   -0.0420557650173171   -0.0016074581483642328
-0.005772139189867378   -0.04652328723030225   -0.0016266773392945354
-0.009193120909612398   -0.04204126211715237   -0.0018423517553423025
-0.0066077549090763415   -0.04213026720372346   -0.0016523544838821663
-0.005772139189867378   -0.04652328723030225   -0.0016266773392945354
-0.006694634524404828   -0.0420557650173171   -0.0016074581483642328
-0.009193120909612398   -0.04204126211715237   -0.0018423517553423025
-0.005772139189867378   -0.04652328723030225   -0.0016266773392945354
-0.007443183399585141   -0.04636639852818639   -0.0018199258739673924
-0.007687654879282091   -0.04627418140388898   -0.00167187964060382
-0.009193120909612398   -0.04204126211715237   -0.0018423517553423025
-0.005772139189867378   -0.04652328723030225   -0.0016266773392945354
-0.007687654879282091   -0.04627418140388898   -0.00167187964060382
-0.006694634524404828   -0.0420557650173171   -0.0016074581483642328
-0.0068528231507055375   -0.04199142821440083   -0.0015384760427278128
-0.006098762359764485   -0.046438487705013486   -0.0014627019546222463
-0.004410509882162419   -0.042052538691718974   -0.0015348442395308852
-0.006782708906772559   -0.042010345924645705   -0.0015694767058731089
-0.006098762359764485   -0.046438487705013486   -0.0014627019546222463
-0.004457493198850534   -0.046563437043139075   -0.0015081010050982597
-0.004410509882162419   -0.042052538691718974   -0.0015348442395308852
-0.004354263519206848   -0.04654752683889451   -0.0014935250562673659
-0.006782708906772559   -0.042010345924645705   -0.0015694767058731089
-0.0043386143521801845   -0.042058708682593225   -0.0015209182324824732
-0.004354263519206848   -0.04654752683889451   -0.0014935250562673659
-0.004410509882162419   -0.042052538691718974   -0.0015348442395308852
-0.006782708906772559   -0.042010345924645705   -0.0015694767058731089
-0.004354263519206848   -0.04654752683889451   -0.0014935250562673659
-0.005998094125469502   -0.04642862647746589   -0.001510393661116209
-0.006098762359764485   -0.046438487705013486   -0.0014627019546222463
-0.006782708906772559   -0.042010345924645705   -0.0015694767058731089
-0.004354263519206848   -0.04654752683889451   -0.0014935250562673659
-0.006098762359764485   -0.046438487705013486   -0.0014627019546222463
-0.004410509882162419   -0.042052538691718974   -0.0015348442395308852
-0.006782708906772559   -0.042010345924645705   -0.0015694767058731089
-0.005998094125469502   -0.04642862647746589   -0.001510393661116209
-0.0043386143521801845   -0.042058708682593225   -0.0015209182324824732
-0.006694634524404828   -0.0420557650173171   -0.0016074581483642328
-0.005998094125469502   -0.04642862647746589   -0.001510393661116209
-0.004354263519206848   -0.04654752683889451   -0.0014935250562673659
-0.0043386143521801845   -0.042058708682593225   -0.0015209182324824732
-0.004252442535668626   -0.046564363897315886   -0.0014858677561599685
-0.006694634524404828   -0.0420557650173171   -0.0016074581483642328
-0.0042643935736897945   -0.04208855130985874   -0.001513766094989957
-0.004252442535668626   -0.046564363897315886   -0.0014858677561599685
-0.0043386143521801845   -0.042058708682593225   -0.0015209182324824732
-0.006694634524404828   -0.0420557650173171   -0.0016074581483642328
-0.004252442535668626   -0.046564363897315886   -0.0014858677561599685
-0.005879617008204089   -0.04645667613513364   -0.0015652033554143013
-0.005998094125469502   -0.04642862647746589   -0.001510393661116209
-0.006694634524404828   -0.0420557650173171   -0.0016074581483642328
-0.004252442535668626   -0.046564363897315886   -0.0014858677561599685
-0.005998094125469502   -0.04642862647746589   -0.001510393661116209
-0.0043386143521801845   -0.042058708682593225   -0.0015209182324824732
-0.006694634524404828   -0.0420557650173171   -0.0016074581483642328
-0.005879617008204089   -0.04645667613513364   -0.0015652033554143013
-0.0042643935736897945   -0.04208855130985874   -0.001513766094989957
-0.0066077549090763415   -0.04213026720372346   -0.0016523544838821663
-0.005879617008204089   -0.04645667613513364   -0.0015652033554143013
-0.004252442535668626   -0.046564363897315886   -0.0014858677561599685
-0.0042643935736897945   -0.04208855130985874   -0.001513766094989957
-0.004158708815245938   -0.0466150181727527   -0.0014865708193741289
-0.0066077549090763415   -0.04213026720372346   -0.0016523544838821663
-0.00419028565061067   -0.04214344118020537   -0.0015133075410296325
-0.004158708815245938   -0.0466150181727527   -0.0014865708193741289
-0.0042643935736897945   -0.04208855130985874   -0.001513766094989957
-0.0066077549090763415   -0.04213026720372346   -0.0016523544838821663
-0.004158708815245938   -0.0466150181727527   -0.0014865708193741289
-0.005772139189867378   -0.04652328723030225   -0.0016266773392945354
-0.005879617008204089   -0.04645667613513364   -0.0015652033554143013
-0.0066077549090763415   -0.04213026720372346   -0.0016523544838821663
-0.004158708815245938   -0.0466150181727527   -0.0014865708193741289
-0.005879617008204089   -0.04645667613513364   -0.0015652033554143013
-0.0042643935736897945   -0.04208855130985874   -0.001513766094989957
-0.004410509882162419   -0.042052538691718974   -0.0015348442395308852
-0.004457493198850534   -0.046563437043139075   -0.0015081010050982597
-0.002049129929862059   -0.042041015173430014   -0.0015525359351292616
-0.0043386143521801845   -0.042058708682593225   -0.0015209182324824732
-0.004457493198850534   -0.046563437043139075   -0.0015081010050982597
-0.0028853279837473145   -0.04662830085400479   -0.001561920737169467
-0.002049129929862059   -0.042041015173430014   -0.0015525359351292616
-0.0027689756227702003   -0.04660524242298245   -0.0014885920181111048
-0.0043386143521801845   -0.042058708682593225   -0.0015209182324824732
-0.001970383534622042   -0.042032852043598336   -0.0014952551679073783
-0.0027689756227702003   -0.04660524242298245   -0.0014885920181111048
-0.002049129929862059   -0.042041015173430014   -0.0015525359351292616
-0.0043386143521801845   -0.042058708682593225   -0.0015209182324824732
-0.0027689756227702003   -0.04660524242298245   -0.0014885920181111048
-0.004354263519206848   -0.04654752683889451   -0.0014935250562673659
-0.004457493198850534   -0.046563437043139075   -0.0015081010050982597
-0.0043386143521801845   -0.042058708682593225   -0.0015209182324824732
-0.0027689756227702003   -0.04660524242298245   -0.0014885920181111048
-0.004457493198850534   -0.046563437043139075   -0.0015081010050982597
-0.002049129929862059   -0.042041015173430014   -0.0015525359351292616
-0.0043386143521801845   -0.042058708682593225   -0.0015209182324824732
-0.004354263519206848   -0.04654752683889451   -0.0014935250562673659
-0.001970383534622042   -0.042032852043598336   -0.0014952551679073783
-0.0042643935736897945   -0.04208855130985874   -0.001513766094989957
-0.004354263519206848   -0.04654752683889451   -0.0014935250562673659
-0.0027689756227702003   -0.04660524242298245   -0.0014885920181111048
-0.001970383534622042   -0.042032852043598336   -0.0014952551679073783
-0.0026580276071629157   -0.04661102231940756   -0.0014213972684451119
-0.0042643935736897945   -0.04208855130985874   -0.001513766094989957
-0.0018939357537326891   -0.04204611928555557   -0.0014451959636739287
-0.0026580276071629157   -0.04661102231940756   -0.0014213972684451119
-0.001970383534622042   -0.042032852043598336   -0.0014952551679073783
-0.0042643935736897945   -0.04208855130985874   -0.001513766094989957
-0.0026580276071629157   -0.04661102231940756   -0.0014213972684451119
-0.004252442535668626   -0.046564363897315886   -0.0014858677561599685
-0.004354263519206848   -0.04654752683889451   -0.0014935250562673659
-0.0042643935736897945   -0.04208855130985874   -0.001513766094989957
-0.0026580276071629157   -0.04661102231940756   -0.0014213972684451119
-0.004354263519206848   -0.04654752683889451   -0.0014935250562673659
-0.001970383534622042   -0.042032852043598336   -0.0014952551679073783
-0.0042643935736897945   -0.04208855130985874   -0.001513766094989957
-0.004252442535668626   -0.046564363897315886   -0.0014858677561599685
-0.0018939357537326891   -0.04204611928555557   -0.0014451959636739287
-0.00419028565061067   -0.04214344118020537   -0.0015133075410296325
-0.004252442535668626   -0.046564363897315886   -0.0014858677561599685
-0.0026580276071629157   -0.04661102231940756   -0.0014213972684451119
-0.0018939357537326891   -0.04204611928555557   -0.0014451959636739287
-0.0025656860838036795   -0.04665118117421997   -0.0013641269073241442
-0.00419028565061067   -0.04214344118020537   -0.0015133075410296325
-0.0018248461733946148   -0.04208388333453369   -0.0014017363942211477
-0.0025656860838036795   -0.04665118117421997   -0.0013641269073241442
-0.0018939357537326891   -0.04204611928555557   -0.0014451959636739287
-0.00419028565061067   -0.04214344118020537   -0.0015133075410296325
-0.0025656860838036795   -0.04665118117421997   -0.0013641269073241442
-0.004158708815245938   -0.0466150181727527   -0.0014865708193741289
-0.004252442535668626   -0.046564363897315886   -0.0014858677561599685
-0.00419028565061067   -0.04214344118020537   -0.0015133075410296325
-0.0025656860838036795   -0.04665118117421997   -0.0013641269073241442
-0.004252442535668626   -0.046564363897315886   -0.0014858677561599685
-0.0018939357537326891   -0.04204611928555557   -0.0014451959636739287
-0.002049129929862059   -0.042041015173430014   -0.0015525359351292616
-0.0028853279837473145   -0.04662830085400479   -0.001561920737169467
0.00042187926682521655   -0.041954250669860214   -0.0015953680792117916
-0.001970383534622042   -0.042032852043598336   -0.0014952551679073783
-0.0028853279837473145   -0.04662830085400479   -0.001561920737169467
-0.0012147022551736715   -0.04661023557017257   -0.001625463042417107
0.00042187926682521655   -0.041954250669860214   -0.0015953680792117916
-0.0010653127709702645   -0.04657405844328317   -0.0014958843333521062
-0.001970383534622042   -0.042032852043598336   -0.0014952551679073783
0.0005177192006827286   -0.04192791445848101   -0.0014948686416567302
-0.0010653127709702645   -0.04657405844328317   -0.0014958843333521062
0.00042187926682521655   -0.041954250669860214   -0.0015953680792117916
-0.001970383534622042   -0.042032852043598336   -0.0014952551679073783
-0.0010653127709702645   -0.04657405844328317   -0.0014958843333521062
-0.0027689756227702003   -0.04660524242298245   -0.0014885920181111048
-0.0028853279837473145   -0.04662830085400479   -0.001561920737169467
-0.001970383534622042   -0.042032852043598336   -0.0014952551679073783
-0.0010653127709702645   -0.04657405844328317   -0.0014958843333521062
-0.0028853279837473145   -0.04662830085400479   -0.001561920737169467
0.00042187926682521655   -0.041954250669860214   -0.0015953680792117916
-0.001970383534622042   -0.042032852043598336   -0.0014952551679073783
-0.0027689756227702003   -0.04660524242298245   -0.0014885920181111048
0.0005177192006827286   -0.04192791445848101   -0.0014948686416567302
-0.0018939357537326891   -0.04204611928555557   -0.0014451959636739287
-0.0027689756227702003   -0.04660524242298245   -0.0014885920181111048
-0.0010653127709702645   -0.04657405844328317   -0.0014958843333521062
0.0005177192006827286   -0.04192791445848101   -0.0014948686416567302
-0.0009124170983597218   -0.04656777208132685   -0.0013728566319880092
-0.0018939357537326891   -0.04204611928555557   -0.0014451959636739287
0.0006187931206803733   -0.04192553537102718   -0.0014035174002620596
-0.0009124170983597218   -0.04656777208132685   -0.0013728566319880092
0.0005177192006827286   -0.04192791445848101   -0.0014948686416567302
-0.0018939357537326891   -0.04204611928555557   -0.0014451959636739287
-0.0009124170983597218   -0.04656777208132685   -0.0013728566319880092
-0.0026580276071629157   -0.04661102231940756   -0.0014213972684451119
-0.0027689756227702003   -0.04660524242298245   -0.0014885920181111048
-0.0018939357537326891   -0.04204611928555557   -0.0014451959636739287
-0.0009124170983597218   -0.04656777208132685   -0.0013728566319880092
-0.0027689756227702003   -0.04660524242298245   -0.0014885920181111048
0.0005177192006827286   -0.04192791445848101   -0.0014948686416567302
-0.0018939357537326891   -0.04204611928555557   -0.0014451959636739287
-0.0026580276071629157   -0.04661102231940756   -0.0014213972684451119
0.0006187931206803733   -0.04192553537102718   -0.0014035174002620596
-0.0018248461733946148   -0.04208388333453369   -0.0014017363942211477
-0.0026580276071629157   -0.04661102231940756   -0.0014213972684451119
-0.0009124170983597218   -0.04656777208132685   -0.0013728566319880092
0.0006187931206803733   -0.04192553537102718   -0.0014035174002620596
-0.0007992674554712746   -0.04659774628459536   -0.0012610384737488341
-0.0018248461733946148   -0.04208388333453369   -0.0014017363942211477
0.0006927133311659736   -0.041946012624626175   -0.001318462354696694
-0.0007992674554712746   -0.04659774628459536   -0.0012610384737488341
0.0006187931206803733   -0.04192553537102718   -0.0014035174002620596
-0.0018248461733946148   -0.04208388333453369   -0.0014017363942211477
-0.0007992674554712746   -0.04659774628459536   -0.0012610384737488341
-0.0025656860838036795   -0.04665118117421997   -0.0013641269073241442
-0.0026580276071629157   -0.04661102231940756   -0.0014213972684451119
-0.0018248461733946148   -0.04208388333453369   -0.0014017363942211477
-0.0007992674554712746   -0.04659774628459536   -0.0012610384737488341
-0.0026580276071629157   -0.04661102231940756   -0.0014213972684451119
0.0006187931206803733   -0.04192553537102718   -0.0014035174002620596
0.00042187926682521655   -0.041954250669860214   -0.0015953680792117916
-0.0012147022551736715   -0.04661023557017257   -0.001625463042417107
0.003054303543256772   -0.04178404955272555   -0.0016865931196864434
0.0005177192006827286   -0.04192791445848101   -0.0014948686416567302
-0.0012147022551736715   -0.04661023557017257   -0.001625463042417107
0.000581010980921217   -0.04644924138695962   -0.0017551750883345045
0.003054303543256772   -0.04178404955272555   -0.0016865931196864434
0.0009304123842340498   -0.0463706780997158   -0.0015432973388523877
0.0005177192006827286   -0.04192791445848101   -0.0014948686416567302
0.003297619444577332   -0.04173356293233589   -0.0015327486633751194
0.0009304123842340498   -0.0463706780997158   -0.0015432973388523877
0.003054303543256772   -0.04178404955272555   -0.0016865931196864434
0.0005177192006827286   -0.04192791445848101   -0.0014948686416567302
0.0009304123842340498   -0.0463706780997158   -0.0015432973388523877
-0.0010653127709702645   -0.04657405844328317   -0.0014958843333521062
-0.0012147022551736715   -0.04661023557017257   -0.001625463042417107
0.0005177192006827286   -0.04192791445848101   -0.0014948686416567302
0.0009304123842340498   -0.0463706780997158   -0.0015432973388523877
-0.0012147022551736715   -0.04661023557017257   -0.001625463042417107
0.003054303543256772   -0.04178404955272555   -0.0016865931196864434
0.0005177192006827286   -0.04192791445848101   -0.0014948686416567302
-0.0010653127709702645   -0.04657405844328317   -0.0014958843333521062
0.003297619444577332   -0.04173356293233589   -0.0015327486633751194
0.0006187931206803733   -0.04192553537102718   -0.0014035174002620596
-0.0010653127709702645   -0.04657405844328317   -0.0014958843333521062
0.0009304123842340498   -0.0463706780997158   -0.0015432973388523877
0.003297619444577332   -0.04173356293233589   -0.0015327486633751194
0.0012049295891416463   -0.046354846536943245   -0.0013442541718818094
0.0006187931206803733   -0.04192553537102718   -0.0014035174002620596
0.0034842173936802338   -0.04172481861021318   -0.0013902512071143236
0.0012049295891416463   -0.046354846536943245   -0.0013442541718818094
0.003297619444577332   -0.04173356293233589   -0.0015327486633751194
0.0006187931206803733   -0.04192553537102718   -0.0014035174002620596
0.0012049295891416463   -0.046354846536943245   -0.0013442541718818094
-0.0009124170983597218   -0.04656777208132685   -0.0013728566319880092
-0.0010653127709702645   -0.04657405844328317   -0.0014958843333521062
0.0006187931206803733   -0.04192553537102718   -0.0014035174002620596
0.0012049295891416463   -0.046354846536943245   -0.0013442541718818094
-0.0010653127709702645   -0.04657405844328317   -0.0014958843333521062
0.003297619444577332   -0.04173356293233589   -0.0015327486633751194
0.0006187931206803733   -0.04192553537102718   -0.0014035174002620596
-0.0009124170983597218   -0.04656777208132685   -0.0013728566319880092
0.0034842173936802338   -0.04172481861021318   -0.0013902512071143236
0.0006927133311659736   -0.041946012624626175   -0.001318462354696694
-0.0009124170983597218   -0.04656777208132685   -0.0013728566319880092
0.0012049295891416463   -0.046354846536943245   -0.0013442541718818094
0.0034842173936802338   -0.04172481861021318   -0.0013902512071143236
0.00149052038496063   -0.04636855535950879   -0.0011623483345435093
0.0006927133311659736   -0.041946012624626175   -0.001318462354696694
0.0036777857466648678   -0.0417398820409652   -0.0012602605864803257
0.00149052038496063   -0.04636855535950879   -0.0011623483345435093
0.0034842173936802338   -0.04172481861021318   -0.0013902512071143236
0.0006927133311659736   -0.041946012624626175   -0.001318462354696694
0.00149052038496063   -0.04636855535950879   -0.0011623483345435093
-0.0007992674554712746   -0.04659774628459536   -0.0012610384737488341
-0.0009124170983597218   -0.04656777208132685   -0.0013728566319880092
0.0006927133311659736   -0.041946012624626175   -0.001318462354696694
0.00149052038496063   -0.04636855535950879   -0.0011623483345435093
-0.0009124170983597218   -0.04656777208132685   -0.0013728566319880092
0.0034842173936802338   -0.04172481861021318   -0.0013902512071143236
-0.008105538612341175   -0.04624493275988869   -0.0014047135389769212
-0.005955261651296512   -0.04885332298678589   -0.0012365184202155688
-0.006098762359764485   -0.046438487705013486   -0.0014627019546222463
-0.00788805297313851   -0.04623955556654805   -0.0015332814583236421
-0.005955261651296512   -0.04885332298678589   -0.0012365184202155688
-0.005018712423565916   -0.04909786488439494   -0.0013831220947224693
-0.006098762359764485   -0.046438487705013486   -0.0014627019546222463
-0.0048919239247142655   -0.04904979744637679   -0.0014339572262545047
-0.00788805297313851   -0.04623955556654805   -0.0015332814583236421
-0.005998094125469502   -0.04642862647746589   -0.001510393661116209
-0.0048919239247142655   -0.04904979744637679   -0.0014339572262545047
-0.006098762359764485   -0.046438487705013486   -0.0014627019546222463
-0.00788805297313851   -0.04623955556654805   -0.0015332814583236421
-0.0048919239247142655   -0.04904979744637679   -0.0014339572262545047
-0.005684541863589607   -0.04879913642348514   -0.001390702720972722
-0.005955261651296512   -0.04885332298678589   -0.0012365184202155688
-0.00788805297313851   -0.04623955556654805   -0.0015332814583236421
-0.0048919239247142655   -0.04904979744637679   -0.0014339572262545047
-0.005955261651296512   -0.04885332298678589   -0.0012365184202155688
-0.006098762359764485   -0.046438487705013486   -0.0014627019546222463
-0.00788805297313851   -0.04623955556654805   -0.0015332814583236421
-0.005684541863589607   -0.04879913642348514   -0.001390702720972722
-0.005998094125469502   -0.04642862647746589   -0.001510393661116209
-0.007687654879282091   -0.04627418140388898   -0.00167187964060382
-0.005684541863589607   -0.04879913642348514   -0.001390702720972722
-0.0048919239247142655   -0.04904979744637679   -0.0014339572262545047
-0.005998094125469502   -0.04642862647746589   -0.001510393661116209
-0.004751375046647045   -0.04905250987100675   -0.0014853134199675634
-0.007687654879282091   -0.04627418140388898   -0.00167187964060382
-0.005879617008204089   -0.04645667613513364   -0.0015652033554143013
-0.004751375046647045   -0.04905250987100675   -0.0014853134199675634
-0.005998094125469502   -0.04642862647746589   -0.001510393661116209
-0.007687654879282091   -0.04627418140388898   -0.00167187964060382
-0.004751375046647045   -0.04905250987100675   -0.0014853134199675634
-0.005450995046522924   -0.048804151132488864   -0.0015443229168670253
-0.005684541863589607   -0.04879913642348514   -0.001390702720972722
-0.007687654879282091   -0.04627418140388898   -0.00167187964060382
-0.004751375046647045   -0.04905250987100675   -0.0014853134199675634
-0.005684541863589607   -0.04879913642348514   -0.001390702720972722
-0.005998094125469502   -0.04642862647746589   -0.001510393661116209
-0.007687654879282091   -0.04627418140388898   -0.00167187964060382
-0.005450995046522924   -0.048804151132488864   -0.0015443229168670253
-0.005879617008204089   -0.04645667613513364   -0.0015652033554143013
-0.007443183399585141   -0.04636639852818639   -0.0018199258739673924
-0.005450995046522924   -0.048804151132488864   -0.0015443229168670253
-0.004751375046647045   -0.04905250987100675   -0.0014853134199675634
-0.005879617008204089   -0.04645667613513364   -0.0015652033554143013
-0.004620876789516289   -0.049106253754822166   -0.0015374049096404253
-0.007443183399585141   -0.04636639852818639   -0.0018199258739673924
-0.005772139189867378   -0.04652328723030225   -0.0016266773392945354
-0.004620876789516289   -0.049106253754822166   -0.0015374049096404253
-0.005879617008204089   -0.04645667613513364   -0.0015652033554143013
-0.007443183399585141   -0.04636639852818639   -0.0018199258739673924
-0.004620876789516289   -0.049106253754822166   -0.0015374049096404253
-0.0051738802638200306   -0.04887180280757018   -0.0017012425952828193
-0.005450995046522924   -0.048804151132488864   -0.0015443229168670253
-0.007443183399585141   -0.04636639852818639   -0.0018199258739673924
-0.004620876789516289   -0.049106253754822166   -0.0015374049096404253
-0.005450995046522924   -0.048804151132488864   -0.0015443229168670253
-0.005879617008204089   -0.04645667613513364   -0.0015652033554143013
-0.006098762359764485   -0.046438487705013486   -0.0014627019546222463
-0.005018712423565916   -0.04909786488439494   -0.0013831220947224693
-0.004457493198850534   -0.046563437043139075   -0.0015081010050982597
-0.005998094125469502   -0.04642862647746589   -0.001510393661116209
-0.005018712423565916   -0.04909786488439494   -0.0013831220947224693
-0.0043315018089975735   -0.049342049289790184   -0.0015126042294892625
-0.004457493198850534   -0.046563437043139075   -0.0015081010050982597
-0.004197854649530689   -0.049292664567155725   -0.0014773461429987594
-0.005998094125469502   -0.04642862647746589   -0.001510393661116209
-0.004354263519206848   -0.04654752683889451   -0.0014935250562673659
-0.004197854649530689   -0.049292664567155725   -0.0014773461429987594
-0.004457493198850534   -0.046563437043139075   -0.0015081010050982597
-0.005998094125469502   -0.04642862647746589   -0.001510393661116209
-0.004197854649530689   -0.049292664567155725   -0.0014773461429987594
-0.0048919239247142655   -0.04904979744637679   -0.0014339572262545047
-0.005018712423565916   -0.04909786488439494   -0.0013831220947224693
-0.005998094125469502   -0.04642862647746589   -0.001510393661116209
-0.004197854649530689   -0.049292664567155725   -0.0014773461429987594
-0.005018712423565916   -0.04909786488439494   -0.0013831220947224693
-0.004457493198850534   -0.046563437043139075   -0.0015081010050982597
-0.005998094125469502   -0.04642862647746589   -0.001510393661116209
-0.0048919239247142655   -0.04904979744637679   -0.0014339572262545047
-0.004354263519206848   -0.04654752683889451   -0.0014935250562673659
-0.005879617008204089   -0.04645667613513364   -0.0015652033554143013
-0.0048919239247142655   -0.04904979744637679   -0.0014339572262545047
-0.004197854649530689   -0.049292664567155725   -0.0014773461429987594
-0.004354263519206848   -0.04654752683889451   -0.0014935250562673659
-0.0040685800931334936   -0.049292029904388315   -0.001441658319691002
-0.005879617008204089   -0.04645667613513364   -0.0015652033554143013
-0.004252442535668626   -0.046564363897315886   -0.0014858677561599685
-0.0040685800931334936   -0.049292029904388315   -0.001441658319691002
-0.004354263519206848   -0.04654752683889451   -0.0014935250562673659
-0.005879617008204089   -0.04645667613513364   -0.0015652033554143013
-0.0040685800931334936   -0.049292029904388315   -0.001441658319691002
-0.004751375046647045   -0.04905250987100675   -0.0014853134199675634
-0.0048919239247142655   -0.04904979744637679   -0.0014339572262545047
-0.005879617008204089   -0.04645667613513364   -0.0015652033554143013
-0.0040685800931334936   -0.049292029904388315   -0.001441658319691002
-0.0048919239247142655   -0.04904979744637679   -0.0014339572262545047
-0.004354263519206848   -0.04654752683889451   -0.0014935250562673659
-0.005879617008204089   -0.04645667613513364   -0.0015652033554143013
-0.004751375046647045   -0.04905250987100675   -0.0014853134199675634
-0.004252442535668626   -0.046564363897315886   -0.0014858677561599685
-0.005772139189867378   -0.04652328723030225   -0.0016266773392945354
-0.004751375046647045   -0.04905250987100675   -0.0014853134199675634
-0.0040685800931334936   -0.049292029904388315   -0.001441658319691002
-0.004252442535668626   -0.046564363897315886   -0.0014858677561599685
-0.003933850996199214   -0.04933914326163077   -0.0014074012393328725
-0.005772139189867378   -0.04652328723030225   -0.0016266773392945354
-0.004158708815245938   -0.0466150181727527   -0.0014865708193741289
-0.003933850996199214   -0.04933914326163077   -0.0014074012393328725
-0.004252442535668626   -0.046564363897315886   -0.0014858677561599685
-0.005772139189867378   -0.04652328723030225   -0.0016266773392945354
-0.003933850996199214   -0.04933914326163077   -0.0014074012393328725
-0.004620876789516289   -0.049106253754822166   -0.0015374049096404253
-0.004751375046647045   -0.04905250987100675   -0.0014853134199675634
-0.005772139189867378   -0.04652328723030225   -0.0016266773392945354
-0.003933850996199214   -0.04933914326163077   -0.0014074012393328725
-0.004751375046647045   -0.04905250987100675   -0.0014853134199675634
-0.004252442535668626   -0.046564363897315886   -0.0014858677561599685
-0.004457493198850534   -0.046563437043139075   -0.0015081010050982597
-0.0043315018089975735   -0.049342049289790184   -0.0015126042294892625
-0.0028853279837473145   -0.04662830085400479   -0.001561920737169467
-0.004354263519206848   -0.04654752683889451   -0.0014935250562673659
-0.0043315018089975735   -0.049342049289790184   -0.0015126042294892625
-0.003703440360115688   -0.049635408849601804   -0.0016553714111075955
-0.0028853279837473145   -0.04662830085400479   -0.001561920737169467
-0.003539683455373935   -0.04959241414679848   -0.0015292174154297603
-0.004354263519206848   -0.04654752683889451   -0.0014935250562673659
-0.0027689756227702003   -0.04660524242298245   -0.0014885920181111048
-0.003539683455373935   -0.04959241414679848   -0.0015292174154297603
-0.0028853279837473145   -0.04662830085400479   -0.001561920737169467
-0.004354263519206848   -0.04654752683889451   -0.0014935250562673659
-0.003539683455373935   -0.04959241414679848   -0.0015292174154297603
-0.004197854649530689   -0.049292664567155725   -0.0014773461429987594
-0.0043315018089975735   -0.049342049289790184   -0.0015126042294892625
-0.004354263519206848   -0.04654752683889451   -0.0014935250562673659
-0.003539683455373935   -0.04959241414679848   -0.0015292174154297603
-0.0043315018089975735   -0.049342049289790184   -0.0015126042294892625
-0.0028853279837473145   -0.04662830085400479   -0.001561920737169467
-0.004354263519206848   -0.04654752683889451   -0.0014935250562673659
-0.004197854649530689   -0.049292664567155725   -0.0014773461429987594
-0.0027689756227702003   -0.04660524242298245   -0.0014885920181111048
-0.004252442535668626   -0.046564363897315886   -0.0014858677561599685
-0.004197854649530689   -0.049292664567155725   -0.0014773461429987594
-0.003539683455373935   -0.04959241414679848   -0.0015292174154297603
-0.0027689756227702003   -0.04660524242298245   -0.0014885920181111048
-0.003387858927233542   -0.04959025931458745   -0.001403436392577177
-0.004252442535668626   -0.046564363897315886   -0.0014858677561599685
-0.0026580276071629157   -0.04661102231940756   -0.0014213972684451119
-0.003387858927233542   -0.04959025931458745   -0.001403436392577177
-0.0027689756227702003   -0.04660524242298245   -0.0014885920181111048
-0.004252442535668626   -0.046564363897315886   -0.0014858677561599685
-0.003387858927233542   -0.04959025931458745   -0.001403436392577177
-0.0040685800931334936   -0.049292029904388315   -0.001441658319691002
-0.004197854649530689   -0.049292664567155725   -0.0014773461429987594
-0.004252442535668626   -0.046564363897315886   -0.0014858677561599685
-0.003387858927233542   -0.04959025931458745   -0.001403436392577177
-0.004197854649530689   -0.049292664567155725   -0.0014773461429987594
-0.0027689756227702003   -0.04660524242298245   -0.0014885920181111048
-0.004252442535668626   -0.046564363897315886   -0.0014858677561599685
-0.0040685800931334936   -0.049292029904388315   -0.001441658319691002
-0.0026580276071629157   -0.04661102231940756   -0.0014213972684451119
-0.004158708815245938   -0.0466150181727527   -0.0014865708193741289
-0.0040685800931334936   -0.049292029904388315   -0.001441658319691002
-0.003387858927233542   -0.04959025931458745   -0.001403436392577177
-0.0026580276071629157   -0.04661102231940756   -0.0014213972684451119
-0.0032249735404884373   -0.04962677709003971   -0.0012774656658763965
-0.004158708815245938   -0.0466150181727527   -0.0014865708193741289
-0.0025656860838036795   -0.04665118117421997   -0.0013641269073241442
-0.0032249735404884373   -0.04962677709003971   -0.0012774656658763965
-0.0026580276071629157   -0.04661102231940756   -0.0014213972684451119
-0.004158708815245938   -0.0466150181727527   -0.0014865708193741289
-0.0032249735404884373   -0.04962677709003971   -0.0012774656658763965
-0.003933850996199214   -0.04933914326163077   -0.0014074012393328725
-0.0040685800931334936   -0.049292029904388315   -0.001441658319691002
-0.004158708815245938   -0.0466150181727527   -0.0014865708193741289
-0.0032249735404884373   -0.04962677709003971   -0.0012774656658763965
-0.0040685800931334936   -0.049292029904388315   -0.001441658319691002
-0.0026580276071629157   -0.04661102231940756   -0.0014213972684451119
-0.0028853279837473145   -0.04662830085400479   -0.001561920737169467
-0.003703440360115688   -0.049635408849601804   -0.0016553714111075955
-0.0012147022551736715   -0.04661023557017257   -0.001625463042417107
-0.0027689756227702003   -0.04660524242298245   -0.0014885920181111048
-0.003703440360115688   -0.049635408849601804   -0.0016553714111075955
-0.00308531441706162   -0.05   -0.0017657391237687517
-0.0012147022551736715   -0.04661023557017257   -0.001625463042417107
-0.0028791557457024594   -0.05   -0.0015735908780941854
-0.0027689756227702003   -0.04660524242298245   -0.0014885920181111048
-0.0010653127709702645   -0.04657405844328317   -0.0014958843333521062
-0.0028791557457024594   -0.05   -0.0015735908780941854
-0.0012147022551736715   -0.04661023557017257   -0.001625463042417107
-0.0027689756227702003   -0.04660524242298245   -0.0014885920181111048
-0.0028791557457024594   -0.05   -0.0015735908780941854
-0.003539683455373935   -0.04959241414679848   -0.0015292174154297603
-0.003703440360115688   -0.049635408849601804   -0.0016553714111075955
-0.0027689756227702003   -0.04660524242298245   -0.0014885920181111048
-0.0028791557457024594   -0.05   -0.0015735908780941854
-0.003703440360115688   -0.049635408849601804   -0.0016553714111075955
-0.0012147022551736715   -0.04661023557017257   -0.001625463042417107
-0.0027689756227702003   -0.04660524242298245   -0.0014885920181111048
-0.003539683455373935   -0.04959241414679848   -0.0015292174154297603
-0.0010653127709702645   -0.04657405844328317   -0.0014958843333521062
-0.0026580276071629157   -0.04661102231940756   -0.0014213972684451119
-0.003539683455373935   -0.04959241414679848   -0.0015292174154297603
-0.0028791557457024594   -0.05   -0.0015735908780941854
-0.0010653127709702645   -0.04657405844328317   -0.0014958843333521062
-0.002671859034337373   -0.05   -0.001379169286091373
-0.0026580276071629157   -0.04661102231940756   -0.0014213972684451119
-0.0009124170983597218   -0.04656777208132685   -0.0013728566319880092
-0.002671859034337373   -0.05   -0.001379169286091373
-0.0010653127709702645   -0.04657405844328317   -0.0014958843333521062
-0.0026580276071629157   -0.04661102231940756   -0.0014213972684451119
-0.002671859034337373   -0.05   -0.001379169286091373
-0.003387858927233542   -0.04959025931458745   -0.001403436392577177
-0.003539683455373935   -0.04959241414679848   -0.0015292174154297603
-0.0026580276071629157   -0.04661102231940756   -0.0014213972684451119
-0.002671859034337373   -0.05   -0.001379169286091373
-0.003539683455373935   -0.04959241414679848   -0.0015292174154297603
-0.0010653127709702645   -0.04657405844328317   -0.0014958843333521062
-0.0026580276071629157   -0.04661102231940756   -0.0014213972684451119
-0.003387858927233542   -0.04959025931458745   -0.001403436392577177
-0.0009124170983597218   -0.04656777208132685   -0.0013728566319880092
-0.0025656860838036795   -0.04665118117421997   -0.0013641269073241442
-0.003387858927233542   -0.04959025931458745   -0.001403436392577177
-0.002671859034337373   -0.05   -0.001379169286091373
-0.0009124170983597218   -0.04656777208132685   -0.0013728566319880092
-0.002469419944932141   -0.05   -0.0011873316343723344
-0.0025656860838036795   -0.04665118117421997   -0.0013641269073241442
-0.0007992674554712746   -0.04659774628459536   -0.0012610384737488341
-0.002469419944932141   -0.05   -0.0011873316343723344
-0.0009124170983597218   -0.04656777208132685   -0.0013728566319880092
-0.0025656860838036795   -0.04665118117421997   -0.0013641269073241442
-0.002469419944932141   -0.05   -0.0011873316343723344
-0.0032249735404884373   -0.04962677709003971   -0.0012774656658763965
-0.003387858927233542   -0.04959025931458745   -0.001403436392577177
-0.0025656860838036795   -0.04665118117421997   -0.0013641269073241442
-0.002469419944932141   -0.05   -0.0011873316343723344
-0.003387858927233542   -0.04959025931458745   -0.001403436392577177
-0.0009124170983597218   -0.04656777208132685   -0.0013728566319880092
-0.0012147022551736715   -0.04661023557017257   -0.001625463042417107
-0.00308531441706162   -0.05   -0.0017657391237687517
0.000581010980921217   -0.04644924138695962   -0.0017551750883345045
-0.0010653127709702645   -0.04657405844328317   -0.0014958843333521062
-0.00308531441706162   -0.05   -0.0017657391237687517
-0.002635208736077157   -0.05   -0.001899400387153561
0.000581010980921217   -0.04644924138695962   -0.0017551750883345045
-0.0022028888814790873   -0.05   -0.0016211349029930887
-0.0010653127709702645   -0.04657405844328317   -0.0014958843333521062
0.0009304123842340498   -0.0463706780997158   -0.0015432973388523877
-0.0022028888814790873   -0.05   -0.0016211349029930887
0.000581010980921217   -0.04644924138695962   -0.0017551750883345045
-0.0010653127709702645   -0.04657405844328317   -0.0014958843333521062
-0.0022028888814790873   -0.05   -0.0016211349029930887
-0.0028791557457024594   -0.05   -0.0015735908780941854
-0.00308531441706162   -0.05   -0.0017657391237687517
-0.0010653127709702645   -0.04657405844328317   -0.0014958843333521062
-0.0022028888814790873   -0.05   -0.0016211349029930887
-0.00308531441706162   -0.05   -0.0017657391237687517
0.000581010980921217   -0.04644924138695962   -0.0017551750883345045
-0.0010653127709702645   -0.04657405844328317   -0.0014958843333521062
-0.0028791557457024594   -0.05   -0.0015735908780941854
0.0009304123842340498   -0.0463706780997158   -0.0015432973388523877
-0.0009124170983597218   -0.04656777208132685   -0.0013728566319880092
-0.0028791557457024594   -0.05   -0.0015735908780941854
-0.0022028888814790873   -0.05   -0.0016211349029930887
0.0009304123842340498   -0.0463706780997158   -0.0015432973388523877
-0.0018581330570245386   -0.05   -0.0013549553074831769
-0.0009124170983597218   -0.04656777208132685   -0.0013728566319880092
0.0012049295891416463   -0.046354846536943245   -0.0013442541718818094
-0.0018581330570245386   -0.05   -0.0013549553074831769
0.0009304123842340498   -0.0463706780997158   -0.0015432973388523877
-0.0009124170983597218   -0.04656777208132685   -0.0013728566319880092
-0.0018581330570245386   -0.05   -0.0013549553074831769
-0.002671859034337373   -0.05   -0.001379169286091373
-0.0028791557457024594   -0.05   -0.0015735908780941854
-0.0009124170983597218   -0.04656777208132685   -0.0013728566319880092
-0.0018581330570245386   -0.05   -0.0013549553074831769
-0.0028791557457024594   -0.05   -0.0015735908780941854
0.0009304123842340498   -0.0463706780997158   -0.0015432973388523877
-0.0009124170983597218   -0.04656777208132685   -0.0013728566319880092
-0.002671859034337373   -0.05   -0.001379169286091373
0.0012049295891416463   -0.046354846536943245   -0.0013442541718818094
-0.0007992674554712746   -0.04659774628459536   -0.0012610384737488341
-0.002671859034337373   -0.05   -0.001379169286091373
-0.0018581330570245386   -0.05   -0.0013549553074831769
0.0012049295891416463   -0.046354846536943245   -0.0013442541718818094
-0.001432306222193607   -0.05   -0.0010786170416679512
-0.0007992674554712746   -0.04659774628459536   -0.0012610384737488341
0.00149052038496063   -0.04636855535950879   -0.0011623483345435093
-0.001432306222193607   -0.05   -0.0010786170416679512
0.0012049295891416463   -0.046354846536943245   -0.0013442541718818094
-0.0007992674554712746   -0.04659774628459536   -0.0012610384737488341
-0.001432306222193607   -0.05   -0.0010786170416679512
-0.002469419944932141   -0.05   -0.0011873316343723344
-0.002671859034337373   -0.05   -0.001379169286091373
-0.0007992674554712746   -0.04659774628459536   -0.0012610384737488341
-0.001432306222193607   -0.05   -0.0010786170416679512
-0.002671859034337373   -0.05   -0.001379169286091373
0.0012049295891416463   -0.046354846536943245   -0.0013442541718818094
-0.005955261651296512   -0.04885332298678589   -0.0012365184202155688
-0.0035763942395570444   -0.04899592163578852   -0.0010585903116691394
-0.005018712423565916   -0.04909786488439494   -0.0013831220947224693
-0.005684541863589607   -0.04879913642348514   -0.001390702720972722
-0.0035763942395570444   -0.04899592163578852   -0.0010585903116691394
-0.003785549229339483   -0.04918485960666845   -0.001247388745198765
-0.005018712423565916   -0.04909786488439494   -0.0013831220947224693
-0.0036895649256843016   -0.04911916099546952   -0.0013165780318456191
-0.005684541863589607   -0.04879913642348514   -0.001390702720972722
-0.0048919239247142655   -0.04904979744637679   -0.0014339572262545047
-0.0036895649256843016   -0.04911916099546952   -0.0013165780318456191
-0.005018712423565916   -0.04909786488439494   -0.0013831220947224693
-0.005684541863589607   -0.04879913642348514   -0.001390702720972722
-0.0036895649256843016   -0.04911916099546952   -0.0013165780318456191
-0.00333081352433197   -0.0489115239605876   -0.0012206226113817076
-0.0035763942395570444   -0.04899592163578852   -0.0010585903116691394
-0.005684541863589607   -0.04879913642348514   -0.001390702720972722
-0.0036895649256843016   -0.04911916099546952   -0.0013165780318456191
-0.0035763942395570444   -0.04899592163578852   -0.0010585903116691394
-0.005018712423565916   -0.04909786488439494   -0.0013831220947224693
-0.005684541863589607   -0.04879913642348514   -0.001390702720972722
-0.00333081352433197   -0.0489115239605876   -0.0012206226113817076
-0.0048919239247142655   -0.04904979744637679   -0.0014339572262545047
-0.005450995046522924   -0.048804151132488864   -0.0015443229168670253
-0.00333081352433197   -0.0489115239605876   -0.0012206226113817076
-0.0036895649256843016   -0.04911916099546952   -0.0013165780318456191
-0.0048919239247142655   -0.04904979744637679   -0.0014339572262545047
-0.0035769028672852543   -0.049095248613036574   -0.001380465883316451
-0.005450995046522924   -0.048804151132488864   -0.0015443229168670253
-0.004751375046647045   -0.04905250987100675   -0.0014853134199675634
-0.0035769028672852543   -0.049095248613036574   -0.001380465883316451
-0.0048919239247142655   -0.04904979744637679   -0.0014339572262545047
-0.005450995046522924   -0.048804151132488864   -0.0015443229168670253
-0.0035769028672852543   -0.049095248613036574   -0.001380465883316451
-0.0031264199512132883   -0.048885929110057035   -0.0013760791768578297
-0.00333081352433197   -0.0489115239605876   -0.0012206226113817076
-0.005450995046522924   -0.048804151132488864   -0.0015443229168670253
-0.0035769028672852543   -0.049095248613036574   -0.001380465883316451
-0.00333081352433197   -0.0489115239605876   -0.0012206226113817076
-0.0048919239247142655   -0.04904979744637679   -0.0014339572262545047
-0.005450995046522924   -0.048804151132488864   -0.0015443229168670253
-0.0031264199512132883   -0.048885929110057035   -0.0013760791768578297
-0.004751375046647045   -0.04905250987100675   -0.0014853134199675634
-0.0051738802638200306   -0.04887180280757018   -0.0017012425952828193
-0.0031264199512132883   -0.048885929110057035   -0.0013760791768578297
-0.0035769028672852543   -0.049095248613036574   -0.001380465883316451
-0.004751375046647045   -0.04905250987100675   -0.0014853134199675634
-0.0034804384089487782   -0.04911348356752705   -0.0014387237804833813
-0.0051738802638200306   -0.04887180280757018   -0.0017012425952828193
-0.004620876789516289   -0.049106253754822166   -0.0015374049096404253
-0.0034804384089487782   -0.04911348356752705   -0.0014387237804833813
-0.004751375046647045   -0.04905250987100675   -0.0014853134199675634
-0.0051738802638200306   -0.04887180280757018   -0.0017012425952828193
-0.0034804384089487782   -0.04911348356752705   -0.0014387237804833813
-0.002894990428739515   -0.04890866146728956   -0.0015242808622772158
-0.0031264199512132883   -0.048885929110057035   -0.0013760791768578297
-0.0051738802638200306   -0.04887180280757018   -0.0017012425952828193
-0.0034804384089487782   -0.04911348356752705   -0.0014387237804833813
-0.0031264199512132883   -0.048885929110057035   -0.0013760791768578297
-0.004751375046647045   -0.04905250987100675   -0.0014853134199675634
-0.005018712423565916   -0.04909786488439494   -0.0013831220947224693
-0.003785549229339483   -0.04918485960666845   -0.001247388745198765
-0.0043315018089975735   -0.049342049289790184   -0.0015126042294892625
-0.0048919239247142655   -0.04904979744637679   -0.0014339572262545047
-0.003785549229339483   -0.04918485960666845   -0.001247388745198765
-0.00407187363212188   -0.04930111162508045   -0.001398258780615136
-0.0043315018089975735   -0.049342049289790184   -0.0015126042294892625
-0.0039869734129097615   -0.04924242263075687   -0.0013999919475198702
-0.0048919239247142655   -0.04904979744637679   -0.0014339572262545047
-0.004197854649530689   -0.049292664567155725   -0.0014773461429987594
-0.0039869734129097615   -0.04924242263075687   -0.0013999919475198702
-0.0043315018089975735   -0.049342049289790184   -0.0015126042294892625
-0.0048919239247142655   -0.04904979744637679   -0.0014339572262545047
-0.0039869734129097615   -0.04924242263075687   -0.0013999919475198702
-0.0036895649256843016   -0.04911916099546952   -0.0013165780318456191
-0.003785549229339483   -0.04918485960666845   -0.001247388745198765
-0.0048919239247142655   -0.04904979744637679   -0.0014339572262545047
-0.0039869734129097615   -0.04924242263075687   -0.0013999919475198702
-0.003785549229339483   -0.04918485960666845   -0.001247388745198765
-0.0043315018089975735   -0.049342049289790184   -0.0015126042294892625
-0.0048919239247142655   -0.04904979744637679   -0.0014339572262545047
-0.0036895649256843016   -0.04911916099546952   -0.0013165780318456191
-0.004197854649530689   -0.049292664567155725   -0.0014773461429987594
-0.004751375046647045   -0.04905250987100675   -0.0014853134199675634
-0.0036895649256843016   -0.04911916099546952   -0.0013165780318456191
-0.0039869734129097615   -0.04924242263075687   -0.0013999919475198702
-0.004197854649530689   -0.049292664567155725   -0.0014773461429987594
-0.003892494408383536   -0.04922157599438059   -0.0013948526575374577
-0.004751375046647045   -0.04905250987100675   -0.0014853134199675634
-0.0040685800931334936   -0.049292029904388315   -0.001441658319691002
-0.003892494408383536   -0.04922157599438059   -0.0013948526575374577
-0.004197854649530689   -0.049292664567155725   -0.0014773461429987594
-0.004751375046647045   -0.04905250987100675   -0.0014853134199675634
-0.003892494408383536   -0.04922157599438059   -0.0013948526575374577
-0.0035769028672852543   -0.049095248613036574   -0.001380465883316451
-0.0036895649256843016   -0.04911916099546952   -0.0013165780318456191
-0.004751375046647045   -0.04905250987100675   -0.0014853134199675634
-0.003892494408383536   -0.04922157599438059   -0.0013948526575374577
-0.0036895649256843016   -0.04911916099546952   -0.0013165780318456191
-0.004197854649530689   -0.049292664567155725   -0.0014773461429987594
-0.004751375046647045   -0.04905250987100675   -0.0014853134199675634
-0.0035769028672852543   -0.049095248613036574   -0.001380465883316451
-0.0040685800931334936   -0.049292029904388315   -0.001441658319691002
-0.004620876789516289   -0.049106253754822166   -0.0015374049096404253
-0.0035769028672852543   -0.049095248613036574   -0.001380465883316451
-0.003892494408383536   -0.04922157599438059   -0.0013948526575374577
-0.0040685800931334936   -0.049292029904388315   -0.001441658319691002
-0.003796458176193774   -0.049236871291962435   -0.0013843193500661412
-0.004620876789516289   -0.049106253754822166   -0.0015374049096404253
-0.003933850996199214   -0.04933914326163077   -0.0014074012393328725
-0.003796458176193774   -0.049236871291962435   -0.0013843193500661412
-0.0040685800931334936   -0.049292029904388315   -0.001441658319691002
-0.004620876789516289   -0.049106253754822166   -0.0015374049096404253
-0.003796458176193774   -0.049236871291962435   -0.0013843193500661412
-0.0034804384089487782   -0.04911348356752705   -0.0014387237804833813
-0.0035769028672852543   -0.049095248613036574   -0.001380465883316451
-0.004620876789516289   -0.049106253754822166   -0.0015374049096404253
-0.003796458176193774   -0.049236871291962435   -0.0013843193500661412
-0.0035769028672852543   -0.049095248613036574   -0.001380465883316451
-0.0040685800931334936   -0.049292029904388315   -0.001441658319691002
-0.0043315018089975735   -0.049342049289790184   -0.0015126042294892625
-0.00407187363212188   -0.04930111162508045   -0.001398258780615136
-0.003703440360115688   -0.049635408849601804   -0.0016553714111075955
-0.004197854649530689   -0.049292664567155725   -0.0014773461429987594
-0.00407187363212188   -0.04930111162508045   -0.001398258780615136
-0.004379233227917159   -0.04934911195143899   -0.0015468392308815746
-0.003703440360115688   -0.049635408849601804   -0.0016553714111075955
-0.004291282654611225   -0.049293080273641134   -0.0014837014610699923
-0.004197854649530689   -0.049292664567155725   -0.0014773461429987594
-0.003539683455373935   -0.04959241414679848   -0.0015292174154297603
-0.004291282654611225   -0.049293080273641134   -0.0014837014610699923
-0.003703440360115688   -0.049635408849601804   -0.0016553714111075955
-0.004197854649530689   -0.049292664567155725   -0.0014773461429987594
-0.004291282654611225   -0.049293080273641134   -0.0014837014610699923
-0.0039869734129097615   -0.04924242263075687   -0.0013999919475198702
-0.00407187363212188   -0.04930111162508045   -0.001398258780615136
-0.004197854649530689   -0.049292664567155725   -0.0014773461429987594
-0.004291282654611225   -0.049293080273641134   -0.0014837014610699923
-0.00407187363212188   -0.04930111162508045   -0.001398258780615136
-0.003703440360115688   -0.049635408849601804   -0.0016553714111075955
-0.004197854649530689   -0.049292664567155725   -0.0014773461429987594
-0.0039869734129097615   -0.04924242263075687   -0.0013999919475198702
-0.003539683455373935   -0.04959241414679848   -0.0015292174154297603
-0.0040685800931334936   -0.049292029904388315   -0.001441658319691002
-0.0039869734129097615   -0.04924242263075687   -0.0013999919475198702
-0.004291282654611225   -0.049293080273641134   -0.0014837014610699923
-0.003539683455373935   -0.04959241414679848   -0.0015292174154297603
-0.004185847278677889   -0.04927550217749936   -0.0014121917147187255
-0.0040685800931334936   -0.049292029904388315   -0.001441658319691002
-0.003387858927233542   -0.04959025931458745   -0.001403436392577177
-0.004185847278677889   -0.04927550217749936   -0.0014121917147187255
-0.003539683455373935   -0.04959241414679848   -0.0015292174154297603
-0.0040685800931334936   -0.049292029904388315   -0.001441658319691002
-0.004185847278677889   -0.04927550217749936   -0.0014121917147187255
-0.003892494408383536   -0.04922157599438059   -0.0013948526575374577
-0.0039869734129097615   -0.04924242263075687   -0.0013999919475198702
-0.0040685800931334936   -0.049292029904388315   -0.001441658319691002
-0.004185847278677889   -0.04927550217749936   -0.0014121917147187255
-0.0039869734129097615   -0.04924242263075687   -0.0013999919475198702
-0.003539683455373935   -0.04959241414679848   -0.0015292174154297603
-0.0040685800931334936   -0.049292029904388315   -0.001441658319691002
-0.003892494408383536   -0.04922157599438059   -0.0013948526575374577
-0.003387858927233542   -0.04959025931458745   -0.001403436392577177
-0.003933850996199214   -0.04933914326163077   -0.0014074012393328725
-0.003892494408383536   -0.04922157599438059   -0.0013948526575374577
-0.004185847278677889   -0.04927550217749936   -0.0014121917147187255
-0.003387858927233542   -0.04959025931458745   -0.001403436392577177
-0.004077455651842909   -0.04929040609478712   -0.001336060444609229
-0.003933850996199214   -0.04933914326163077   -0.0014074012393328725
-0.0032249735404884373   -0.04962677709003971   -0.0012774656658763965
-0.004077455651842909   -0.04929040609478712   -0.001336060444609229
-0.003387858927233542   -0.04959025931458745   -0.001403436392577177
-0.003933850996199214   -0.04933914326163077   -0.0014074012393328725
-0.004077455651842909   -0.04929040609478712   -0.001336060444609229
-0.003796458176193774   -0.049236871291962435   -0.0013843193500661412
-0.003892494408383536   -0.04922157599438059   -0.0013948526575374577
-0.003933850996199214   -0.04933914326163077   -0.0014074012393328725
-0.004077455651842909   -0.04929040609478712   -0.001336060444609229
-0.003892494408383536   -0.04922157599438059   -0.0013948526575374577
-0.003387858927233542   -0.04959025931458745   -0.001403436392577177
-0.003703440360115688   -0.049635408849601804   -0.0016553714111075955
-0.004379233227917159   -0.04934911195143899   -0.0015468392308815746
-0.00308531441706162   -0.05   -0.0017657391237687517
-0.003539683455373935   -0.04959241414679848   -0.0015292174154297603
-0.004379233227917159   -0.04934911195143899   -0.0015468392308815746
-0.00482464549871357   -0.04929496793779373   -0.001688238700668293
-0.00308531441706162   -0.05   -0.0017657391237687517
-0.00470979042931417   -0.04924193946880335   -0.0015632847336486814
-0.003539683455373935   -0.04959241414679848   -0.0015292174154297603
-0.0028791557457024594   -0.05   -0.0015735908780941854
-0.00470979042931417   -0.04924193946880335   -0.0015632847336486814
-0.00308531441706162   -0.05   -0.0017657391237687517
-0.003539683455373935   -0.04959241414679848   -0.0015292174154297603
-0.00470979042931417   -0.04924193946880335   -0.0015632847336486814
-0.004291282654611225   -0.049293080273641134   -0.0014837014610699923
-0.004379233227917159   -0.04934911195143899   -0.0015468392308815746
-0.003539683455373935   -0.04959241414679848   -0.0015292174154297603
-0.00470979042931417   -0.04924193946880335   -0.0015632847336486814
-0.004379233227917159   -0.04934911195143899   -0.0015468392308815746
-0.00308531441706162   -0.05   -0.0017657391237687517
-0.003539683455373935   -0.04959241414679848   -0.0015292174154297603
-0.004291282654611225   -0.049293080273641134   -0.0014837014610699923
-0.0028791557457024594   -0.05   -0.0015735908780941854
-0.003387858927233542   -0.04959025931458745   -0.001403436392577177
-0.004291282654611225   -0.049293080273641134   -0.0014837014610699923
-0.00470979042931417   -0.04924193946880335   -0.0015632847336486814
-0.0028791557457024594   -0.05   -0.0015735908780941854
-0.0045581028137178445   -0.04923005655041364   -0.0014289865297724318
-0.003387858927233542   -0.04959025931458745   -0.001403436392577177
-0.002671859034337373   -0.05   -0.001379169286091373
-0.0045581028137178445   -0.04923005655041364   -0.0014289865297724318
-0.0028791557457024594   -0.05   -0.0015735908780941854
-0.003387858927233542   -0.04959025931458745   -0.001403436392577177
-0.0045581028137178445   -0.04923005655041364   -0.0014289865297724318
-0.004185847278677889   -0.04927550217749936   -0.0014121917147187255
-0.004291282654611225   -0.049293080273641134   -0.0014837014610699923
-0.003387858927233542   -0.04959025931458745   -0.001403436392577177
-0.0045581028137178445   -0.04923005655041364   -0.0014289865297724318
-0.004291282654611225   -0.049293080273641134   -0.0014837014610699923
-0.0028791557457024594   -0.05   -0.0015735908780941854
-0.003387858927233542   -0.04959025931458745   -0.001403436392577177
-0.004185847278677889   -0.04927550217749936   -0.0014121917147187255
-0.002671859034337373   -0.05   -0.001379169286091373
-0.0032249735404884373   -0.04962677709003971   -0.0012774656658763965
-0.004185847278677889   -0.04927550217749936   -0.0014121917147187255
-0.0045581028137178445   -0.04923005655041364   -0.0014289865297724318
-0.002671859034337373   -0.05   -0.001379169286091373
-0.004415627852192567   -0.04925142934880196   -0.0012895506791778066
-0.0032249735404884373   -0.04962677709003971   -0.0012774656658763965
-0.002469419944932141   -0.05   -0.0011873316343723344
-0.004415627852192567   -0.04925142934880196   -0.0012895506791778066
-0.002671859034337373   -0.05   -0.001379169286091373
-0.0032249735404884373   -0.04962677709003971   -0.0012774656658763965
-0.004415627852192567   -0.04925142934880196   -0.0012895506791778066
-0.004077455651842909   -0.04929040609478712   -0.001336060444609229
-0.004185847278677889   -0.04927550217749936   -0.0014121917147187255
-0.0032249735404884373   -0.04962677709003971   -0.0012774656658763965
-0.004415627852192567   -0.04925142934880196   -0.0012895506791778066
-0.004185847278677889   -0.04927550217749936   -0.0014121917147187255
-0.002671859034337373   -0.05   -0.001379169286091373
-0.00308531441706162   -0.05   -0.0017657391237687517
-0.00482464549871357   -0.04929496793779373   -0.001688238700668293
-0.002635208736077157   -0.05   -0.001899400387153561
-0.0028791557457024594   -0.05   -0.0015735908780941854
-0.00482464549871357   -0.04929496793779373   -0.001688238700668293
-0.005693624888111397   -0.049054016443740106   -0.0018386158187996269
-0.002635208736077157   -0.05   -0.001899400387153561
-0.005386829520586926   -0.04900910033884668   -0.0016336425111128582
-0.0028791557457024594   -0.05   -0.0015735908780941854
-0.0022028888814790873   -0.05   -0.0016211349029930887
-0.005386829520586926   -0.04900910033884668   -0.0016336425111128582
-0.002635208736077157   -0.05   -0.001899400387153561
-0.0028791557457024594   -0.05   -0.0015735908780941854
-0.005386829520586926   -0.04900910033884668   -0.0016336425111128582
-0.00470979042931417   -0.04924193946880335   -0.0015632847336486814
-0.00482464549871357   -0.04929496793779373   -0.001688238700668293
-0.0028791557457024594   -0.05   -0.0015735908780941854
-0.005386829520586926   -0.04900910033884668   -0.0016336425111128582
-0.00482464549871357   -0.04929496793779373   -0.001688238700668293
-0.002635208736077157   -0.05   -0.001899400387153561
-0.0028791557457024594   -0.05   -0.0015735908780941854
-0.00470979042931417   -0.04924193946880335   -0.0015632847336486814
-0.0022028888814790873   -0.05   -0.0016211349029930887
-0.002671859034337373   -0.05   -0.001379169286091373
-0.00470979042931417   -0.04924193946880335   -0.0015632847336486814
-0.005386829520586926   -0.04900910033884668   -0.0016336425111128582
-0.0022028888814790873   -0.05   -0.0016211349029930887
-0.0051052435677908965   -0.049003083697651335   -0.0014149931032330686
-0.002671859034337373   -0.05   -0.001379169286091373
-0.0018581330570245386   -0.05   -0.0013549553074831769
-0.0051052435677908965   -0.049003083697651335   -0.0014149931032330686
-0.0022028888814790873   -0.05   -0.0016211349029930887
-0.002671859034337373   -0.05   -0.001379169286091373
-0.0051052435677908965   -0.049003083697651335   -0.0014149931032330686
-0.0045581028137178445   -0.04923005655041364   -0.0014289865297724318
-0.00470979042931417   -0.04924193946880335   -0.0015632847336486814
-0.002671859034337373   -0.05   -0.001379169286091373
-0.0051052435677908965   -0.049003083697651335   -0.0014149931032330686
-0.00470979042931417   -0.04924193946880335   -0.0015632847336486814
-0.0022028888814790873   -0.05   -0.0016211349029930887
-0.002671859034337373   -0.05   -0.001379169286091373
-0.0045581028137178445   -0.04923005655041364   -0.0014289865297724318
-0.0018581330570245386   -0.05   -0.0013549553074831769
-0.002469419944932141   -0.05   -0.0011873316343723344
-0.0045581028137178445   -0.04923005655041364   -0.0014289865297724318
-0.0051052435677908965   -0.049003083697651335   -0.0014149931032330686
-0.0018581330570245386   -0.05   -0.0013549553074831769
-0.0047495754336826426   -0.04906197136966408   -0.0011864362739160005
-0.002469419944932141   -0.05   -0.0011873316343723344
-0.001432306222193607   -0.05   -0.0010786170416679512
-0.0047495754336826426   -0.04906197136966408   -0.0011864362739160005
-0.0018581330570245386   -0.05   -0.0013549553074831769
-0.002469419944932141   -0.05   -0.0011873316343723344
-0.0047495754336826426   -0.04906197136966408   -0.0011864362739160005
-0.004415627852192567   -0.04925142934880196   -0.0012895506791778066
-0.0045581028137178445   -0.04923005655041364   -0.0014289865297724318
-0.002469419944932141   -0.05   -0.0011873316343723344
-0.0047495754336826426   -0.04906197136966408   -0.0011864362739160005
-0.0045581028137178445   -0.04923005655041364   -0.0014289865297724318
-0.0018581330570245386   -0.05   -0.0013549553074831769
-0.0035763942395570444   -0.04899592163578852   -0.0010585903116691394
-0.001480426902165177   -0.04716246216455268   -0.000914072852187742
-0.003785549229339483   -0.04918485960666845   -0.001247388745198765
-0.00333081352433197   -0.0489115239605876   -0.0012206226113817076
-0.001480426902165177   -0.04716246216455268   -0.000914072852187742
-0.002726251271891493   -0.04730536947124843   -0.0011147092440778419
-0.003785549229339483   -0.04918485960666845   -0.001247388745198765
-0.0026580099920975775   -0.04722584613604041   -0.0011764863680730194
-0.00333081352433197   -0.0489115239605876   -0.0012206226113817076
-0.0036895649256843016   -0.04911916099546952   -0.0013165780318456191
-0.0026580099920975775   -0.04722584613604041   -0.0011764863680730194
-0.003785549229339483   -0.04918485960666845   -0.001247388745198765
-0.00333081352433197   -0.0489115239605876   -0.0012206226113817076
-0.0026580099920975775   -0.04722584613604041   -0.0011764863680730194
-0.001284284836411556   -0.0470639869079897   -0.0010543566880756449
-0.001480426902165177   -0.04716246216455268   -0.000914072852187742
-0.00333081352433197   -0.0489115239605876   -0.0012206226113817076
-0.0026580099920975775   -0.04722584613604041   -0.0011764863680730194
-0.001480426902165177   -0.04716246216455268   -0.000914072852187742
-0.003785549229339483   -0.04918485960666845   -0.001247388745198765
-0.00333081352433197   -0.0489115239605876   -0.0012206226113817076
-0.001284284836411556   -0.0470639869079897   -0.0010543566880756449
-0.0036895649256843016   -0.04911916099546952   -0.0013165780318456191
-0.0031264199512132883   -0.048885929110057035   -0.0013760791768578297
-0.001284284836411556   -0.0470639869079897   -0.0010543566880756449
-0.0026580099920975775   -0.04722584613604041   -0.0011764863680730194
-0.0036895649256843016   -0.04911916099546952   -0.0013165780318456191
-0.002581092372178881   -0.04718212644081401   -0.001232743107948604
-0.0031264199512132883   -0.048885929110057035   -0.0013760791768578297
-0.0035769028672852543   -0.049095248613036574   -0.001380465883316451
-0.002581092372178881   -0.04718212644081401   -0.001232743107948604
-0.0036895649256843016   -0.04911916099546952   -0.0013165780318456191
-0.0031264199512132883   -0.048885929110057035   -0.0013760791768578297
-0.002581092372178881   -0.04718212644081401   -0.001232743107948604
-0.0011299351991670412   -0.04701747645711743   -0.0011864607978015855
-0.001284284836411556   -0.0470639869079897   -0.0010543566880756449
-0.0031264199512132883   -0.048885929110057035   -0.0013760791768578297
-0.002581092372178881   -0.04718212644081401   -0.001232743107948604
-0.001284284836411556   -0.0470639869079897   -0.0010543566880756449
-0.0036895649256843016   -0.04911916099546952   -0.0013165780318456191
-0.0031264199512132883   -0.048885929110057035   -0.0013760791768578297
-0.0011299351991670412   -0.04701747645711743   -0.0011864607978015855
-0.0035769028672852543   -0.049095248613036574   -0.001380465883316451
-0.002894990428739515   -0.04890866146728956   -0.0015242808622772158
-0.0011299351991670412   -0.04701747645711743   -0.0011864607978015855
-0.002581092372178881   -0.04718212644081401   -0.001232743107948604
-0.0035769028672852543   -0.049095248613036574   -0.001380465883316451
-0.002522146210589853   -0.04717298469521011   -0.0012836589097409217
-0.002894990428739515   -0.04890866146728956   -0.0015242808622772158
-0.0034804384089487782   -0.04911348356752705   -0.0014387237804833813
-0.002522146210589853   -0.04717298469521011   -0.0012836589097409217
-0.0035769028672852543   -0.049095248613036574   -0.001380465883316451
-0.002894990428739515   -0.04890866146728956   -0.0015242808622772158
-0.002522146210589853   -0.04717298469521011   -0.0012836589097409217
-0.000961163299993735   -0.04700949284139114   -0.0013100433135187057
-0.0011299351991670412   -0.04701747645711743   -0.0011864607978015855
-0.002894990428739515   -0.04890866146728956   -0.0015242808622772158
-0.002522146210589853   -0.04717298469521011   -0.0012836589097409217
-0.0011299351991670412   -0.04701747645711743   -0.0011864607978015855
-0.0035769028672852543   -0.049095248613036574   -0.001380465883316451
-0.003785549229339483   -0.04918485960666845   -0.001247388745198765
-0.002726251271891493   -0.04730536947124843   -0.0011147092440778419
-0.00407187363212188   -0.04930111162508045   -0.001398258780615136
-0.0036895649256843016   -0.04911916099546952   -0.0013165780318456191
-0.002726251271891493   -0.04730536947124843   -0.0011147092440778419
-0.00395756745681013   -0.047355650274417044   -0.0012782135292952266
-0.00407187363212188   -0.04930111162508045   -0.001398258780615136
-0.0039002482449394804   -0.04728628538490392   -0.0012815333866479308
-0.0036895649256843016   -0.04911916099546952   -0.0013165780318456191
-0.0039869734129097615   -0.04924242263075687   -0.0013999919475198702
-0.0039002482449394804   -0.04728628538490392   -0.0012815333866479308
-0.00407187363212188   -0.04930111162508045   -0.001398258780615136
-0.0036895649256843016   -0.04911916099546952   -0.0013165780318456191
-0.0039002482449394804   -0.04728628538490392   -0.0012815333866479308
-0.0026580099920975775   -0.04722584613604041   -0.0011764863680730194
-0.002726251271891493   -0.04730536947124843   -0.0011147092440778419
-0.0036895649256843016   -0.04911916099546952   -0.0013165780318456191
-0.0039002482449394804   -0.04728628538490392   -0.0012815333866479308
-0.002726251271891493   -0.04730536947124843   -0.0011147092440778419
-0.00407187363212188   -0.04930111162508045   -0.001398258780615136
-0.0036895649256843016   -0.04911916099546952   -0.0013165780318456191
-0.0026580099920975775   -0.04722584613604041   -0.0011764863680730194
-0.0039869734129097615   -0.04924242263075687   -0.0013999919475198702
-0.0035769028672852543   -0.049095248613036574   -0.001380465883316451
-0.0026580099920975775   -0.04722584613604041   -0.0011764863680730194
-0.0039002482449394804   -0.04728628538490392   -0.0012815333866479308
-0.0039869734129097615   -0.04924242263075687   -0.0013999919475198702
-0.003840954139606131   -0.047249191448595816   -0.0012797393938507706
-0.0035769028672852543   -0.049095248613036574   -0.001380465883316451
-0.003892494408383536   -0.04922157599438059   -0.0013948526575374577
-0.003840954139606131   -0.047249191448595816   -0.0012797393938507706
-0.0039869734129097615   -0.04924242263075687   -0.0013999919475198702
-0.0035769028672852543   -0.049095248613036574   -0.001380465883316451
-0.003840954139606131   -0.047249191448595816   -0.0012797393938507706
-0.002581092372178881   -0.04718212644081401   -0.001232743107948604
-0.0026580099920975775   -0.04722584613604041   -0.0011764863680730194
-0.0035769028672852543   -0.049095248613036574   -0.001380465883316451
-0.003840954139606131   -0.047249191448595816   -0.0012797393938507706
-0.0026580099920975775   -0.04722584613604041   -0.0011764863680730194
-0.0039869734129097615   -0.04924242263075687   -0.0013999919475198702
-0.0035769028672852543   -0.049095248613036574   -0.001380465883316451
-0.002581092372178881   -0.04718212644081401   -0.001232743107948604
-0.003892494408383536   -0.04922157599438059   -0.0013948526575374577
-0.0034804384089487782   -0.04911348356752705   -0.0014387237804833813
-0.002581092372178881   -0.04718212644081401   -0.001232743107948604
-0.003840954139606131   -0.047249191448595816   -0.0012797393938507706
-0.003892494408383536   -0.04922157599438059   -0.0013948526575374577
-0.0037837835778481155   -0.04724283646716029   -0.001272789698759784
-0.0034804384089487782   -0.04911348356752705   -0.0014387237804833813
-0.003796458176193774   -0.049236871291962435   -0.0013843193500661412
-0.0037837835778481155   -0.04724283646716029   -0.001272789698759784
-0.003892494408383536   -0.04922157599438059   -0.0013948526575374577
-0.0034804384089487782   -0.04911348356752705   -0.0014387237804833813
-0.0037837835778481155   -0.04724283646716029   -0.001272789698759784
-0.002522146210589853   -0.04717298469521011   -0.0012836589097409217
-0.002581092372178881   -0.04718212644081401   -0.001232743107948604
-0.0034804384089487782   -0.04911348356752705   -0.0014387237804833813
-0.0037837835778481155   -0.04724283646716029   -0.001272789698759784
-0.002581092372178881   -0.04718212644081401   -0.001232743107948604
-0.003892494408383536   -0.04922157599438059   -0.0013948526575374577
-0.00407187363212188   -0.04930111162508045   -0.001398258780615136
-0.00395756745681013   -0.047355650274417044   -0.0012782135292952266
-0.004379233227917159   -0.04934911195143899   -0.0015468392308815746
-0.0039869734129097615   -0.04924242263075687   -0.0013999919475198702
-0.00395756745681013   -0.047355650274417044   -0.0012782135292952266
-0.005180594149884106   -0.047310652115287156   -0.001431274315343425
-0.004379233227917159   -0.04934911195143899   -0.0015468392308815746
-0.0051237283593888764   -0.047249014528868066   -0.0013785282852495884
-0.0039869734129097615   -0.04924242263075687   -0.0013999919475198702
-0.004291282654611225   -0.049293080273641134   -0.0014837014610699923
-0.0051237283593888764   -0.047249014528868066   -0.0013785282852495884
-0.004379233227917159   -0.04934911195143899   -0.0015468392308815746
-0.0039869734129097615   -0.04924242263075687   -0.0013999919475198702
-0.0051237283593888764   -0.047249014528868066   -0.0013785282852495884
-0.0039002482449394804   -0.04728628538490392   -0.0012815333866479308
-0.00395756745681013   -0.047355650274417044   -0.0012782135292952266
-0.0039869734129097615   -0.04924242263075687   -0.0013999919475198702
-0.0051237283593888764   -0.047249014528868066   -0.0013785282852495884
-0.00395756745681013   -0.047355650274417044   -0.0012782135292952266
-0.004379233227917159   -0.04934911195143899   -0.0015468392308815746
-0.0039869734129097615   -0.04924242263075687   -0.0013999919475198702
-0.0039002482449394804   -0.04728628538490392   -0.0012815333866479308
-0.004291282654611225   -0.049293080273641134   -0.0014837014610699923
-0.003892494408383536   -0.04922157599438059   -0.0013948526575374577
-0.0039002482449394804   -0.04728628538490392   -0.0012815333866479308
-0.0051237283593888764   -0.047249014528868066   -0.0013785282852495884
-0.004291282654611225   -0.049293080273641134   -0.0014837014610699923
-0.005059914141701948   -0.04721911343773176   -0.0013207468926175437
-0.003892494408383536   -0.04922157599438059   -0.0013948526575374577
-0.004185847278677889   -0.04927550217749936   -0.0014121917147187255
-0.005059914141701948   -0.04721911343773176   -0.0013207468926175437
-0.004291282654611225   -0.049293080273641134   -0.0014837014610699923
-0.003892494408383536   -0.04922157599438059   -0.0013948526575374577
-0.005059914141701948   -0.04721911343773176   -0.0013207468926175437
-0.003840954139606131   -0.047249191448595816   -0.0012797393938507706
-0.0039002482449394804   -0.04728628538490392   -0.0012815333866479308
-0.003892494408383536   -0.04922157599438059   -0.0013948526575374577
-0.005059914141701948   -0.04721911343773176   -0.0013207468926175437
-0.0039002482449394804   -0.04728628538490392   -0.0012815333866479308
-0.004291282654611225   -0.049293080273641134   -0.0014837014610699923
-0.003892494408383536   -0.04922157599438059   -0.0013948526575374577
-0.003840954139606131   -0.047249191448595816   -0.0012797393938507706
-0.004185847278677889   -0.04927550217749936   -0.0014121917147187255
-0.003796458176193774   -0.049236871291962435   -0.0013843193500661412
-0.003840954139606131   -0.047249191448595816   -0.0012797393938507706
-0.005059914141701948   -0.04721911343773176   -0.0013207468926175437
-0.004185847278677889   -0.04927550217749936   -0.0014121917147187255
-0.004995865520740064   -0.04721792754792649   -0.0012573171530736833
-0.003796458176193774   -0.049236871291962435   -0.0013843193500661412
-0.004077455651842909   -0.04929040609478712   -0.001336060444609229
-0.004995865520740064   -0.04721792754792649   -0.0012573171530736833
-0.004185847278677889   -0.04927550217749936   -0.0014121917147187255
-0.003796458176193774   -0.049236871291962435   -0.0013843193500661412
-0.004995865520740064   -0.04721792754792649   -0.0012573171530736833
-0.0037837835778481155   -0.04724283646716029   -0.001272789698759784
-0.003840954139606131   -0.047249191448595816   -0.0012797393938507706
-0.003796458176193774   -0.049236871291962435   -0.0013843193500661412
-0.004995865520740064   -0.04721792754792649   -0.0012573171530736833
-0.003840954139606131   -0.047249191448595816   -0.0012797393938507706
-0.004185847278677889   -0.04927550217749936   -0.0014121917147187255
-0.004379233227917159   -0.04934911195143899   -0.0015468392308815746
-0.005180594149884106   -0.047310652115287156   -0.001431274315343425
-0.00482464549871357   -0.04929496793779373   -0.001688238700668293
-0.004291282654611225   -0.049293080273641134   -0.0014837014610699923
-0.005180594149884106   -0.047310652115287156   -0.001431274315343425
-0.00652366785554826   -0.047164469022750295   -0.0015719826985553507
-0.00482464549871357   -0.04929496793779373   -0.001688238700668293
-0.0064539732928800865   -0.04711055159174957   -0.0014643877791487784
-0.004291282654611225   -0.049293080273641134   -0.0014837014610699923
-0.00470979042931417   -0.04924193946880335   -0.0015632847336486814
-0.0064539732928800865   -0.04711055159174957   -0.0014643877791487784
-0.00482464549871357   -0.04929496793779373   -0.001688238700668293
-0.004291282654611225   -0.049293080273641134   -0.0014837014610699923
-0.0064539732928800865   -0.04711055159174957   -0.0014643877791487784
-0.0051237283593888764   -0.047249014528868066   -0.0013785282852495884
-0.005180594149884106   -0.047310652115287156   -0.001431274315343425
-0.004291282654611225   -0.049293080273641134   -0.0014837014610699923
-0.0064539732928800865   -0.04711055159174957   -0.0014643877791487784
-0.005180594149884106   -0.047310652115287156   -0.001431274315343425
-0.00482464549871357   -0.04929496793779373   -0.001688238700668293
-0.004291282654611225   -0.049293080273641134   -0.0014837014610699923
-0.0051237283593888764   -0.047249014528868066   -0.0013785282852495884
-0.00470979042931417   -0.04924193946880335   -0.0015632847336486814
-0.004185847278677889   -0.04927550217749936   -0.0014121917147187255
-0.0051237283593888764   -0.047249014528868066   -0.0013785282852495884
-0.0064539732928800865   -0.04711055159174957   -0.0014643877791487784
-0.00470979042931417   -0.04924193946880335   -0.0015632847336486814
-0.006357668674318194   -0.04708781489147421   -0.0013521354655620546
-0.004185847278677889   -0.04927550217749936   -0.0014121917147187255
-0.0045581028137178445   -0.04923005655041364   -0.0014289865297724318
-0.006357668674318194   -0.04708781489147421   -0.0013521354655620546
-0.00470979042931417   -0.04924193946880335   -0.0015632847336486814
-0.004185847278677889   -0.04927550217749936   -0.0014121917147187255
-0.006357668674318194   -0.04708781489147421   -0.0013521354655620546
-0.005059914141701948   -0.04721911343773176   -0.0013207468926175437
-0.0051237283593888764   -0.047249014528868066   -0.0013785282852495884
-0.004185847278677889   -0.04927550217749936   -0.0014121917147187255
-0.006357668674318194   -0.04708781489147421   -0.0013521354655620546
-0.0051237283593888764   -0.047249014528868066   -0.0013785282852495884
-0.00470979042931417   -0.04924193946880335   -0.0015632847336486814
-0.004185847278677889   -0.04927550217749936   -0.0014121917147187255
-0.005059914141701948   -0.04721911343773176   -0.0013207468926175437
-0.0045581028137178445   -0.04923005655041364   -0.0014289865297724318
-0.004077455651842909   -0.04929040609478712   -0.001336060444609229
-0.005059914141701948   -0.04721911343773176   -0.0013207468926175437
-0.006357668674318194   -0.04708781489147421   -0.0013521354655620546
-0.0045581028137178445   -0.04923005655041364   -0.0014289865297724318
-0.006273750159246025   -0.047096288010671686   -0.00123212018324525
-0.004077455651842909   -0.04929040609478712   -0.001336060444609229
-0.004415627852192567   -0.04925142934880196   -0.0012895506791778066
-0.006273750159246025   -0.047096288010671686   -0.00123212018324525
-0.0045581028137178445   -0.04923005655041364   -0.0014289865297724318
-0.004077455651842909   -0.04929040609478712   -0.001336060444609229
-0.006273750159246025   -0.047096288010671686   -0.00123212018324525
-0.004995865520740064   -0.04721792754792649   -0.0012573171530736833
-0.005059914141701948   -0.04721911343773176   -0.0013207468926175437
-0.004077455651842909   -0.04929040609478712   -0.001336060444609229
-0.006273750159246025   -0.047096288010671686   -0.00123212018324525
-0.005059914141701948   -0.04721911343773176   -0.0013207468926175437
-0.0045581028137178445   -0.04923005655041364   -0.0014289865297724318
-0.00482464549871357   -0.04929496793779373   -0.001688238700668293
-0.00652366785554826   -0.047164469022750295   -0.0015719826985553507
-0.005693624888111397   -0.049054016443740106   -0.0018386158187996269
-0.00470979042931417   -0.04924193946880335   -0.0015632847336486814
-0.00652366785554826   -0.047164469022750295   -0.0015719826985553507
-0.008253097548016466   -0.04692672678363899   -0.001707383265620624
-0.005693624888111397   -0.049054016443740106   -0.0018386158187996269
-0.008027435032387642   -0.04686812532282275   -0.0015374722231349582
-0.00470979042931417   -0.04924193946880335   -0.0015632847336486814
-0.005386829520586926   -0.04900910033884668   -0.0016336425111128582
-0.008027435032387642   -0.04686812532282275   -0.0015374722231349582
-0.005693624888111397   -0.049054016443740106   -0.0018386158187996269
-0.00470979042931417   -0.04924193946880335   -0.0015632847336486814
-0.008027435032387642   -0.04686812532282275   -0.0015374722231349582
-0.0064539732928800865   -0.04711055159174957   -0.0014643877791487784
-0.00652366785554826   -0.047164469022750295   -0.0015719826985553507
-0.00470979042931417   -0.04924193946880335   -0.0015632847336486814
-0.008027435032387642   -0.04686812532282275   -0.0015374722231349582
-0.00652366785554826   -0.047164469022750295   -0.0015719826985553507
-0.005693624888111397   -0.049054016443740106   -0.0018386158187996269
-0.00470979042931417   -0.04924193946880335   -0.0015632847336486814
-0.0064539732928800865   -0.04711055159174957   -0.0014643877791487784
-0.005386829520586926   -0.04900910033884668   -0.0016336425111128582
-0.0045581028137178445   -0.04923005655041364   -0.0014289865297724318
-0.0064539732928800865   -0.04711055159174957   -0.0014643877791487784
-0.008027435032387642   -0.04686812532282275   -0.0015374722231349582
-0.005386829520586926   -0.04900910033884668   -0.0016336425111128582
-0.007825407433604834   -0.04684709463642778   -0.0013577757589123844
-0.0045581028137178445   -0.04923005655041364   -0.0014289865297724318
-0.0051052435677908965   -0.049003083697651335   -0.0014149931032330686
-0.007825407433604834   -0.04684709463642778   -0.0013577757589123844
-0.005386829520586926   -0.04900910033884668   -0.0016336425111128582
-0.0045581028137178445   -0.04923005655041364   -0.0014289865297724318
-0.007825407433604834   -0.04684709463642778   -0.0013577757589123844
-0.006357668674318194   -0.04708781489147421   -0.0013521354655620546
-0.0064539732928800865   -0.04711055159174957   -0.0014643877791487784
-0.0045581028137178445   -0.04923005655041364   -0.0014289865297724318
-0.007825407433604834   -0.04684709463642778   -0.0013577757589123844
-0.0064539732928800865   -0.04711055159174957   -0.0014643877791487784
-0.005386829520586926   -0.04900910033884668   -0.0016336425111128582
-0.0045581028137178445   -0.04923005655041364   -0.0014289865297724318
-0.006357668674318194   -0.04708781489147421   -0.0013521354655620546
-0.0051052435677908965   -0.049003083697651335   -0.0014149931032330686
-0.004415627852192567   -0.04925142934880196   -0.0012895506791778066
-0.006357668674318194   -0.04708781489147421   -0.0013521354655620546
-0.007825407433604834   -0.04684709463642778   -0.0013577757589123844
-0.0051052435677908965   -0.049003083697651335   -0.0014149931032330686
-0.00756360123077597   -0.046874565354644265   -0.0011699916570047822
-0.004415627852192567   -0.04925142934880196   -0.0012895506791778066
-0.0047495754336826426   -0.04906197136966408   -0.0011864362739160005
-0.00756360123077597   -0.046874565354644265   -0.0011699916570047822
-0.0051052435677908965   -0.049003083697651335   -0.0014149931032330686
-0.004415627852192567   -0.04925142934880196   -0.0012895506791778066
-0.00756360123077597   -0.046874565354644265   -0.0011699916570047822
-0.006273750159246025   -0.047096288010671686   -0.00123212018324525
-0.006357668674318194   -0.04708781489147421   -0.0013521354655620546
-0.004415627852192567   -0.04925142934880196   -0.0012895506791778066
-0.00756360123077597   -0.046874565354644265   -0.0011699916570047822
-0.006357668674318194   -0.04708781489147421   -0.0013521354655620546
-0.0051052435677908965   -0.049003083697651335   -0.0014149931032330686
-0.001480426902165177   -0.04716246216455268   -0.000914072852187742
0.000223434071537938   -0.04377456893057229   -0.0007555962383296284
-0.002726251271891493   -0.04730536947124843   -0.0011147092440778419
-0.001284284836411556   -0.0470639869079897   -0.0010543566880756449
0.000223434071537938   -0.04377456893057229   -0.0007555962383296284
-0.0018832955461534078   -0.04387966136363116   -0.0009526622375515283
-0.002726251271891493   -0.04730536947124843   -0.0011147092440778419
-0.0018470233765748288   -0.04379630028611963   -0.0010017793116196127
-0.001284284836411556   -0.0470639869079897   -0.0010543566880756449
-0.0026580099920975775   -0.04722584613604041   -0.0011764863680730194
-0.0018470233765748288   -0.04379630028611963   -0.0010017793116196127
-0.002726251271891493   -0.04730536947124843   -0.0011147092440778419
-0.001284284836411556   -0.0470639869079897   -0.0010543566880756449
-0.0018470233765748288   -0.04379630028611963   -0.0010017793116196127
0.0003608106858598895   -0.04367446195010707   -0.0008675669534150658
0.000223434071537938   -0.04377456893057229   -0.0007555962383296284
-0.001284284836411556   -0.0470639869079897   -0.0010543566880756449
-0.0018470233765748288   -0.04379630028611963   -0.0010017793116196127
0.000223434071537938   -0.04377456893057229   -0.0007555962383296284
-0.002726251271891493   -0.04730536947124843   -0.0011147092440778419
-0.001284284836411556   -0.0470639869079897   -0.0010543566880756449
0.0003608106858598895   -0.04367446195010707   -0.0008675669534150658
-0.0026580099920975775   -0.04722584613604041   -0.0011764863680730194
-0.0011299351991670412   -0.04701747645711743   -0.0011864607978015855
0.0003608106858598895   -0.04367446195010707   -0.0008675669534150658
-0.0018470233765748288   -0.04379630028611963   -0.0010017793116196127
-0.0026580099920975775   -0.04722584613604041   -0.0011764863680730194
-0.0018056472383189653   -0.04374220201338698   -0.001045226652547338
-0.0011299351991670412   -0.04701747645711743   -0.0011864607978015855
-0.002581092372178881   -0.04718212644081401   -0.001232743107948604
-0.0018056472383189653   -0.04374220201338698   -0.001045226652547338
-0.0026580099920975775   -0.04722584613604041   -0.0011764863680730194
-0.0011299351991670412   -0.04701747645711743   -0.0011864607978015855
-0.0018056472383189653   -0.04374220201338698   -0.001045226652547338
0.00046190941180934903   -0.043617017189799025   -0.0009716015220066107
0.0003608106858598895   -0.04367446195010707   -0.0008675669534150658
-0.0011299351991670412   -0.04701747645711743   -0.0011864607978015855
-0.0018056472383189653   -0.04374220201338698   -0.001045226652547338
0.0003608106858598895   -0.04367446195010707   -0.0008675669534150658
-0.0026580099920975775   -0.04722584613604041   -0.0011764863680730194
-0.0011299351991670412   -0.04701747645711743   -0.0011864607978015855
0.00046190941180934903   -0.043617017189799025   -0.0009716015220066107
-0.002581092372178881   -0.04718212644081401   -0.001232743107948604
-0.000961163299993735   -0.04700949284139114   -0.0013100433135187057
0.00046190941180934903   -0.043617017189799025   -0.0009716015220066107
-0.0018056472383189653   -0.04374220201338698   -0.001045226652547338
-0.002581092372178881   -0.04718212644081401   -0.001232743107948604
-0.0017809014062680985   -0.04371575362058258   -0.0010835645462984992
-0.000961163299993735   -0.04700949284139114   -0.0013100433135187057
-0.002522146210589853   -0.04717298469521011   -0.0012836589097409217
-0.0017809014062680985   -0.04371575362058258   -0.0010835645462984992
-0.002581092372178881   -0.04718212644081401   -0.001232743107948604
-0.000961163299993735   -0.04700949284139114   -0.0013100433135187057
-0.0017809014062680985   -0.04371575362058258   -0.0010835645462984992
0.0005703353927278079   -0.04358930624355779   -0.0010676643775316937
0.00046190941180934903   -0.043617017189799025   -0.0009716015220066107
-0.000961163299993735   -0.04700949284139114   -0.0013100433135187057
-0.0017809014062680985   -0.04371575362058258   -0.0010835645462984992
0.00046190941180934903   -0.043617017189799025   -0.0009716015220066107
-0.002581092372178881   -0.04718212644081401   -0.001232743107948604
-0.002726251271891493   -0.04730536947124843   -0.0011147092440778419
-0.0018832955461534078   -0.04387966136363116   -0.0009526622375515283
-0.00395756745681013   -0.047355650274417044   -0.0012782135292952266
-0.0026580099920975775   -0.04722584613604041   -0.0011764863680730194
-0.0018832955461534078   -0.04387966136363116   -0.0009526622375515283
-0.003922731941945277   -0.043899797875098734   -0.0011148271208533452
-0.00395756745681013   -0.047355650274417044   -0.0012782135292952266
-0.003896120845901648   -0.04382828849961381   -0.0011160303548651822
-0.0026580099920975775   -0.04722584613604041   -0.0011764863680730194
-0.0039002482449394804   -0.04728628538490392   -0.0012815333866479308
-0.003896120845901648   -0.04382828849961381   -0.0011160303548651822
-0.00395756745681013   -0.047355650274417044   -0.0012782135292952266
-0.0026580099920975775   -0.04722584613604041   -0.0011764863680730194
-0.003896120845901648   -0.04382828849961381   -0.0011160303548651822
-0.0018470233765748288   -0.04379630028611963   -0.0010017793116196127
-0.0018832955461534078   -0.04387966136363116   -0.0009526622375515283
-0.0026580099920975775   -0.04722584613604041   -0.0011764863680730194
-0.003896120845901648   -0.04382828849961381   -0.0011160303548651822
-0.0018832955461534078   -0.04387966136363116   -0.0009526622375515283
-0.00395756745681013   -0.047355650274417044   -0.0012782135292952266
-0.0026580099920975775   -0.04722584613604041   -0.0011764863680730194
-0.0018470233765748288   -0.04379630028611963   -0.0010017793116196127
-0.0039002482449394804   -0.04728628538490392   -0.0012815333866479308
-0.002581092372178881   -0.04718212644081401   -0.001232743107948604
-0.0018470233765748288   -0.04379630028611963   -0.0010017793116196127
-0.003896120845901648   -0.04382828849961381   -0.0011160303548651822
-0.0039002482449394804   -0.04728628538490392   -0.0012815333866479308
-0.003868747258660367   -0.04378296562029559   -0.0011117986003391306
-0.002581092372178881   -0.04718212644081401   -0.001232743107948604
-0.003840954139606131   -0.047249191448595816   -0.0012797393938507706
-0.003868747258660367   -0.04378296562029559   -0.0011117986003391306
-0.0039002482449394804   -0.04728628538490392   -0.0012815333866479308
-0.002581092372178881   -0.04718212644081401   -0.001232743107948604
-0.003868747258660367   -0.04378296562029559   -0.0011117986003391306
-0.0018056472383189653   -0.04374220201338698   -0.001045226652547338
-0.0018470233765748288   -0.04379630028611963   -0.0010017793116196127
-0.002581092372178881   -0.04718212644081401   -0.001232743107948604
-0.003868747258660367   -0.04378296562029559   -0.0011117986003391306
-0.0018470233765748288   -0.04379630028611963   -0.0010017793116196127
-0.0039002482449394804   -0.04728628538490392   -0.0012815333866479308
-0.002581092372178881   -0.04718212644081401   -0.001232743107948604
-0.0018056472383189653   -0.04374220201338698   -0.001045226652547338
-0.003840954139606131   -0.047249191448595816   -0.0012797393938507706
-0.002522146210589853   -0.04717298469521011   -0.0012836589097409217
-0.0018056472383189653   -0.04374220201338698   -0.001045226652547338
-0.003868747258660367   -0.04378296562029559   -0.0011117986003391306
-0.003840954139606131   -0.047249191448595816   -0.0012797393938507706
-0.003844808718552331   -0.043763405296664414   -0.0011024981429060064
-0.002522146210589853   -0.04717298469521011   -0.0012836589097409217
-0.0037837835778481155   -0.04724283646716029   -0.001272789698759784
-0.003844808718552331   -0.043763405296664414   -0.0011024981429060064
-0.003840954139606131   -0.047249191448595816   -0.0012797393938507706
-0.002522146210589853   -0.04717298469521011   -0.0012836589097409217
-0.003844808718552331   -0.043763405296664414   -0.0011024981429060064
-0.0017809014062680985   -0.04371575362058258   -0.0010835645462984992
-0.0018056472383189653   -0.04374220201338698   -0.001045226652547338
-0.002522146210589853   -0.04717298469521011   -0.0012836589097409217
-0.003844808718552331   -0.043763405296664414   -0.0011024981429060064
-0.0018056472383189653   -0.04374220201338698   -0.001045226652547338
-0.003840954139606131   -0.047249191448595816   -0.0012797393938507706
-0.00395756745681013   -0.047355650274417044   -0.0012782135292952266
-0.003922731941945277   -0.043899797875098734   -0.0011148271208533452
-0.005180594149884106   -0.047310652115287156   -0.001431274315343425
-0.0039002482449394804   -0.04728628538490392   -0.0012815333866479308
-0.003922731941945277   -0.043899797875098734   -0.0011148271208533452
-0.005930404840350675   -0.043834712669047794   -0.001261186933059429
-0.005180594149884106   -0.047310652115287156   -0.001431274315343425
-0.005905635245322825   -0.04377303233210149   -0.0012156280701189365
-0.0039002482449394804   -0.04728628538490392   -0.0012815333866479308
-0.0051237283593888764   -0.047249014528868066   -0.0013785282852495884
-0.005905635245322825   -0.04377303233210149   -0.0012156280701189365
-0.005180594149884106   -0.047310652115287156   -0.001431274315343425
-0.0039002482449394804   -0.04728628538490392   -0.0012815333866479308
-0.005905635245322825   -0.04377303233210149   -0.0012156280701189365
-0.003896120845901648   -0.04382828849961381   -0.0011160303548651822
-0.003922731941945277   -0.043899797875098734   -0.0011148271208533452
-0.0039002482449394804   -0.04728628538490392   -0.0012815333866479308
-0.005905635245322825   -0.04377303233210149   -0.0012156280701189365
-0.003922731941945277   -0.043899797875098734   -0.0011148271208533452
-0.005180594149884106   -0.047310652115287156   -0.001431274315343425
-0.0039002482449394804   -0.04728628538490392   -0.0012815333866479308
-0.003896120845901648   -0.04382828849961381   -0.0011160303548651822
-0.0051237283593888764   -0.047249014528868066   -0.0013785282852495884
-0.003840954139606131   -0.047249191448595816   -0.0012797393938507706
-0.003896120845901648   -0.04382828849961381   -0.0011160303548651822
-0.005905635245322825   -0.04377303233210149   -0.0012156280701189365
-0.0051237283593888764   -0.047249014528868066   -0.0013785282852495884
-0.005875699113002885   -0.043737251945871504   -0.0011647545866203901
-0.003840954139606131   -0.047249191448595816   -0.0012797393938507706
-0.005059914141701948   -0.04721911343773176   -0.0013207468926175437
-0.005875699113002885   -0.043737251945871504   -0.0011647545866203901
-0.0051237283593888764   -0.047249014528868066   -0.0013785282852495884
-0.003840954139606131   -0.047249191448595816   -0.0012797393938507706
-0.005875699113002885   -0.043737251945871504   -0.0011647545866203901
-0.003868747258660367   -0.04378296562029559   -0.0011117986003391306
-0.003896120845901648   -0.04382828849961381   -0.0011160303548651822
-0.003840954139606131   -0.047249191448595816   -0.0012797393938507706
-0.005875699113002885   -0.043737251945871504   -0.0011647545866203901
-0.003896120845901648   -0.04382828849961381   -0.0011160303548651822
-0.0051237283593888764   -0.047249014528868066   -0.0013785282852495884
-0.003840954139606131   -0.047249191448595816   -0.0012797393938507706
-0.003868747258660367   -0.04378296562029559   -0.0011117986003391306
-0.005059914141701948   -0.04721911343773176   -0.0013207468926175437
-0.0037837835778481155   -0.04724283646716029   -0.001272789698759784
-0.003868747258660367   -0.04378296562029559   -0.0011117986003391306
-0.005875699113002885   -0.043737251945871504   -0.0011647545866203901
-0.005059914141701948   -0.04721911343773176   -0.0013207468926175437
-0.005846601469343012   -0.0437261835026564   -0.0011087295487250267
-0.0037837835778481155   -0.04724283646716029   -0.001272789698759784
-0.004995865520740064   -0.04721792754792649   -0.0012573171530736833
-0.005846601469343012   -0.0437261835026564   -0.0011087295487250267
-0.005059914141701948   -0.04721911343773176   -0.0013207468926175437
-0.0037837835778481155   -0.04724283646716029   -0.001272789698759784
-0.005846601469343012   -0.0437261835026564   -0.0011087295487250267
-0.003844808718552331   -0.043763405296664414   -0.0011024981429060064
-0.003868747258660367   -0.04378296562029559   -0.0011117986003391306
-0.0037837835778481155   -0.04724283646716029   -0.001272789698759784
-0.005846601469343012   -0.0437261835026564   -0.0011087295487250267
-0.003868747258660367   -0.04378296562029559   -0.0011117986003391306
-0.005059914141701948   -0.04721911343773176   -0.0013207468926175437
-0.005180594149884106   -0.047310652115287156   -0.001431274315343425
-0.005930404840350675   -0.043834712669047794   -0.001261186933059429
-0.00652366785554826   -0.047164469022750295   -0.0015719826985553507
-0.0051237283593888764   -0.047249014528868066   -0.0013785282852495884
-0.005930404840350675   -0.043834712669047794   -0.001261186933059429
-0.008033974262257607   -0.0436866714699972   -0.0013912327616508037
-0.00652366785554826   -0.047164469022750295   -0.0015719826985553507
-0.00800153403344404   -0.043634347823841874   -0.0012988393680645322
-0.0051237283593888764   -0.047249014528868066   -0.0013785282852495884
-0.0064539732928800865   -0.04711055159174957   -0.0014643877791487784
-0.00800153403344404   -0.043634347823841874   -0.0012988393680645322
-0.00652366785554826   -0.047164469022750295   -0.0015719826985553507
-0.0051237283593888764   -0.047249014528868066   -0.0013785282852495884
-0.00800153403344404   -0.043634347823841874   -0.0012988393680645322
-0.005905635245322825   -0.04377303233210149   -0.0012156280701189365
-0.005930404840350675   -0.043834712669047794   -0.001261186933059429
-0.0051237283593888764   -0.047249014528868066   -0.0013785282852495884
-0.00800153403344404   -0.043634347823841874   -0.0012988393680645322
-0.005930404840350675   -0.043834712669047794   -0.001261186933059429
-0.00652366785554826   -0.047164469022750295   -0.0015719826985553507
-0.0051237283593888764   -0.047249014528868066   -0.0013785282852495884
-0.005905635245322825   -0.04377303233210149   -0.0012156280701189365
-0.0064539732928800865   -0.04711055159174957   -0.0014643877791487784
-0.005059914141701948   -0.04721911343773176   -0.0013207468926175437
-0.005905635245322825   -0.04377303233210149   -0.0012156280701189365
-0.00800153403344404   -0.043634347823841874   -0.0012988393680645322
-0.0064539732928800865   -0.04711055159174957   -0.0014643877791487784
-0.007946491742681357   -0.043607218455914566   -0.0012019519738410709
-0.005059914141701948   -0.04721911343773176   -0.0013207468926175437
-0.006357668674318194   -0.04708781489147421   -0.0013521354655620546
-0.007946491742681357   -0.043607218455914566   -0.0012019519738410709
-0.0064539732928800865   -0.04711055159174957   -0.0014643877791487784
-0.005059914141701948   -0.04721911343773176   -0.0013207468926175437
-0.007946491742681357   -0.043607218455914566   -0.0012019519738410709
-0.005875699113002885   -0.043737251945871504   -0.0011647545866203901
-0.005905635245322825   -0.04377303233210149   -0.0012156280701189365
-0.005059914141701948   -0.04721911343773176   -0.0013207468926175437
-0.007946491742681357   -0.043607218455914566   -0.0012019519738410709
-0.005905635245322825   -0.04377303233210149   -0.0012156280701189365
-0.0064539732928800865   -0.04711055159174957   -0.0014643877791487784
-0.005059914141701948   -0.04721911343773176   -0.0013207468926175437
-0.005875699113002885   -0.043737251945871504   -0.0011647545866203901
-0.006357668674318194   -0.04708781489147421   -0.0013521354655620546
-0.004995865520740064   -0.04721792754792649   -0.0012573171530736833
-0.005875699113002885   -0.043737251945871504   -0.0011647545866203901
-0.007946491742681357   -0.043607218455914566   -0.0012019519738410709
-0.006357668674318194   -0.04708781489147421   -0.0013521354655620546
-0.007901881743217792   -0.043606737786704576   -0.0010991610581549377
-0.004995865520740064   -0.04721792754792649   -0.0012573171530736833
-0.006273750159246025   -0.047096288010671686   -0.00123212018324525
-0.007901881743217792   -0.043606737786704576   -0.0010991610581549377
-0.006357668674318194   -0.04708781489147421   -0.0013521354655620546
-0.004995865520740064   -0.04721792754792649   -0.0012573171530736833
-0.007901881743217792   -0.043606737786704576   -0.0010991610581549377
-0.005846601469343012   -0.0437261835026564   -0.0011087295487250267
-0.005875699113002885   -0.043737251945871504   -0.0011647545866203901
-0.004995865520740064   -0.04721792754792649   -0.0012573171530736833
-0.007901881743217792   -0.043606737786704576   -0.0010991610581549377
-0.005875699113002885   -0.043737251945871504   -0.0011647545866203901
-0.006357668674318194   -0.04708781489147421   -0.0013521354655620546
-0.00652366785554826   -0.047164469022750295   -0.0015719826985553507
-0.008033974262257607   -0.0436866714699972   -0.0013912327616508037
-0.008253097548016466   -0.04692672678363899   -0.001707383265620624
-0.0064539732928800865   -0.04711055159174957   -0.0014643877791487784
-0.008033974262257607   -0.0436866714699972   -0.0013912327616508037
-0.010487021554757113   -0.043473242457811735   -0.001512725094749973
-0.008253097548016466   -0.04692672678363899   -0.001707383265620624
-0.010320037882949058   -0.043418563525517276   -0.0013680502108242441
-0.0064539732928800865   -0.04711055159174957   -0.0014643877791487784
-0.008027435032387642   -0.04686812532282275   -0.0015374722231349582
-0.010320037882949058   -0.043418563525517276   -0.0013680502108242441
-0.008253097548016466   -0.04692672678363899   -0.001707383265620624
-0.0064539732928800865   -0.04711055159174957   -0.0014643877791487784
-0.010320037882949058   -0.043418563525517276   -0.0013680502108242441
-0.00800153403344404   -0.043634347823841874   -0.0012988393680645322
-0.008033974262257607   -0.0436866714699972   -0.0013912327616508037
-0.0064539732928800865   -0.04711055159174957   -0.0014643877791487784
-0.010320037882949058   -0.043418563525517276   -0.0013680502108242441
-0.008033974262257607   -0.0436866714699972   -0.0013912327616508037
-0.008253097548016466   -0.04692672678363899   -0.001707383265620624
-0.0064539732928800865   -0.04711055159174957   -0.0014643877791487784
-0.00800153403344404   -0.043634347823841874   -0.0012988393680645322
-0.008027435032387642   -0.04686812532282275   -0.0015374722231349582
-0.006357668674318194   -0.04708781489147421   -0.0013521354655620546
-0.00800153403344404   -0.043634347823841874   -0.0012988393680645322
-0.010320037882949058   -0.043418563525517276   -0.0013680502108242441
-0.008027435032387642   -0.04686812532282275   -0.0015374722231349582
-0.010175266588117099   -0.04339378346410123   -0.0012159540768942993
-0.006357668674318194   -0.04708781489147421   -0.0013521354655620546
-0.007825407433604834   -0.04684709463642778   -0.0013577757589123844
-0.010175266588117099   -0.04339378346410123   -0.0012159540768942993
-0.008027435032387642   -0.04686812532282275   -0.0015374722231349582
-0.006357668674318194   -0.04708781489147421   -0.0013521354655620546
-0.010175266588117099   -0.04339378346410123   -0.0012159540768942993
-0.007946491742681357   -0.043607218455914566   -0.0012019519738410709
-0.00800153403344404   -0.043634347823841874   -0.0012988393680645322
-0.006357668674318194   -0.04708781489147421   -0.0013521354655620546
-0.010175266588117099   -0.04339378346410123   -0.0012159540768942993
-0.00800153403344404   -0.043634347823841874   -0.0012988393680645322
-0.008027435032387642   -0.04686812532282275   -0.0015374722231349582
-0.006357668674318194   -0.04708781489147421   -0.0013521354655620546
-0.007946491742681357   -0.043607218455914566   -0.0012019519738410709
-0.007825407433604834   -0.04684709463642778   -0.0013577757589123844
-0.006273750159246025   -0.047096288010671686   -0.00123212018324525
-0.007946491742681357   -0.043607218455914566   -0.0012019519738410709
-0.010175266588117099   -0.04339378346410123   -0.0012159540768942993
-0.007825407433604834   -0.04684709463642778   -0.0013577757589123844
-0.009980288029542957   -0.04340969512943276   -0.0010574036962711694
-0.006273750159246025   -0.047096288010671686   -0.00123212018324525
-0.00756360123077597   -0.046874565354644265   -0.0011699916570047822
-0.009980288029542957   -0.04340969512943276   -0.0010574036962711694
-0.007825407433604834   -0.04684709463642778   -0.0013577757589123844
-0.006273750159246025   -0.047096288010671686   -0.00123212018324525
-0.009980288029542957   -0.04340969512943276   -0.0010574036962711694
-0.007901881743217792   -0.043606737786704576   -0.0010991610581549377
-0.007946491742681357   -0.043607218455914566   -0.0012019519738410709
-0.006273750159246025   -0.047096288010671686   -0.00123212018324525
-0.009980288029542957   -0.04340969512943276   -0.0010574036962711694
-0.007946491742681357   -0.043607218455914566   -0.0012019519738410709
-0.007825407433604834   -0.04684709463642778   -0.0013577757589123844
0.000223434071537938   -0.04377456893057229   -0.0007555962383296284
0.0015206170960257535   -0.03916567104871752   -0.0005756121411404962
-0.0018832955461534078   -0.04387966136363116   -0.0009526622375515283
0.0003608106858598895   -0.04367446195010707   -0.0008675669534150658
0.0015206170960257535   -0.03916567104871752   -0.0005756121411404962
-0.0012729454113833533   -0.0392353985390435   -0.0007637533308981399
-0.0018832955461534078   -0.04387966136363116   -0.0009526622375515283
-0.0012652571413537914   -0.03915247952256865   -0.0007979215685908598
0.0003608106858598895   -0.04367446195010707   -0.0008675669534150658
-0.0018470233765748288   -0.04379630028611963   -0.0010017793116196127
-0.0012652571413537914   -0.03915247952256865   -0.0007979215685908598
-0.0018832955461534078   -0.04387966136363116   -0.0009526622375515283
0.0003608106858598895   -0.04367446195010707   -0.0008675669534150658
-0.0012652571413537914   -0.03915247952256865   -0.0007979215685908598
0.0016026645359971177   -0.039067948873928386   -0.0006586867588342998
0.0015206170960257535   -0.03916567104871752   -0.0005756121411404962
0.0003608106858598895   -0.04367446195010707   -0.0008675669534150658
-0.0012652571413537914   -0.03915247952256865   -0.0007979215685908598
0.0015206170960257535   -0.03916567104871752   -0.0005756121411404962
-0.0018832955461534078   -0.04387966136363116   -0.0009526622375515283
0.0003608106858598895   -0.04367446195010707   -0.0008675669534150658
0.0016026645359971177   -0.039067948873928386   -0.0006586867588342998
-0.0018470233765748288   -0.04379630028611963   -0.0010017793116196127
0.00046190941180934903   -0.043617017189799025   -0.0009716015220066107
0.0016026645359971177   -0.039067948873928386   -0.0006586867588342998
-0.0012652571413537914   -0.03915247952256865   -0.0007979215685908598
-0.0018470233765748288   -0.04379630028611963   -0.0010017793116196127
-0.0012554549321845332   -0.03909270221354479   -0.0008268959334671692
0.00046190941180934903   -0.043617017189799025   -0.0009716015220066107
-0.0018056472383189653   -0.04374220201338698   -0.001045226652547338
-0.0012554549321845332   -0.03909270221354479   -0.0008268959334671692
-0.0018470233765748288   -0.04379630028611963   -0.0010017793116196127
0.00046190941180934903   -0.043617017189799025   -0.0009716015220066107
-0.0012554549321845332   -0.03909270221354479   -0.0008268959334671692
0.0016552422784152571   -0.0390042317309984   -0.0007344187307203845
0.0016026645359971177   -0.039067948873928386   -0.0006586867588342998
0.00046190941180934903   -0.043617017189799025   -0.0009716015220066107
-0.0012554549321845332   -0.03909270221354479   -0.0008268959334671692
0.0016026645359971177   -0.039067948873928386   -0.0006586867588342998
-0.0018470233765748288   -0.04379630028611963   -0.0010017793116196127
0.00046190941180934903   -0.043617017189799025   -0.0009716015220066107
0.0016552422784152571   -0.0390042317309984   -0.0007344187307203845
-0.0018056472383189653   -0.04374220201338698   -0.001045226652547338
0.0005703353927278079   -0.04358930624355779   -0.0010676643775316937
0.0016552422784152571   -0.0390042317309984   -0.0007344187307203845
-0.0012554549321845332   -0.03909270221354479   -0.0008268959334671692
-0.0018056472383189653   -0.04374220201338698   -0.001045226652547338
-0.0012598770610578983   -0.039054135033112   -0.0008510548003082451
0.0005703353927278079   -0.04358930624355779   -0.0010676643775316937
-0.0017809014062680985   -0.04371575362058258   -0.0010835645462984992
-0.0012598770610578983   -0.039054135033112   -0.0008510548003082451
-0.0018056472383189653   -0.04374220201338698   -0.001045226652547338
0.0005703353927278079   -0.04358930624355779   -0.0010676643775316937
-0.0012598770610578983   -0.039054135033112   -0.0008510548003082451
0.0017094109711531255   -0.038962051275059834   -0.000802964697055346
0.0016552422784152571   -0.0390042317309984   -0.0007344187307203845
0.0005703353927278079   -0.04358930624355779   -0.0010676643775316937
-0.0012598770610578983   -0.039054135033112   -0.0008510548003082451
0.0016552422784152571   -0.0390042317309984   -0.0007344187307203845
-0.0018056472383189653   -0.04374220201338698   -0.001045226652547338
-0.0018832955461534078   -0.04387966136363116   -0.0009526622375515283
-0.0012729454113833533   -0.0392353985390435   -0.0007637533308981399
-0.003922731941945277   -0.043899797875098734   -0.0011148271208533452
-0.0018470233765748288   -0.04379630028611963   -0.0010017793116196127
-0.0012729454113833533   -0.0392353985390435   -0.0007637533308981399
-0.003962293839999458   -0.03923589990453703   -0.0009186538892538653
-0.003922731941945277   -0.043899797875098734   -0.0011148271208533452
-0.003962569165258052   -0.03916583116585781   -0.0009154214226083611
-0.0018470233765748288   -0.04379630028611963   -0.0010017793116196127
-0.003896120845901648   -0.04382828849961381   -0.0011160303548651822
-0.003962569165258052   -0.03916583116585781   -0.0009154214226083611
-0.003922731941945277   -0.043899797875098734   -0.0011148271208533452
-0.0018470233765748288   -0.04379630028611963   -0.0010017793116196127
-0.003962569165258052   -0.03916583116585781   -0.0009154214226083611
-0.0012652571413537914   -0.03915247952256865   -0.0007979215685908598
-0.0012729454113833533   -0.0392353985390435   -0.0007637533308981399
-0.0018470233765748288   -0.04379630028611963   -0.0010017793116196127
-0.003962569165258052   -0.03916583116585781   -0.0009154214226083611
-0.0012729454113833533   -0.0392353985390435   -0.0007637533308981399
-0.003922731941945277   -0.043899797875098734   -0.0011148271208533452
-0.0018470233765748288   -0.04379630028611963   -0.0010017793116196127
-0.0012652571413537914   -0.03915247952256865   -0.0007979215685908598
-0.003896120845901648   -0.04382828849961381   -0.0011160303548651822
-0.0018056472383189653   -0.04374220201338698   -0.001045226652547338
-0.0012652571413537914   -0.03915247952256865   -0.0007979215685908598
-0.003962569165258052   -0.03916583116585781   -0.0009154214226083611
-0.003896120845901648   -0.04382828849961381   -0.0011160303548651822
-0.0039626595850246   -0.03911615857542124   -0.0009070122225026131
-0.0018056472383189653   -0.04374220201338698   -0.001045226652547338
-0.003868747258660367   -0.04378296562029559   -0.0011117986003391306
-0.0039626595850246   -0.03911615857542124   -0.0009070122225026131
-0.003896120845901648   -0.04382828849961381   -0.0011160303548651822
-0.0018056472383189653   -0.04374220201338698   -0.001045226652547338
-0.0039626595850246   -0.03911615857542124   -0.0009070122225026131
-0.0012554549321845332   -0.03909270221354479   -0.0008268959334671692
-0.0012652571413537914   -0.03915247952256865   -0.0007979215685908598
-0.0018056472383189653   -0.04374220201338698   -0.001045226652547338
-0.0039626595850246   -0.03911615857542124   -0.0009070122225026131
-0.0012652571413537914   -0.03915247952256865   -0.0007979215685908598
-0.003896120845901648   -0.04382828849961381   -0.0011160303548651822
-0.0018056472383189653   -0.04374220201338698   -0.001045226652547338
-0.0012554549321845332   -0.03909270221354479   -0.0008268959334671692
-0.003868747258660367   -0.04378296562029559   -0.0011117986003391306
-0.0017809014062680985   -0.04371575362058258   -0.0010835645462984992
-0.0012554549321845332   -0.03909270221354479   -0.0008268959334671692
-0.0039626595850246   -0.03911615857542124   -0.0009070122225026131
-0.003868747258660367   -0.04378296562029559   -0.0011117986003391306
-0.003966337444488319   -0.03908691947881702   -0.0008936988667244514
-0.0017809014062680985   -0.04371575362058258   -0.0010835645462984992
-0.003844808718552331   -0.043763405296664414   -0.0011024981429060064
-0.003966337444488319   -0.03908691947881702   -0.0008936988667244514
-0.003868747258660367   -0.04378296562029559   -0.0011117986003391306
-0.0017809014062680985   -0.04371575362058258   -0.0010835645462984992
-0.003966337444488319   -0.03908691947881702   -0.0008936988667244514
-0.0012598770610578983   -0.039054135033112   -0.0008510548003082451
-0.0012554549321845332   -0.03909270221354479   -0.0008268959334671692
-0.0017809014062680985   -0.04371575362058258   -0.0010835645462984992
-0.003966337444488319   -0.03908691947881702   -0.0008936988667244514
-0.0012554549321845332   -0.03909270221354479   -0.0008268959334671692
-0.003868747258660367   -0.04378296562029559   -0.0011117986003391306
-0.003922731941945277   -0.043899797875098734   -0.0011148271208533452
-0.003962293839999458   -0.03923589990453703   -0.0009186538892538653
-0.005930404840350675   -0.043834712669047794   -0.001261186933059429
-0.003896120845901648   -0.04382828849961381   -0.0011160303548651822
-0.003962293839999458   -0.03923589990453703   -0.0009186538892538653
-0.006606237874917767   -0.03916885279972566   -0.0010542591486410583
-0.005930404840350675   -0.043834712669047794   -0.001261186933059429
-0.0066085131471073375   -0.03911004798376502   -0.0010140807624485011
-0.003896120845901648   -0.04382828849961381   -0.0011160303548651822
-0.005905635245322825   -0.04377303233210149   -0.0012156280701189365
-0.0066085131471073375   -0.03911004798376502   -0.0010140807624485011
-0.005930404840350675   -0.043834712669047794   -0.001261186933059429
-0.003896120845901648   -0.04382828849961381   -0.0011160303548651822
-0.0066085131471073375   -0.03911004798376502   -0.0010140807624485011
-0.003962569165258052   -0.03916583116585781   -0.0009154214226083611
-0.003962293839999458   -0.03923589990453703   -0.0009186538892538653
-0.003896120845901648   -0.04382828849961381   -0.0011160303548651822
-0.0066085131471073375   -0.03911004798376502   -0.0010140807624485011
-0.003962293839999458   -0.03923589990453703   -0.0009186538892538653
-0.005930404840350675   -0.043834712669047794   -0.001261186933059429
-0.003896120845901648   -0.04382828849961381   -0.0011160303548651822
-0.003962569165258052   -0.03916583116585781   -0.0009154214226083611
-0.005905635245322825   -0.04377303233210149   -0.0012156280701189365
-0.003868747258660367   -0.04378296562029559   -0.0011117986003391306
-0.003962569165258052   -0.03916583116585781   -0.0009154214226083611
-0.0066085131471073375   -0.03911004798376502   -0.0010140807624485011
-0.005905635245322825   -0.04377303233210149   -0.0012156280701189365
-0.006606289787666364   -0.03907145926418553   -0.0009688282386711312
-0.003868747258660367   -0.04378296562029559   -0.0011117986003391306
-0.005875699113002885   -0.043737251945871504   -0.0011647545866203901
-0.006606289787666364   -0.03907145926418553   -0.0009688282386711312
-0.005905635245322825   -0.04377303233210149   -0.0012156280701189365
-0.003868747258660367   -0.04378296562029559   -0.0011117986003391306
-0.006606289787666364   -0.03907145926418553   -0.0009688282386711312
-0.0039626595850246   -0.03911615857542124   -0.0009070122225026131
-0.003962569165258052   -0.03916583116585781   -0.0009154214226083611
-0.003868747258660367   -0.04378296562029559   -0.0011117986003391306
-0.006606289787666364   -0.03907145926418553   -0.0009688282386711312
-0.003962569165258052   -0.03916583116585781   -0.0009154214226083611
-0.005905635245322825   -0.04377303233210149   -0.0012156280701189365
-0.003868747258660367   -0.04378296562029559   -0.0011117986003391306
-0.0039626595850246   -0.03911615857542124   -0.0009070122225026131
-0.005875699113002885   -0.043737251945871504   -0.0011647545866203901
-0.003844808718552331   -0.043763405296664414   -0.0011024981429060064
-0.0039626595850246   -0.03911615857542124   -0.0009070122225026131
-0.006606289787666364   -0.03907145926418553   -0.0009688282386711312
-0.005875699113002885   -0.043737251945871504   -0.0011647545866203901
-0.006604887070670522   -0.03905273571951128   -0.0009186484978981621
-0.003844808718552331   -0.043763405296664414   -0.0011024981429060064
-0.005846601469343012   -0.0437261835026564   -0.0011087295487250267
-0.006604887070670522   -0.03905273571951128   -0.0009186484978981621
-0.005875699113002885   -0.043737251945871504   -0.0011647545866203901
-0.003844808718552331   -0.043763405296664414   -0.0011024981429060064
-0.006604887070670522   -0.03905273571951128   -0.0009186484978981621
-0.003966337444488319   -0.03908691947881702   -0.0008936988667244514
-0.0039626595850246   -0.03911615857542124   -0.0009070122225026131
-0.003844808718552331   -0.043763405296664414   -0.0011024981429060064
-0.006604887070670522   -0.03905273571951128   -0.0009186484978981621
-0.0039626595850246   -0.03911615857542124   -0.0009070122225026131
-0.005875699113002885   -0.043737251945871504   -0.0011647545866203901
-0.005930404840350675   -0.043834712669047794   -0.001261186933059429
-0.006606237874917767   -0.03916885279972566   -0.0010542591486410583
-0.008033974262257607   -0.0436866714699972   -0.0013912327616508037
-0.005905635245322825   -0.04377303233210149   -0.0012156280701189365
-0.006606237874917767   -0.03916885279972566   -0.0010542591486410583
-0.009332412852381766   -0.03903676276052876   -0.0011708631864708126
-0.008033974262257607   -0.0436866714699972   -0.0013912327616508037
-0.009329085062996784   -0.03898872180020585   -0.0010932953477228577
-0.005905635245322825   -0.04377303233210149   -0.0012156280701189365
-0.00800153403344404   -0.043634347823841874   -0.0012988393680645322
-0.009329085062996784   -0.03898872180020585   -0.0010932953477228577
-0.008033974262257607   -0.0436866714699972   -0.0013912327616508037
-0.005905635245322825   -0.04377303233210149   -0.0012156280701189365
-0.009329085062996784   -0.03898872180020585   -0.0010932953477228577
-0.0066085131471073375   -0.03911004798376502   -0.0010140807624485011
-0.006606237874917767   -0.03916885279972566   -0.0010542591486410583
-0.005905635245322825   -0.04377303233210149   -0.0012156280701189365
-0.009329085062996784   -0.03898872180020585   -0.0010932953477228577
-0.006606237874917767   -0.03916885279972566   -0.0010542591486410583
-0.008033974262257607   -0.0436866714699972   -0.0013912327616508037
-0.005905635245322825   -0.04377303233210149   -0.0012156280701189365
-0.0066085131471073375   -0.03911004798376502   -0.0010140807624485011
-0.00800153403344404   -0.043634347823841874   -0.0012988393680645322
-0.005875699113002885   -0.043737251945871504   -0.0011647545866203901
-0.0066085131471073375   -0.03911004798376502   -0.0010140807624485011
-0.009329085062996784   -0.03898872180020585   -0.0010932953477228577
-0.00800153403344404   -0.043634347823841874   -0.0012988393680645322
-0.00930607261027471   -0.03896018427928277   -0.0010114196615322417
-0.005875699113002885   -0.043737251945871504   -0.0011647545866203901
-0.007946491742681357   -0.043607218455914566   -0.0012019519738410709
-0.00930607261027471   -0.03896018427928277   -0.0010114196615322417
-0.00800153403344404   -0.043634347823841874   -0.0012988393680645322
-0.005875699113002885   -0.043737251945871504   -0.0011647545866203901
-0.00930607261027471   -0.03896018427928277   -0.0010114196615322417
-0.006606289787666364   -0.03907145926418553   -0.0009688282386711312
-0.0066085131471073375   -0.03911004798376502   -0.0010140807624485011
-0.005875699113002885   -0.043737251945871504   -0.0011647545866203901
-0.00930607261027471   -0.03896018427928277   -0.0010114196615322417
-0.0066085131471073375   -0.03911004798376502   -0.0010140807624485011
-0.00800153403344404   -0.043634347823841874   -0.0012988393680645322
-0.005875699113002885   -0.043737251945871504   -0.0011647545866203901
-0.006606289787666364   -0.03907145926418553   -0.0009688282386711312
-0.007946491742681357   -0.043607218455914566   -0.0012019519738410709
-0.005846601469343012   -0.0437261835026564   -0.0011087295487250267
-0.006606289787666364   -0.03907145926418553   -0.0009688282386711312
-0.00930607261027471   -0.03896018427928277   -0.0010114196615322417
-0.007946491742681357   -0.043607218455914566   -0.0012019519738410709
-0.00929072745741344   -0.03895318560279975   -0.0009242185619779682
-0.005846601469343012   -0.0437261835026564   -0.0011087295487250267
-0.007901881743217792   -0.043606737786704576   -0.0010991610581549377
-0.00929072745741344   -0.03895318560279975   -0.0009242185619779682
-0.007946491742681357   -0.043607218455914566   -0.0012019519738410709
-0.005846601469343012   -0.0437261835026564   -0.0011087295487250267
-0.00929072745741344   -0.03895318560279975   -0.0009242185619779682
-0.006604887070670522   -0.03905273571951128   -0.0009186484978981621
-0.006606289787666364   -0.03907145926418553   -0.0009688282386711312
-0.005846601469343012   -0.0437261835026564   -0.0011087295487250267
-0.00929072745741344   -0.03895318560279975   -0.0009242185619779682
-0.006606289787666364   -0.03907145926418553   -0.0009688282386711312
-0.007946491742681357   -0.043607218455914566   -0.0012019519738410709
-0.008033974262257607   -0.0436866714699972   -0.0013912327616508037
-0.009332412852381766   -0.03903676276052876   -0.0011708631864708126
-0.010487021554757113   -0.043473242457811735   -0.001512725094749973
-0.00800153403344404   -0.043634347823841874   -0.0012988393680645322
-0.009332412852381766   -0.03903676276052876   -0.0011708631864708126
-0.012377576288438313   -0.03885443467383911   -0.0012761412774023036
-0.010487021554757113   -0.043473242457811735   -0.001512725094749973
-0.012262956357010874   -0.03880722124687525   -0.0011573992659485392
-0.00800153403344404   -0.043634347823841874   -0.0012988393680645322
-0.010320037882949058   -0.043418563525517276   -0.0013680502108242441
-0.012262956357010874   -0.03880722124687525   -0.0011573992659485392
-0.010487021554757113   -0.043473242457811735   -0.001512725094749973
-0.00800153403344404   -0.043634347823841874   -0.0012988393680645322
-0.012262956357010874   -0.03880722124687525   -0.0011573992659485392
-0.009329085062996784   -0.03898872180020585   -0.0010932953477228577
-0.009332412852381766   -0.03903676276052876   -0.0011708631864708126
-0.00800153403344404   -0.043634347823841874   -0.0012988393680645322
-0.012262956357010874   -0.03880722124687525   -0.0011573992659485392
-0.009332412852381766   -0.03903676276052876   -0.0011708631864708126
-0.010487021554757113   -0.043473242457811735   -0.001512725094749973
-0.00800153403344404   -0.043634347823841874   -0.0012988393680645322
-0.009329085062996784   -0.03898872180020585   -0.0010932953477228577
-0.010320037882949058   -0.043418563525517276   -0.0013680502108242441
-0.007946491742681357   -0.043607218455914566   -0.0012019519738410709
-0.009329085062996784   -0.03898872180020585   -0.0010932953477228577
-0.012262956357010874   -0.03880722124687525   -0.0011573992659485392
-0.010320037882949058   -0.043418563525517276   -0.0013680502108242441
-0.012165028734733843   -0.038782354390508776   -0.0010314074364750913
-0.007946491742681357   -0.043607218455914566   -0.0012019519738410709
-0.010175266588117099   -0.04339378346410123   -0.0012159540768942993
-0.012165028734733843   -0.038782354390508776   -0.0010314074364750913
-0.010320037882949058   -0.043418563525517276   -0.0013680502108242441
-0.007946491742681357   -0.043607218455914566   -0.0012019519738410709
-0.012165028734733843   -0.038782354390508776   -0.0010314074364750913
-0.00930607261027471   -0.03896018427928277   -0.0010114196615322417
-0.009329085062996784   -0.03898872180020585   -0.0010932953477228577
-0.007946491742681357   -0.043607218455914566   -0.0012019519738410709
-0.012165028734733843   -0.038782354390508776   -0.0010314074364750913
-0.009329085062996784   -0.03898872180020585   -0.0010932953477228577
-0.010320037882949058   -0.043418563525517276   -0.0013680502108242441
-0.007946491742681357   -0.043607218455914566   -0.0012019519738410709
-0.00930607261027471   -0.03896018427928277   -0.0010114196615322417
-0.010175266588117099   -0.04339378346410123   -0.0012159540768942993
-0.007901881743217792   -0.043606737786704576   -0.0010991610581549377
-0.00930607261027471   -0.03896018427928277   -0.0010114196615322417
-0.012165028734733843   -0.038782354390508776   -0.0010314074364750913
-0.010175266588117099   -0.04339378346410123   -0.0012159540768942993
-0.012023837263971871   -0.038791614866285316   -0.0008991638616392552
-0.007901881743217792   -0.043606737786704576   -0.0010991610581549377
-0.009980288029542957   -0.04340969512943276   -0.0010574036962711694
-0.012023837263971871   -0.038791614866285316   -0.0008991638616392552
-0.010175266588117099   -0.04339378346410123   -0.0012159540768942993
-0.007901881743217792   -0.043606737786704576   -0.0010991610581549377
-0.012023837263971871   -0.038791614866285316   -0.0008991638616392552
-0.00929072745741344   -0.03895318560279975   -0.0009242185619779682
-0.00930607261027471   -0.03896018427928277   -0.0010114196615322417
-0.007901881743217792   -0.043606737786704576   -0.0010991610581549377
-0.012023837263971871   -0.038791614866285316   -0.0008991638616392552
-0.00930607261027471   -0.03896018427928277   -0.0010114196615322417
-0.010175266588117099   -0.04339378346410123   -0.0012159540768942993
0.0015206170960257535   -0.03916567104871752   -0.0005756121411404962
0.0024178472580875113   -0.03361374328893962   -0.00038360280164645097
-0.0012729454113833533   -0.0392353985390435   -0.0007637533308981399
0.0016026645359971177   -0.039067948873928386   -0.0006586867588342998
0.0024178472580875113   -0.03361374328893962   -0.00038360280164645097
-0.0009004293559210972   -0.03364832117636155   -0.00056058590469766
-0.0012729454113833533   -0.0392353985390435   -0.0007637533308981399
-0.000915774907838268   -0.033567441427449225   -0.00057913367152665
0.0016026645359971177   -0.039067948873928386   -0.0006586867588342998
-0.0012652571413537914   -0.03915247952256865   -0.0007979215685908598
-0.000915774907838268   -0.033567441427449225   -0.00057913367152665
-0.0012729454113833533   -0.0392353985390435   -0.0007637533308981399
0.0016026645359971177   -0.039067948873928386   -0.0006586867588342998
-0.000915774907838268   -0.033567441427449225   -0.00057913367152665
0.002450807971598691   -0.033519590387994   -0.0004382855135994116
0.0024178472580875113   -0.03361374328893962   -0.00038360280164645097
0.0016026645359971177   -0.039067948873928386   -0.0006586867588342998
-0.000915774907838268   -0.033567441427449225   -0.00057913367152665
0.0024178472580875113   -0.03361374328893962   -0.00038360280164645097
-0.0012729454113833533   -0.0392353985390435   -0.0007637533308981399
0.0016026645359971177   -0.039067948873928386   -0.0006586867588342998
0.002450807971598691   -0.033519590387994   -0.0004382855135994116
-0.0012652571413537914   -0.03915247952256865   -0.0007979215685908598
0.0016552422784152571   -0.0390042317309984   -0.0007344187307203845
0.002450807971598691   -0.033519590387994   -0.0004382855135994116
-0.000915774907838268   -0.033567441427449225   -0.00057913367152665
-0.0012652571413537914   -0.03915247952256865   -0.0007979215685908598
-0.0009318705375621233   -0.033503762511242666   -0.0005930318777335634
0.0016552422784152571   -0.0390042317309984   -0.0007344187307203845
-0.0012554549321845332   -0.03909270221354479   -0.0008268959334671692
-0.0009318705375621233   -0.033503762511242666   -0.0005930318777335634
-0.0012652571413537914   -0.03915247952256865   -0.0007979215685908598
0.0016552422784152571   -0.0390042317309984   -0.0007344187307203845
-0.0009318705375621233   -0.033503762511242666   -0.0005930318777335634
0.00246121991017637   -0.03345135926727875   -0.0004861055594173026
0.002450807971598691   -0.033519590387994   -0.0004382855135994116
0.0016552422784152571   -0.0390042317309984   -0.0007344187307203845
-0.0009318705375621233   -0.033503762511242666   -0.0005930318777335634
0.002450807971598691   -0.033519590387994   -0.0004382855135994116
-0.0012652571413537914   -0.03915247952256865   -0.0007979215685908598
0.0016552422784152571   -0.0390042317309984   -0.0007344187307203845
0.00246121991017637   -0.03345135926727875   -0.0004861055594173026
-0.0012554549321845332   -0.03909270221354479   -0.0008268959334671692
0.0017094109711531255   -0.038962051275059834   -0.000802964697055346
0.00246121991017637   -0.03345135926727875   -0.0004861055594173026
-0.0009318705375621233   -0.033503762511242666   -0.0005930318777335634
-0.0012554549321845332   -0.03909270221354479   -0.0008268959334671692
-0.0009595190287076287   -0.033455262117485986   -0.0006024370189384547
0.0017094109711531255   -0.038962051275059834   -0.000802964697055346
-0.0012598770610578983   -0.039054135033112   -0.0008510548003082451
-0.0009595190287076287   -0.033455262117485986   -0.0006024370189384547
-0.0012554549321845332   -0.03909270221354479   -0.0008268959334671692
0.0017094109711531255   -0.038962051275059834   -0.000802964697055346
-0.0009595190287076287   -0.033455262117485986   -0.0006024370189384547
0.002467515734927445   -0.03339689605369128   -0.0005273893293989324
0.00246121991017637   -0.03345135926727875   -0.0004861055594173026
0.0017094109711531255   -0.038962051275059834   -0.000802964697055346
-0.0009595190287076287   -0.033455262117485986   -0.0006024370189384547
0.00246121991017637   -0.03345135926727875   -0.0004861055594173026
-0.0012554549321845332   -0.03909270221354479   -0.0008268959334671692
-0.0012729454113833533   -0.0392353985390435   -0.0007637533308981399
-0.0009004293559210972   -0.03364832117636155   -0.00056058590469766
-0.003962293839999458   -0.03923589990453703   -0.0009186538892538653
-0.0012652571413537914   -0.03915247952256865   -0.0007979215685908598
-0.0009004293559210972   -0.03364832117636155   -0.00056058590469766
-0.004081907979600011   -0.03363093095967844   -0.0007060103352138589
-0.003962293839999458   -0.03923589990453703   -0.0009186538892538653
-0.004103360190515882   -0.03356345820809016   -0.0006974433855410037
-0.0012652571413537914   -0.03915247952256865   -0.0007979215685908598
-0.003962569165258052   -0.03916583116585781   -0.0009154214226083611
-0.004103360190515882   -0.03356345820809016   -0.0006974433855410037
-0.003962293839999458   -0.03923589990453703   -0.0009186538892538653
-0.0012652571413537914   -0.03915247952256865   -0.0007979215685908598
-0.004103360190515882   -0.03356345820809016   -0.0006974433855410037
-0.000915774907838268   -0.033567441427449225   -0.00057913367152665
-0.0009004293559210972   -0.03364832117636155   -0.00056058590469766
-0.0012652571413537914   -0.03915247952256865   -0.0007979215685908598
-0.004103360190515882   -0.03356345820809016   -0.0006974433855410037
-0.0009004293559210972   -0.03364832117636155   -0.00056058590469766
-0.003962293839999458   -0.03923589990453703   -0.0009186538892538653
-0.0012652571413537914   -0.03915247952256865   -0.0007979215685908598
-0.000915774907838268   -0.033567441427449225   -0.00057913367152665
-0.003962569165258052   -0.03916583116585781   -0.0009154214226083611
-0.0012554549321845332   -0.03909270221354479   -0.0008268959334671692
-0.000915774907838268   -0.033567441427449225   -0.00057913367152665
-0.004103360190515882   -0.03356345820809016   -0.0006974433855410037
-0.003962569165258052   -0.03916583116585781   -0.0009154214226083611
-0.004125108591406451   -0.03351072695748786   -0.0006840868683902128
-0.0012554549321845332   -0.03909270221354479   -0.0008268959334671692
-0.0039626595850246   -0.03911615857542124   -0.0009070122225026131
-0.004125108591406451   -0.03351072695748786   -0.0006840868683902128
-0.003962569165258052   -0.03916583116585781   -0.0009154214226083611
-0.0012554549321845332   -0.03909270221354479   -0.0008268959334671692
-0.004125108591406451   -0.03351072695748786   -0.0006840868683902128
-0.0009318705375621233   -0.033503762511242666   -0.0005930318777335634
-0.000915774907838268   -0.033567441427449225   -0.00057913367152665
-0.0012554549321845332   -0.03909270221354479   -0.0008268959334671692
-0.004125108591406451   -0.03351072695748786   -0.0006840868683902128
-0.000915774907838268   -0.033567441427449225   -0.00057913367152665
-0.003962569165258052   -0.03916583116585781   -0.0009154214226083611
-0.0012554549321845332   -0.03909270221354479   -0.0008268959334671692
-0.0009318705375621233   -0.033503762511242666   -0.0005930318777335634
-0.0039626595850246   -0.03911615857542124   -0.0009070122225026131
-0.0012598770610578983   -0.039054135033112   -0.0008510548003082451
-0.0009318705375621233   -0.033503762511242666   -0.0005930318777335634
-0.004125108591406451   -0.03351072695748786   -0.0006840868683902128
-0.0039626595850246   -0.03911615857542124   -0.0009070122225026131
-0.004150267150399902   -0.033472986010855306   -0.0006661754316637361
-0.0012598770610578983   -0.039054135033112   -0.0008510548003082451
-0.003966337444488319   -0.03908691947881702   -0.0008936988667244514
-0.004150267150399902   -0.033472986010855306   -0.0006661754316637361
-0.0039626595850246   -0.03911615857542124   -0.0009070122225026131
-0.0012598770610578983   -0.039054135033112   -0.0008510548003082451
-0.004150267150399902   -0.033472986010855306   -0.0006661754316637361
-0.0009595190287076287   -0.033455262117485986   -0.0006024370189384547
-0.0009318705375621233   -0.033503762511242666   -0.0005930318777335634
-0.0012598770610578983   -0.039054135033112   -0.0008510548003082451
-0.004150267150399902   -0.033472986010855306   -0.0006661754316637361
-0.0009318705375621233   -0.033503762511242666   -0.0005930318777335634
-0.0039626595850246   -0.03911615857542124   -0.0009070122225026131
-0.003962293839999458   -0.03923589990453703   -0.0009186538892538653
-0.004081907979600011   -0.03363093095967844   -0.0007060103352138589
-0.006606237874917767   -0.03916885279972566   -0.0010542591486410583
-0.003962569165258052   -0.03916583116585781   -0.0009154214226083611
-0.004081907979600011   -0.03363093095967844   -0.0007060103352138589
-0.007209779215718266   -0.03356487298858164   -0.0008302973333371837
-0.006606237874917767   -0.03916885279972566   -0.0010542591486410583
-0.007232960617430576   -0.03350955767157637   -0.0007947542628689013
-0.003962569165258052   -0.03916583116585781   -0.0009154214226083611
-0.0066085131471073375   -0.03911004798376502   -0.0010140807624485011
-0.007232960617430576   -0.03350955767157637   -0.0007947542628689013
-0.006606237874917767   -0.03916885279972566   -0.0010542591486410583
-0.003962569165258052   -0.03916583116585781   -0.0009154214226083611
-0.007232960617430576   -0.03350955767157637   -0.0007947542628689013
-0.004103360190515882   -0.03356345820809016   -0.0006974433855410037
-0.004081907979600011   -0.03363093095967844   -0.0007060103352138589
-0.003962569165258052   -0.03916583116585781   -0.0009154214226083611
-0.007232960617430576   -0.03350955767157637   -0.0007947542628689013
-0.004081907979600011   -0.03363093095967844   -0.0007060103352138589
-0.006606237874917767   -0.03916885279972566   -0.0010542591486410583
-0.003962569165258052   -0.03916583116585781   -0.0009154214226083611
-0.004103360190515882   -0.03356345820809016   -0.0006974433855410037
-0.0066085131471073375   -0.03911004798376502   -0.0010140807624485011
-0.0039626595850246   -0.03911615857542124   -0.0009070122225026131
-0.004103360190515882   -0.03356345820809016   -0.0006974433855410037
-0.007232960617430576   -0.03350955767157637   -0.0007947542628689013
-0.0066085131471073375   -0.03911004798376502   -0.0010140807624485011
-0.007252140828918684   -0.03346884359370899   -0.0007545081097966044
-0.0039626595850246   -0.03911615857542124   -0.0009070122225026131
-0.006606289787666364   -0.03907145926418553   -0.0009688282386711312
-0.007252140828918684   -0.03346884359370899   -0.0007545081097966044
-0.0066085131471073375   -0.03911004798376502   -0.0010140807624485011
-0.0039626595850246   -0.03911615857542124   -0.0009070122225026131
-0.007252140828918684   -0.03346884359370899   -0.0007545081097966044
-0.004125108591406451   -0.03351072695748786   -0.0006840868683902128
-0.004103360190515882   -0.03356345820809016   -0.0006974433855410037
-0.0039626595850246   -0.03911615857542124   -0.0009070122225026131
-0.007252140828918684   -0.03346884359370899   -0.0007545081097966044
-0.004103360190515882   -0.03356345820809016   -0.0006974433855410037
-0.0066085131471073375   -0.03911004798376502   -0.0010140807624485011
-0.0039626595850246   -0.03911615857542124   -0.0009070122225026131
-0.004125108591406451   -0.03351072695748786   -0.0006840868683902128
-0.006606289787666364   -0.03907145926418553   -0.0009688282386711312
-0.003966337444488319   -0.03908691947881702   -0.0008936988667244514
-0.004125108591406451   -0.03351072695748786   -0.0006840868683902128
-0.007252140828918684   -0.03346884359370899   -0.0007545081097966044
-0.006606289787666364   -0.03907145926418553   -0.0009688282386711312
-0.007271887157736165   -0.0334426682976207   -0.0007096961573960454
-0.003966337444488319   -0.03908691947881702   -0.0008936988667244514
-0.006604887070670522   -0.03905273571951128   -0.0009186484978981621
-0.007271887157736165   -0.0334426682976207   -0.0007096961573960454
-0.006606289787666364   -0.03907145926418553   -0.0009688282386711312
-0.003966337444488319   -0.03908691947881702   -0.0008936988667244514
-0.007271887157736165   -0.0334426682976207   -0.0007096961573960454
-0.004150267150399902   -0.033472986010855306   -0.0006661754316637361
-0.004125108591406451   -0.03351072695748786   -0.0006840868683902128
-0.003966337444488319   -0.03908691947881702   -0.0008936988667244514
-0.007271887157736165   -0.0334426682976207   -0.0007096961573960454
-0.004125108591406451   -0.03351072695748786   -0.0006840868683902128
-0.006606289787666364   -0.03907145926418553   -0.0009688282386711312
-0.006606237874917767   -0.03916885279972566   -0.0010542591486410583
-0.007209779215718266   -0.03356487298858164   -0.0008302973333371837
-0.009332412852381766   -0.03903676276052876   -0.0011708631864708126
-0.0066085131471073375   -0.03911004798376502   -0.0010140807624485011
-0.007209779215718266   -0.03356487298858164   -0.0008302973333371837
-0.010412026595453927   -0.03345144972723982   -0.0009339519338441345
-0.009332412852381766   -0.03903676276052876   -0.0011708631864708126
-0.010431140083697282   -0.03340799335025568   -0.000871061926950065
-0.0066085131471073375   -0.03911004798376502   -0.0010140807624485011
-0.009329085062996784   -0.03898872180020585   -0.0010932953477228577
-0.010431140083697282   -0.03340799335025568   -0.000871061926950065
-0.009332412852381766   -0.03903676276052876   -0.0011708631864708126
-0.0066085131471073375   -0.03911004798376502   -0.0010140807624485011
-0.010431140083697282   -0.03340799335025568   -0.000871061926950065
-0.007232960617430576   -0.03350955767157637   -0.0007947542628689013
-0.007209779215718266   -0.03356487298858164   -0.0008302973333371837
-0.0066085131471073375   -0.03911004798376502   -0.0010140807624485011
-0.010431140083697282   -0.03340799335025568   -0.000871061926950065
-0.007209779215718266   -0.03356487298858164   -0.0008302973333371837
-0.009332412852381766   -0.03903676276052876   -0.0011708631864708126
-0.0066085131471073375   -0.03911004798376502   -0.0010140807624485011
-0.007232960617430576   -0.03350955767157637   -0.0007947542628689013
-0.009329085062996784   -0.03898872180020585   -0.0010932953477228577
-0.006606289787666364   -0.03907145926418553   -0.0009688282386711312
-0.007232960617430576   -0.03350955767157637   -0.0007947542628689013
-0.010431140083697282   -0.03340799335025568   -0.000871061926950065
-0.009329085062996784   -0.03898872180020585   -0.0010932953477228577
-0.010433369223554806   -0.03337827084050727   -0.0008041190189462662
-0.006606289787666364   -0.03907145926418553   -0.0009688282386711312
-0.00930607261027471   -0.03896018427928277   -0.0010114196615322417
-0.010433369223554806   -0.03337827084050727   -0.0008041190189462662
-0.009329085062996784   -0.03898872180020585   -0.0010932953477228577
-0.006606289787666364   -0.03907145926418553   -0.0009688282386711312
-0.010433369223554806   -0.03337827084050727   -0.0008041190189462662
-0.007252140828918684   -0.03346884359370899   -0.0007545081097966044
-0.007232960617430576   -0.03350955767157637   -0.0007947542628689013
-0.006606289787666364   -0.03907145926418553   -0.0009688282386711312
-0.010433369223554806   -0.03337827084050727   -0.0008041190189462662
-0.007232960617430576   -0.03350955767157637   -0.0007947542628689013
-0.009329085062996784   -0.03898872180020585   -0.0010932953477228577
-0.006606289787666364   -0.03907145926418553   -0.0009688282386711312
-0.007252140828918684   -0.03346884359370899   -0.0007545081097966044
-0.00930607261027471   -0.03896018427928277   -0.0010114196615322417
-0.006604887070670522   -0.03905273571951128   -0.0009186484978981621
-0.007252140828918684   -0.03346884359370899   -0.0007545081097966044
-0.010433369223554806   -0.03337827084050727   -0.0008041190189462662
-0.00930607261027471   -0.03896018427928277   -0.0010114196615322417
-0.010440443101072927   -0.033364400964372334   -0.0007322629557477059
-0.006604887070670522   -0.03905273571951128   -0.0009186484978981621
-0.00929072745741344   -0.03895318560279975   -0.0009242185619779682
-0.010440443101072927   -0.033364400964372334   -0.0007322629557477059
-0.00930607261027471   -0.03896018427928277   -0.0010114196615322417
-0.006604887070670522   -0.03905273571951128   -0.0009186484978981621
-0.010440443101072927   -0.033364400964372334   -0.0007322629557477059
-0.007271887157736165   -0.0334426682976207   -0.0007096961573960454
-0.007252140828918684   -0.03346884359370899   -0.0007545081097966044
-0.006604887070670522   -0.03905273571951128   -0.0009186484978981621
-0.010440443101072927   -0.033364400964372334   -0.0007322629557477059
-0.007252140828918684   -0.03346884359370899   -0.0007545081097966044
-0.00930607261027471   -0.03896018427928277   -0.0010114196615322417
-0.009332412852381766   -0.03903676276052876   -0.0011708631864708126
-0.010412026595453927   -0.03345144972723982   -0.0009339519338441345
-0.012377576288438313   -0.03885443467383911   -0.0012761412774023036
-0.009329085062996784   -0.03898872180020585   -0.0010932953477228577
-0.010412026595453927   -0.03345144972723982   -0.0009339519338441345
-0.013904395696908567   -0.03330240254674314   -0.001022512476857413
-0.012377576288438313   -0.03885443467383911   -0.0012761412774023036
-0.01383675612952907   -0.033262703743701515   -0.0009306230732818004
-0.009329085062996784   -0.03898872180020585   -0.0010932953477228577
-0.012262956357010874   -0.03880722124687525   -0.0011573992659485392
-0.01383675612952907   -0.033262703743701515   -0.0009306230732818004
-0.012377576288438313   -0.03885443467383911   -0.0012761412774023036
-0.009329085062996784   -0.03898872180020585   -0.0010932953477228577
-0.01383675612952907   -0.033262703743701515   -0.0009306230732818004
-0.010431140083697282   -0.03340799335025568   -0.000871061926950065
-0.010412026595453927   -0.03345144972723982   -0.0009339519338441345
-0.009329085062996784   -0.03898872180020585   -0.0010932953477228577
-0.01383675612952907   -0.033262703743701515   -0.0009306230732818004
-0.010412026595453927   -0.03345144972723982   -0.0009339519338441345
-0.012377576288438313   -0.03885443467383911   -0.0012761412774023036
-0.009329085062996784   -0.03898872180020585   -0.0010932953477228577
-0.010431140083697282   -0.03340799335025568   -0.000871061926950065
-0.012262956357010874   -0.03880722124687525   -0.0011573992659485392
-0.00930607261027471   -0.03896018427928277   -0.0010114196615322417
-0.010431140083697282   -0.03340799335025568   -0.000871061926950065
-0.01383675612952907   -0.033262703743701515   -0.0009306230732818004
-0.012262956357010874   -0.03880722124687525   -0.0011573992659485392
-0.013779778952191011   -0.03323764503600639   -0.000831652119206064
-0.00930607261027471   -0.03896018427928277   -0.0010114196615322417
-0.012165028734733843   -0.038782354390508776   -0.0010314074364750913
-0.013779778952191011   -0.03323764503600639   -0.000831652119206064
-0.012262956357010874   -0.03880722124687525   -0.0011573992659485392
-0.00930607261027471   -0.03896018427928277   -0.0010114196615322417
-0.013779778952191011   -0.03323764503600639   -0.000831652119206064
-0.010433369223554806   -0.03337827084050727   -0.0008041190189462662
-0.010431140083697282   -0.03340799335025568   -0.000871061926950065
-0.00930607261027471   -0.03896018427928277   -0.0010114196615322417
-0.013779778952191011   -0.03323764503600639   -0.000831652119206064
-0.010431140083697282   -0.03340799335025568   -0.000871061926950065
-0.012262956357010874   -0.03880722124687525   -0.0011573992659485392
-0.00930607261027471   -0.03896018427928277   -0.0010114196615322417
-0.010433369223554806   -0.03337827084050727   -0.0008041190189462662
-0.012165028734733843   -0.038782354390508776   -0.0010314074364750913
-0.00929072745741344   -0.03895318560279975   -0.0009242185619779682
-0.010433369223554806   -0.03337827084050727   -0.0008041190189462662
-0.013779778952191011   -0.03323764503600639   -0.000831652119206064
-0.012165028734733843   -0.038782354390508776   -0.0010314074364750913
-0.013686055808377486   -0.03323948093624798   -0.000726484053445727
-0.00929072745741344   -0.03895318560279975   -0.0009242185619779682
-0.012023837263971871   -0.038791614866285316   -0.0008991638616392552
-0.013686055808377486   -0.03323948093624798   -0.000726484053445727
-0.012165028734733843   -0.038782354390508776   -0.0010314074364750913
-0.00929072745741344   -0.03895318560279975   -0.0009242185619779682
-0.013686055808377486   -0.03323948093624798   -0.000726484053445727
-0.010440443101072927   -0.033364400964372334   -0.0007322629557477059
-0.010433369223554806   -0.03337827084050727   -0.0008041190189462662
-0.00929072745741344   -0.03895318560279975   -0.0009242185619779682
-0.013686055808377486   -0.03323948093624798   -0.000726484053445727
-0.010433369223554806   -0.03337827084050727   -0.0008041190189462662
-0.012165028734733843   -0.038782354390508776   -0.0010314074364750913
0.0024178472580875113   -0.03361374328893962   -0.00038360280164645097
0.0029198199632941278   -0.027376200615267705   -0.00019587362365528803
-0.0009004293559210972   -0.03364832117636155   -0.00056058590469766
0.002450807971598691   -0.033519590387994   -0.0004382855135994116
0.0029198199632941278   -0.027376200615267705   -0.00019587362365528803
-0.0007677362730047461   -0.02737589363209573   -0.00035988669222733455
-0.0009004293559210972   -0.03364832117636155   -0.00056058590469766
-0.0008003698772638484   -0.027297707120028814   -0.00036256895575230696
0.002450807971598691   -0.033519590387994   -0.0004382855135994116
-0.000915774907838268   -0.033567441427449225   -0.00057913367152665
-0.0008003698772638484   -0.027297707120028814   -0.00036256895575230696
-0.0009004293559210972   -0.03364832117636155   -0.00056058590469766
0.002450807971598691   -0.033519590387994   -0.0004382855135994116
-0.0008003698772638484   -0.027297707120028814   -0.00036256895575230696
0.002910005628979432   -0.02728609900566391   -0.0002224004678290515
0.0029198199632941278   -0.027376200615267705   -0.00019587362365528803
0.002450807971598691   -0.033519590387994   -0.0004382855135994116
-0.0008003698772638484   -0.027297707120028814   -0.00036256895575230696
0.0029198199632941278   -0.027376200615267705   -0.00019587362365528803
-0.0009004293559210972   -0.03364832117636155   -0.00056058590469766
0.002450807971598691   -0.033519590387994   -0.0004382855135994116
0.002910005628979432   -0.02728609900566391   -0.0002224004678290515
-0.000915774907838268   -0.033567441427449225   -0.00057913367152665
0.00246121991017637   -0.03345135926727875   -0.0004861055594173026
0.002910005628979432   -0.02728609900566391   -0.0002224004678290515
-0.0008003698772638484   -0.027297707120028814   -0.00036256895575230696
-0.000915774907838268   -0.033567441427449225   -0.00057913367152665
-0.0008366381931579194   -0.02723066084849881   -0.00036111565872550157
0.00246121991017637   -0.03345135926727875   -0.0004861055594173026
-0.0009318705375621233   -0.033503762511242666   -0.0005930318777335634
-0.0008366381931579194   -0.02723066084849881   -0.00036111565872550157
-0.000915774907838268   -0.033567441427449225   -0.00057913367152665
0.00246121991017637   -0.03345135926727875   -0.0004861055594173026
-0.0008366381931579194   -0.02723066084849881   -0.00036111565872550157
0.0028841718461477418   -0.027213939471623403   -0.00024229864791576754
0.002910005628979432   -0.02728609900566391   -0.0002224004678290515
0.00246121991017637   -0.03345135926727875   -0.0004861055594173026
-0.0008366381931579194   -0.02723066084849881   -0.00036111565872550157
0.002910005628979432   -0.02728609900566391   -0.0002224004678290515
-0.000915774907838268   -0.033567441427449225   -0.00057913367152665
0.00246121991017637   -0.03345135926727875   -0.0004861055594173026
0.0028841718461477418   -0.027213939471623403   -0.00024229864791576754
-0.0009318705375621233   -0.033503762511242666   -0.0005930318777335634
0.002467515734927445   -0.03339689605369128   -0.0005273893293989324
0.0028841718461477418   -0.027213939471623403   -0.00024229864791576754
-0.0008366381931579194   -0.02723066084849881   -0.00036111565872550157
-0.0009318705375621233   -0.033503762511242666   -0.0005930318777335634
-0.0008817775368594257   -0.02717299774732688   -0.000355363762138646
0.002467515734927445   -0.03339689605369128   -0.0005273893293989324
-0.0009595190287076287   -0.033455262117485986   -0.0006024370189384547
-0.0008817775368594257   -0.02717299774732688   -0.000355363762138646
-0.0009318705375621233   -0.033503762511242666   -0.0005930318777335634
0.002467515734927445   -0.03339689605369128   -0.0005273893293989324
-0.0008817775368594257   -0.02717299774732688   -0.000355363762138646
0.0028479829700857142   -0.027147804599246286   -0.00025603120761759037
0.0028841718461477418   -0.027213939471623403   -0.00024229864791576754
0.002467515734927445   -0.03339689605369128   -0.0005273893293989324
-0.0008817775368594257   -0.02717299774732688   -0.000355363762138646
0.0028841718461477418   -0.027213939471623403   -0.00024229864791576754
-0.0009318705375621233   -0.033503762511242666   -0.0005930318777335634
-0.0009004293559210972   -0.03364832117636155   -0.00056058590469766
-0.0007677362730047461   -0.02737589363209573   -0.00035988669222733455
-0.004081907979600011   -0.03363093095967844   -0.0007060103352138589
-0.000915774907838268   -0.033567441427449225   -0.00057913367152665
-0.0007677362730047461   -0.02737589363209573   -0.00035988669222733455
-0.004285402900608779   -0.027342658295052464   -0.00049489088863073
-0.004081907979600011   -0.03363093095967844   -0.0007060103352138589
-0.004322055724304345   -0.02727790390638891   -0.00048052651199158964
-0.000915774907838268   -0.033567441427449225   -0.00057913367152665
-0.004103360190515882   -0.03356345820809016   -0.0006974433855410037
-0.004322055724304345   -0.02727790390638891   -0.00048052651199158964
-0.004081907979600011   -0.03363093095967844   -0.0007060103352138589
-0.000915774907838268   -0.033567441427449225   -0.00057913367152665
-0.004322055724304345   -0.02727790390638891   -0.00048052651199158964
-0.0008003698772638484   -0.027297707120028814   -0.00036256895575230696
-0.0007677362730047461   -0.02737589363209573   -0.00035988669222733455
-0.000915774907838268   -0.033567441427449225   -0.00057913367152665
-0.004322055724304345   -0.02727790390638891   -0.00048052651199158964
-0.0007677362730047461   -0.02737589363209573   -0.00035988669222733455
-0.004081907979600011   -0.03363093095967844   -0.0007060103352138589
-0.000915774907838268   -0.033567441427449225   -0.00057913367152665
-0.0008003698772638484   -0.027297707120028814   -0.00036256895575230696
-0.004103360190515882   -0.03356345820809016   -0.0006974433855410037
-0.0009318705375621233   -0.033503762511242666   -0.0005930318777335634
-0.0008003698772638484   -0.027297707120028814   -0.00036256895575230696
-0.004322055724304345   -0.02727790390638891   -0.00048052651199158964
-0.004103360190515882   -0.03356345820809016   -0.0006974433855410037
-0.0043594542735713275   -0.027222217562735285   -0.0004618511437591449
-0.0009318705375621233   -0.033503762511242666   -0.0005930318777335634
-0.004125108591406451   -0.03351072695748786   -0.0006840868683902128
-0.0043594542735713275   -0.027222217562735285   -0.0004618511437591449
-0.004103360190515882   -0.03356345820809016   -0.0006974433855410037
-0.0009318705375621233   -0.033503762511242666   -0.0005930318777335634
-0.0043594542735713275   -0.027222217562735285   -0.0004618511437591449
-0.0008366381931579194   -0.02723066084849881   -0.00036111565872550157
-0.0008003698772638484   -0.027297707120028814   -0.00036256895575230696
-0.0009318705375621233   -0.033503762511242666   -0.0005930318777335634
-0.0043594542735713275   -0.027222217562735285   -0.0004618511437591449
-0.0008003698772638484   -0.027297707120028814   -0.00036256895575230696
-0.004103360190515882   -0.03356345820809016   -0.0006974433855410037
-0.0009318705375621233   -0.033503762511242666   -0.0005930318777335634
-0.0008366381931579194   -0.02723066084849881   -0.00036111565872550157
-0.004125108591406451   -0.03351072695748786   -0.0006840868683902128
-0.0009595190287076287   -0.033455262117485986   -0.0006024370189384547
-0.0008366381931579194   -0.02723066084849881   -0.00036111565872550157
-0.0043594542735713275   -0.027222217562735285   -0.0004618511437591449
-0.004125108591406451   -0.03351072695748786   -0.0006840868683902128
-0.004400035957150503   -0.027176134336633198   -0.0004390705359796015
-0.0009595190287076287   -0.033455262117485986   -0.0006024370189384547
-0.004150267150399902   -0.033472986010855306   -0.0006661754316637361
-0.004400035957150503   -0.027176134336633198   -0.0004390705359796015
-0.004125108591406451   -0.03351072695748786   -0.0006840868683902128
-0.0009595190287076287   -0.033455262117485986   -0.0006024370189384547
-0.004400035957150503   -0.027176134336633198   -0.0004390705359796015
-0.0008817775368594257   -0.02717299774732688   -0.000355363762138646
-0.0008366381931579194   -0.02723066084849881   -0.00036111565872550157
-0.0009595190287076287   -0.033455262117485986   -0.0006024370189384547
-0.004400035957150503   -0.027176134336633198   -0.0004390705359796015
-0.0008366381931579194   -0.02723066084849881   -0.00036111565872550157
-0.004125108591406451   -0.03351072695748786   -0.0006840868683902128
-0.004081907979600011   -0.03363093095967844   -0.0007060103352138589
-0.004285402900608779   -0.027342658295052464   -0.00049489088863073
-0.007209779215718266   -0.03356487298858164   -0.0008302973333371837
-0.004103360190515882   -0.03356345820809016   -0.0006974433855410037
-0.004285402900608779   -0.027342658295052464   -0.00049489088863073
-0.007743610591618428   -0.027280311600729357   -0.000608586134361814
-0.007209779215718266   -0.03356487298858164   -0.0008302973333371837
-0.007781388808398751   -0.027227916405640443   -0.00057721670070636
-0.004103360190515882   -0.03356345820809016   -0.0006974433855410037
-0.007232960617430576   -0.03350955767157637   -0.0007947542628689013
-0.007781388808398751   -0.027227916405640443   -0.00057721670070636
-0.007209779215718266   -0.03356487298858164   -0.0008302973333371837
-0.004103360190515882   -0.03356345820809016   -0.0006974433855410037
-0.007781388808398751   -0.027227916405640443   -0.00057721670070636
-0.004322055724304345   -0.02727790390638891   -0.00048052651199158964
-0.004285402900608779   -0.027342658295052464   -0.00049489088863073
-0.004103360190515882   -0.03356345820809016   -0.0006974433855410037
-0.007781388808398751   -0.027227916405640443   -0.00057721670070636
-0.004285402900608779   -0.027342658295052464   -0.00049489088863073
-0.007209779215718266   -0.03356487298858164   -0.0008302973333371837
-0.004103360190515882   -0.03356345820809016   -0.0006974433855410037
-0.004322055724304345   -0.02727790390638891   -0.00048052651199158964
-0.007232960617430576   -0.03350955767157637   -0.0007947542628689013
-0.004125108591406451   -0.03351072695748786   -0.0006840868683902128
-0.004322055724304345   -0.02727790390638891   -0.00048052651199158964
-0.007781388808398751   -0.027227916405640443   -0.00057721670070636
-0.007232960617430576   -0.03350955767157637   -0.0007947542628689013
-0.007815639796050761   -0.027184525257278568   -0.0005416379030313063
-0.004125108591406451   -0.03351072695748786   -0.0006840868683902128
-0.007252140828918684   -0.03346884359370899   -0.0007545081097966044
-0.007815639796050761   -0.027184525257278568   -0.0005416379030313063
-0.007232960617430576   -0.03350955767157637   -0.0007947542628689013
-0.004125108591406451   -0.03351072695748786   -0.0006840868683902128
-0.007815639796050761   -0.027184525257278568   -0.0005416379030313063
-0.0043594542735713275   -0.027222217562735285   -0.0004618511437591449
-0.004322055724304345   -0.02727790390638891   -0.00048052651199158964
-0.004125108591406451   -0.03351072695748786   -0.0006840868683902128
-0.007815639796050761   -0.027184525257278568   -0.0005416379030313063
-0.004322055724304345   -0.02727790390638891   -0.00048052651199158964
-0.007232960617430576   -0.03350955767157637   -0.0007947542628689013
-0.004125108591406451   -0.03351072695748786   -0.0006840868683902128
-0.0043594542735713275   -0.027222217562735285   -0.0004618511437591449
-0.007252140828918684   -0.03346884359370899   -0.0007545081097966044
-0.004150267150399902   -0.033472986010855306   -0.0006661754316637361
-0.0043594542735713275   -0.027222217562735285   -0.0004618511437591449
-0.007815639796050761   -0.027184525257278568   -0.0005416379030313063
-0.007252140828918684   -0.03346884359370899   -0.0007545081097966044
-0.007850218366995164   -0.027150208724297978   -0.000502008868491935
-0.004150267150399902   -0.033472986010855306   -0.0006661754316637361
-0.007271887157736165   -0.0334426682976207   -0.0007096961573960454
-0.007850218366995164   -0.027150208724297978   -0.000502008868491935
-0.007252140828918684   -0.03346884359370899   -0.0007545081097966044
-0.004150267150399902   -0.033472986010855306   -0.0006661754316637361
-0.007850218366995164   -0.027150208724297978   -0.000502008868491935
-0.004400035957150503   -0.027176134336633198   -0.0004390705359796015
-0.0043594542735713275   -0.027222217562735285   -0.0004618511437591449
-0.004150267150399902   -0.033472986010855306   -0.0006661754316637361
-0.007850218366995164   -0.027150208724297978   -0.000502008868491935
-0.0043594542735713275   -0.027222217562735285   -0.0004618511437591449
-0.007252140828918684   -0.03346884359370899   -0.0007545081097966044
-0.007209779215718266   -0.03356487298858164   -0.0008302973333371837
-0.007743610591618428   -0.027280311600729357   -0.000608586134361814
-0.010412026595453927   -0.03345144972723982   -0.0009339519338441345
-0.007232960617430576   -0.03350955767157637   -0.0007947542628689013
-0.007743610591618428   -0.027280311600729357   -0.000608586134361814
-0.011270402109196541   -0.027187534059011767   -0.0007012511098358773
-0.010412026595453927   -0.03345144972723982   -0.0009339519338441345
-0.011305438916104322   -0.027147591983156603   -0.0006527446535595963
-0.007232960617430576   -0.03350955767157637   -0.0007947542628689013
-0.010431140083697282   -0.03340799335025568   -0.000871061926950065
-0.011305438916104322   -0.027147591983156603   -0.0006527446535595963
-0.010412026595453927   -0.03345144972723982   -0.0009339519338441345
-0.007232960617430576   -0.03350955767157637   -0.0007947542628689013
-0.011305438916104322   -0.027147591983156603   -0.0006527446535595963
-0.007781388808398751   -0.027227916405640443   -0.00057721670070636
-0.007743610591618428   -0.027280311600729357   -0.000608586134361814
-0.007232960617430576   -0.03350955767157637   -0.0007947542628689013
-0.011305438916104322   -0.027147591983156603   -0.0006527446535595963
-0.007743610591618428   -0.027280311600729357   -0.000608586134361814
-0.010412026595453927   -0.03345144972723982   -0.0009339519338441345
-0.007232960617430576   -0.03350955767157637   -0.0007947542628689013
-0.007781388808398751   -0.027227916405640443   -0.00057721670070636
-0.010431140083697282   -0.03340799335025568   -0.000871061926950065
-0.007252140828918684   -0.03346884359370899   -0.0007545081097966044
-0.007781388808398751   -0.027227916405640443   -0.00057721670070636
-0.011305438916104322   -0.027147591983156603   -0.0006527446535595963
-0.010431140083697282   -0.03340799335025568   -0.000871061926950065
-0.01132651008858809   -0.02711553806507498   -0.0006005937669258172
-0.007252140828918684   -0.03346884359370899   -0.0007545081097966044
-0.010433369223554806   -0.03337827084050727   -0.0008041190189462662
-0.01132651008858809   -0.02711553806507498   -0.0006005937669258172
-0.010431140083697282   -0.03340799335025568   -0.000871061926950065
-0.007252140828918684   -0.03346884359370899   -0.0007545081097966044
-0.01132651008858809   -0.02711553806507498   -0.0006005937669258172
-0.007815639796050761   -0.027184525257278568   -0.0005416379030313063
-0.007781388808398751   -0.027227916405640443   -0.00057721670070636
-0.007252140828918684   -0.03346884359370899   -0.0007545081097966044
-0.01132651008858809   -0.02711553806507498   -0.0006005937669258172
-0.007781388808398751   -0.027227916405640443   -0.00057721670070636
-0.010431140083697282   -0.03340799335025568   -0.000871061926950065
-0.007252140828918684   -0.03346884359370899   -0.0007545081097966044
-0.007815639796050761   -0.027184525257278568   -0.0005416379030313063
-0.010433369223554806   -0.03337827084050727   -0.0008041190189462662
-0.007271887157736165   -0.0334426682976207   -0.0007096961573960454
-0.007815639796050761   -0.027184525257278568   -0.0005416379030313063
-0.01132651008858809   -0.02711553806507498   -0.0006005937669258172
-0.010433369223554806   -0.03337827084050727   -0.0008041190189462662
-0.011349733004297827   -0.027093353318509632   -0.000544046394529365
-0.007271887157736165   -0.0334426682976207   -0.0007096961573960454
-0.010440443101072927   -0.033364400964372334   -0.0007322629557477059
-0.011349733004297827   -0.027093353318509632   -0.000544046394529365
-0.010433369223554806   -0.03337827084050727   -0.0008041190189462662
-0.007271887157736165   -0.0334426682976207   -0.0007096961573960454
-0.011349733004297827   -0.027093353318509632   -0.000544046394529365
-0.007850218366995164   -0.027150208724297978   -0.000502008868491935
-0.007815639796050761   -0.027184525257278568   -0.0005416379030313063
-0.007271887157736165   -0.0334426682976207   -0.0007096961573960454
-0.011349733004297827   -0.027093353318509632   -0.000544046394529365
-0.007815639796050761   -0.027184525257278568   -0.0005416379030313063
-0.010433369223554806   -0.03337827084050727   -0.0008041190189462662
-0.010412026595453927   -0.03345144972723982   -0.0009339519338441345
-0.011270402109196541   -0.027187534059011767   -0.0007012511098358773
-0.013904395696908567   -0.03330240254674314   -0.001022512476857413
-0.010431140083697282   -0.03340799335025568   -0.000871061926950065
-0.011270402109196541   -0.027187534059011767   -0.0007012511098358773
-0.015056271473255577   -0.02707313912807716   -0.0007747880215161863
-0.013904395696908567   -0.03330240254674314   -0.001022512476857413
-0.015029487846052436   -0.02703955581436642   -0.0007100085139614022
-0.010431140083697282   -0.03340799335025568   -0.000871061926950065
-0.01383675612952907   -0.033262703743701515   -0.0009306230732818004
-0.015029487846052436   -0.02703955581436642   -0.0007100085139614022
-0.013904395696908567   -0.03330240254674314   -0.001022512476857413
-0.010431140083697282   -0.03340799335025568   -0.000871061926950065
-0.015029487846052436   -0.02703955581436642   -0.0007100085139614022
-0.011305438916104322   -0.027147591983156603   -0.0006527446535595963
-0.011270402109196541   -0.027187534059011767   -0.0007012511098358773
-0.010431140083697282   -0.03340799335025568   -0.000871061926950065
-0.015029487846052436   -0.02703955581436642   -0.0007100085139614022
-0.011270402109196541   -0.027187534059011767   -0.0007012511098358773
-0.013904395696908567   -0.03330240254674314   -0.001022512476857413
-0.010431140083697282   -0.03340799335025568   -0.000871061926950065
-0.011305438916104322   -0.027147591983156603   -0.0006527446535595963
-0.01383675612952907   -0.033262703743701515   -0.0009306230732818004
-0.010433369223554806   -0.03337827084050727   -0.0008041190189462662
-0.011305438916104322   -0.027147591983156603   -0.0006527446535595963
-0.015029487846052436   -0.02703955581436642   -0.0007100085139614022
-0.01383675612952907   -0.033262703743701515   -0.0009306230732818004
-0.015007650962787772   -0.027012845789841693   -0.000638541145828308
-0.010433369223554806   -0.03337827084050727   -0.0008041190189462662
-0.013779778952191011   -0.03323764503600639   -0.000831652119206064
-0.015007650962787772   -0.027012845789841693   -0.000638541145828308
-0.01383675612952907   -0.033262703743701515   -0.0009306230732818004
-0.010433369223554806   -0.03337827084050727   -0.0008041190189462662
-0.015007650962787772   -0.027012845789841693   -0.000638541145828308
-0.01132651008858809   -0.02711553806507498   -0.0006005937669258172
-0.011305438916104322   -0.027147591983156603   -0.0006527446535595963
-0.010433369223554806   -0.03337827084050727   -0.0008041190189462662
-0.015007650962787772   -0.027012845789841693   -0.000638541145828308
-0.011305438916104322   -0.027147591983156603   -0.0006527446535595963
-0.01383675612952907   -0.033262703743701515   -0.0009306230732818004
-0.010433369223554806   -0.03337827084050727   -0.0008041190189462662
-0.01132651008858809   -0.02711553806507498   -0.0006005937669258172
-0.013779778952191011   -0.03323764503600639   -0.000831652119206064
-0.010440443101072927   -0.033364400964372334   -0.0007322629557477059
-0.01132651008858809   -0.02711553806507498   -0.0006005937669258172
-0.015007650962787772   -0.027012845789841693   -0.000638541145828308
-0.013779778952191011   -0.03323764503600639   -0.000831652119206064
-0.014955945039407337   -0.027005246369496985   -0.0005611477669048877
-0.010440443101072927   -0.033364400964372334   -0.0007322629557477059
-0.013686055808377486   -0.03323948093624798   -0.000726484053445727
-0.014955945039407337   -0.027005246369496985   -0.0005611477669048877
-0.013779778952191011   -0.03323764503600639   -0.000831652119206064
-0.010440443101072927   -0.033364400964372334   -0.0007322629557477059
-0.014955945039407337   -0.027005246369496985   -0.0005611477669048877
-0.011349733004297827   -0.027093353318509632   -0.000544046394529365
-0.01132651008858809   -0.02711553806507498   -0.0006005937669258172
-0.010440443101072927   -0.033364400964372334   -0.0007322629557477059
-0.014955945039407337   -0.027005246369496985   -0.0005611477669048877
-0.01132651008858809   -0.02711553806507498   -0.0006005937669258172
-0.013779778952191011   -0.03323764503600639   -0.000831652119206064
0.0029198199632941278   -0.027376200615267705   -0.00019587362365528803
0.003025595653552879   -0.02070075197323929   -3.155940061219759e-05
-0.0007677362730047461   -0.02737589363209573   -0.00035988669222733455
0.002910005628979432   -0.02728609900566391   -0.0002224004678290515
0.003025595653552879   -0.02070075197323929   -3.155940061219759e-05
-0.0008748219188511878   -0.020666874551252143   -0.00017880332304454996
-0.0007677362730047461   -0.02737589363209573   -0.00035988669222733455
-0.0009197786378319225   -0.020592119728606417   -0.00016557539503396623
0.002910005628979432   -0.02728609900566391   -0.0002224004678290515
-0.0008003698772638484   -0.027297707120028814   -0.00036256895575230696
-0.0009197786378319225   -0.020592119728606417   -0.00016557539503396623
-0.0007677362730047461   -0.02737589363209573   -0.00035988669222733455
0.002910005628979432   -0.02728609900566391   -0.0002224004678290515
-0.0009197786378319225   -0.020592119728606417   -0.00016557539503396623
0.002978342199499549   -0.020614878632207286   -2.936820817773357e-05
0.003025595653552879   -0.02070075197323929   -3.155940061219759e-05
0.002910005628979432   -0.02728609900566391   -0.0002224004678290515
-0.0009197786378319225   -0.020592119728606417   -0.00016557539503396623
0.003025595653552879   -0.02070075197323929   -3.155940061219759e-05
-0.0007677362730047461   -0.02737589363209573   -0.00035988669222733455
0.002910005628979432   -0.02728609900566391   -0.0002224004678290515
0.002978342199499549   -0.020614878632207286   -2.936820817773357e-05
-0.0008003698772638484   -0.027297707120028814   -0.00036256895575230696
0.0028841718461477418   -0.027213939471623403   -0.00024229864791576754
0.002978342199499549   -0.020614878632207286   -2.936820817773357e-05
-0.0009197786378319225   -0.020592119728606417   -0.00016557539503396623
-0.0008003698772638484   -0.027297707120028814   -0.00036256895575230696
-0.0009712832232966642   -0.020521743463605774   -0.00014858642289074134
0.0028841718461477418   -0.027213939471623403   -0.00024229864791576754
-0.0008366381931579194   -0.02723066084849881   -0.00036111565872550157
-0.0009712832232966642   -0.020521743463605774   -0.00014858642289074134
-0.0008003698772638484   -0.027297707120028814   -0.00036256895575230696
0.0028841718461477418   -0.027213939471623403   -0.00024229864791576754
-0.0009712832232966642   -0.020521743463605774   -0.00014858642289074134
0.0029199860984661743   -0.020538415995059227   -1.9499685607578273e-05
0.002978342199499549   -0.020614878632207286   -2.936820817773357e-05
0.0028841718461477418   -0.027213939471623403   -0.00024229864791576754
-0.0009712832232966642   -0.020521743463605774   -0.00014858642289074134
0.002978342199499549   -0.020614878632207286   -2.936820817773357e-05
-0.0008003698772638484   -0.027297707120028814   -0.00036256895575230696
0.0028841718461477418   -0.027213939471623403   -0.00024229864791576754
0.0029199860984661743   -0.020538415995059227   -1.9499685607578273e-05
-0.0008366381931579194   -0.02723066084849881   -0.00036111565872550157
0.0028479829700857142   -0.027147804599246286   -0.00025603120761759037
0.0029199860984661743   -0.020538415995059227   -1.9499685607578273e-05
-0.0009712832232966642   -0.020521743463605774   -0.00014858642289074134
-0.0008366381931579194   -0.02723066084849881   -0.00036111565872550157
-0.0010291789061000834   -0.020454773413098332   -0.0001268950785454216
0.0028479829700857142   -0.027147804599246286   -0.00025603120761759037
-0.0008817775368594257   -0.02717299774732688   -0.000355363762138646
-0.0010291789061000834   -0.020454773413098332   -0.0001268950785454216
-0.0008366381931579194   -0.02723066084849881   -0.00036111565872550157
0.0028479829700857142   -0.027147804599246286   -0.00025603120761759037
-0.0010291789061000834   -0.020454773413098332   -0.0001268950785454216
0.002842968456782479   -0.020458569888054067   -2.298910163802472e-06
0.0029199860984661743   -0.020538415995059227   -1.9499685607578273e-05
0.0028479829700857142   -0.027147804599246286   -0.00025603120761759037
-0.0010291789061000834   -0.020454773413098332   -0.0001268950785454216
0.0029199860984661743   -0.020538415995059227   -1.9499685607578273e-05
-0.0008366381931579194   -0.02723066084849881   -0.00036111565872550157
-0.0007677362730047461   -0.02737589363209573   -0.00035988669222733455
-0.0008748219188511878   -0.020666874551252143   -0.00017880332304454996
-0.004285402900608779   -0.027342658295052464   -0.00049489088863073
-0.0008003698772638484   -0.027297707120028814   -0.00036256895575230696
-0.0008748219188511878   -0.020666874551252143   -0.00017880332304454996
-0.004570544157782381   -0.020626951069253077   -0.00030304118611378263
-0.004285402900608779   -0.027342658295052464   -0.00049489088863073
-0.0046165183860919275   -0.020564594453178504   -0.0002824888051455032
-0.0008003698772638484   -0.027297707120028814   -0.00036256895575230696
-0.004322055724304345   -0.02727790390638891   -0.00048052651199158964
-0.0046165183860919275   -0.020564594453178504   -0.0002824888051455032
-0.004285402900608779   -0.027342658295052464   -0.00049489088863073
-0.0008003698772638484   -0.027297707120028814   -0.00036256895575230696
-0.0046165183860919275   -0.020564594453178504   -0.0002824888051455032
-0.0009197786378319225   -0.020592119728606417   -0.00016557539503396623
-0.0008748219188511878   -0.020666874551252143   -0.00017880332304454996
-0.0008003698772638484   -0.027297707120028814   -0.00036256895575230696
-0.0046165183860919275   -0.020564594453178504   -0.0002824888051455032
-0.0008748219188511878   -0.020666874551252143   -0.00017880332304454996
-0.004285402900608779   -0.027342658295052464   -0.00049489088863073
-0.0008003698772638484   -0.027297707120028814   -0.00036256895575230696
-0.0009197786378319225   -0.020592119728606417   -0.00016557539503396623
-0.004322055724304345   -0.02727790390638891   -0.00048052651199158964
-0.0008366381931579194   -0.02723066084849881   -0.00036111565872550157
-0.0009197786378319225   -0.020592119728606417   -0.00016557539503396623
-0.0046165183860919275   -0.020564594453178504   -0.0002824888051455032
-0.004322055724304345   -0.02727790390638891   -0.00048052651199158964
-0.004663535432949145   -0.020505632558436463   -0.000258346361361223
-0.0008366381931579194   -0.02723066084849881   -0.00036111565872550157
-0.0043594542735713275   -0.027222217562735285   -0.0004618511437591449
-0.004663535432949145   -0.020505632558436463   -0.000258346361361223
-0.004322055724304345   -0.02727790390638891   -0.00048052651199158964
-0.0008366381931579194   -0.02723066084849881   -0.00036111565872550157
-0.004663535432949145   -0.020505632558436463   -0.000258346361361223
-0.0009712832232966642   -0.020521743463605774   -0.00014858642289074134
-0.0009197786378319225   -0.020592119728606417   -0.00016557539503396623
-0.0008366381931579194   -0.02723066084849881   -0.00036111565872550157
-0.004663535432949145   -0.020505632558436463   -0.000258346361361223
-0.0009197786378319225   -0.020592119728606417   -0.00016557539503396623
-0.004322055724304345   -0.02727790390638891   -0.00048052651199158964
-0.0008366381931579194   -0.02723066084849881   -0.00036111565872550157
-0.0009712832232966642   -0.020521743463605774   -0.00014858642289074134
-0.0043594542735713275   -0.027222217562735285   -0.0004618511437591449
-0.0008817775368594257   -0.02717299774732688   -0.000355363762138646
-0.0009712832232966642   -0.020521743463605774   -0.00014858642289074134
-0.004663535432949145   -0.020505632558436463   -0.000258346361361223
-0.0043594542735713275   -0.027222217562735285   -0.0004618511437591449
-0.004713562878230865   -0.020450996438010155   -0.00023057960111895354
-0.0008817775368594257   -0.02717299774732688   -0.000355363762138646
-0.004400035957150503   -0.027176134336633198   -0.0004390705359796015
-0.004713562878230865   -0.020450996438010155   -0.00023057960111895354
-0.0043594542735713275   -0.027222217562735285   -0.0004618511437591449
-0.0008817775368594257   -0.02717299774732688   -0.000355363762138646
-0.004713562878230865   -0.020450996438010155   -0.00023057960111895354
-0.0010291789061000834   -0.020454773413098332   -0.0001268950785454216
-0.0009712832232966642   -0.020521743463605774   -0.00014858642289074134
-0.0008817775368594257   -0.02717299774732688   -0.000355363762138646
-0.004713562878230865   -0.020450996438010155   -0.00023057960111895354
-0.0009712832232966642   -0.020521743463605774   -0.00014858642289074134
-0.0043594542735713275   -0.027222217562735285   -0.0004618511437591449
-0.004285402900608779   -0.027342658295052464   -0.00049489088863073
-0.004570544157782381   -0.020626951069253077   -0.00030304118611378263
-0.007743610591618428   -0.027280311600729357   -0.000608586134361814
-0.004322055724304345   -0.02727790390638891   -0.00048052651199158964
-0.004570544157782381   -0.020626951069253077   -0.00030304118611378263
-0.008205914921816234   -0.02057887444653073   -0.00040832742793855747
-0.007743610591618428   -0.027280311600729357   -0.000608586134361814
-0.008251600674308687   -0.020527983181864384   -0.00038047315335294003
-0.004322055724304345   -0.02727790390638891   -0.00048052651199158964
-0.007781388808398751   -0.027227916405640443   -0.00057721670070636
-0.008251600674308687   -0.020527983181864384   -0.00038047315335294003
-0.007743610591618428   -0.027280311600729357   -0.000608586134361814
-0.004322055724304345   -0.02727790390638891   -0.00048052651199158964
-0.008251600674308687   -0.020527983181864384   -0.00038047315335294003
-0.0046165183860919275   -0.020564594453178504   -0.0002824888051455032
-0.004570544157782381   -0.020626951069253077   -0.00030304118611378263
-0.004322055724304345   -0.02727790390638891   -0.00048052651199158964
-0.008251600674308687   -0.020527983181864384   -0.00038047315335294003
-0.004570544157782381   -0.020626951069253077   -0.00030304118611378263
-0.007743610591618428   -0.027280311600729357   -0.000608586134361814
-0.004322055724304345   -0.02727790390638891   -0.00048052651199158964
-0.0046165183860919275   -0.020564594453178504   -0.0002824888051455032
-0.007781388808398751   -0.027227916405640443   -0.00057721670070636
-0.0043594542735713275   -0.027222217562735285   -0.0004618511437591449
-0.0046165183860919275   -0.020564594453178504   -0.0002824888051455032
-0.008251600674308687   -0.020527983181864384   -0.00038047315335294003
-0.007781388808398751   -0.027227916405640443   -0.00057721670070636
-0.008294317986527829   -0.020480671560131655   -0.00034915128759442453
-0.0043594542735713275   -0.027222217562735285   -0.0004618511437591449
-0.007815639796050761   -0.027184525257278568   -0.0005416379030313063
-0.008294317986527829   -0.020480671560131655   -0.00034915128759442453
-0.007781388808398751   -0.027227916405640443   -0.00057721670070636
-0.0043594542735713275   -0.027222217562735285   -0.0004618511437591449
-0.008294317986527829   -0.020480671560131655   -0.00034915128759442453
-0.004663535432949145   -0.020505632558436463   -0.000258346361361223
-0.0046165183860919275   -0.020564594453178504   -0.0002824888051455032
-0.0043594542735713275   -0.027222217562735285   -0.0004618511437591449
-0.008294317986527829   -0.020480671560131655   -0.00034915128759442453
-0.0046165183860919275   -0.020564594453178504   -0.0002824888051455032
-0.007781388808398751   -0.027227916405640443   -0.00057721670070636
-0.0043594542735713275   -0.027222217562735285   -0.0004618511437591449
-0.004663535432949145   -0.020505632558436463   -0.000258346361361223
-0.007815639796050761   -0.027184525257278568   -0.0005416379030313063
-0.004400035957150503   -0.027176134336633198   -0.0004390705359796015
-0.004663535432949145   -0.020505632558436463   -0.000258346361361223
-0.008294317986527829   -0.020480671560131655   -0.00034915128759442453
-0.007815639796050761   -0.027184525257278568   -0.0005416379030313063
-0.008337188511708194   -0.02043706790346673   -0.00031453223112051554
-0.004400035957150503   -0.027176134336633198   -0.0004390705359796015
-0.007850218366995164   -0.027150208724297978   -0.000502008868491935
-0.008337188511708194   -0.02043706790346673   -0.00031453223112051554
-0.007815639796050761   -0.027184525257278568   -0.0005416379030313063
-0.004400035957150503   -0.027176134336633198   -0.0004390705359796015
-0.008337188511708194   -0.02043706790346673   -0.00031453223112051554
-0.004713562878230865   -0.020450996438010155   -0.00023057960111895354
-0.004663535432949145   -0.020505632558436463   -0.000258346361361223
-0.004400035957150503   -0.027176134336633198   -0.0004390705359796015
-0.008337188511708194   -0.02043706790346673   -0.00031453223112051554
-0.004663535432949145   -0.020505632558436463   -0.000258346361361223
-0.007815639796050761   -0.027184525257278568   -0.0005416379030313063
-0.007743610591618428   -0.027280311600729357   -0.000608586134361814
-0.008205914921816234   -0.02057887444653073   -0.00040832742793855747
-0.011270402109196541   -0.027187534059011767   -0.0007012511098358773
-0.007781388808398751   -0.027227916405640443   -0.00057721670070636
-0.008205914921816234   -0.02057887444653073   -0.00040832742793855747
-0.01190708644452189   -0.02051374953324568   -0.0004937588386021114
-0.011270402109196541   -0.027187534059011767   -0.0007012511098358773
-0.011950818157170457   -0.020474917860535964   -0.00045869043532328945
-0.007781388808398751   -0.027227916405640443   -0.00057721670070636
-0.011305438916104322   -0.027147591983156603   -0.0006527446535595963
-0.011950818157170457   -0.020474917860535964   -0.00045869043532328945
-0.011270402109196541   -0.027187534059011767   -0.0007012511098358773
-0.007781388808398751   -0.027227916405640443   -0.00057721670070636
-0.011950818157170457   -0.020474917860535964   -0.00045869043532328945
-0.008251600674308687   -0.020527983181864384   -0.00038047315335294003
-0.008205914921816234   -0.02057887444653073   -0.00040832742793855747
-0.007781388808398751   -0.027227916405640443   -0.00057721670070636
-0.011950818157170457   -0.020474917860535964   -0.00045869043532328945
-0.008205914921816234   -0.02057887444653073   -0.00040832742793855747
-0.011270402109196541   -0.027187534059011767   -0.0007012511098358773
-0.007781388808398751   -0.027227916405640443   -0.00057721670070636
-0.008251600674308687   -0.020527983181864384   -0.00038047315335294003
-0.011305438916104322   -0.027147591983156603   -0.0006527446535595963
-0.007815639796050761   -0.027184525257278568   -0.0005416379030313063
-0.008251600674308687   -0.020527983181864384   -0.00038047315335294003
-0.011950818157170457   -0.020474917860535964   -0.00045869043532328945
-0.011305438916104322   -0.027147591983156603   -0.0006527446535595963
-0.011983867291224541   -0.020438346673074877   -0.0004207203347202858
-0.007815639796050761   -0.027184525257278568   -0.0005416379030313063
-0.01132651008858809   -0.02711553806507498   -0.0006005937669258172
-0.011983867291224541   -0.020438346673074877   -0.0004207203347202858
-0.011305438916104322   -0.027147591983156603   -0.0006527446535595963
-0.007815639796050761   -0.027184525257278568   -0.0005416379030313063
-0.011983867291224541   -0.020438346673074877   -0.0004207203347202858
-0.008294317986527829   -0.020480671560131655   -0.00034915128759442453
-0.008251600674308687   -0.020527983181864384   -0.00038047315335294003
-0.007815639796050761   -0.027184525257278568   -0.0005416379030313063
-0.011983867291224541   -0.020438346673074877   -0.0004207203347202858
-0.008251600674308687   -0.020527983181864384   -0.00038047315335294003
-0.011305438916104322   -0.027147591983156603   -0.0006527446535595963
-0.007815639796050761   -0.027184525257278568   -0.0005416379030313063
-0.008294317986527829   -0.020480671560131655   -0.00034915128759442453
-0.01132651008858809   -0.02711553806507498   -0.0006005937669258172
-0.007850218366995164   -0.027150208724297978   -0.000502008868491935
-0.008294317986527829   -0.020480671560131655   -0.00034915128759442453
-0.011983867291224541   -0.020438346673074877   -0.0004207203347202858
-0.01132651008858809   -0.02711553806507498   -0.0006005937669258172
-0.01201668376682021   -0.02040569697194415   -0.0003790970719605471
-0.007850218366995164   -0.027150208724297978   -0.000502008868491935
-0.011349733004297827   -0.027093353318509632   -0.000544046394529365
-0.01201668376682021   -0.02040569697194415   -0.0003790970719605471
-0.01132651008858809   -0.02711553806507498   -0.0006005937669258172
-0.007850218366995164   -0.027150208724297978   -0.000502008868491935
-0.01201668376682021   -0.02040569697194415   -0.0003790970719605471
-0.008337188511708194   -0.02043706790346673   -0.00031453223112051554
-0.008294317986527829   -0.020480671560131655   -0.00034915128759442453
-0.007850218366995164   -0.027150208724297978   -0.000502008868491935
-0.01201668376682021   -0.02040569697194415   -0.0003790970719605471
-0.008294317986527829   -0.020480671560131655   -0.00034915128759442453
-0.01132651008858809   -0.02711553806507498   -0.0006005937669258172
-0.011270402109196541   -0.027187534059011767   -0.0007012511098358773
-0.01190708644452189   -0.02051374953324568   -0.0004937588386021114
-0.015056271473255577   -0.02707313912807716   -0.0007747880215161863
-0.011305438916104322   -0.027147591983156603   -0.0006527446535595963
-0.01190708644452189   -0.02051374953324568   -0.0004937588386021114
-0.015830832475189235   -0.020436580740634286   -0.0005568360473391712
-0.015056271473255577   -0.02707313912807716   -0.0007747880215161863
-0.015836916346183994   -0.02040577046488266   -0.0005179025202967245
-0.011305438916104322   -0.027147591983156603   -0.0006527446535595963
-0.015029487846052436   -0.02703955581436642   -0.0007100085139614022
-0.015836916346183994   -0.02040577046488266   -0.0005179025202967245
-0.015056271473255577   -0.02707313912807716   -0.0007747880215161863
-0.011305438916104322   -0.027147591983156603   -0.0006527446535595963
-0.015836916346183994   -0.02040577046488266   -0.0005179025202967245
-0.011950818157170457   -0.020474917860535964   -0.00045869043532328945
-0.01190708644452189   -0.02051374953324568   -0.0004937588386021114
-0.011305438916104322   -0.027147591983156603   -0.0006527446535595963
-0.015836916346183994   -0.02040577046488266   -0.0005179025202967245
-0.01190708644452189   -0.02051374953324568   -0.0004937588386021114
-0.015056271473255577   -0.02707313912807716   -0.0007747880215161863
-0.011305438916104322   -0.027147591983156603   -0.0006527446535595963
-0.011950818157170457   -0.020474917860535964   -0.00045869043532328945
-0.015029487846052436   -0.02703955581436642   -0.0007100085139614022
-0.01132651008858809   -0.02711553806507498   -0.0006005937669258172
-0.011950818157170457   -0.020474917860535964   -0.00045869043532328945
-0.015836916346183994   -0.02040577046488266   -0.0005179025202967245
-0.015029487846052436   -0.02703955581436642   -0.0007100085139614022
-0.015843268916294465   -0.020374718439207445   -0.0004731337742964362
-0.01132651008858809   -0.02711553806507498   -0.0006005937669258172
-0.015007650962787772   -0.027012845789841693   -0.000638541145828308
-0.015843268916294465   -0.020374718439207445   -0.0004731337742964362
-0.015029487846052436   -0.02703955581436642   -0.0007100085139614022
-0.01132651008858809   -0.02711553806507498   -0.0006005937669258172
-0.015843268916294465   -0.020374718439207445   -0.0004731337742964362
-0.011983867291224541   -0.020438346673074877   -0.0004207203347202858
-0.011950818157170457   -0.020474917860535964   -0.00045869043532328945
-0.01132651008858809   -0.02711553806507498   -0.0006005937669258172
-0.015843268916294465   -0.020374718439207445   -0.0004731337742964362
-0.011950818157170457   -0.020474917860535964   -0.00045869043532328945
-0.015029487846052436   -0.02703955581436642   -0.0007100085139614022
-0.01132651008858809   -0.02711553806507498   -0.0006005937669258172
-0.011983867291224541   -0.020438346673074877   -0.0004207203347202858
-0.015007650962787772   -0.027012845789841693   -0.000638541145828308
-0.011349733004297827   -0.027093353318509632   -0.000544046394529365
-0.011983867291224541   -0.020438346673074877   -0.0004207203347202858
-0.015843268916294465   -0.020374718439207445   -0.0004731337742964362
-0.015007650962787772   -0.027012845789841693   -0.000638541145828308
-0.015827394229293183   -0.020354793056837503   -0.0004232180016739863
-0.011349733004297827   -0.027093353318509632   -0.000544046394529365
-0.014955945039407337   -0.027005246369496985   -0.0005611477669048877
-0.015827394229293183   -0.020354793056837503   -0.0004232180016739863
-0.015007650962787772   -0.027012845789841693   -0.000638541145828308
-0.011349733004297827   -0.027093353318509632   -0.000544046394529365
-0.015827394229293183   -0.020354793056837503   -0.0004232180016739863
-0.01201668376682021   -0.02040569697194415   -0.0003790970719605471
-0.011983867291224541   -0.020438346673074877   -0.0004207203347202858
-0.011349733004297827   -0.027093353318509632   -0.000544046394529365
-0.015827394229293183   -0.020354793056837503   -0.0004232180016739863
-0.011983867291224541   -0.020438346673074877   -0.0004207203347202858
-0.015007650962787772   -0.027012845789841693   -0.000638541145828308
0.003025595653552879   -0.02070075197323929   -3.155940061219759e-05
0.0027170737955229357   -0.013820520962431219   8.191912642503744e-05
-0.0008748219188511878   -0.020666874551252143   -0.00017880332304454996
0.002978342199499549   -0.020614878632207286   -2.936820817773357e-05
0.0027170737955229357   -0.013820520962431219   8.191912642503744e-05
-0.0012159572630993478   -0.013756125661144111   -3.462320904374234e-05
-0.0008748219188511878   -0.020666874551252143   -0.00017880332304454996
-0.0012698753926926464   -0.013688571087748637   -6.694866326348365e-06
0.002978342199499549   -0.020614878632207286   -2.936820817773357e-05
-0.0009197786378319225   -0.020592119728606417   -0.00016557539503396623
-0.0012698753926926464   -0.013688571087748637   -6.694866326348365e-06
-0.0008748219188511878   -0.020666874551252143   -0.00017880332304454996
0.002978342199499549   -0.020614878632207286   -2.936820817773357e-05
-0.0012698753926926464   -0.013688571087748637   -6.694866326348365e-06
0.002632476997904153   -0.013738799603632147   0.00011640070423331089
0.0027170737955229357   -0.013820520962431219   8.191912642503744e-05
0.002978342199499549   -0.020614878632207286   -2.936820817773357e-05
-0.0012698753926926464   -0.013688571087748637   -6.694866326348365e-06
0.0027170737955229357   -0.013820520962431219   8.191912642503744e-05
-0.0008748219188511878   -0.020666874551252143   -0.00017880332304454996
0.002978342199499549   -0.020614878632207286   -2.936820817773357e-05
0.002632476997904153   -0.013738799603632147   0.00011640070423331089
-0.0009197786378319225   -0.020592119728606417   -0.00016557539503396623
0.0029199860984661743   -0.020538415995059227   -1.9499685607578273e-05
0.002632476997904153   -0.013738799603632147   0.00011640070423331089
-0.0012698753926926464   -0.013688571087748637   -6.694866326348365e-06
-0.0009197786378319225   -0.020592119728606417   -0.00016557539503396623
-0.0013330037731589177   -0.01361734360552325   2.624485903291725e-05
0.0029199860984661743   -0.020538415995059227   -1.9499685607578273e-05
-0.0009712832232966642   -0.020521743463605774   -0.00014858642289074134
-0.0013330037731589177   -0.01361734360552325   2.624485903291725e-05
-0.0009197786378319225   -0.020592119728606417   -0.00016557539503396623
0.0029199860984661743   -0.020538415995059227   -1.9499685607578273e-05
-0.0013330037731589177   -0.01361734360552325   2.624485903291725e-05
0.002537757610811581   -0.013657810837664198   0.00016618067390215222
0.002632476997904153   -0.013738799603632147   0.00011640070423331089
0.0029199860984661743   -0.020538415995059227   -1.9499685607578273e-05
-0.0013330037731589177   -0.01361734360552325   2.624485903291725e-05
0.002632476997904153   -0.013738799603632147   0.00011640070423331089
-0.0009197786378319225   -0.020592119728606417   -0.00016557539503396623
0.0029199860984661743   -0.020538415995059227   -1.9499685607578273e-05
0.002537757610811581   -0.013657810837664198   0.00016618067390215222
-0.0009712832232966642   -0.020521743463605774   -0.00014858642289074134
0.002842968456782479   -0.020458569888054067   -2.298910163802472e-06
0.002537757610811581   -0.013657810837664198   0.00016618067390215222
-0.0013330037731589177   -0.01361734360552325   2.624485903291725e-05
-0.0009712832232966642   -0.020521743463605774   -0.00014858642289074134
-0.001398365812894309   -0.013541778918193996   6.413763550297687e-05
0.002842968456782479   -0.020458569888054067   -2.298910163802472e-06
-0.0010291789061000834   -0.020454773413098332   -0.0001268950785454216
-0.001398365812894309   -0.013541778918193996   6.413763550297687e-05
-0.0009712832232966642   -0.020521743463605774   -0.00014858642289074134
0.002842968456782479   -0.020458569888054067   -2.298910163802472e-06
-0.001398365812894309   -0.013541778918193996   6.413763550297687e-05
0.0024219956259728974   -0.013558255187404444   0.00022100090150950426
0.002537757610811581   -0.013657810837664198   0.00016618067390215222
0.002842968456782479   -0.020458569888054067   -2.298910163802472e-06
-0.001398365812894309   -0.013541778918193996   6.413763550297687e-05
0.002537757610811581   -0.013657810837664198   0.00016618067390215222
-0.0009712832232966642   -0.020521743463605774   -0.00014858642289074134
-0.0008748219188511878   -0.020666874551252143   -0.00017880332304454996
-0.0012159572630993478   -0.013756125661144111   -3.462320904374234e-05
-0.004570544157782381   -0.020626951069253077   -0.00030304118611378263
-0.0009197786378319225   -0.020592119728606417   -0.00016557539503396623
-0.0012159572630993478   -0.013756125661144111   -3.462320904374234e-05
-0.0049186192627166374   -0.01373943678608639   -0.0001467481546243822
-0.004570544157782381   -0.020626951069253077   -0.00030304118611378263
-0.0049674646389112976   -0.013680634760892431   -0.00012062722708765463
-0.0009197786378319225   -0.020592119728606417   -0.00016557539503396623
-0.0046165183860919275   -0.020564594453178504   -0.0002824888051455032
-0.0049674646389112976   -0.013680634760892431   -0.00012062722708765463
-0.004570544157782381   -0.020626951069253077   -0.00030304118611378263
-0.0009197786378319225   -0.020592119728606417   -0.00016557539503396623
-0.0049674646389112976   -0.013680634760892431   -0.00012062722708765463
-0.0012698753926926464   -0.013688571087748637   -6.694866326348365e-06
-0.0012159572630993478   -0.013756125661144111   -3.462320904374234e-05
-0.0009197786378319225   -0.020592119728606417   -0.00016557539503396623
-0.0049674646389112976   -0.013680634760892431   -0.00012062722708765463
-0.0012159572630993478   -0.013756125661144111   -3.462320904374234e-05
-0.004570544157782381   -0.020626951069253077   -0.00030304118611378263
-0.0009197786378319225   -0.020592119728606417   -0.00016557539503396623
-0.0012698753926926464   -0.013688571087748637   -6.694866326348365e-06
-0.0046165183860919275   -0.020564594453178504   -0.0002824888051455032
-0.0009712832232966642   -0.020521743463605774   -0.00014858642289074134
-0.0012698753926926464   -0.013688571087748637   -6.694866326348365e-06
-0.0049674646389112976   -0.013680634760892431   -0.00012062722708765463
-0.0046165183860919275   -0.020564594453178504   -0.0002824888051455032
-0.0050180194617637204   -0.01361949700452387   -9.188898938008513e-05
-0.0009712832232966642   -0.020521743463605774   -0.00014858642289074134
-0.004663535432949145   -0.020505632558436463   -0.000258346361361223
-0.0050180194617637204   -0.01361949700452387   -9.188898938008513e-05
-0.0046165183860919275   -0.020564594453178504   -0.0002824888051455032
-0.0009712832232966642   -0.020521743463605774   -0.00014858642289074134
-0.0050180194617637204   -0.01361949700452387   -9.188898938008513e-05
-0.0013330037731589177   -0.01361734360552325   2.624485903291725e-05
-0.0012698753926926464   -0.013688571087748637   -6.694866326348365e-06
-0.0009712832232966642   -0.020521743463605774   -0.00014858642289074134
-0.0050180194617637204   -0.01361949700452387   -9.188898938008513e-05
-0.0012698753926926464   -0.013688571087748637   -6.694866326348365e-06
-0.0046165183860919275   -0.020564594453178504   -0.0002824888051455032
-0.0009712832232966642   -0.020521743463605774   -0.00014858642289074134
-0.0013330037731589177   -0.01361734360552325   2.624485903291725e-05
-0.004663535432949145   -0.020505632558436463   -0.000258346361361223
-0.0010291789061000834   -0.020454773413098332   -0.0001268950785454216
-0.0013330037731589177   -0.01361734360552325   2.624485903291725e-05
-0.0050180194617637204   -0.01361949700452387   -9.188898938008513e-05
-0.004663535432949145   -0.020505632558436463   -0.000258346361361223
-0.005070677890522068   -0.013557154469847739   -6.0016281326202815e-05
-0.0010291789061000834   -0.020454773413098332   -0.0001268950785454216
-0.004713562878230865   -0.020450996438010155   -0.00023057960111895354
-0.005070677890522068   -0.013557154469847739   -6.0016281326202815e-05
-0.004663535432949145   -0.020505632558436463   -0.000258346361361223
-0.0010291789061000834   -0.020454773413098332   -0.0001268950785454216
-0.005070677890522068   -0.013557154469847739   -6.0016281326202815e-05
-0.001398365812894309   -0.013541778918193996   6.413763550297687e-05
-0.0013330037731589177   -0.01361734360552325   2.624485903291725e-05
-0.0010291789061000834   -0.020454773413098332   -0.0001268950785454216
-0.005070677890522068   -0.013557154469847739   -6.0016281326202815e-05
-0.0013330037731589177   -0.01361734360552325   2.624485903291725e-05
-0.004663535432949145   -0.020505632558436463   -0.000258346361361223
-0.004570544157782381   -0.020626951069253077   -0.00030304118611378263
-0.0049186192627166374   -0.01373943678608639   -0.0001467481546243822
-0.008205914921816234   -0.02057887444653073   -0.00040832742793855747
-0.0046165183860919275   -0.020564594453178504   -0.0002824888051455032
-0.0049186192627166374   -0.01373943678608639   -0.0001467481546243822
-0.008582608646328701   -0.01373476390381284   -0.0002479673962641524
-0.008205914921816234   -0.02057887444653073   -0.00040832742793855747
-0.008629357456021523   -0.013683318382027137   -0.00022293249680625535
-0.0046165183860919275   -0.020564594453178504   -0.0002824888051455032
-0.008251600674308687   -0.020527983181864384   -0.00038047315335294003
-0.008629357456021523   -0.013683318382027137   -0.00022293249680625535
-0.008205914921816234   -0.02057887444653073   -0.00040832742793855747
-0.0046165183860919275   -0.020564594453178504   -0.0002824888051455032
-0.008629357456021523   -0.013683318382027137   -0.00022293249680625535
-0.0049674646389112976   -0.013680634760892431   -0.00012062722708765463
-0.0049186192627166374   -0.01373943678608639   -0.0001467481546243822
-0.0046165183860919275   -0.020564594453178504   -0.0002824888051455032
-0.008629357456021523   -0.013683318382027137   -0.00022293249680625535
-0.0049186192627166374   -0.01373943678608639   -0.0001467481546243822
-0.008205914921816234   -0.02057887444653073   -0.00040832742793855747
-0.0046165183860919275   -0.020564594453178504   -0.0002824888051455032
-0.0049674646389112976   -0.013680634760892431   -0.00012062722708765463
-0.008251600674308687   -0.020527983181864384   -0.00038047315335294003
-0.004663535432949145   -0.020505632558436463   -0.000258346361361223
-0.0049674646389112976   -0.013680634760892431   -0.00012062722708765463
-0.008629357456021523   -0.013683318382027137   -0.00022293249680625535
-0.008251600674308687   -0.020527983181864384   -0.00038047315335294003
-0.008673893756054398   -0.013630987027540393   -0.00019560461989762777
-0.004663535432949145   -0.020505632558436463   -0.000258346361361223
-0.008294317986527829   -0.020480671560131655   -0.00034915128759442453
-0.008673893756054398   -0.013630987027540393   -0.00019560461989762777
-0.008251600674308687   -0.020527983181864384   -0.00038047315335294003
-0.004663535432949145   -0.020505632558436463   -0.000258346361361223
-0.008673893756054398   -0.013630987027540393   -0.00019560461989762777
-0.0050180194617637204   -0.01361949700452387   -9.188898938008513e-05
-0.0049674646389112976   -0.013680634760892431   -0.00012062722708765463
-0.004663535432949145   -0.020505632558436463   -0.000258346361361223
-0.008673893756054398   -0.013630987027540393   -0.00019560461989762777
-0.0049674646389112976   -0.013680634760892431   -0.00012062722708765463
-0.008251600674308687   -0.020527983181864384   -0.00038047315335294003
-0.004663535432949145   -0.020505632558436463   -0.000258346361361223
-0.0050180194617637204   -0.01361949700452387   -9.188898938008513e-05
-0.008294317986527829   -0.020480671560131655   -0.00034915128759442453
-0.004713562878230865   -0.020450996438010155   -0.00023057960111895354
-0.0050180194617637204   -0.01361949700452387   -9.188898938008513e-05
-0.008673893756054398   -0.013630987027540393   -0.00019560461989762777
-0.008294317986527829   -0.020480671560131655   -0.00034915128759442453
-0.008717984944040188   -0.013577464387905809   -0.00016610970296937534
-0.004713562878230865   -0.020450996438010155   -0.00023057960111895354
-0.008337188511708194   -0.02043706790346673   -0.00031453223112051554
-0.008717984944040188   -0.013577464387905809   -0.00016610970296937534
-0.008294317986527829   -0.020480671560131655   -0.00034915128759442453
-0.004713562878230865   -0.020450996438010155   -0.00023057960111895354
-0.008717984944040188   -0.013577464387905809   -0.00016610970296937534
-0.005070677890522068   -0.013557154469847739   -6.0016281326202815e-05
-0.0050180194617637204   -0.01361949700452387   -9.188898938008513e-05
-0.004713562878230865   -0.020450996438010155   -0.00023057960111895354
-0.008717984944040188   -0.013577464387905809   -0.00016610970296937534
-0.0050180194617637204   -0.01361949700452387   -9.188898938008513e-05
-0.008294317986527829   -0.020480671560131655   -0.00034915128759442453
-0.008205914921816234   -0.02057887444653073   -0.00040832742793855747
-0.008582608646328701   -0.01373476390381284   -0.0002479673962641524
-0.01190708644452189   -0.02051374953324568   -0.0004937588386021114
-0.008251600674308687   -0.020527983181864384   -0.00038047315335294003
-0.008582608646328701   -0.01373476390381284   -0.0002479673962641524
-0.012324320478147903   -0.0137133150937322   -0.00033272951468923435
-0.01190708644452189   -0.02051374953324568   -0.0004937588386021114
-0.01236888524282136   -0.01367157415747957   -0.000308921682775013
-0.008251600674308687   -0.020527983181864384   -0.00038047315335294003
-0.011950818157170457   -0.020474917860535964   -0.00045869043532328945
-0.01236888524282136   -0.01367157415747957   -0.000308921682775013
-0.01190708644452189   -0.02051374953324568   -0.0004937588386021114
-0.008251600674308687   -0.020527983181864384   -0.00038047315335294003
-0.01236888524282136   -0.01367157415747957   -0.000308921682775013
-0.008629357456021523   -0.013683318382027137   -0.00022293249680625535
-0.008582608646328701   -0.01373476390381284   -0.0002479673962641524
-0.008251600674308687   -0.020527983181864384   -0.00038047315335294003
-0.01236888524282136   -0.01367157415747957   -0.000308921682775013
-0.008582608646328701   -0.01373476390381284   -0.0002479673962641524
-0.01190708644452189   -0.02051374953324568   -0.0004937588386021114
-0.008251600674308687   -0.020527983181864384   -0.00038047315335294003
-0.008629357456021523   -0.013683318382027137   -0.00022293249680625535
-0.011950818157170457   -0.020474917860535964   -0.00045869043532328945
-0.008294317986527829   -0.020480671560131655   -0.00034915128759442453
-0.008629357456021523   -0.013683318382027137   -0.00022293249680625535
-0.01236888524282136   -0.01367157415747957   -0.000308921682775013
-0.011950818157170457   -0.020474917860535964   -0.00045869043532328945
-0.012406587563483323   -0.013627559584030188   -0.0002834729465270251
-0.008294317986527829   -0.020480671560131655   -0.00034915128759442453
-0.011983867291224541   -0.020438346673074877   -0.0004207203347202858
-0.012406587563483323   -0.013627559584030188   -0.0002834729465270251
-0.011950818157170457   -0.020474917860535964   -0.00045869043532328945
-0.008294317986527829   -0.020480671560131655   -0.00034915128759442453
-0.012406587563483323   -0.013627559584030188   -0.0002834729465270251
-0.008673893756054398   -0.013630987027540393   -0.00019560461989762777
-0.008629357456021523   -0.013683318382027137   -0.00022293249680625535
-0.008294317986527829   -0.020480671560131655   -0.00034915128759442453
-0.012406587563483323   -0.013627559584030188   -0.0002834729465270251
-0.008629357456021523   -0.013683318382027137   -0.00022293249680625535
-0.011950818157170457   -0.020474917860535964   -0.00045869043532328945
-0.008294317986527829   -0.020480671560131655   -0.00034915128759442453
-0.008673893756054398   -0.013630987027540393   -0.00019560461989762777
-0.011983867291224541   -0.020438346673074877   -0.0004207203347202858
-0.008337188511708194   -0.02043706790346673   -0.00031453223112051554
-0.008673893756054398   -0.013630987027540393   -0.00019560461989762777
-0.012406587563483323   -0.013627559584030188   -0.0002834729465270251
-0.011983867291224541   -0.020438346673074877   -0.0004207203347202858
-0.012442218504537677   -0.013582425333210711   -0.0002556806163641843
-0.008337188511708194   -0.02043706790346673   -0.00031453223112051554
-0.01201668376682021   -0.02040569697194415   -0.0003790970719605471
-0.012442218504537677   -0.013582425333210711   -0.0002556806163641843
-0.011983867291224541   -0.020438346673074877   -0.0004207203347202858
-0.008337188511708194   -0.02043706790346673   -0.00031453223112051554
-0.012442218504537677   -0.013582425333210711   -0.0002556806163641843
-0.008717984944040188   -0.013577464387905809   -0.00016610970296937534
-0.008673893756054398   -0.013630987027540393   -0.00019560461989762777
-0.008337188511708194   -0.02043706790346673   -0.00031453223112051554
-0.012442218504537677   -0.013582425333210711   -0.0002556806163641843
-0.008673893756054398   -0.013630987027540393   -0.00019560461989762777
-0.011983867291224541   -0.020438346673074877   -0.0004207203347202858
-0.01190708644452189   -0.02051374953324568   -0.0004937588386021114
-0.012324320478147903   -0.0137133150937322   -0.00033272951468923435
-0.015830832475189235   -0.020436580740634286   -0.0005568360473391712
-0.011950818157170457   -0.020474917860535964   -0.00045869043532328945
-0.012324320478147903   -0.0137133150937322   -0.00033272951468923435
-0.016245000665287737   -0.013677813927948078   -0.00039502076895058604
-0.015830832475189235   -0.020436580740634286   -0.0005568360473391712
-0.016272392316776962   -0.01364295985815005   -0.00037697979240181967
-0.011950818157170457   -0.020474917860535964   -0.00045869043532328945
-0.015836916346183994   -0.02040577046488266   -0.0005179025202967245
-0.016272392316776962   -0.01364295985815005   -0.00037697979240181967
-0.015830832475189235   -0.020436580740634286   -0.0005568360473391712
-0.011950818157170457   -0.020474917860535964   -0.00045869043532328945
-0.016272392316776962   -0.01364295985815005   -0.00037697979240181967
-0.01236888524282136   -0.01367157415747957   -0.000308921682775013
-0.012324320478147903   -0.0137133150937322   -0.00033272951468923435
-0.011950818157170457   -0.020474917860535964   -0.00045869043532328945
-0.016272392316776962   -0.01364295985815005   -0.00037697979240181967
-0.012324320478147903   -0.0137133150937322   -0.00033272951468923435
-0.015830832475189235   -0.020436580740634286   -0.0005568360473391712
-0.011950818157170457   -0.020474917860535964   -0.00045869043532328945
-0.01236888524282136   -0.01367157415747957   -0.000308921682775013
-0.015836916346183994   -0.02040577046488266   -0.0005179025202967245
-0.011983867291224541   -0.020438346673074877   -0.0004207203347202858
-0.01236888524282136   -0.01367157415747957   -0.000308921682775013
-0.016272392316776962   -0.01364295985815005   -0.00037697979240181967
-0.015836916346183994   -0.02040577046488266   -0.0005179025202967245
-0.01629743903045844   -0.013603443671824225   -0.0003549390847637079
-0.011983867291224541   -0.020438346673074877   -0.0004207203347202858
-0.015843268916294465   -0.020374718439207445   -0.0004731337742964362
-0.01629743903045844   -0.013603443671824225   -0.0003549390847637079
-0.015836916346183994   -0.02040577046488266   -0.0005179025202967245
-0.011983867291224541   -0.020438346673074877   -0.0004207203347202858
-0.01629743903045844   -0.013603443671824225   -0.0003549390847637079
-0.012406587563483323   -0.013627559584030188   -0.0002834729465270251
-0.01236888524282136   -0.01367157415747957   -0.000308921682775013
-0.011983867291224541   -0.020438346673074877   -0.0004207203347202858
-0.01629743903045844   -0.013603443671824225   -0.0003549390847637079
-0.01236888524282136   -0.01367157415747957   -0.000308921682775013
-0.015836916346183994   -0.02040577046488266   -0.0005179025202967245
-0.011983867291224541   -0.020438346673074877   -0.0004207203347202858
-0.012406587563483323   -0.013627559584030188   -0.0002834729465270251
-0.015843268916294465   -0.020374718439207445   -0.0004731337742964362
-0.01201668376682021   -0.02040569697194415   -0.0003790970719605471
-0.012406587563483323   -0.013627559584030188   -0.0002834729465270251
-0.01629743903045844   -0.013603443671824225   -0.0003549390847637079
-0.015843268916294465   -0.020374718439207445   -0.0004731337742964362
-0.016309234817587812   -0.013567412228476922   -0.0003298841940601136
-0.01201668376682021   -0.02040569697194415   -0.0003790970719605471
-0.015827394229293183   -0.020354793056837503   -0.0004232180016739863
-0.016309234817587812   -0.013567412228476922   -0.0003298841940601136
-0.015843268916294465   -0.020374718439207445   -0.0004731337742964362
-0.01201668376682021   -0.02040569697194415   -0.0003790970719605471
-0.016309234817587812   -0.013567412228476922   -0.0003298841940601136
-0.012442218504537677   -0.013582425333210711   -0.0002556806163641843
-0.012406587563483323   -0.013627559584030188   -0.0002834729465270251
-0.01201668376682021   -0.02040569697194415   -0.0003790970719605471
-0.016309234817587812   -0.013567412228476922   -0.0003298841940601136
-0.012406587563483323   -0.013627559584030188   -0.0002834729465270251
-0.015843268916294465   -0.020374718439207445   -0.0004731337742964362
0.0027170737955229357   -0.013820520962431219   8.191912642503744e-05
0.0019068940701642701   -0.006946649301131029   8.839155782809197e-05
-0.0012159572630993478   -0.013756125661144111   -3.462320904374234e-05
0.002632476997904153   -0.013738799603632147   0.00011640070423331089
0.0019068940701642701   -0.006946649301131029   8.839155782809197e-05
-0.0017645621101032897   -0.006857602912639168   4.6640316431710194e-05
-0.0012159572630993478   -0.013756125661144111   -3.462320904374234e-05
-0.001818331066092874   -0.0068240107052288   8.565072808596116e-05
0.002632476997904153   -0.013738799603632147   0.00011640070423331089
-0.0012698753926926464   -0.013688571087748637   -6.694866326348365e-06
-0.001818331066092874   -0.0068240107052288   8.565072808596116e-05
-0.0012159572630993478   -0.013756125661144111   -3.462320904374234e-05
0.002632476997904153   -0.013738799603632147   0.00011640070423331089
-0.001818331066092874   -0.0068240107052288   8.565072808596116e-05
0.0017391509477286944   -0.00685960488522624   0.0001847598555420694
0.0019068940701642701   -0.006946649301131029   8.839155782809197e-05
0.002632476997904153   -0.013738799603632147   0.00011640070423331089
-0.001818331066092874   -0.0068240107052288   8.565072808596116e-05
0.0019068940701642701   -0.006946649301131029   8.839155782809197e-05
-0.0012159572630993478   -0.013756125661144111   -3.462320904374234e-05
0.002632476997904153   -0.013738799603632147   0.00011640070423331089
0.0017391509477286944   -0.00685960488522624   0.0001847598555420694
-0.0012698753926926464   -0.013688571087748637   -6.694866326348365e-06
0.002537757610811581   -0.013657810837664198   0.00016618067390215222
0.0017391509477286944   -0.00685960488522624   0.0001847598555420694
-0.001818331066092874   -0.0068240107052288   8.565072808596116e-05
-0.0012698753926926464   -0.013688571087748637   -6.694866326348365e-06
-0.0018892279915442049   -0.006763403863657124   0.00013308701683912086
0.002537757610811581   -0.013657810837664198   0.00016618067390215222
-0.0013330037731589177   -0.01361734360552325   2.624485903291725e-05
-0.0018892279915442049   -0.006763403863657124   0.00013308701683912086
-0.0012698753926926464   -0.013688571087748637   -6.694866326348365e-06
0.002537757610811581   -0.013657810837664198   0.00016618067390215222
-0.0018892279915442049   -0.006763403863657124   0.00013308701683912086
0.0016410273799532427   -0.006788775444605705   0.0002565474085574889
0.0017391509477286944   -0.00685960488522624   0.0001847598555420694
0.002537757610811581   -0.013657810837664198   0.00016618067390215222
-0.0018892279915442049   -0.006763403863657124   0.00013308701683912086
0.0017391509477286944   -0.00685960488522624   0.0001847598555420694
-0.0012698753926926464   -0.013688571087748637   -6.694866326348365e-06
0.002537757610811581   -0.013657810837664198   0.00016618067390215222
0.0016410273799532427   -0.006788775444605705   0.0002565474085574889
-0.0013330037731589177   -0.01361734360552325   2.624485903291725e-05
0.0024219956259728974   -0.013558255187404444   0.00022100090150950426
0.0016410273799532427   -0.006788775444605705   0.0002565474085574889
-0.0018892279915442049   -0.006763403863657124   0.00013308701683912086
-0.0013330037731589177   -0.01361734360552325   2.624485903291725e-05
-0.0019489351293896057   -0.006698378465919763   0.00017483067563140895
0.0024219956259728974   -0.013558255187404444   0.00022100090150950426
-0.001398365812894309   -0.013541778918193996   6.413763550297687e-05
-0.0019489351293896057   -0.006698378465919763   0.00017483067563140895
-0.0013330037731589177   -0.01361734360552325   2.624485903291725e-05
0.0024219956259728974   -0.013558255187404444   0.00022100090150950426
-0.0019489351293896057   -0.006698378465919763   0.00017483067563140895
0.0015151116658943923   -0.006680176666528016   0.0003388072987646279
0.0016410273799532427   -0.006788775444605705   0.0002565474085574889
0.0024219956259728974   -0.013558255187404444   0.00022100090150950426
-0.0019489351293896057   -0.006698378465919763   0.00017483067563140895
0.0016410273799532427   -0.006788775444605705   0.0002565474085574889
-0.0013330037731589177   -0.01361734360552325   2.624485903291725e-05
-0.0012159572630993478   -0.013756125661144111   -3.462320904374234e-05
-0.0017645621101032897   -0.006857602912639168   4.6640316431710194e-05
-0.0049186192627166374   -0.01373943678608639   -0.0001467481546243822
-0.0012698753926926464   -0.013688571087748637   -6.694866326348365e-06
-0.0017645621101032897   -0.006857602912639168   4.6640316431710194e-05
-0.005256026226148965   -0.006959696410088859   -4.2040876939963365e-05
-0.0049186192627166374   -0.01373943678608639   -0.0001467481546243822
-0.005305740593655276   -0.006907776709199603   -1.4324618806624411e-05
-0.0012698753926926464   -0.013688571087748637   -6.694866326348365e-06
-0.0049674646389112976   -0.013680634760892431   -0.00012062722708765463
-0.005305740593655276   -0.006907776709199603   -1.4324618806624411e-05
-0.0049186192627166374   -0.01373943678608639   -0.0001467481546243822
-0.0012698753926926464   -0.013688571087748637   -6.694866326348365e-06
-0.005305740593655276   -0.006907776709199603   -1.4324618806624411e-05
-0.001818331066092874   -0.0068240107052288   8.565072808596116e-05
-0.0017645621101032897   -0.006857602912639168   4.6640316431710194e-05
-0.0012698753926926464   -0.013688571087748637   -6.694866326348365e-06
-0.005305740593655276   -0.006907776709199603   -1.4324618806624411e-05
-0.0017645621101032897   -0.006857602912639168   4.6640316431710194e-05
-0.0049186192627166374   -0.01373943678608639   -0.0001467481546243822
-0.0012698753926926464   -0.013688571087748637   -6.694866326348365e-06
-0.001818331066092874   -0.0068240107052288   8.565072808596116e-05
-0.0049674646389112976   -0.013680634760892431   -0.00012062722708765463
-0.0013330037731589177   -0.01361734360552325   2.624485903291725e-05
-0.001818331066092874   -0.0068240107052288   8.565072808596116e-05
-0.005305740593655276   -0.006907776709199603   -1.4324618806624411e-05
-0.0049674646389112976   -0.013680634760892431   -0.00012062722708765463
-0.0053578890031372025   -0.006849012707662073   1.5063777771324187e-05
-0.0013330037731589177   -0.01361734360552325   2.624485903291725e-05
-0.0050180194617637204   -0.01361949700452387   -9.188898938008513e-05
-0.0053578890031372025   -0.006849012707662073   1.5063777771324187e-05
-0.0049674646389112976   -0.013680634760892431   -0.00012062722708765463
-0.0013330037731589177   -0.01361734360552325   2.624485903291725e-05
-0.0053578890031372025   -0.006849012707662073   1.5063777771324187e-05
-0.0018892279915442049   -0.006763403863657124   0.00013308701683912086
-0.001818331066092874   -0.0068240107052288   8.565072808596116e-05
-0.0013330037731589177   -0.01361734360552325   2.624485903291725e-05
-0.0053578890031372025   -0.006849012707662073   1.5063777771324187e-05
-0.001818331066092874   -0.0068240107052288   8.565072808596116e-05
-0.0049674646389112976   -0.013680634760892431   -0.00012062722708765463
-0.0013330037731589177   -0.01361734360552325   2.624485903291725e-05
-0.0018892279915442049   -0.006763403863657124   0.00013308701683912086
-0.0050180194617637204   -0.01361949700452387   -9.188898938008513e-05
-0.001398365812894309   -0.013541778918193996   6.413763550297687e-05
-0.0018892279915442049   -0.006763403863657124   0.00013308701683912086
-0.0053578890031372025   -0.006849012707662073   1.5063777771324187e-05
-0.0050180194617637204   -0.01361949700452387   -9.188898938008513e-05
-0.0054075476238861645   -0.006784605717300783   4.750780586283438e-05
-0.001398365812894309   -0.013541778918193996   6.413763550297687e-05
-0.005070677890522068   -0.013557154469847739   -6.0016281326202815e-05
-0.0054075476238861645   -0.006784605717300783   4.750780586283438e-05
-0.0050180194617637204   -0.01361949700452387   -9.188898938008513e-05
-0.001398365812894309   -0.013541778918193996   6.413763550297687e-05
-0.0054075476238861645   -0.006784605717300783   4.750780586283438e-05
-0.0019489351293896057   -0.006698378465919763   0.00017483067563140895
-0.0018892279915442049   -0.006763403863657124   0.00013308701683912086
-0.001398365812894309   -0.013541778918193996   6.413763550297687e-05
-0.0054075476238861645   -0.006784605717300783   4.750780586283438e-05
-0.0018892279915442049   -0.006763403863657124   0.00013308701683912086
-0.0050180194617637204   -0.01361949700452387   -9.188898938008513e-05
-0.0049186192627166374   -0.01373943678608639   -0.0001467481546243822
-0.005256026226148965   -0.006959696410088859   -4.2040876939963365e-05
-0.008582608646328701   -0.01373476390381284   -0.0002479673962641524
-0.0049674646389112976   -0.013680634760892431   -0.00012062722708765463
-0.005256026226148965   -0.006959696410088859   -4.2040876939963365e-05
-0.008831859487775706   -0.007039469968083211   -0.00014068413977562776
-0.008582608646328701   -0.01373476390381284   -0.0002479673962641524
-0.008876599977083609   -0.0069861244390376585   -0.0001191388188236936
-0.0049674646389112976   -0.013680634760892431   -0.00012062722708765463
-0.008629357456021523   -0.013683318382027137   -0.00022293249680625535
-0.008876599977083609   -0.0069861244390376585   -0.0001191388188236936
-0.008582608646328701   -0.01373476390381284   -0.0002479673962641524
-0.0049674646389112976   -0.013680634760892431   -0.00012062722708765463
-0.008876599977083609   -0.0069861244390376585   -0.0001191388188236936
-0.005305740593655276   -0.006907776709199603   -1.4324618806624411e-05
-0.005256026226148965   -0.006959696410088859   -4.2040876939963365e-05
-0.0049674646389112976   -0.013680634760892431   -0.00012062722708765463
-0.008876599977083609   -0.0069861244390376585   -0.0001191388188236936
-0.005256026226148965   -0.006959696410088859   -4.2040876939963365e-05
-0.008582608646328701   -0.01373476390381284   -0.0002479673962641524
-0.0049674646389112976   -0.013680634760892431   -0.00012062722708765463
-0.005305740593655276   -0.006907776709199603   -1.4324618806624411e-05
-0.008629357456021523   -0.013683318382027137   -0.00022293249680625535
-0.0050180194617637204   -0.01361949700452387   -9.188898938008513e-05
-0.005305740593655276   -0.006907776709199603   -1.4324618806624411e-05
-0.008876599977083609   -0.0069861244390376585   -0.0001191388188236936
-0.008629357456021523   -0.013683318382027137   -0.00022293249680625535
-0.008919487278056118   -0.00692971988977494   -9.762387392988294e-05
-0.0050180194617637204   -0.01361949700452387   -9.188898938008513e-05
-0.008673893756054398   -0.013630987027540393   -0.00019560461989762777
-0.008919487278056118   -0.00692971988977494   -9.762387392988294e-05
-0.008629357456021523   -0.013683318382027137   -0.00022293249680625535
-0.0050180194617637204   -0.01361949700452387   -9.188898938008513e-05
-0.008919487278056118   -0.00692971988977494   -9.762387392988294e-05
-0.0053578890031372025   -0.006849012707662073   1.5063777771324187e-05
-0.005305740593655276   -0.006907776709199603   -1.4324618806624411e-05
-0.0050180194617637204   -0.01361949700452387   -9.188898938008513e-05
-0.008919487278056118   -0.00692971988977494   -9.762387392988294e-05
-0.005305740593655276   -0.006907776709199603   -1.4324618806624411e-05
-0.008629357456021523   -0.013683318382027137   -0.00022293249680625535
-0.0050180194617637204   -0.01361949700452387   -9.188898938008513e-05
-0.0053578890031372025   -0.006849012707662073   1.5063777771324187e-05
-0.008673893756054398   -0.013630987027540393   -0.00019560461989762777
-0.005070677890522068   -0.013557154469847739   -6.0016281326202815e-05
-0.0053578890031372025   -0.006849012707662073   1.5063777771324187e-05
-0.008919487278056118   -0.00692971988977494   -9.762387392988294e-05
-0.008673893756054398   -0.013630987027540393   -0.00019560461989762777
-0.00895906998257258   -0.006868601721143182   -7.415856297170656e-05
-0.005070677890522068   -0.013557154469847739   -6.0016281326202815e-05
-0.008717984944040188   -0.013577464387905809   -0.00016610970296937534
-0.00895906998257258   -0.006868601721143182   -7.415856297170656e-05
-0.008673893756054398   -0.013630987027540393   -0.00019560461989762777
-0.005070677890522068   -0.013557154469847739   -6.0016281326202815e-05
-0.00895906998257258   -0.006868601721143182   -7.415856297170656e-05
-0.0054075476238861645   -0.006784605717300783   4.750780586283438e-05
-0.0053578890031372025   -0.006849012707662073   1.5063777771324187e-05
-0.005070677890522068   -0.013557154469847739   -6.0016281326202815e-05
-0.00895906998257258   -0.006868601721143182   -7.415856297170656e-05
-0.0053578890031372025   -0.006849012707662073   1.5063777771324187e-05
-0.008673893756054398   -0.013630987027540393   -0.00019560461989762777
-0.008582608646328701   -0.01373476390381284   -0.0002479673962641524
-0.008831859487775706   -0.007039469968083211   -0.00014068413977562776
-0.012324320478147903   -0.0137133150937322   -0.00033272951468923435
-0.008629357456021523   -0.013683318382027137   -0.00022293249680625535
-0.008831859487775706   -0.007039469968083211   -0.00014068413977562776
-0.012533334005349174   -0.007072265641830713   -0.00023166660507629837
-0.012324320478147903   -0.0137133150937322   -0.00033272951468923435
-0.012573661127587015   -0.007024456974296747   -0.00021590525563870268
-0.008629357456021523   -0.013683318382027137   -0.00022293249680625535
-0.01236888524282136   -0.01367157415747957   -0.000308921682775013
-0.012573661127587015   -0.007024456974296747   -0.00021590525563870268
-0.012324320478147903   -0.0137133150937322   -0.00033272951468923435
-0.008629357456021523   -0.013683318382027137   -0.00022293249680625535
-0.012573661127587015   -0.007024456974296747   -0.00021590525563870268
-0.008876599977083609   -0.0069861244390376585   -0.0001191388188236936
-0.008831859487775706   -0.007039469968083211   -0.00014068413977562776
-0.008629357456021523   -0.013683318382027137   -0.00022293249680625535
-0.012573661127587015   -0.007024456974296747   -0.00021590525563870268
-0.008831859487775706   -0.007039469968083211   -0.00014068413977562776
-0.012324320478147903   -0.0137133150937322   -0.00033272951468923435
-0.008629357456021523   -0.013683318382027137   -0.00022293249680625535
-0.008876599977083609   -0.0069861244390376585   -0.0001191388188236936
-0.01236888524282136   -0.01367157415747957   -0.000308921682775013
-0.008673893756054398   -0.013630987027540393   -0.00019560461989762777
-0.008876599977083609   -0.0069861244390376585   -0.0001191388188236936
-0.012573661127587015   -0.007024456974296747   -0.00021590525563870268
-0.01236888524282136   -0.01367157415747957   -0.000308921682775013
-0.012609600895204926   -0.006972301515727005   -0.00020055705644376546
-0.008673893756054398   -0.013630987027540393   -0.00019560461989762777
-0.012406587563483323   -0.013627559584030188   -0.0002834729465270251
-0.012609600895204926   -0.006972301515727005   -0.00020055705644376546
-0.01236888524282136   -0.01367157415747957   -0.000308921682775013
-0.008673893756054398   -0.013630987027540393   -0.00019560461989762777
-0.012609600895204926   -0.006972301515727005   -0.00020055705644376546
-0.008919487278056118   -0.00692971988977494   -9.762387392988294e-05
-0.008876599977083609   -0.0069861244390376585   -0.0001191388188236936
-0.008673893756054398   -0.013630987027540393   -0.00019560461989762777
-0.012609600895204926   -0.006972301515727005   -0.00020055705644376546
-0.008876599977083609   -0.0069861244390376585   -0.0001191388188236936
-0.01236888524282136   -0.01367157415747957   -0.000308921682775013
-0.008673893756054398   -0.013630987027540393   -0.00019560461989762777
-0.008919487278056118   -0.00692971988977494   -9.762387392988294e-05
-0.012406587563483323   -0.013627559584030188   -0.0002834729465270251
-0.008717984944040188   -0.013577464387905809   -0.00016610970296937534
-0.008919487278056118   -0.00692971988977494   -9.762387392988294e-05
-0.012609600895204926   -0.006972301515727005   -0.00020055705644376546
-0.012406587563483323   -0.013627559584030188   -0.0002834729465270251
-0.012642160618970829   -0.0069167415548326335   -0.00018471084800967004
-0.008717984944040188   -0.013577464387905809   -0.00016610970296937534
-0.012442218504537677   -0.013582425333210711   -0.0002556806163641843
-0.012642160618970829   -0.0069167415548326335   -0.00018471084800967004
-0.012406587563483323   -0.013627559584030188   -0.0002834729465270251
-0.008717984944040188   -0.013577464387905809   -0.00016610970296937534
-0.012642160618970829   -0.0069167415548326335   -0.00018471084800967004
-0.00895906998257258   -0.006868601721143182   -7.415856297170656e-05
-0.008919487278056118   -0.00692971988977494   -9.762387392988294e-05
-0.008717984944040188   -0.013577464387905809   -0.00016610970296937534
-0.012642160618970829   -0.0069167415548326335   -0.00018471084800967004
-0.008919487278056118   -0.00692971988977494   -9.762387392988294e-05
-0.012406587563483323   -0.013627559584030188   -0.0002834729465270251
-0.012324320478147903   -0.0137133150937322   -0.00033272951468923435
-0.012533334005349174   -0.007072265641830713   -0.00023166660507629837
-0.016245000665287737   -0.013677813927948078   -0.00039502076895058604
-0.01236888524282136   -0.01367157415747957   -0.000308921682775013
-0.012533334005349174   -0.007072265641830713   -0.00023166660507629837
-0.016367741254817308   -0.007075835806067493   -0.00030692015107937397
-0.016245000665287737   -0.013677813927948078   -0.00039502076895058604
-0.016402302125605304   -0.0070294764255839325   -0.0003000471645553343
-0.01236888524282136   -0.01367157415747957   -0.000308921682775013
-0.016272392316776962   -0.01364295985815005   -0.00037697979240181967
-0.016402302125605304   -0.0070294764255839325   -0.0003000471645553343
-0.016245000665287737   -0.013677813927948078   -0.00039502076895058604
-0.01236888524282136   -0.01367157415747957   -0.000308921682775013
-0.016402302125605304   -0.0070294764255839325   -0.0003000471645553343
-0.012573661127587015   -0.007024456974296747   -0.00021590525563870268
-0.012533334005349174   -0.007072265641830713   -0.00023166660507629837
-0.01236888524282136   -0.01367157415747957   -0.000308921682775013
-0.016402302125605304   -0.0070294764255839325   -0.0003000471645553343
-0.012533334005349174   -0.007072265641830713   -0.00023166660507629837
-0.016245000665287737   -0.013677813927948078   -0.00039502076895058604
-0.01236888524282136   -0.01367157415747957   -0.000308921682775013
-0.012573661127587015   -0.007024456974296747   -0.00021590525563870268
-0.016272392316776962   -0.01364295985815005   -0.00037697979240181967
-0.012406587563483323   -0.013627559584030188   -0.0002834729465270251
-0.012573661127587015   -0.007024456974296747   -0.00021590525563870268
-0.016402302125605304   -0.0070294764255839325   -0.0003000471645553343
-0.016272392316776962   -0.01364295985815005   -0.00037697979240181967
-0.016433265749711542   -0.0069792690504127   -0.00029198912719598084
-0.012406587563483323   -0.013627559584030188   -0.0002834729465270251
-0.01629743903045844   -0.013603443671824225   -0.0003549390847637079
-0.016433265749711542   -0.0069792690504127   -0.00029198912719598084
-0.016272392316776962   -0.01364295985815005   -0.00037697979240181967
-0.012406587563483323   -0.013627559584030188   -0.0002834729465270251
-0.016433265749711542   -0.0069792690504127   -0.00029198912719598084
-0.012609600895204926   -0.006972301515727005   -0.00020055705644376546
-0.012573661127587015   -0.007024456974296747   -0.00021590525563870268
-0.012406587563483323   -0.013627559584030188   -0.0002834729465270251
-0.016433265749711542   -0.0069792690504127   -0.00029198912719598084
-0.012573661127587015   -0.007024456974296747   -0.00021590525563870268
-0.016272392316776962   -0.01364295985815005   -0.00037697979240181967
-0.012406587563483323   -0.013627559584030188   -0.0002834729465270251
-0.012609600895204926   -0.006972301515727005   -0.00020055705644376546
-0.01629743903045844   -0.013603443671824225   -0.0003549390847637079
-0.012442218504537677   -0.013582425333210711   -0.0002556806163641843
-0.012609600895204926   -0.006972301515727005   -0.00020055705644376546
-0.016433265749711542   -0.0069792690504127   -0.00029198912719598084
-0.01629743903045844   -0.013603443671824225   -0.0003549390847637079
-0.016459190086472758   -0.00692612012115209   -0.000284427151339526
-0.012442218504537677   -0.013582425333210711   -0.0002556806163641843
-0.016309234817587812   -0.013567412228476922   -0.0003298841940601136
-0.016459190086472758   -0.00692612012115209   -0.000284427151339526
-0.01629743903045844   -0.013603443671824225   -0.0003549390847637079
-0.012442218504537677   -0.013582425333210711   -0.0002556806163641843
-0.016459190086472758   -0.00692612012115209   -0.000284427151339526
-0.012642160618970829   -0.0069167415548326335   -0.00018471084800967004
-0.012609600895204926   -0.006972301515727005   -0.00020055705644376546
-0.012442218504537677   -0.013582425333210711   -0.0002556806163641843
-0.016459190086472758   -0.00692612012115209   -0.000284427151339526
-0.012609600895204926   -0.006972301515727005   -0.00020055705644376546
-0.01629743903045844   -0.013603443671824225   -0.0003549390847637079
0.0019068940701642701   -0.006946649301131029   8.839155782809197e-05
0.0   0.0   0.0
-0.0017645621101032897   -0.006857602912639168   4.6640316431710194e-05
0.0017391509477286944   -0.00685960488522624   0.0001847598555420694
0.0   0.0   0.0
-0.002211654650555751   -0.0005667329328634098   -1.7220511420247552e-05
-0.0017645621101032897   -0.006857602912639168   4.6640316431710194e-05
-0.0023439230817245324   -0.00044164782638605256   5.957225893565953e-05
0.0017391509477286944   -0.00685960488522624   0.0001847598555420694
-0.001818331066092874   -0.0068240107052288   8.565072808596116e-05
-0.0023439230817245324   -0.00044164782638605256   5.957225893565953e-05
-0.0017645621101032897   -0.006857602912639168   4.6640316431710194e-05
0.0017391509477286944   -0.00685960488522624   0.0001847598555420694
-0.0023439230817245324   -0.00044164782638605256   5.957225893565953e-05
0.0   0.0   0.0
0.0   0.0   0.0
0.0017391509477286944   -0.00685960488522624   0.0001847598555420694
-0.0023439230817245324   -0.00044164782638605256   5.957225893565953e-05
0.0   0.0   0.0
-0.0017645621101032897   -0.006857602912639168   4.6640316431710194e-05
0.0017391509477286944   -0.00685960488522624   0.0001847598555420694
0.0   0.0   0.0
-0.001818331066092874   -0.0068240107052288   8.565072808596116e-05
0.0016410273799532427   -0.006788775444605705   0.0002565474085574889
0.0   0.0   0.0
-0.0023439230817245324   -0.00044164782638605256   5.957225893565953e-05
-0.001818331066092874   -0.0068240107052288   8.565072808596116e-05
-0.002427114326151316   -0.0003815289793230157   0.00010410154135087955
0.0016410273799532427   -0.006788775444605705   0.0002565474085574889
-0.0018892279915442049   -0.006763403863657124   0.00013308701683912086
-0.002427114326151316   -0.0003815289793230157   0.00010410154135087955
-0.001818331066092874   -0.0068240107052288   8.565072808596116e-05
0.0016410273799532427   -0.006788775444605705   0.0002565474085574889
-0.002427114326151316   -0.0003815289793230157   0.00010410154135087955
0.0   0.0   0.0
0.0   0.0   0.0
0.0016410273799532427   -0.006788775444605705   0.0002565474085574889
-0.002427114326151316   -0.0003815289793230157   0.00010410154135087955
0.0   0.0   0.0
-0.001818331066092874   -0.0068240107052288   8.565072808596116e-05
0.0016410273799532427   -0.006788775444605705   0.0002565474085574889
0.0   0.0   0.0
-0.0018892279915442049   -0.006763403863657124   0.00013308701683912086
0.0015151116658943923   -0.006680176666528016   0.0003388072987646279
0.0   0.0   0.0
-0.002427114326151316   -0.0003815289793230157   0.00010410154135087955
-0.0018892279915442049   -0.006763403863657124   0.00013308701683912086
-0.002538965699147999   -0.00030159273233650757   0.00015525213934938466
0.0015151116658943923   -0.006680176666528016   0.0003388072987646279
-0.0019489351293896057   -0.006698378465919763   0.00017483067563140895
-0.002538965699147999   -0.00030159273233650757   0.00015525213934938466
-0.0018892279915442049   -0.006763403863657124   0.00013308701683912086
0.0015151116658943923   -0.006680176666528016   0.0003388072987646279
-0.002538965699147999   -0.00030159273233650757   0.00015525213934938466
0.0   0.0   0.0
0.0   0.0   0.0
0.0015151116658943923   -0.006680176666528016   0.0003388072987646279
-0.002538965699147999   -0.00030159273233650757   0.00015525213934938466
0.0   0.0   0.0
-0.0018892279915442049   -0.006763403863657124   0.00013308701683912086
-0.0017645621101032897   -0.006857602912639168   4.6640316431710194e-05
-0.002211654650555751   -0.0005667329328634098   -1.7220511420247552e-05
-0.005256026226148965   -0.006959696410088859   -4.2040876939963365e-05
-0.001818331066092874   -0.0068240107052288   8.565072808596116e-05
-0.002211654650555751   -0.0005667329328634098   -1.7220511420247552e-05
-0.005411416599321569   -0.0007445315185087986   -1.4194482834407615e-05
-0.005256026226148965   -0.006959696410088859   -4.2040876939963365e-05
-0.0054798094002697275   -0.0006764953784561424   5.755553022417101e-06
-0.001818331066092874   -0.0068240107052288   8.565072808596116e-05
-0.005305740593655276   -0.006907776709199603   -1.4324618806624411e-05
-0.0054798094002697275   -0.0006764953784561424   5.755553022417101e-06
-0.005256026226148965   -0.006959696410088859   -4.2040876939963365e-05
-0.001818331066092874   -0.0068240107052288   8.565072808596116e-05
-0.0054798094002697275   -0.0006764953784561424   5.755553022417101e-06
-0.0023439230817245324   -0.00044164782638605256   5.957225893565953e-05
-0.002211654650555751   -0.0005667329328634098   -1.7220511420247552e-05
-0.001818331066092874   -0.0068240107052288   8.565072808596116e-05
-0.0054798094002697275   -0.0006764953784561424   5.755553022417101e-06
-0.002211654650555751   -0.0005667329328634098   -1.7220511420247552e-05
-0.005256026226148965   -0.006959696410088859   -4.2040876939963365e-05
-0.001818331066092874   -0.0068240107052288   8.565072808596116e-05
-0.0023439230817245324   -0.00044164782638605256   5.957225893565953e-05
-0.005305740593655276   -0.006907776709199603   -1.4324618806624411e-05
-0.0018892279915442049   -0.006763403863657124   0.00013308701683912086
-0.0023439230817245324   -0.00044164782638605256   5.957225893565953e-05
-0.0054798094002697275   -0.0006764953784561424   5.755553022417101e-06
-0.005305740593655276   -0.006907776709199603   -1.4324618806624411e-05
-0.0055479975748890745   -0.000596803491886181   4.129050643757517e-05
-0.0018892279915442049   -0.006763403863657124   0.00013308701683912086
-0.0053578890031372025   -0.006849012707662073   1.5063777771324187e-05
-0.0055479975748890745   -0.000596803491886181   4.129050643757517e-05
-0.005305740593655276   -0.006907776709199603   -1.4324618806624411e-05
-0.0018892279915442049   -0.006763403863657124   0.00013308701683912086
-0.0055479975748890745   -0.000596803491886181   4.129050643757517e-05
-0.002427114326151316   -0.0003815289793230157   0.00010410154135087955
-0.0023439230817245324   -0.00044164782638605256   5.957225893565953e-05
-0.0018892279915442049   -0.006763403863657124   0.00013308701683912086
-0.0055479975748890745   -0.000596803491886181   4.129050643757517e-05
-0.0023439230817245324   -0.00044164782638605256   5.957225893565953e-05
-0.005305740593655276   -0.006907776709199603   -1.4324618806624411e-05
-0.0018892279915442049   -0.006763403863657124   0.00013308701683912086
-0.002427114326151316   -0.0003815289793230157   0.00010410154135087955
-0.0053578890031372025   -0.006849012707662073   1.5063777771324187e-05
-0.0019489351293896057   -0.006698378465919763   0.00017483067563140895
-0.002427114326151316   -0.0003815289793230157   0.00010410154135087955
-0.0055479975748890745   -0.000596803491886181   4.129050643757517e-05
-0.0053578890031372025   -0.006849012707662073   1.5063777771324187e-05
-0.005623828218514677   -0.0005044699479693288   7.544044515978188e-05
-0.0019489351293896057   -0.006698378465919763   0.00017483067563140895
-0.0054075476238861645   -0.006784605717300783   4.750780586283438e-05
-0.005623828218514677   -0.0005044699479693288   7.544044515978188e-05
-0.0053578890031372025   -0.006849012707662073   1.5063777771324187e-05
-0.0019489351293896057   -0.006698378465919763   0.00017483067563140895
-0.005623828218514677   -0.0005044699479693288   7.544044515978188e-05
-0.002538965699147999   -0.00030159273233650757   0.00015525213934938466
-0.002427114326151316   -0.0003815289793230157   0.00010410154135087955
-0.0019489351293896057   -0.006698378465919763   0.00017483067563140895
-0.005623828218514677   -0.0005044699479693288   7.544044515978188e-05
-0.002427114326151316   -0.0003815289793230157   0.00010410154135087955
-0.0053578890031372025   -0.006849012707662073   1.5063777771324187e-05
-0.005256026226148965   -0.006959696410088859   -4.2040876939963365e-05
-0.005411416599321569   -0.0007445315185087986   -1.4194482834407615e-05
-0.008831859487775706   -0.007039469968083211   -0.00014068413977562776
-0.005305740593655276   -0.006907776709199603   -1.4324618806624411e-05
-0.005411416599321569   -0.0007445315185087986   -1.4194482834407615e-05
-0.008918772489795905   -0.0007953998451474664   -7.588928990413973e-05
-0.008831859487775706   -0.007039469968083211   -0.00014068413977562776
-0.00896039214344115   -0.00074268759156503   -7.025972139151878e-05
-0.005305740593655276   -0.006907776709199603   -1.4324618806624411e-05
-0.008876599977083609   -0.0069861244390376585   -0.0001191388188236936
-0.00896039214344115   -0.00074268759156503   -7.025972139151878e-05
-0.008831859487775706   -0.007039469968083211   -0.00014068413977562776
-0.005305740593655276   -0.006907776709199603   -1.4324618806624411e-05
-0.00896039214344115   -0.00074268759156503   -7.025972139151878e-05
-0.0054798094002697275   -0.0006764953784561424   5.755553022417101e-06
-0.005411416599321569   -0.0007445315185087986   -1.4194482834407615e-05
-0.005305740593655276   -0.006907776709199603   -1.4324618806624411e-05
-0.00896039214344115   -0.00074268759156503   -7.025972139151878e-05
-0.005411416599321569   -0.0007445315185087986   -1.4194482834407615e-05
-0.008831859487775706   -0.007039469968083211   -0.00014068413977562776
-0.005305740593655276   -0.006907776709199603   -1.4324618806624411e-05
-0.0054798094002697275   -0.0006764953784561424   5.755553022417101e-06
-0.008876599977083609   -0.0069861244390376585   -0.0001191388188236936
-0.0053578890031372025   -0.006849012707662073   1.5063777771324187e-05
-0.0054798094002697275   -0.0006764953784561424   5.755553022417101e-06
-0.00896039214344115   -0.00074268759156503   -7.025972139151878e-05
-0.008876599977083609   -0.0069861244390376585   -0.0001191388188236936
-0.009003690677299564   -0.0006813371487000123   -6.0439366781589816e-05
-0.0053578890031372025   -0.006849012707662073   1.5063777771324187e-05
-0.008919487278056118   -0.00692971988977494   -9.762387392988294e-05
-0.009003690677299564   -0.0006813371487000123   -6.0439366781589816e-05
-0.008876599977083609   -0.0069861244390376585   -0.0001191388188236936
-0.0053578890031372025   -0.006849012707662073   1.5063777771324187e-05
-0.009003690677299564   -0.0006813371487000123   -6.0439366781589816e-05
-0.0055479975748890745   -0.000596803491886181   4.129050643757517e-05
-0.0054798094002697275   -0.0006764953784561424   5.755553022417101e-06
-0.0053578890031372025   -0.006849012707662073   1.5063777771324187e-05
-0.009003690677299564   -0.0006813371487000123   -6.0439366781589816e-05
-0.0054798094002697275   -0.0006764953784561424   5.755553022417101e-06
-0.008876599977083609   -0.0069861244390376585   -0.0001191388188236936
-0.0053578890031372025   -0.006849012707662073   1.5063777771324187e-05
-0.0055479975748890745   -0.000596803491886181   4.129050643757517e-05
-0.008919487278056118   -0.00692971988977494   -9.762387392988294e-05
-0.0054075476238861645   -0.006784605717300783   4.750780586283438e-05
-0.0055479975748890745   -0.000596803491886181   4.129050643757517e-05
-0.009003690677299564   -0.0006813371487000123   -6.0439366781589816e-05
-0.008919487278056118   -0.00692971988977494   -9.762387392988294e-05
-0.009045040910318145   -0.0006064103199927447   -4.744500563874076e-05
-0.0054075476238861645   -0.006784605717300783   4.750780586283438e-05
-0.00895906998257258   -0.006868601721143182   -7.415856297170656e-05
-0.009045040910318145   -0.0006064103199927447   -4.744500563874076e-05
-0.008919487278056118   -0.00692971988977494   -9.762387392988294e-05
-0.0054075476238861645   -0.006784605717300783   4.750780586283438e-05
-0.009045040910318145   -0.0006064103199927447   -4.744500563874076e-05
-0.005623828218514677   -0.0005044699479693288   7.544044515978188e-05
-0.0055479975748890745   -0.000596803491886181   4.129050643757517e-05
-0.0054075476238861645   -0.006784605717300783   4.750780586283438e-05
-0.009045040910318145   -0.0006064103199927447   -4.744500563874076e-05
-0.0055479975748890745   -0.000596803491886181   4.129050643757517e-05
-0.008919487278056118   -0.00692971988977494   -9.762387392988294e-05
-0.008831859487775706   -0.007039469968083211   -0.00014068413977562776
-0.008918772489795905   -0.0007953998451474664   -7.588928990413973e-05
-0.012533334005349174   -0.007072265641830713   -0.00023166660507629837
-0.008876599977083609   -0.0069861244390376585   -0.0001191388188236936
-0.008918772489795905   -0.0007953998451474664   -7.588928990413973e-05
-0.012598386157125538   -0.0007880107703562478   -0.00016550120263977088
-0.012533334005349174   -0.007072265641830713   -0.00023166660507629837
-0.01262652868112281   -0.0007408980127171497   -0.000163075365478537
-0.008876599977083609   -0.0069861244390376585   -0.0001191388188236936
-0.012573661127587015   -0.007024456974296747   -0.00021590525563870268
-0.01262652868112281   -0.0007408980127171497   -0.000163075365478537
-0.012533334005349174   -0.007072265641830713   -0.00023166660507629837
-0.008876599977083609   -0.0069861244390376585   -0.0001191388188236936
-0.01262652868112281   -0.0007408980127171497   -0.000163075365478537
-0.00896039214344115   -0.00074268759156503   -7.025972139151878e-05
-0.008918772489795905   -0.0007953998451474664   -7.588928990413973e-05
-0.008876599977083609   -0.0069861244390376585   -0.0001191388188236936
-0.01262652868112281   -0.0007408980127171497   -0.000163075365478537
-0.008918772489795905   -0.0007953998451474664   -7.588928990413973e-05
-0.012533334005349174   -0.007072265641830713   -0.00023166660507629837
-0.008876599977083609   -0.0069861244390376585   -0.0001191388188236936
-0.00896039214344115   -0.00074268759156503   -7.025972139151878e-05
-0.012573661127587015   -0.007024456974296747   -0.00021590525563870268
-0.008919487278056118   -0.00692971988977494   -9.762387392988294e-05
-0.00896039214344115   -0.00074268759156503   -7.025972139151878e-05
-0.01262652868112281   -0.0007408980127171497   -0.000163075365478537
-0.012573661127587015   -0.007024456974296747   -0.00021590525563870268
-0.012655882045600225   -0.0006882951960623143   -0.00016130056547521707
-0.008919487278056118   -0.00692971988977494   -9.762387392988294e-05
-0.012609600895204926   -0.006972301515727005   -0.00020055705644376546
-0.012655882045600225   -0.0006882951960623143   -0.00016130056547521707
-0.012573661127587015   -0.007024456974296747   -0.00021590525563870268
-0.008919487278056118   -0.00692971988977494   -9.762387392988294e-05
-0.012655882045600225   -0.0006882951960623143   -0.00016130056547521707
-0.009003690677299564   -0.0006813371487000123   -6.0439366781589816e-05
-0.00896039214344115   -0.00074268759156503   -7.025972139151878e-05
-0.008919487278056118   -0.00692971988977494   -9.762387392988294e-05
-0.012655882045600225   -0.0006882951960623143   -0.00016130056547521707
-0.00896039214344115   -0.00074268759156503   -7.025972139151878e-05
-0.012573661127587015   -0.007024456974296747   -0.00021590525563870268
-0.008919487278056118   -0.00692971988977494   -9.762387392988294e-05
-0.009003690677299564   -0.0006813371487000123   -6.0439366781589816e-05
-0.012609600895204926   -0.006972301515727005   -0.00020055705644376546
-0.00895906998257258   -0.006868601721143182   -7.415856297170656e-05
-0.009003690677299564   -0.0006813371487000123   -6.0439366781589816e-05
-0.012655882045600225   -0.0006882951960623143   -0.00016130056547521707
-0.012609600895204926   -0.006972301515727005   -0.00020055705644376546
-0.012678353382790586   -0.0006311733449005308   -0.00016029349054441874
-0.00895906998257258   -0.006868601721143182   -7.415856297170656e-05
-0.012642160618970829   -0.0069167415548326335   -0.00018471084800967004
-0.012678353382790586   -0.0006311733449005308   -0.00016029349054441874
-0.012609600895204926   -0.006972301515727005   -0.00020055705644376546
-0.00895906998257258   -0.006868601721143182   -7.415856297170656e-05
-0.012678353382790586   -0.0006311733449005308   -0.00016029349054441874
-0.009045040910318145   -0.0006064103199927447   -4.744500563874076e-05
-0.009003690677299564   -0.0006813371487000123   -6.0439366781589816e-05
-0.00895906998257258   -0.006868601721143182   -7.415856297170656e-05
-0.012678353382790586   -0.0006311733449005308   -0.00016029349054441874
-0.009003690677299564   -0.0006813371487000123   -6.0439366781589816e-05
-0.012609600895204926   -0.006972301515727005   -0.00020055705644376546
-0.012533334005349174   -0.007072265641830713   -0.00023166660507629837
-0.012598386157125538   -0.0007880107703562478   -0.00016550120263977088
-0.016367741254817308   -0.007075835806067493   -0.00030692015107937397
-0.012573661127587015   -0.007024456974296747   -0.00021590525563870268
-0.012598386157125538   -0.0007880107703562478   -0.00016550120263977088
-0.016380381405667603   -0.0007825521977999863   -0.0002538014756353103
-0.016367741254817308   -0.007075835806067493   -0.00030692015107937397
-0.016402997176062348   -0.0007315059568949376   -0.0002537052634464447
-0.012573661127587015   -0.007024456974296747   -0.00021590525563870268
-0.016402302125605304   -0.0070294764255839325   -0.0003000471645553343
-0.016402997176062348   -0.0007315059568949376   -0.0002537052634464447
-0.016367741254817308   -0.007075835806067493   -0.00030692015107937397
-0.012573661127587015   -0.007024456974296747   -0.00021590525563870268
-0.016402997176062348   -0.0007315059568949376   -0.0002537052634464447
-0.01262652868112281   -0.0007408980127171497   -0.000163075365478537
-0.012598386157125538   -0.0007880107703562478   -0.00016550120263977088
-0.012573661127587015   -0.007024456974296747   -0.00021590525563870268
-0.016402997176062348   -0.0007315059568949376   -0.0002537052634464447
-0.012598386157125538   -0.0007880107703562478   -0.00016550120263977088
-0.016367741254817308   -0.007075835806067493   -0.00030692015107937397
-0.012573661127587015   -0.007024456974296747   -0.00021590525563870268
-0.01262652868112281   -0.0007408980127171497   -0.000163075365478537
-0.016402302125605304   -0.0070294764255839325   -0.0003000471645553343
-0.012609600895204926   -0.006972301515727005   -0.00020055705644376546
-0.01262652868112281   -0.0007408980127171497   -0.000163075365478537
-0.016402997176062348   -0.0007315059568949376   -0.0002537052634464447
-0.016402302125605304   -0.0070294764255839325   -0.0003000471645553343
-0.01642780814459574   -0.0006803990763817267   -0.00025759802514694317
-0.012609600895204926   -0.006972301515727005   -0.00020055705644376546
-0.016433265749711542   -0.0069792690504127   -0.00029198912719598084
-0.01642780814459574   -0.0006803990763817267   -0.00025759802514694317
-0.016402302125605304   -0.0070294764255839325   -0.0003000471645553343
-0.012609600895204926   -0.006972301515727005   -0.00020055705644376546
-0.01642780814459574   -0.0006803990763817267   -0.00025759802514694317
-0.012655882045600225   -0.0006882951960623143   -0.00016130056547521707
-0.01262652868112281   -0.0007408980127171497   -0.000163075365478537
-0.012609600895204926   -0.006972301515727005   -0.00020055705644376546
-0.01642780814459574   -0.0006803990763817267   -0.00025759802514694317
-0.01262652868112281   -0.0007408980127171497   -0.000163075365478537
-0.016402302125605304   -0.0070294764255839325   -0.0003000471645553343
-0.012609600895204926   -0.006972301515727005   -0.00020055705644376546
-0.012655882045600225   -0.0006882951960623143   -0.00016130056547521707
-0.016433265749711542   -0.0069792690504127   -0.00029198912719598084
-0.012642160618970829   -0.0069167415548326335   -0.00018471084800967004
-0.012655882045600225   -0.0006882951960623143   -0.00016130056547521707
-0.01642780814459574   -0.0006803990763817267   -0.00025759802514694317
-0.016433265749711542   -0.0069792690504127   -0.00029198912719598084
-0.01644614512459045   -0.0006246804644788426   -0.00026171083208470925
-0.012642160618970829   -0.0069167415548326335   -0.00018471084800967004
-0.016459190086472758   -0.00692612012115209   -0.000284427151339526
-0.01644614512459045   -0.0006246804644788426   -0.00026171083208470925
-0.016433265749711542   -0.0069792690504127   -0.00029198912719598084
-0.012642160618970829   -0.0069167415548326335   -0.00018471084800967004
-0.01644614512459045   -0.0006246804644788426   -0.00026171083208470925
-0.012678353382790586   -0.0006311733449005308   -0.00016029349054441874
-0.012655882045600225   -0.0006882951960623143   -0.00016130056547521707
-0.012642160618970829   -0.0069167415548326335   -0.00018471084800967004
-0.01644614512459045   -0.0006246804644788426   -0.00026171083208470925
-0.012655882045600225   -0.0006882951960623143   -0.00016130056547521707
-0.016433265749711542   -0.0069792690504127   -0.00029198912719598084
              </DataArray>   
          </PointData>  
       </Piece>  
   </UnstructuredGrid> 
</VTKFile> 
